 <VTKFile type="UnstructuredGrid"  version="0.1"   >
 <UnstructuredGrid>
 <Piece  NumberOfPoints="          1600 "  NumberOfCells="         1024 ">
 <Points>
 <DataArray  type="Float64" NumberOfComponents="3"  format="ascii" >
   0.0000000000000000        0.0000000000000000        0.0000000000000000     
   3.1250000000000000E-002   0.0000000000000000        0.0000000000000000     
   6.2500000000000000E-002   0.0000000000000000        0.0000000000000000     
   9.3750000000000000E-002   0.0000000000000000        0.0000000000000000     
  0.12500000000000000        0.0000000000000000        0.0000000000000000     
   0.0000000000000000        3.1250000000000000E-002   0.0000000000000000     
   3.1250000000000000E-002   3.1250000000000000E-002   0.0000000000000000     
   6.2500000000000000E-002   3.1250000000000000E-002   0.0000000000000000     
   9.3750000000000000E-002   3.1250000000000000E-002   0.0000000000000000     
  0.12500000000000000        3.1250000000000000E-002   0.0000000000000000     
   0.0000000000000000        6.2500000000000000E-002   0.0000000000000000     
   3.1250000000000000E-002   6.2500000000000000E-002   0.0000000000000000     
   6.2500000000000000E-002   6.2500000000000000E-002   0.0000000000000000     
   9.3750000000000000E-002   6.2500000000000000E-002   0.0000000000000000     
  0.12500000000000000        6.2500000000000000E-002   0.0000000000000000     
   0.0000000000000000        9.3750000000000000E-002   0.0000000000000000     
   3.1250000000000000E-002   9.3750000000000000E-002   0.0000000000000000     
   6.2500000000000000E-002   9.3750000000000000E-002   0.0000000000000000     
   9.3750000000000000E-002   9.3750000000000000E-002   0.0000000000000000     
  0.12500000000000000        9.3750000000000000E-002   0.0000000000000000     
   0.0000000000000000       0.12500000000000000        0.0000000000000000     
   3.1250000000000000E-002  0.12500000000000000        0.0000000000000000     
   6.2500000000000000E-002  0.12500000000000000        0.0000000000000000     
   9.3750000000000000E-002  0.12500000000000000        0.0000000000000000     
  0.12500000000000000       0.12500000000000000        0.0000000000000000     
  0.12500000000000000        0.0000000000000000        0.0000000000000000     
  0.15625000000000000        0.0000000000000000        0.0000000000000000     
  0.18750000000000000        0.0000000000000000        0.0000000000000000     
  0.21875000000000000        0.0000000000000000        0.0000000000000000     
  0.25000000000000000        0.0000000000000000        0.0000000000000000     
  0.12500000000000000        3.1250000000000000E-002   0.0000000000000000     
  0.15625000000000000        3.1250000000000000E-002   0.0000000000000000     
  0.18750000000000000        3.1250000000000000E-002   0.0000000000000000     
  0.21875000000000000        3.1250000000000000E-002   0.0000000000000000     
  0.25000000000000000        3.1250000000000000E-002   0.0000000000000000     
  0.12500000000000000        6.2500000000000000E-002   0.0000000000000000     
  0.15625000000000000        6.2500000000000000E-002   0.0000000000000000     
  0.18750000000000000        6.2500000000000000E-002   0.0000000000000000     
  0.21875000000000000        6.2500000000000000E-002   0.0000000000000000     
  0.25000000000000000        6.2500000000000000E-002   0.0000000000000000     
  0.12500000000000000        9.3750000000000000E-002   0.0000000000000000     
  0.15625000000000000        9.3750000000000000E-002   0.0000000000000000     
  0.18750000000000000        9.3750000000000000E-002   0.0000000000000000     
  0.21875000000000000        9.3750000000000000E-002   0.0000000000000000     
  0.25000000000000000        9.3750000000000000E-002   0.0000000000000000     
  0.12500000000000000       0.12500000000000000        0.0000000000000000     
  0.15625000000000000       0.12500000000000000        0.0000000000000000     
  0.18750000000000000       0.12500000000000000        0.0000000000000000     
  0.21875000000000000       0.12500000000000000        0.0000000000000000     
  0.25000000000000000       0.12500000000000000        0.0000000000000000     
  0.25000000000000000        0.0000000000000000        0.0000000000000000     
  0.28125000000000000        0.0000000000000000        0.0000000000000000     
  0.31250000000000000        0.0000000000000000        0.0000000000000000     
  0.34375000000000000        0.0000000000000000        0.0000000000000000     
  0.37500000000000000        0.0000000000000000        0.0000000000000000     
  0.25000000000000000        3.1250000000000000E-002   0.0000000000000000     
  0.28125000000000000        3.1250000000000000E-002   0.0000000000000000     
  0.31250000000000000        3.1250000000000000E-002   0.0000000000000000     
  0.34375000000000000        3.1250000000000000E-002   0.0000000000000000     
  0.37500000000000000        3.1250000000000000E-002   0.0000000000000000     
  0.25000000000000000        6.2500000000000000E-002   0.0000000000000000     
  0.28125000000000000        6.2500000000000000E-002   0.0000000000000000     
  0.31250000000000000        6.2500000000000000E-002   0.0000000000000000     
  0.34375000000000000        6.2500000000000000E-002   0.0000000000000000     
  0.37500000000000000        6.2500000000000000E-002   0.0000000000000000     
  0.25000000000000000        9.3750000000000000E-002   0.0000000000000000     
  0.28125000000000000        9.3750000000000000E-002   0.0000000000000000     
  0.31250000000000000        9.3750000000000000E-002   0.0000000000000000     
  0.34375000000000000        9.3750000000000000E-002   0.0000000000000000     
  0.37500000000000000        9.3750000000000000E-002   0.0000000000000000     
  0.25000000000000000       0.12500000000000000        0.0000000000000000     
  0.28125000000000000       0.12500000000000000        0.0000000000000000     
  0.31250000000000000       0.12500000000000000        0.0000000000000000     
  0.34375000000000000       0.12500000000000000        0.0000000000000000     
  0.37500000000000000       0.12500000000000000        0.0000000000000000     
  0.37500000000000000        0.0000000000000000        0.0000000000000000     
  0.40625000000000000        0.0000000000000000        0.0000000000000000     
  0.43750000000000000        0.0000000000000000        0.0000000000000000     
  0.46875000000000000        0.0000000000000000        0.0000000000000000     
  0.50000000000000000        0.0000000000000000        0.0000000000000000     
  0.37500000000000000        3.1250000000000000E-002   0.0000000000000000     
  0.40625000000000000        3.1250000000000000E-002   0.0000000000000000     
  0.43750000000000000        3.1250000000000000E-002   0.0000000000000000     
  0.46875000000000000        3.1250000000000000E-002   0.0000000000000000     
  0.50000000000000000        3.1250000000000000E-002   0.0000000000000000     
  0.37500000000000000        6.2500000000000000E-002   0.0000000000000000     
  0.40625000000000000        6.2500000000000000E-002   0.0000000000000000     
  0.43750000000000000        6.2500000000000000E-002   0.0000000000000000     
  0.46875000000000000        6.2500000000000000E-002   0.0000000000000000     
  0.50000000000000000        6.2500000000000000E-002   0.0000000000000000     
  0.37500000000000000        9.3750000000000000E-002   0.0000000000000000     
  0.40625000000000000        9.3750000000000000E-002   0.0000000000000000     
  0.43750000000000000        9.3750000000000000E-002   0.0000000000000000     
  0.46875000000000000        9.3750000000000000E-002   0.0000000000000000     
  0.50000000000000000        9.3750000000000000E-002   0.0000000000000000     
  0.37500000000000000       0.12500000000000000        0.0000000000000000     
  0.40625000000000000       0.12500000000000000        0.0000000000000000     
  0.43750000000000000       0.12500000000000000        0.0000000000000000     
  0.46875000000000000       0.12500000000000000        0.0000000000000000     
  0.50000000000000000       0.12500000000000000        0.0000000000000000     
  0.50000000000000000        0.0000000000000000        0.0000000000000000     
  0.53125000000000000        0.0000000000000000        0.0000000000000000     
  0.56250000000000000        0.0000000000000000        0.0000000000000000     
  0.59375000000000000        0.0000000000000000        0.0000000000000000     
  0.62500000000000000        0.0000000000000000        0.0000000000000000     
  0.50000000000000000        3.1250000000000000E-002   0.0000000000000000     
  0.53125000000000000        3.1250000000000000E-002   0.0000000000000000     
  0.56250000000000000        3.1250000000000000E-002   0.0000000000000000     
  0.59375000000000000        3.1250000000000000E-002   0.0000000000000000     
  0.62500000000000000        3.1250000000000000E-002   0.0000000000000000     
  0.50000000000000000        6.2500000000000000E-002   0.0000000000000000     
  0.53125000000000000        6.2500000000000000E-002   0.0000000000000000     
  0.56250000000000000        6.2500000000000000E-002   0.0000000000000000     
  0.59375000000000000        6.2500000000000000E-002   0.0000000000000000     
  0.62500000000000000        6.2500000000000000E-002   0.0000000000000000     
  0.50000000000000000        9.3750000000000000E-002   0.0000000000000000     
  0.53125000000000000        9.3750000000000000E-002   0.0000000000000000     
  0.56250000000000000        9.3750000000000000E-002   0.0000000000000000     
  0.59375000000000000        9.3750000000000000E-002   0.0000000000000000     
  0.62500000000000000        9.3750000000000000E-002   0.0000000000000000     
  0.50000000000000000       0.12500000000000000        0.0000000000000000     
  0.53125000000000000       0.12500000000000000        0.0000000000000000     
  0.56250000000000000       0.12500000000000000        0.0000000000000000     
  0.59375000000000000       0.12500000000000000        0.0000000000000000     
  0.62500000000000000       0.12500000000000000        0.0000000000000000     
  0.62500000000000000        0.0000000000000000        0.0000000000000000     
  0.65625000000000000        0.0000000000000000        0.0000000000000000     
  0.68750000000000000        0.0000000000000000        0.0000000000000000     
  0.71875000000000000        0.0000000000000000        0.0000000000000000     
  0.75000000000000000        0.0000000000000000        0.0000000000000000     
  0.62500000000000000        3.1250000000000000E-002   0.0000000000000000     
  0.65625000000000000        3.1250000000000000E-002   0.0000000000000000     
  0.68750000000000000        3.1250000000000000E-002   0.0000000000000000     
  0.71875000000000000        3.1250000000000000E-002   0.0000000000000000     
  0.75000000000000000        3.1250000000000000E-002   0.0000000000000000     
  0.62500000000000000        6.2500000000000000E-002   0.0000000000000000     
  0.65625000000000000        6.2500000000000000E-002   0.0000000000000000     
  0.68750000000000000        6.2500000000000000E-002   0.0000000000000000     
  0.71875000000000000        6.2500000000000000E-002   0.0000000000000000     
  0.75000000000000000        6.2500000000000000E-002   0.0000000000000000     
  0.62500000000000000        9.3750000000000000E-002   0.0000000000000000     
  0.65625000000000000        9.3750000000000000E-002   0.0000000000000000     
  0.68750000000000000        9.3750000000000000E-002   0.0000000000000000     
  0.71875000000000000        9.3750000000000000E-002   0.0000000000000000     
  0.75000000000000000        9.3750000000000000E-002   0.0000000000000000     
  0.62500000000000000       0.12500000000000000        0.0000000000000000     
  0.65625000000000000       0.12500000000000000        0.0000000000000000     
  0.68750000000000000       0.12500000000000000        0.0000000000000000     
  0.71875000000000000       0.12500000000000000        0.0000000000000000     
  0.75000000000000000       0.12500000000000000        0.0000000000000000     
  0.75000000000000000        0.0000000000000000        0.0000000000000000     
  0.78125000000000000        0.0000000000000000        0.0000000000000000     
  0.81250000000000000        0.0000000000000000        0.0000000000000000     
  0.84375000000000000        0.0000000000000000        0.0000000000000000     
  0.87500000000000000        0.0000000000000000        0.0000000000000000     
  0.75000000000000000        3.1250000000000000E-002   0.0000000000000000     
  0.78125000000000000        3.1250000000000000E-002   0.0000000000000000     
  0.81250000000000000        3.1250000000000000E-002   0.0000000000000000     
  0.84375000000000000        3.1250000000000000E-002   0.0000000000000000     
  0.87500000000000000        3.1250000000000000E-002   0.0000000000000000     
  0.75000000000000000        6.2500000000000000E-002   0.0000000000000000     
  0.78125000000000000        6.2500000000000000E-002   0.0000000000000000     
  0.81250000000000000        6.2500000000000000E-002   0.0000000000000000     
  0.84375000000000000        6.2500000000000000E-002   0.0000000000000000     
  0.87500000000000000        6.2500000000000000E-002   0.0000000000000000     
  0.75000000000000000        9.3750000000000000E-002   0.0000000000000000     
  0.78125000000000000        9.3750000000000000E-002   0.0000000000000000     
  0.81250000000000000        9.3750000000000000E-002   0.0000000000000000     
  0.84375000000000000        9.3750000000000000E-002   0.0000000000000000     
  0.87500000000000000        9.3750000000000000E-002   0.0000000000000000     
  0.75000000000000000       0.12500000000000000        0.0000000000000000     
  0.78125000000000000       0.12500000000000000        0.0000000000000000     
  0.81250000000000000       0.12500000000000000        0.0000000000000000     
  0.84375000000000000       0.12500000000000000        0.0000000000000000     
  0.87500000000000000       0.12500000000000000        0.0000000000000000     
  0.87500000000000000        0.0000000000000000        0.0000000000000000     
  0.90625000000000000        0.0000000000000000        0.0000000000000000     
  0.93750000000000000        0.0000000000000000        0.0000000000000000     
  0.96875000000000000        0.0000000000000000        0.0000000000000000     
   1.0000000000000000        0.0000000000000000        0.0000000000000000     
  0.87500000000000000        3.1250000000000000E-002   0.0000000000000000     
  0.90625000000000000        3.1250000000000000E-002   0.0000000000000000     
  0.93750000000000000        3.1250000000000000E-002   0.0000000000000000     
  0.96875000000000000        3.1250000000000000E-002   0.0000000000000000     
   1.0000000000000000        3.1250000000000000E-002   0.0000000000000000     
  0.87500000000000000        6.2500000000000000E-002   0.0000000000000000     
  0.90625000000000000        6.2500000000000000E-002   0.0000000000000000     
  0.93750000000000000        6.2500000000000000E-002   0.0000000000000000     
  0.96875000000000000        6.2500000000000000E-002   0.0000000000000000     
   1.0000000000000000        6.2500000000000000E-002   0.0000000000000000     
  0.87500000000000000        9.3750000000000000E-002   0.0000000000000000     
  0.90625000000000000        9.3750000000000000E-002   0.0000000000000000     
  0.93750000000000000        9.3750000000000000E-002   0.0000000000000000     
  0.96875000000000000        9.3750000000000000E-002   0.0000000000000000     
   1.0000000000000000        9.3750000000000000E-002   0.0000000000000000     
  0.87500000000000000       0.12500000000000000        0.0000000000000000     
  0.90625000000000000       0.12500000000000000        0.0000000000000000     
  0.93750000000000000       0.12500000000000000        0.0000000000000000     
  0.96875000000000000       0.12500000000000000        0.0000000000000000     
   1.0000000000000000       0.12500000000000000        0.0000000000000000     
   0.0000000000000000       0.12500000000000000        0.0000000000000000     
   3.1250000000000000E-002  0.12500000000000000        0.0000000000000000     
   6.2500000000000000E-002  0.12500000000000000        0.0000000000000000     
   9.3750000000000000E-002  0.12500000000000000        0.0000000000000000     
  0.12500000000000000       0.12500000000000000        0.0000000000000000     
   0.0000000000000000       0.15625000000000000        0.0000000000000000     
   3.1250000000000000E-002  0.15625000000000000        0.0000000000000000     
   6.2500000000000000E-002  0.15625000000000000        0.0000000000000000     
   9.3750000000000000E-002  0.15625000000000000        0.0000000000000000     
  0.12500000000000000       0.15625000000000000        0.0000000000000000     
   0.0000000000000000       0.18750000000000000        0.0000000000000000     
   3.1250000000000000E-002  0.18750000000000000        0.0000000000000000     
   6.2500000000000000E-002  0.18750000000000000        0.0000000000000000     
   9.3750000000000000E-002  0.18750000000000000        0.0000000000000000     
  0.12500000000000000       0.18750000000000000        0.0000000000000000     
   0.0000000000000000       0.21875000000000000        0.0000000000000000     
   3.1250000000000000E-002  0.21875000000000000        0.0000000000000000     
   6.2500000000000000E-002  0.21875000000000000        0.0000000000000000     
   9.3750000000000000E-002  0.21875000000000000        0.0000000000000000     
  0.12500000000000000       0.21875000000000000        0.0000000000000000     
   0.0000000000000000       0.25000000000000000        0.0000000000000000     
   3.1250000000000000E-002  0.25000000000000000        0.0000000000000000     
   6.2500000000000000E-002  0.25000000000000000        0.0000000000000000     
   9.3750000000000000E-002  0.25000000000000000        0.0000000000000000     
  0.12500000000000000       0.25000000000000000        0.0000000000000000     
  0.12500000000000000       0.12500000000000000        0.0000000000000000     
  0.15625000000000000       0.12500000000000000        0.0000000000000000     
  0.18750000000000000       0.12500000000000000        0.0000000000000000     
  0.21875000000000000       0.12500000000000000        0.0000000000000000     
  0.25000000000000000       0.12500000000000000        0.0000000000000000     
  0.12500000000000000       0.15625000000000000        0.0000000000000000     
  0.15625000000000000       0.15625000000000000        0.0000000000000000     
  0.18750000000000000       0.15625000000000000        0.0000000000000000     
  0.21875000000000000       0.15625000000000000        0.0000000000000000     
  0.25000000000000000       0.15625000000000000        0.0000000000000000     
  0.12500000000000000       0.18750000000000000        0.0000000000000000     
  0.15625000000000000       0.18750000000000000        0.0000000000000000     
  0.18750000000000000       0.18750000000000000        0.0000000000000000     
  0.21875000000000000       0.18750000000000000        0.0000000000000000     
  0.25000000000000000       0.18750000000000000        0.0000000000000000     
  0.12500000000000000       0.21875000000000000        0.0000000000000000     
  0.15625000000000000       0.21875000000000000        0.0000000000000000     
  0.18750000000000000       0.21875000000000000        0.0000000000000000     
  0.21875000000000000       0.21875000000000000        0.0000000000000000     
  0.25000000000000000       0.21875000000000000        0.0000000000000000     
  0.12500000000000000       0.25000000000000000        0.0000000000000000     
  0.15625000000000000       0.25000000000000000        0.0000000000000000     
  0.18750000000000000       0.25000000000000000        0.0000000000000000     
  0.21875000000000000       0.25000000000000000        0.0000000000000000     
  0.25000000000000000       0.25000000000000000        0.0000000000000000     
  0.25000000000000000       0.12500000000000000        0.0000000000000000     
  0.28125000000000000       0.12500000000000000        0.0000000000000000     
  0.31250000000000000       0.12500000000000000        0.0000000000000000     
  0.34375000000000000       0.12500000000000000        0.0000000000000000     
  0.37500000000000000       0.12500000000000000        0.0000000000000000     
  0.25000000000000000       0.15625000000000000        0.0000000000000000     
  0.28125000000000000       0.15625000000000000        0.0000000000000000     
  0.31250000000000000       0.15625000000000000        0.0000000000000000     
  0.34375000000000000       0.15625000000000000        0.0000000000000000     
  0.37500000000000000       0.15625000000000000        0.0000000000000000     
  0.25000000000000000       0.18750000000000000        0.0000000000000000     
  0.28125000000000000       0.18750000000000000        0.0000000000000000     
  0.31250000000000000       0.18750000000000000        0.0000000000000000     
  0.34375000000000000       0.18750000000000000        0.0000000000000000     
  0.37500000000000000       0.18750000000000000        0.0000000000000000     
  0.25000000000000000       0.21875000000000000        0.0000000000000000     
  0.28125000000000000       0.21875000000000000        0.0000000000000000     
  0.31250000000000000       0.21875000000000000        0.0000000000000000     
  0.34375000000000000       0.21875000000000000        0.0000000000000000     
  0.37500000000000000       0.21875000000000000        0.0000000000000000     
  0.25000000000000000       0.25000000000000000        0.0000000000000000     
  0.28125000000000000       0.25000000000000000        0.0000000000000000     
  0.31250000000000000       0.25000000000000000        0.0000000000000000     
  0.34375000000000000       0.25000000000000000        0.0000000000000000     
  0.37500000000000000       0.25000000000000000        0.0000000000000000     
  0.37500000000000000       0.12500000000000000        0.0000000000000000     
  0.40625000000000000       0.12500000000000000        0.0000000000000000     
  0.43750000000000000       0.12500000000000000        0.0000000000000000     
  0.46875000000000000       0.12500000000000000        0.0000000000000000     
  0.50000000000000000       0.12500000000000000        0.0000000000000000     
  0.37500000000000000       0.15625000000000000        0.0000000000000000     
  0.40625000000000000       0.15625000000000000        0.0000000000000000     
  0.43750000000000000       0.15625000000000000        0.0000000000000000     
  0.46875000000000000       0.15625000000000000        0.0000000000000000     
  0.50000000000000000       0.15625000000000000        0.0000000000000000     
  0.37500000000000000       0.18750000000000000        0.0000000000000000     
  0.40625000000000000       0.18750000000000000        0.0000000000000000     
  0.43750000000000000       0.18750000000000000        0.0000000000000000     
  0.46875000000000000       0.18750000000000000        0.0000000000000000     
  0.50000000000000000       0.18750000000000000        0.0000000000000000     
  0.37500000000000000       0.21875000000000000        0.0000000000000000     
  0.40625000000000000       0.21875000000000000        0.0000000000000000     
  0.43750000000000000       0.21875000000000000        0.0000000000000000     
  0.46875000000000000       0.21875000000000000        0.0000000000000000     
  0.50000000000000000       0.21875000000000000        0.0000000000000000     
  0.37500000000000000       0.25000000000000000        0.0000000000000000     
  0.40625000000000000       0.25000000000000000        0.0000000000000000     
  0.43750000000000000       0.25000000000000000        0.0000000000000000     
  0.46875000000000000       0.25000000000000000        0.0000000000000000     
  0.50000000000000000       0.25000000000000000        0.0000000000000000     
  0.50000000000000000       0.12500000000000000        0.0000000000000000     
  0.53125000000000000       0.12500000000000000        0.0000000000000000     
  0.56250000000000000       0.12500000000000000        0.0000000000000000     
  0.59375000000000000       0.12500000000000000        0.0000000000000000     
  0.62500000000000000       0.12500000000000000        0.0000000000000000     
  0.50000000000000000       0.15625000000000000        0.0000000000000000     
  0.53125000000000000       0.15625000000000000        0.0000000000000000     
  0.56250000000000000       0.15625000000000000        0.0000000000000000     
  0.59375000000000000       0.15625000000000000        0.0000000000000000     
  0.62500000000000000       0.15625000000000000        0.0000000000000000     
  0.50000000000000000       0.18750000000000000        0.0000000000000000     
  0.53125000000000000       0.18750000000000000        0.0000000000000000     
  0.56250000000000000       0.18750000000000000        0.0000000000000000     
  0.59375000000000000       0.18750000000000000        0.0000000000000000     
  0.62500000000000000       0.18750000000000000        0.0000000000000000     
  0.50000000000000000       0.21875000000000000        0.0000000000000000     
  0.53125000000000000       0.21875000000000000        0.0000000000000000     
  0.56250000000000000       0.21875000000000000        0.0000000000000000     
  0.59375000000000000       0.21875000000000000        0.0000000000000000     
  0.62500000000000000       0.21875000000000000        0.0000000000000000     
  0.50000000000000000       0.25000000000000000        0.0000000000000000     
  0.53125000000000000       0.25000000000000000        0.0000000000000000     
  0.56250000000000000       0.25000000000000000        0.0000000000000000     
  0.59375000000000000       0.25000000000000000        0.0000000000000000     
  0.62500000000000000       0.25000000000000000        0.0000000000000000     
  0.62500000000000000       0.12500000000000000        0.0000000000000000     
  0.65625000000000000       0.12500000000000000        0.0000000000000000     
  0.68750000000000000       0.12500000000000000        0.0000000000000000     
  0.71875000000000000       0.12500000000000000        0.0000000000000000     
  0.75000000000000000       0.12500000000000000        0.0000000000000000     
  0.62500000000000000       0.15625000000000000        0.0000000000000000     
  0.65625000000000000       0.15625000000000000        0.0000000000000000     
  0.68750000000000000       0.15625000000000000        0.0000000000000000     
  0.71875000000000000       0.15625000000000000        0.0000000000000000     
  0.75000000000000000       0.15625000000000000        0.0000000000000000     
  0.62500000000000000       0.18750000000000000        0.0000000000000000     
  0.65625000000000000       0.18750000000000000        0.0000000000000000     
  0.68750000000000000       0.18750000000000000        0.0000000000000000     
  0.71875000000000000       0.18750000000000000        0.0000000000000000     
  0.75000000000000000       0.18750000000000000        0.0000000000000000     
  0.62500000000000000       0.21875000000000000        0.0000000000000000     
  0.65625000000000000       0.21875000000000000        0.0000000000000000     
  0.68750000000000000       0.21875000000000000        0.0000000000000000     
  0.71875000000000000       0.21875000000000000        0.0000000000000000     
  0.75000000000000000       0.21875000000000000        0.0000000000000000     
  0.62500000000000000       0.25000000000000000        0.0000000000000000     
  0.65625000000000000       0.25000000000000000        0.0000000000000000     
  0.68750000000000000       0.25000000000000000        0.0000000000000000     
  0.71875000000000000       0.25000000000000000        0.0000000000000000     
  0.75000000000000000       0.25000000000000000        0.0000000000000000     
  0.75000000000000000       0.12500000000000000        0.0000000000000000     
  0.78125000000000000       0.12500000000000000        0.0000000000000000     
  0.81250000000000000       0.12500000000000000        0.0000000000000000     
  0.84375000000000000       0.12500000000000000        0.0000000000000000     
  0.87500000000000000       0.12500000000000000        0.0000000000000000     
  0.75000000000000000       0.15625000000000000        0.0000000000000000     
  0.78125000000000000       0.15625000000000000        0.0000000000000000     
  0.81250000000000000       0.15625000000000000        0.0000000000000000     
  0.84375000000000000       0.15625000000000000        0.0000000000000000     
  0.87500000000000000       0.15625000000000000        0.0000000000000000     
  0.75000000000000000       0.18750000000000000        0.0000000000000000     
  0.78125000000000000       0.18750000000000000        0.0000000000000000     
  0.81250000000000000       0.18750000000000000        0.0000000000000000     
  0.84375000000000000       0.18750000000000000        0.0000000000000000     
  0.87500000000000000       0.18750000000000000        0.0000000000000000     
  0.75000000000000000       0.21875000000000000        0.0000000000000000     
  0.78125000000000000       0.21875000000000000        0.0000000000000000     
  0.81250000000000000       0.21875000000000000        0.0000000000000000     
  0.84375000000000000       0.21875000000000000        0.0000000000000000     
  0.87500000000000000       0.21875000000000000        0.0000000000000000     
  0.75000000000000000       0.25000000000000000        0.0000000000000000     
  0.78125000000000000       0.25000000000000000        0.0000000000000000     
  0.81250000000000000       0.25000000000000000        0.0000000000000000     
  0.84375000000000000       0.25000000000000000        0.0000000000000000     
  0.87500000000000000       0.25000000000000000        0.0000000000000000     
  0.87500000000000000       0.12500000000000000        0.0000000000000000     
  0.90625000000000000       0.12500000000000000        0.0000000000000000     
  0.93750000000000000       0.12500000000000000        0.0000000000000000     
  0.96875000000000000       0.12500000000000000        0.0000000000000000     
   1.0000000000000000       0.12500000000000000        0.0000000000000000     
  0.87500000000000000       0.15625000000000000        0.0000000000000000     
  0.90625000000000000       0.15625000000000000        0.0000000000000000     
  0.93750000000000000       0.15625000000000000        0.0000000000000000     
  0.96875000000000000       0.15625000000000000        0.0000000000000000     
   1.0000000000000000       0.15625000000000000        0.0000000000000000     
  0.87500000000000000       0.18750000000000000        0.0000000000000000     
  0.90625000000000000       0.18750000000000000        0.0000000000000000     
  0.93750000000000000       0.18750000000000000        0.0000000000000000     
  0.96875000000000000       0.18750000000000000        0.0000000000000000     
   1.0000000000000000       0.18750000000000000        0.0000000000000000     
  0.87500000000000000       0.21875000000000000        0.0000000000000000     
  0.90625000000000000       0.21875000000000000        0.0000000000000000     
  0.93750000000000000       0.21875000000000000        0.0000000000000000     
  0.96875000000000000       0.21875000000000000        0.0000000000000000     
   1.0000000000000000       0.21875000000000000        0.0000000000000000     
  0.87500000000000000       0.25000000000000000        0.0000000000000000     
  0.90625000000000000       0.25000000000000000        0.0000000000000000     
  0.93750000000000000       0.25000000000000000        0.0000000000000000     
  0.96875000000000000       0.25000000000000000        0.0000000000000000     
   1.0000000000000000       0.25000000000000000        0.0000000000000000     
   0.0000000000000000       0.25000000000000000        0.0000000000000000     
   3.1250000000000000E-002  0.25000000000000000        0.0000000000000000     
   6.2500000000000000E-002  0.25000000000000000        0.0000000000000000     
   9.3750000000000000E-002  0.25000000000000000        0.0000000000000000     
  0.12500000000000000       0.25000000000000000        0.0000000000000000     
   0.0000000000000000       0.28125000000000000        0.0000000000000000     
   3.1250000000000000E-002  0.28125000000000000        0.0000000000000000     
   6.2500000000000000E-002  0.28125000000000000        0.0000000000000000     
   9.3750000000000000E-002  0.28125000000000000        0.0000000000000000     
  0.12500000000000000       0.28125000000000000        0.0000000000000000     
   0.0000000000000000       0.31250000000000000        0.0000000000000000     
   3.1250000000000000E-002  0.31250000000000000        0.0000000000000000     
   6.2500000000000000E-002  0.31250000000000000        0.0000000000000000     
   9.3750000000000000E-002  0.31250000000000000        0.0000000000000000     
  0.12500000000000000       0.31250000000000000        0.0000000000000000     
   0.0000000000000000       0.34375000000000000        0.0000000000000000     
   3.1250000000000000E-002  0.34375000000000000        0.0000000000000000     
   6.2500000000000000E-002  0.34375000000000000        0.0000000000000000     
   9.3750000000000000E-002  0.34375000000000000        0.0000000000000000     
  0.12500000000000000       0.34375000000000000        0.0000000000000000     
   0.0000000000000000       0.37500000000000000        0.0000000000000000     
   3.1250000000000000E-002  0.37500000000000000        0.0000000000000000     
   6.2500000000000000E-002  0.37500000000000000        0.0000000000000000     
   9.3750000000000000E-002  0.37500000000000000        0.0000000000000000     
  0.12500000000000000       0.37500000000000000        0.0000000000000000     
  0.12500000000000000       0.25000000000000000        0.0000000000000000     
  0.15625000000000000       0.25000000000000000        0.0000000000000000     
  0.18750000000000000       0.25000000000000000        0.0000000000000000     
  0.21875000000000000       0.25000000000000000        0.0000000000000000     
  0.25000000000000000       0.25000000000000000        0.0000000000000000     
  0.12500000000000000       0.28125000000000000        0.0000000000000000     
  0.15625000000000000       0.28125000000000000        0.0000000000000000     
  0.18750000000000000       0.28125000000000000        0.0000000000000000     
  0.21875000000000000       0.28125000000000000        0.0000000000000000     
  0.25000000000000000       0.28125000000000000        0.0000000000000000     
  0.12500000000000000       0.31250000000000000        0.0000000000000000     
  0.15625000000000000       0.31250000000000000        0.0000000000000000     
  0.18750000000000000       0.31250000000000000        0.0000000000000000     
  0.21875000000000000       0.31250000000000000        0.0000000000000000     
  0.25000000000000000       0.31250000000000000        0.0000000000000000     
  0.12500000000000000       0.34375000000000000        0.0000000000000000     
  0.15625000000000000       0.34375000000000000        0.0000000000000000     
  0.18750000000000000       0.34375000000000000        0.0000000000000000     
  0.21875000000000000       0.34375000000000000        0.0000000000000000     
  0.25000000000000000       0.34375000000000000        0.0000000000000000     
  0.12500000000000000       0.37500000000000000        0.0000000000000000     
  0.15625000000000000       0.37500000000000000        0.0000000000000000     
  0.18750000000000000       0.37500000000000000        0.0000000000000000     
  0.21875000000000000       0.37500000000000000        0.0000000000000000     
  0.25000000000000000       0.37500000000000000        0.0000000000000000     
  0.25000000000000000       0.25000000000000000        0.0000000000000000     
  0.28125000000000000       0.25000000000000000        0.0000000000000000     
  0.31250000000000000       0.25000000000000000        0.0000000000000000     
  0.34375000000000000       0.25000000000000000        0.0000000000000000     
  0.37500000000000000       0.25000000000000000        0.0000000000000000     
  0.25000000000000000       0.28125000000000000        0.0000000000000000     
  0.28125000000000000       0.28125000000000000        0.0000000000000000     
  0.31250000000000000       0.28125000000000000        0.0000000000000000     
  0.34375000000000000       0.28125000000000000        0.0000000000000000     
  0.37500000000000000       0.28125000000000000        0.0000000000000000     
  0.25000000000000000       0.31250000000000000        0.0000000000000000     
  0.28125000000000000       0.31250000000000000        0.0000000000000000     
  0.31250000000000000       0.31250000000000000        0.0000000000000000     
  0.34375000000000000       0.31250000000000000        0.0000000000000000     
  0.37500000000000000       0.31250000000000000        0.0000000000000000     
  0.25000000000000000       0.34375000000000000        0.0000000000000000     
  0.28125000000000000       0.34375000000000000        0.0000000000000000     
  0.31250000000000000       0.34375000000000000        0.0000000000000000     
  0.34375000000000000       0.34375000000000000        0.0000000000000000     
  0.37500000000000000       0.34375000000000000        0.0000000000000000     
  0.25000000000000000       0.37500000000000000        0.0000000000000000     
  0.28125000000000000       0.37500000000000000        0.0000000000000000     
  0.31250000000000000       0.37500000000000000        0.0000000000000000     
  0.34375000000000000       0.37500000000000000        0.0000000000000000     
  0.37500000000000000       0.37500000000000000        0.0000000000000000     
  0.37500000000000000       0.25000000000000000        0.0000000000000000     
  0.40625000000000000       0.25000000000000000        0.0000000000000000     
  0.43750000000000000       0.25000000000000000        0.0000000000000000     
  0.46875000000000000       0.25000000000000000        0.0000000000000000     
  0.50000000000000000       0.25000000000000000        0.0000000000000000     
  0.37500000000000000       0.28125000000000000        0.0000000000000000     
  0.40625000000000000       0.28125000000000000        0.0000000000000000     
  0.43750000000000000       0.28125000000000000        0.0000000000000000     
  0.46875000000000000       0.28125000000000000        0.0000000000000000     
  0.50000000000000000       0.28125000000000000        0.0000000000000000     
  0.37500000000000000       0.31250000000000000        0.0000000000000000     
  0.40625000000000000       0.31250000000000000        0.0000000000000000     
  0.43750000000000000       0.31250000000000000        0.0000000000000000     
  0.46875000000000000       0.31250000000000000        0.0000000000000000     
  0.50000000000000000       0.31250000000000000        0.0000000000000000     
  0.37500000000000000       0.34375000000000000        0.0000000000000000     
  0.40625000000000000       0.34375000000000000        0.0000000000000000     
  0.43750000000000000       0.34375000000000000        0.0000000000000000     
  0.46875000000000000       0.34375000000000000        0.0000000000000000     
  0.50000000000000000       0.34375000000000000        0.0000000000000000     
  0.37500000000000000       0.37500000000000000        0.0000000000000000     
  0.40625000000000000       0.37500000000000000        0.0000000000000000     
  0.43750000000000000       0.37500000000000000        0.0000000000000000     
  0.46875000000000000       0.37500000000000000        0.0000000000000000     
  0.50000000000000000       0.37500000000000000        0.0000000000000000     
  0.50000000000000000       0.25000000000000000        0.0000000000000000     
  0.53125000000000000       0.25000000000000000        0.0000000000000000     
  0.56250000000000000       0.25000000000000000        0.0000000000000000     
  0.59375000000000000       0.25000000000000000        0.0000000000000000     
  0.62500000000000000       0.25000000000000000        0.0000000000000000     
  0.50000000000000000       0.28125000000000000        0.0000000000000000     
  0.53125000000000000       0.28125000000000000        0.0000000000000000     
  0.56250000000000000       0.28125000000000000        0.0000000000000000     
  0.59375000000000000       0.28125000000000000        0.0000000000000000     
  0.62500000000000000       0.28125000000000000        0.0000000000000000     
  0.50000000000000000       0.31250000000000000        0.0000000000000000     
  0.53125000000000000       0.31250000000000000        0.0000000000000000     
  0.56250000000000000       0.31250000000000000        0.0000000000000000     
  0.59375000000000000       0.31250000000000000        0.0000000000000000     
  0.62500000000000000       0.31250000000000000        0.0000000000000000     
  0.50000000000000000       0.34375000000000000        0.0000000000000000     
  0.53125000000000000       0.34375000000000000        0.0000000000000000     
  0.56250000000000000       0.34375000000000000        0.0000000000000000     
  0.59375000000000000       0.34375000000000000        0.0000000000000000     
  0.62500000000000000       0.34375000000000000        0.0000000000000000     
  0.50000000000000000       0.37500000000000000        0.0000000000000000     
  0.53125000000000000       0.37500000000000000        0.0000000000000000     
  0.56250000000000000       0.37500000000000000        0.0000000000000000     
  0.59375000000000000       0.37500000000000000        0.0000000000000000     
  0.62500000000000000       0.37500000000000000        0.0000000000000000     
  0.62500000000000000       0.25000000000000000        0.0000000000000000     
  0.65625000000000000       0.25000000000000000        0.0000000000000000     
  0.68750000000000000       0.25000000000000000        0.0000000000000000     
  0.71875000000000000       0.25000000000000000        0.0000000000000000     
  0.75000000000000000       0.25000000000000000        0.0000000000000000     
  0.62500000000000000       0.28125000000000000        0.0000000000000000     
  0.65625000000000000       0.28125000000000000        0.0000000000000000     
  0.68750000000000000       0.28125000000000000        0.0000000000000000     
  0.71875000000000000       0.28125000000000000        0.0000000000000000     
  0.75000000000000000       0.28125000000000000        0.0000000000000000     
  0.62500000000000000       0.31250000000000000        0.0000000000000000     
  0.65625000000000000       0.31250000000000000        0.0000000000000000     
  0.68750000000000000       0.31250000000000000        0.0000000000000000     
  0.71875000000000000       0.31250000000000000        0.0000000000000000     
  0.75000000000000000       0.31250000000000000        0.0000000000000000     
  0.62500000000000000       0.34375000000000000        0.0000000000000000     
  0.65625000000000000       0.34375000000000000        0.0000000000000000     
  0.68750000000000000       0.34375000000000000        0.0000000000000000     
  0.71875000000000000       0.34375000000000000        0.0000000000000000     
  0.75000000000000000       0.34375000000000000        0.0000000000000000     
  0.62500000000000000       0.37500000000000000        0.0000000000000000     
  0.65625000000000000       0.37500000000000000        0.0000000000000000     
  0.68750000000000000       0.37500000000000000        0.0000000000000000     
  0.71875000000000000       0.37500000000000000        0.0000000000000000     
  0.75000000000000000       0.37500000000000000        0.0000000000000000     
  0.75000000000000000       0.25000000000000000        0.0000000000000000     
  0.78125000000000000       0.25000000000000000        0.0000000000000000     
  0.81250000000000000       0.25000000000000000        0.0000000000000000     
  0.84375000000000000       0.25000000000000000        0.0000000000000000     
  0.87500000000000000       0.25000000000000000        0.0000000000000000     
  0.75000000000000000       0.28125000000000000        0.0000000000000000     
  0.78125000000000000       0.28125000000000000        0.0000000000000000     
  0.81250000000000000       0.28125000000000000        0.0000000000000000     
  0.84375000000000000       0.28125000000000000        0.0000000000000000     
  0.87500000000000000       0.28125000000000000        0.0000000000000000     
  0.75000000000000000       0.31250000000000000        0.0000000000000000     
  0.78125000000000000       0.31250000000000000        0.0000000000000000     
  0.81250000000000000       0.31250000000000000        0.0000000000000000     
  0.84375000000000000       0.31250000000000000        0.0000000000000000     
  0.87500000000000000       0.31250000000000000        0.0000000000000000     
  0.75000000000000000       0.34375000000000000        0.0000000000000000     
  0.78125000000000000       0.34375000000000000        0.0000000000000000     
  0.81250000000000000       0.34375000000000000        0.0000000000000000     
  0.84375000000000000       0.34375000000000000        0.0000000000000000     
  0.87500000000000000       0.34375000000000000        0.0000000000000000     
  0.75000000000000000       0.37500000000000000        0.0000000000000000     
  0.78125000000000000       0.37500000000000000        0.0000000000000000     
  0.81250000000000000       0.37500000000000000        0.0000000000000000     
  0.84375000000000000       0.37500000000000000        0.0000000000000000     
  0.87500000000000000       0.37500000000000000        0.0000000000000000     
  0.87500000000000000       0.25000000000000000        0.0000000000000000     
  0.90625000000000000       0.25000000000000000        0.0000000000000000     
  0.93750000000000000       0.25000000000000000        0.0000000000000000     
  0.96875000000000000       0.25000000000000000        0.0000000000000000     
   1.0000000000000000       0.25000000000000000        0.0000000000000000     
  0.87500000000000000       0.28125000000000000        0.0000000000000000     
  0.90625000000000000       0.28125000000000000        0.0000000000000000     
  0.93750000000000000       0.28125000000000000        0.0000000000000000     
  0.96875000000000000       0.28125000000000000        0.0000000000000000     
   1.0000000000000000       0.28125000000000000        0.0000000000000000     
  0.87500000000000000       0.31250000000000000        0.0000000000000000     
  0.90625000000000000       0.31250000000000000        0.0000000000000000     
  0.93750000000000000       0.31250000000000000        0.0000000000000000     
  0.96875000000000000       0.31250000000000000        0.0000000000000000     
   1.0000000000000000       0.31250000000000000        0.0000000000000000     
  0.87500000000000000       0.34375000000000000        0.0000000000000000     
  0.90625000000000000       0.34375000000000000        0.0000000000000000     
  0.93750000000000000       0.34375000000000000        0.0000000000000000     
  0.96875000000000000       0.34375000000000000        0.0000000000000000     
   1.0000000000000000       0.34375000000000000        0.0000000000000000     
  0.87500000000000000       0.37500000000000000        0.0000000000000000     
  0.90625000000000000       0.37500000000000000        0.0000000000000000     
  0.93750000000000000       0.37500000000000000        0.0000000000000000     
  0.96875000000000000       0.37500000000000000        0.0000000000000000     
   1.0000000000000000       0.37500000000000000        0.0000000000000000     
   0.0000000000000000       0.37500000000000000        0.0000000000000000     
   3.1250000000000000E-002  0.37500000000000000        0.0000000000000000     
   6.2500000000000000E-002  0.37500000000000000        0.0000000000000000     
   9.3750000000000000E-002  0.37500000000000000        0.0000000000000000     
  0.12500000000000000       0.37500000000000000        0.0000000000000000     
   0.0000000000000000       0.40625000000000000        0.0000000000000000     
   3.1250000000000000E-002  0.40625000000000000        0.0000000000000000     
   6.2500000000000000E-002  0.40625000000000000        0.0000000000000000     
   9.3750000000000000E-002  0.40625000000000000        0.0000000000000000     
  0.12500000000000000       0.40625000000000000        0.0000000000000000     
   0.0000000000000000       0.43750000000000000        0.0000000000000000     
   3.1250000000000000E-002  0.43750000000000000        0.0000000000000000     
   6.2500000000000000E-002  0.43750000000000000        0.0000000000000000     
   9.3750000000000000E-002  0.43750000000000000        0.0000000000000000     
  0.12500000000000000       0.43750000000000000        0.0000000000000000     
   0.0000000000000000       0.46875000000000000        0.0000000000000000     
   3.1250000000000000E-002  0.46875000000000000        0.0000000000000000     
   6.2500000000000000E-002  0.46875000000000000        0.0000000000000000     
   9.3750000000000000E-002  0.46875000000000000        0.0000000000000000     
  0.12500000000000000       0.46875000000000000        0.0000000000000000     
   0.0000000000000000       0.50000000000000000        0.0000000000000000     
   3.1250000000000000E-002  0.50000000000000000        0.0000000000000000     
   6.2500000000000000E-002  0.50000000000000000        0.0000000000000000     
   9.3750000000000000E-002  0.50000000000000000        0.0000000000000000     
  0.12500000000000000       0.50000000000000000        0.0000000000000000     
  0.12500000000000000       0.37500000000000000        0.0000000000000000     
  0.15625000000000000       0.37500000000000000        0.0000000000000000     
  0.18750000000000000       0.37500000000000000        0.0000000000000000     
  0.21875000000000000       0.37500000000000000        0.0000000000000000     
  0.25000000000000000       0.37500000000000000        0.0000000000000000     
  0.12500000000000000       0.40625000000000000        0.0000000000000000     
  0.15625000000000000       0.40625000000000000        0.0000000000000000     
  0.18750000000000000       0.40625000000000000        0.0000000000000000     
  0.21875000000000000       0.40625000000000000        0.0000000000000000     
  0.25000000000000000       0.40625000000000000        0.0000000000000000     
  0.12500000000000000       0.43750000000000000        0.0000000000000000     
  0.15625000000000000       0.43750000000000000        0.0000000000000000     
  0.18750000000000000       0.43750000000000000        0.0000000000000000     
  0.21875000000000000       0.43750000000000000        0.0000000000000000     
  0.25000000000000000       0.43750000000000000        0.0000000000000000     
  0.12500000000000000       0.46875000000000000        0.0000000000000000     
  0.15625000000000000       0.46875000000000000        0.0000000000000000     
  0.18750000000000000       0.46875000000000000        0.0000000000000000     
  0.21875000000000000       0.46875000000000000        0.0000000000000000     
  0.25000000000000000       0.46875000000000000        0.0000000000000000     
  0.12500000000000000       0.50000000000000000        0.0000000000000000     
  0.15625000000000000       0.50000000000000000        0.0000000000000000     
  0.18750000000000000       0.50000000000000000        0.0000000000000000     
  0.21875000000000000       0.50000000000000000        0.0000000000000000     
  0.25000000000000000       0.50000000000000000        0.0000000000000000     
  0.25000000000000000       0.37500000000000000        0.0000000000000000     
  0.28125000000000000       0.37500000000000000        0.0000000000000000     
  0.31250000000000000       0.37500000000000000        0.0000000000000000     
  0.34375000000000000       0.37500000000000000        0.0000000000000000     
  0.37500000000000000       0.37500000000000000        0.0000000000000000     
  0.25000000000000000       0.40625000000000000        0.0000000000000000     
  0.28125000000000000       0.40625000000000000        0.0000000000000000     
  0.31250000000000000       0.40625000000000000        0.0000000000000000     
  0.34375000000000000       0.40625000000000000        0.0000000000000000     
  0.37500000000000000       0.40625000000000000        0.0000000000000000     
  0.25000000000000000       0.43750000000000000        0.0000000000000000     
  0.28125000000000000       0.43750000000000000        0.0000000000000000     
  0.31250000000000000       0.43750000000000000        0.0000000000000000     
  0.34375000000000000       0.43750000000000000        0.0000000000000000     
  0.37500000000000000       0.43750000000000000        0.0000000000000000     
  0.25000000000000000       0.46875000000000000        0.0000000000000000     
  0.28125000000000000       0.46875000000000000        0.0000000000000000     
  0.31250000000000000       0.46875000000000000        0.0000000000000000     
  0.34375000000000000       0.46875000000000000        0.0000000000000000     
  0.37500000000000000       0.46875000000000000        0.0000000000000000     
  0.25000000000000000       0.50000000000000000        0.0000000000000000     
  0.28125000000000000       0.50000000000000000        0.0000000000000000     
  0.31250000000000000       0.50000000000000000        0.0000000000000000     
  0.34375000000000000       0.50000000000000000        0.0000000000000000     
  0.37500000000000000       0.50000000000000000        0.0000000000000000     
  0.37500000000000000       0.37500000000000000        0.0000000000000000     
  0.40625000000000000       0.37500000000000000        0.0000000000000000     
  0.43750000000000000       0.37500000000000000        0.0000000000000000     
  0.46875000000000000       0.37500000000000000        0.0000000000000000     
  0.50000000000000000       0.37500000000000000        0.0000000000000000     
  0.37500000000000000       0.40625000000000000        0.0000000000000000     
  0.40625000000000000       0.40625000000000000        0.0000000000000000     
  0.43750000000000000       0.40625000000000000        0.0000000000000000     
  0.46875000000000000       0.40625000000000000        0.0000000000000000     
  0.50000000000000000       0.40625000000000000        0.0000000000000000     
  0.37500000000000000       0.43750000000000000        0.0000000000000000     
  0.40625000000000000       0.43750000000000000        0.0000000000000000     
  0.43750000000000000       0.43750000000000000        0.0000000000000000     
  0.46875000000000000       0.43750000000000000        0.0000000000000000     
  0.50000000000000000       0.43750000000000000        0.0000000000000000     
  0.37500000000000000       0.46875000000000000        0.0000000000000000     
  0.40625000000000000       0.46875000000000000        0.0000000000000000     
  0.43750000000000000       0.46875000000000000        0.0000000000000000     
  0.46875000000000000       0.46875000000000000        0.0000000000000000     
  0.50000000000000000       0.46875000000000000        0.0000000000000000     
  0.37500000000000000       0.50000000000000000        0.0000000000000000     
  0.40625000000000000       0.50000000000000000        0.0000000000000000     
  0.43750000000000000       0.50000000000000000        0.0000000000000000     
  0.46875000000000000       0.50000000000000000        0.0000000000000000     
  0.50000000000000000       0.50000000000000000        0.0000000000000000     
  0.50000000000000000       0.37500000000000000        0.0000000000000000     
  0.53125000000000000       0.37500000000000000        0.0000000000000000     
  0.56250000000000000       0.37500000000000000        0.0000000000000000     
  0.59375000000000000       0.37500000000000000        0.0000000000000000     
  0.62500000000000000       0.37500000000000000        0.0000000000000000     
  0.50000000000000000       0.40625000000000000        0.0000000000000000     
  0.53125000000000000       0.40625000000000000        0.0000000000000000     
  0.56250000000000000       0.40625000000000000        0.0000000000000000     
  0.59375000000000000       0.40625000000000000        0.0000000000000000     
  0.62500000000000000       0.40625000000000000        0.0000000000000000     
  0.50000000000000000       0.43750000000000000        0.0000000000000000     
  0.53125000000000000       0.43750000000000000        0.0000000000000000     
  0.56250000000000000       0.43750000000000000        0.0000000000000000     
  0.59375000000000000       0.43750000000000000        0.0000000000000000     
  0.62500000000000000       0.43750000000000000        0.0000000000000000     
  0.50000000000000000       0.46875000000000000        0.0000000000000000     
  0.53125000000000000       0.46875000000000000        0.0000000000000000     
  0.56250000000000000       0.46875000000000000        0.0000000000000000     
  0.59375000000000000       0.46875000000000000        0.0000000000000000     
  0.62500000000000000       0.46875000000000000        0.0000000000000000     
  0.50000000000000000       0.50000000000000000        0.0000000000000000     
  0.53125000000000000       0.50000000000000000        0.0000000000000000     
  0.56250000000000000       0.50000000000000000        0.0000000000000000     
  0.59375000000000000       0.50000000000000000        0.0000000000000000     
  0.62500000000000000       0.50000000000000000        0.0000000000000000     
  0.62500000000000000       0.37500000000000000        0.0000000000000000     
  0.65625000000000000       0.37500000000000000        0.0000000000000000     
  0.68750000000000000       0.37500000000000000        0.0000000000000000     
  0.71875000000000000       0.37500000000000000        0.0000000000000000     
  0.75000000000000000       0.37500000000000000        0.0000000000000000     
  0.62500000000000000       0.40625000000000000        0.0000000000000000     
  0.65625000000000000       0.40625000000000000        0.0000000000000000     
  0.68750000000000000       0.40625000000000000        0.0000000000000000     
  0.71875000000000000       0.40625000000000000        0.0000000000000000     
  0.75000000000000000       0.40625000000000000        0.0000000000000000     
  0.62500000000000000       0.43750000000000000        0.0000000000000000     
  0.65625000000000000       0.43750000000000000        0.0000000000000000     
  0.68750000000000000       0.43750000000000000        0.0000000000000000     
  0.71875000000000000       0.43750000000000000        0.0000000000000000     
  0.75000000000000000       0.43750000000000000        0.0000000000000000     
  0.62500000000000000       0.46875000000000000        0.0000000000000000     
  0.65625000000000000       0.46875000000000000        0.0000000000000000     
  0.68750000000000000       0.46875000000000000        0.0000000000000000     
  0.71875000000000000       0.46875000000000000        0.0000000000000000     
  0.75000000000000000       0.46875000000000000        0.0000000000000000     
  0.62500000000000000       0.50000000000000000        0.0000000000000000     
  0.65625000000000000       0.50000000000000000        0.0000000000000000     
  0.68750000000000000       0.50000000000000000        0.0000000000000000     
  0.71875000000000000       0.50000000000000000        0.0000000000000000     
  0.75000000000000000       0.50000000000000000        0.0000000000000000     
  0.75000000000000000       0.37500000000000000        0.0000000000000000     
  0.78125000000000000       0.37500000000000000        0.0000000000000000     
  0.81250000000000000       0.37500000000000000        0.0000000000000000     
  0.84375000000000000       0.37500000000000000        0.0000000000000000     
  0.87500000000000000       0.37500000000000000        0.0000000000000000     
  0.75000000000000000       0.40625000000000000        0.0000000000000000     
  0.78125000000000000       0.40625000000000000        0.0000000000000000     
  0.81250000000000000       0.40625000000000000        0.0000000000000000     
  0.84375000000000000       0.40625000000000000        0.0000000000000000     
  0.87500000000000000       0.40625000000000000        0.0000000000000000     
  0.75000000000000000       0.43750000000000000        0.0000000000000000     
  0.78125000000000000       0.43750000000000000        0.0000000000000000     
  0.81250000000000000       0.43750000000000000        0.0000000000000000     
  0.84375000000000000       0.43750000000000000        0.0000000000000000     
  0.87500000000000000       0.43750000000000000        0.0000000000000000     
  0.75000000000000000       0.46875000000000000        0.0000000000000000     
  0.78125000000000000       0.46875000000000000        0.0000000000000000     
  0.81250000000000000       0.46875000000000000        0.0000000000000000     
  0.84375000000000000       0.46875000000000000        0.0000000000000000     
  0.87500000000000000       0.46875000000000000        0.0000000000000000     
  0.75000000000000000       0.50000000000000000        0.0000000000000000     
  0.78125000000000000       0.50000000000000000        0.0000000000000000     
  0.81250000000000000       0.50000000000000000        0.0000000000000000     
  0.84375000000000000       0.50000000000000000        0.0000000000000000     
  0.87500000000000000       0.50000000000000000        0.0000000000000000     
  0.87500000000000000       0.37500000000000000        0.0000000000000000     
  0.90625000000000000       0.37500000000000000        0.0000000000000000     
  0.93750000000000000       0.37500000000000000        0.0000000000000000     
  0.96875000000000000       0.37500000000000000        0.0000000000000000     
   1.0000000000000000       0.37500000000000000        0.0000000000000000     
  0.87500000000000000       0.40625000000000000        0.0000000000000000     
  0.90625000000000000       0.40625000000000000        0.0000000000000000     
  0.93750000000000000       0.40625000000000000        0.0000000000000000     
  0.96875000000000000       0.40625000000000000        0.0000000000000000     
   1.0000000000000000       0.40625000000000000        0.0000000000000000     
  0.87500000000000000       0.43750000000000000        0.0000000000000000     
  0.90625000000000000       0.43750000000000000        0.0000000000000000     
  0.93750000000000000       0.43750000000000000        0.0000000000000000     
  0.96875000000000000       0.43750000000000000        0.0000000000000000     
   1.0000000000000000       0.43750000000000000        0.0000000000000000     
  0.87500000000000000       0.46875000000000000        0.0000000000000000     
  0.90625000000000000       0.46875000000000000        0.0000000000000000     
  0.93750000000000000       0.46875000000000000        0.0000000000000000     
  0.96875000000000000       0.46875000000000000        0.0000000000000000     
   1.0000000000000000       0.46875000000000000        0.0000000000000000     
  0.87500000000000000       0.50000000000000000        0.0000000000000000     
  0.90625000000000000       0.50000000000000000        0.0000000000000000     
  0.93750000000000000       0.50000000000000000        0.0000000000000000     
  0.96875000000000000       0.50000000000000000        0.0000000000000000     
   1.0000000000000000       0.50000000000000000        0.0000000000000000     
   0.0000000000000000       0.50000000000000000        0.0000000000000000     
   3.1250000000000000E-002  0.50000000000000000        0.0000000000000000     
   6.2500000000000000E-002  0.50000000000000000        0.0000000000000000     
   9.3750000000000000E-002  0.50000000000000000        0.0000000000000000     
  0.12500000000000000       0.50000000000000000        0.0000000000000000     
   0.0000000000000000       0.53125000000000000        0.0000000000000000     
   3.1250000000000000E-002  0.53125000000000000        0.0000000000000000     
   6.2500000000000000E-002  0.53125000000000000        0.0000000000000000     
   9.3750000000000000E-002  0.53125000000000000        0.0000000000000000     
  0.12500000000000000       0.53125000000000000        0.0000000000000000     
   0.0000000000000000       0.56250000000000000        0.0000000000000000     
   3.1250000000000000E-002  0.56250000000000000        0.0000000000000000     
   6.2500000000000000E-002  0.56250000000000000        0.0000000000000000     
   9.3750000000000000E-002  0.56250000000000000        0.0000000000000000     
  0.12500000000000000       0.56250000000000000        0.0000000000000000     
   0.0000000000000000       0.59375000000000000        0.0000000000000000     
   3.1250000000000000E-002  0.59375000000000000        0.0000000000000000     
   6.2500000000000000E-002  0.59375000000000000        0.0000000000000000     
   9.3750000000000000E-002  0.59375000000000000        0.0000000000000000     
  0.12500000000000000       0.59375000000000000        0.0000000000000000     
   0.0000000000000000       0.62500000000000000        0.0000000000000000     
   3.1250000000000000E-002  0.62500000000000000        0.0000000000000000     
   6.2500000000000000E-002  0.62500000000000000        0.0000000000000000     
   9.3750000000000000E-002  0.62500000000000000        0.0000000000000000     
  0.12500000000000000       0.62500000000000000        0.0000000000000000     
  0.12500000000000000       0.50000000000000000        0.0000000000000000     
  0.15625000000000000       0.50000000000000000        0.0000000000000000     
  0.18750000000000000       0.50000000000000000        0.0000000000000000     
  0.21875000000000000       0.50000000000000000        0.0000000000000000     
  0.25000000000000000       0.50000000000000000        0.0000000000000000     
  0.12500000000000000       0.53125000000000000        0.0000000000000000     
  0.15625000000000000       0.53125000000000000        0.0000000000000000     
  0.18750000000000000       0.53125000000000000        0.0000000000000000     
  0.21875000000000000       0.53125000000000000        0.0000000000000000     
  0.25000000000000000       0.53125000000000000        0.0000000000000000     
  0.12500000000000000       0.56250000000000000        0.0000000000000000     
  0.15625000000000000       0.56250000000000000        0.0000000000000000     
  0.18750000000000000       0.56250000000000000        0.0000000000000000     
  0.21875000000000000       0.56250000000000000        0.0000000000000000     
  0.25000000000000000       0.56250000000000000        0.0000000000000000     
  0.12500000000000000       0.59375000000000000        0.0000000000000000     
  0.15625000000000000       0.59375000000000000        0.0000000000000000     
  0.18750000000000000       0.59375000000000000        0.0000000000000000     
  0.21875000000000000       0.59375000000000000        0.0000000000000000     
  0.25000000000000000       0.59375000000000000        0.0000000000000000     
  0.12500000000000000       0.62500000000000000        0.0000000000000000     
  0.15625000000000000       0.62500000000000000        0.0000000000000000     
  0.18750000000000000       0.62500000000000000        0.0000000000000000     
  0.21875000000000000       0.62500000000000000        0.0000000000000000     
  0.25000000000000000       0.62500000000000000        0.0000000000000000     
  0.25000000000000000       0.50000000000000000        0.0000000000000000     
  0.28125000000000000       0.50000000000000000        0.0000000000000000     
  0.31250000000000000       0.50000000000000000        0.0000000000000000     
  0.34375000000000000       0.50000000000000000        0.0000000000000000     
  0.37500000000000000       0.50000000000000000        0.0000000000000000     
  0.25000000000000000       0.53125000000000000        0.0000000000000000     
  0.28125000000000000       0.53125000000000000        0.0000000000000000     
  0.31250000000000000       0.53125000000000000        0.0000000000000000     
  0.34375000000000000       0.53125000000000000        0.0000000000000000     
  0.37500000000000000       0.53125000000000000        0.0000000000000000     
  0.25000000000000000       0.56250000000000000        0.0000000000000000     
  0.28125000000000000       0.56250000000000000        0.0000000000000000     
  0.31250000000000000       0.56250000000000000        0.0000000000000000     
  0.34375000000000000       0.56250000000000000        0.0000000000000000     
  0.37500000000000000       0.56250000000000000        0.0000000000000000     
  0.25000000000000000       0.59375000000000000        0.0000000000000000     
  0.28125000000000000       0.59375000000000000        0.0000000000000000     
  0.31250000000000000       0.59375000000000000        0.0000000000000000     
  0.34375000000000000       0.59375000000000000        0.0000000000000000     
  0.37500000000000000       0.59375000000000000        0.0000000000000000     
  0.25000000000000000       0.62500000000000000        0.0000000000000000     
  0.28125000000000000       0.62500000000000000        0.0000000000000000     
  0.31250000000000000       0.62500000000000000        0.0000000000000000     
  0.34375000000000000       0.62500000000000000        0.0000000000000000     
  0.37500000000000000       0.62500000000000000        0.0000000000000000     
  0.37500000000000000       0.50000000000000000        0.0000000000000000     
  0.40625000000000000       0.50000000000000000        0.0000000000000000     
  0.43750000000000000       0.50000000000000000        0.0000000000000000     
  0.46875000000000000       0.50000000000000000        0.0000000000000000     
  0.50000000000000000       0.50000000000000000        0.0000000000000000     
  0.37500000000000000       0.53125000000000000        0.0000000000000000     
  0.40625000000000000       0.53125000000000000        0.0000000000000000     
  0.43750000000000000       0.53125000000000000        0.0000000000000000     
  0.46875000000000000       0.53125000000000000        0.0000000000000000     
  0.50000000000000000       0.53125000000000000        0.0000000000000000     
  0.37500000000000000       0.56250000000000000        0.0000000000000000     
  0.40625000000000000       0.56250000000000000        0.0000000000000000     
  0.43750000000000000       0.56250000000000000        0.0000000000000000     
  0.46875000000000000       0.56250000000000000        0.0000000000000000     
  0.50000000000000000       0.56250000000000000        0.0000000000000000     
  0.37500000000000000       0.59375000000000000        0.0000000000000000     
  0.40625000000000000       0.59375000000000000        0.0000000000000000     
  0.43750000000000000       0.59375000000000000        0.0000000000000000     
  0.46875000000000000       0.59375000000000000        0.0000000000000000     
  0.50000000000000000       0.59375000000000000        0.0000000000000000     
  0.37500000000000000       0.62500000000000000        0.0000000000000000     
  0.40625000000000000       0.62500000000000000        0.0000000000000000     
  0.43750000000000000       0.62500000000000000        0.0000000000000000     
  0.46875000000000000       0.62500000000000000        0.0000000000000000     
  0.50000000000000000       0.62500000000000000        0.0000000000000000     
  0.50000000000000000       0.50000000000000000        0.0000000000000000     
  0.53125000000000000       0.50000000000000000        0.0000000000000000     
  0.56250000000000000       0.50000000000000000        0.0000000000000000     
  0.59375000000000000       0.50000000000000000        0.0000000000000000     
  0.62500000000000000       0.50000000000000000        0.0000000000000000     
  0.50000000000000000       0.53125000000000000        0.0000000000000000     
  0.53125000000000000       0.53125000000000000        0.0000000000000000     
  0.56250000000000000       0.53125000000000000        0.0000000000000000     
  0.59375000000000000       0.53125000000000000        0.0000000000000000     
  0.62500000000000000       0.53125000000000000        0.0000000000000000     
  0.50000000000000000       0.56250000000000000        0.0000000000000000     
  0.53125000000000000       0.56250000000000000        0.0000000000000000     
  0.56250000000000000       0.56250000000000000        0.0000000000000000     
  0.59375000000000000       0.56250000000000000        0.0000000000000000     
  0.62500000000000000       0.56250000000000000        0.0000000000000000     
  0.50000000000000000       0.59375000000000000        0.0000000000000000     
  0.53125000000000000       0.59375000000000000        0.0000000000000000     
  0.56250000000000000       0.59375000000000000        0.0000000000000000     
  0.59375000000000000       0.59375000000000000        0.0000000000000000     
  0.62500000000000000       0.59375000000000000        0.0000000000000000     
  0.50000000000000000       0.62500000000000000        0.0000000000000000     
  0.53125000000000000       0.62500000000000000        0.0000000000000000     
  0.56250000000000000       0.62500000000000000        0.0000000000000000     
  0.59375000000000000       0.62500000000000000        0.0000000000000000     
  0.62500000000000000       0.62500000000000000        0.0000000000000000     
  0.62500000000000000       0.50000000000000000        0.0000000000000000     
  0.65625000000000000       0.50000000000000000        0.0000000000000000     
  0.68750000000000000       0.50000000000000000        0.0000000000000000     
  0.71875000000000000       0.50000000000000000        0.0000000000000000     
  0.75000000000000000       0.50000000000000000        0.0000000000000000     
  0.62500000000000000       0.53125000000000000        0.0000000000000000     
  0.65625000000000000       0.53125000000000000        0.0000000000000000     
  0.68750000000000000       0.53125000000000000        0.0000000000000000     
  0.71875000000000000       0.53125000000000000        0.0000000000000000     
  0.75000000000000000       0.53125000000000000        0.0000000000000000     
  0.62500000000000000       0.56250000000000000        0.0000000000000000     
  0.65625000000000000       0.56250000000000000        0.0000000000000000     
  0.68750000000000000       0.56250000000000000        0.0000000000000000     
  0.71875000000000000       0.56250000000000000        0.0000000000000000     
  0.75000000000000000       0.56250000000000000        0.0000000000000000     
  0.62500000000000000       0.59375000000000000        0.0000000000000000     
  0.65625000000000000       0.59375000000000000        0.0000000000000000     
  0.68750000000000000       0.59375000000000000        0.0000000000000000     
  0.71875000000000000       0.59375000000000000        0.0000000000000000     
  0.75000000000000000       0.59375000000000000        0.0000000000000000     
  0.62500000000000000       0.62500000000000000        0.0000000000000000     
  0.65625000000000000       0.62500000000000000        0.0000000000000000     
  0.68750000000000000       0.62500000000000000        0.0000000000000000     
  0.71875000000000000       0.62500000000000000        0.0000000000000000     
  0.75000000000000000       0.62500000000000000        0.0000000000000000     
  0.75000000000000000       0.50000000000000000        0.0000000000000000     
  0.78125000000000000       0.50000000000000000        0.0000000000000000     
  0.81250000000000000       0.50000000000000000        0.0000000000000000     
  0.84375000000000000       0.50000000000000000        0.0000000000000000     
  0.87500000000000000       0.50000000000000000        0.0000000000000000     
  0.75000000000000000       0.53125000000000000        0.0000000000000000     
  0.78125000000000000       0.53125000000000000        0.0000000000000000     
  0.81250000000000000       0.53125000000000000        0.0000000000000000     
  0.84375000000000000       0.53125000000000000        0.0000000000000000     
  0.87500000000000000       0.53125000000000000        0.0000000000000000     
  0.75000000000000000       0.56250000000000000        0.0000000000000000     
  0.78125000000000000       0.56250000000000000        0.0000000000000000     
  0.81250000000000000       0.56250000000000000        0.0000000000000000     
  0.84375000000000000       0.56250000000000000        0.0000000000000000     
  0.87500000000000000       0.56250000000000000        0.0000000000000000     
  0.75000000000000000       0.59375000000000000        0.0000000000000000     
  0.78125000000000000       0.59375000000000000        0.0000000000000000     
  0.81250000000000000       0.59375000000000000        0.0000000000000000     
  0.84375000000000000       0.59375000000000000        0.0000000000000000     
  0.87500000000000000       0.59375000000000000        0.0000000000000000     
  0.75000000000000000       0.62500000000000000        0.0000000000000000     
  0.78125000000000000       0.62500000000000000        0.0000000000000000     
  0.81250000000000000       0.62500000000000000        0.0000000000000000     
  0.84375000000000000       0.62500000000000000        0.0000000000000000     
  0.87500000000000000       0.62500000000000000        0.0000000000000000     
  0.87500000000000000       0.50000000000000000        0.0000000000000000     
  0.90625000000000000       0.50000000000000000        0.0000000000000000     
  0.93750000000000000       0.50000000000000000        0.0000000000000000     
  0.96875000000000000       0.50000000000000000        0.0000000000000000     
   1.0000000000000000       0.50000000000000000        0.0000000000000000     
  0.87500000000000000       0.53125000000000000        0.0000000000000000     
  0.90625000000000000       0.53125000000000000        0.0000000000000000     
  0.93750000000000000       0.53125000000000000        0.0000000000000000     
  0.96875000000000000       0.53125000000000000        0.0000000000000000     
   1.0000000000000000       0.53125000000000000        0.0000000000000000     
  0.87500000000000000       0.56250000000000000        0.0000000000000000     
  0.90625000000000000       0.56250000000000000        0.0000000000000000     
  0.93750000000000000       0.56250000000000000        0.0000000000000000     
  0.96875000000000000       0.56250000000000000        0.0000000000000000     
   1.0000000000000000       0.56250000000000000        0.0000000000000000     
  0.87500000000000000       0.59375000000000000        0.0000000000000000     
  0.90625000000000000       0.59375000000000000        0.0000000000000000     
  0.93750000000000000       0.59375000000000000        0.0000000000000000     
  0.96875000000000000       0.59375000000000000        0.0000000000000000     
   1.0000000000000000       0.59375000000000000        0.0000000000000000     
  0.87500000000000000       0.62500000000000000        0.0000000000000000     
  0.90625000000000000       0.62500000000000000        0.0000000000000000     
  0.93750000000000000       0.62500000000000000        0.0000000000000000     
  0.96875000000000000       0.62500000000000000        0.0000000000000000     
   1.0000000000000000       0.62500000000000000        0.0000000000000000     
   0.0000000000000000       0.62500000000000000        0.0000000000000000     
   3.1250000000000000E-002  0.62500000000000000        0.0000000000000000     
   6.2500000000000000E-002  0.62500000000000000        0.0000000000000000     
   9.3750000000000000E-002  0.62500000000000000        0.0000000000000000     
  0.12500000000000000       0.62500000000000000        0.0000000000000000     
   0.0000000000000000       0.65625000000000000        0.0000000000000000     
   3.1250000000000000E-002  0.65625000000000000        0.0000000000000000     
   6.2500000000000000E-002  0.65625000000000000        0.0000000000000000     
   9.3750000000000000E-002  0.65625000000000000        0.0000000000000000     
  0.12500000000000000       0.65625000000000000        0.0000000000000000     
   0.0000000000000000       0.68750000000000000        0.0000000000000000     
   3.1250000000000000E-002  0.68750000000000000        0.0000000000000000     
   6.2500000000000000E-002  0.68750000000000000        0.0000000000000000     
   9.3750000000000000E-002  0.68750000000000000        0.0000000000000000     
  0.12500000000000000       0.68750000000000000        0.0000000000000000     
   0.0000000000000000       0.71875000000000000        0.0000000000000000     
   3.1250000000000000E-002  0.71875000000000000        0.0000000000000000     
   6.2500000000000000E-002  0.71875000000000000        0.0000000000000000     
   9.3750000000000000E-002  0.71875000000000000        0.0000000000000000     
  0.12500000000000000       0.71875000000000000        0.0000000000000000     
   0.0000000000000000       0.75000000000000000        0.0000000000000000     
   3.1250000000000000E-002  0.75000000000000000        0.0000000000000000     
   6.2500000000000000E-002  0.75000000000000000        0.0000000000000000     
   9.3750000000000000E-002  0.75000000000000000        0.0000000000000000     
  0.12500000000000000       0.75000000000000000        0.0000000000000000     
  0.12500000000000000       0.62500000000000000        0.0000000000000000     
  0.15625000000000000       0.62500000000000000        0.0000000000000000     
  0.18750000000000000       0.62500000000000000        0.0000000000000000     
  0.21875000000000000       0.62500000000000000        0.0000000000000000     
  0.25000000000000000       0.62500000000000000        0.0000000000000000     
  0.12500000000000000       0.65625000000000000        0.0000000000000000     
  0.15625000000000000       0.65625000000000000        0.0000000000000000     
  0.18750000000000000       0.65625000000000000        0.0000000000000000     
  0.21875000000000000       0.65625000000000000        0.0000000000000000     
  0.25000000000000000       0.65625000000000000        0.0000000000000000     
  0.12500000000000000       0.68750000000000000        0.0000000000000000     
  0.15625000000000000       0.68750000000000000        0.0000000000000000     
  0.18750000000000000       0.68750000000000000        0.0000000000000000     
  0.21875000000000000       0.68750000000000000        0.0000000000000000     
  0.25000000000000000       0.68750000000000000        0.0000000000000000     
  0.12500000000000000       0.71875000000000000        0.0000000000000000     
  0.15625000000000000       0.71875000000000000        0.0000000000000000     
  0.18750000000000000       0.71875000000000000        0.0000000000000000     
  0.21875000000000000       0.71875000000000000        0.0000000000000000     
  0.25000000000000000       0.71875000000000000        0.0000000000000000     
  0.12500000000000000       0.75000000000000000        0.0000000000000000     
  0.15625000000000000       0.75000000000000000        0.0000000000000000     
  0.18750000000000000       0.75000000000000000        0.0000000000000000     
  0.21875000000000000       0.75000000000000000        0.0000000000000000     
  0.25000000000000000       0.75000000000000000        0.0000000000000000     
  0.25000000000000000       0.62500000000000000        0.0000000000000000     
  0.28125000000000000       0.62500000000000000        0.0000000000000000     
  0.31250000000000000       0.62500000000000000        0.0000000000000000     
  0.34375000000000000       0.62500000000000000        0.0000000000000000     
  0.37500000000000000       0.62500000000000000        0.0000000000000000     
  0.25000000000000000       0.65625000000000000        0.0000000000000000     
  0.28125000000000000       0.65625000000000000        0.0000000000000000     
  0.31250000000000000       0.65625000000000000        0.0000000000000000     
  0.34375000000000000       0.65625000000000000        0.0000000000000000     
  0.37500000000000000       0.65625000000000000        0.0000000000000000     
  0.25000000000000000       0.68750000000000000        0.0000000000000000     
  0.28125000000000000       0.68750000000000000        0.0000000000000000     
  0.31250000000000000       0.68750000000000000        0.0000000000000000     
  0.34375000000000000       0.68750000000000000        0.0000000000000000     
  0.37500000000000000       0.68750000000000000        0.0000000000000000     
  0.25000000000000000       0.71875000000000000        0.0000000000000000     
  0.28125000000000000       0.71875000000000000        0.0000000000000000     
  0.31250000000000000       0.71875000000000000        0.0000000000000000     
  0.34375000000000000       0.71875000000000000        0.0000000000000000     
  0.37500000000000000       0.71875000000000000        0.0000000000000000     
  0.25000000000000000       0.75000000000000000        0.0000000000000000     
  0.28125000000000000       0.75000000000000000        0.0000000000000000     
  0.31250000000000000       0.75000000000000000        0.0000000000000000     
  0.34375000000000000       0.75000000000000000        0.0000000000000000     
  0.37500000000000000       0.75000000000000000        0.0000000000000000     
  0.37500000000000000       0.62500000000000000        0.0000000000000000     
  0.40625000000000000       0.62500000000000000        0.0000000000000000     
  0.43750000000000000       0.62500000000000000        0.0000000000000000     
  0.46875000000000000       0.62500000000000000        0.0000000000000000     
  0.50000000000000000       0.62500000000000000        0.0000000000000000     
  0.37500000000000000       0.65625000000000000        0.0000000000000000     
  0.40625000000000000       0.65625000000000000        0.0000000000000000     
  0.43750000000000000       0.65625000000000000        0.0000000000000000     
  0.46875000000000000       0.65625000000000000        0.0000000000000000     
  0.50000000000000000       0.65625000000000000        0.0000000000000000     
  0.37500000000000000       0.68750000000000000        0.0000000000000000     
  0.40625000000000000       0.68750000000000000        0.0000000000000000     
  0.43750000000000000       0.68750000000000000        0.0000000000000000     
  0.46875000000000000       0.68750000000000000        0.0000000000000000     
  0.50000000000000000       0.68750000000000000        0.0000000000000000     
  0.37500000000000000       0.71875000000000000        0.0000000000000000     
  0.40625000000000000       0.71875000000000000        0.0000000000000000     
  0.43750000000000000       0.71875000000000000        0.0000000000000000     
  0.46875000000000000       0.71875000000000000        0.0000000000000000     
  0.50000000000000000       0.71875000000000000        0.0000000000000000     
  0.37500000000000000       0.75000000000000000        0.0000000000000000     
  0.40625000000000000       0.75000000000000000        0.0000000000000000     
  0.43750000000000000       0.75000000000000000        0.0000000000000000     
  0.46875000000000000       0.75000000000000000        0.0000000000000000     
  0.50000000000000000       0.75000000000000000        0.0000000000000000     
  0.50000000000000000       0.62500000000000000        0.0000000000000000     
  0.53125000000000000       0.62500000000000000        0.0000000000000000     
  0.56250000000000000       0.62500000000000000        0.0000000000000000     
  0.59375000000000000       0.62500000000000000        0.0000000000000000     
  0.62500000000000000       0.62500000000000000        0.0000000000000000     
  0.50000000000000000       0.65625000000000000        0.0000000000000000     
  0.53125000000000000       0.65625000000000000        0.0000000000000000     
  0.56250000000000000       0.65625000000000000        0.0000000000000000     
  0.59375000000000000       0.65625000000000000        0.0000000000000000     
  0.62500000000000000       0.65625000000000000        0.0000000000000000     
  0.50000000000000000       0.68750000000000000        0.0000000000000000     
  0.53125000000000000       0.68750000000000000        0.0000000000000000     
  0.56250000000000000       0.68750000000000000        0.0000000000000000     
  0.59375000000000000       0.68750000000000000        0.0000000000000000     
  0.62500000000000000       0.68750000000000000        0.0000000000000000     
  0.50000000000000000       0.71875000000000000        0.0000000000000000     
  0.53125000000000000       0.71875000000000000        0.0000000000000000     
  0.56250000000000000       0.71875000000000000        0.0000000000000000     
  0.59375000000000000       0.71875000000000000        0.0000000000000000     
  0.62500000000000000       0.71875000000000000        0.0000000000000000     
  0.50000000000000000       0.75000000000000000        0.0000000000000000     
  0.53125000000000000       0.75000000000000000        0.0000000000000000     
  0.56250000000000000       0.75000000000000000        0.0000000000000000     
  0.59375000000000000       0.75000000000000000        0.0000000000000000     
  0.62500000000000000       0.75000000000000000        0.0000000000000000     
  0.62500000000000000       0.62500000000000000        0.0000000000000000     
  0.65625000000000000       0.62500000000000000        0.0000000000000000     
  0.68750000000000000       0.62500000000000000        0.0000000000000000     
  0.71875000000000000       0.62500000000000000        0.0000000000000000     
  0.75000000000000000       0.62500000000000000        0.0000000000000000     
  0.62500000000000000       0.65625000000000000        0.0000000000000000     
  0.65625000000000000       0.65625000000000000        0.0000000000000000     
  0.68750000000000000       0.65625000000000000        0.0000000000000000     
  0.71875000000000000       0.65625000000000000        0.0000000000000000     
  0.75000000000000000       0.65625000000000000        0.0000000000000000     
  0.62500000000000000       0.68750000000000000        0.0000000000000000     
  0.65625000000000000       0.68750000000000000        0.0000000000000000     
  0.68750000000000000       0.68750000000000000        0.0000000000000000     
  0.71875000000000000       0.68750000000000000        0.0000000000000000     
  0.75000000000000000       0.68750000000000000        0.0000000000000000     
  0.62500000000000000       0.71875000000000000        0.0000000000000000     
  0.65625000000000000       0.71875000000000000        0.0000000000000000     
  0.68750000000000000       0.71875000000000000        0.0000000000000000     
  0.71875000000000000       0.71875000000000000        0.0000000000000000     
  0.75000000000000000       0.71875000000000000        0.0000000000000000     
  0.62500000000000000       0.75000000000000000        0.0000000000000000     
  0.65625000000000000       0.75000000000000000        0.0000000000000000     
  0.68750000000000000       0.75000000000000000        0.0000000000000000     
  0.71875000000000000       0.75000000000000000        0.0000000000000000     
  0.75000000000000000       0.75000000000000000        0.0000000000000000     
  0.75000000000000000       0.62500000000000000        0.0000000000000000     
  0.78125000000000000       0.62500000000000000        0.0000000000000000     
  0.81250000000000000       0.62500000000000000        0.0000000000000000     
  0.84375000000000000       0.62500000000000000        0.0000000000000000     
  0.87500000000000000       0.62500000000000000        0.0000000000000000     
  0.75000000000000000       0.65625000000000000        0.0000000000000000     
  0.78125000000000000       0.65625000000000000        0.0000000000000000     
  0.81250000000000000       0.65625000000000000        0.0000000000000000     
  0.84375000000000000       0.65625000000000000        0.0000000000000000     
  0.87500000000000000       0.65625000000000000        0.0000000000000000     
  0.75000000000000000       0.68750000000000000        0.0000000000000000     
  0.78125000000000000       0.68750000000000000        0.0000000000000000     
  0.81250000000000000       0.68750000000000000        0.0000000000000000     
  0.84375000000000000       0.68750000000000000        0.0000000000000000     
  0.87500000000000000       0.68750000000000000        0.0000000000000000     
  0.75000000000000000       0.71875000000000000        0.0000000000000000     
  0.78125000000000000       0.71875000000000000        0.0000000000000000     
  0.81250000000000000       0.71875000000000000        0.0000000000000000     
  0.84375000000000000       0.71875000000000000        0.0000000000000000     
  0.87500000000000000       0.71875000000000000        0.0000000000000000     
  0.75000000000000000       0.75000000000000000        0.0000000000000000     
  0.78125000000000000       0.75000000000000000        0.0000000000000000     
  0.81250000000000000       0.75000000000000000        0.0000000000000000     
  0.84375000000000000       0.75000000000000000        0.0000000000000000     
  0.87500000000000000       0.75000000000000000        0.0000000000000000     
  0.87500000000000000       0.62500000000000000        0.0000000000000000     
  0.90625000000000000       0.62500000000000000        0.0000000000000000     
  0.93750000000000000       0.62500000000000000        0.0000000000000000     
  0.96875000000000000       0.62500000000000000        0.0000000000000000     
   1.0000000000000000       0.62500000000000000        0.0000000000000000     
  0.87500000000000000       0.65625000000000000        0.0000000000000000     
  0.90625000000000000       0.65625000000000000        0.0000000000000000     
  0.93750000000000000       0.65625000000000000        0.0000000000000000     
  0.96875000000000000       0.65625000000000000        0.0000000000000000     
   1.0000000000000000       0.65625000000000000        0.0000000000000000     
  0.87500000000000000       0.68750000000000000        0.0000000000000000     
  0.90625000000000000       0.68750000000000000        0.0000000000000000     
  0.93750000000000000       0.68750000000000000        0.0000000000000000     
  0.96875000000000000       0.68750000000000000        0.0000000000000000     
   1.0000000000000000       0.68750000000000000        0.0000000000000000     
  0.87500000000000000       0.71875000000000000        0.0000000000000000     
  0.90625000000000000       0.71875000000000000        0.0000000000000000     
  0.93750000000000000       0.71875000000000000        0.0000000000000000     
  0.96875000000000000       0.71875000000000000        0.0000000000000000     
   1.0000000000000000       0.71875000000000000        0.0000000000000000     
  0.87500000000000000       0.75000000000000000        0.0000000000000000     
  0.90625000000000000       0.75000000000000000        0.0000000000000000     
  0.93750000000000000       0.75000000000000000        0.0000000000000000     
  0.96875000000000000       0.75000000000000000        0.0000000000000000     
   1.0000000000000000       0.75000000000000000        0.0000000000000000     
   0.0000000000000000       0.75000000000000000        0.0000000000000000     
   3.1250000000000000E-002  0.75000000000000000        0.0000000000000000     
   6.2500000000000000E-002  0.75000000000000000        0.0000000000000000     
   9.3750000000000000E-002  0.75000000000000000        0.0000000000000000     
  0.12500000000000000       0.75000000000000000        0.0000000000000000     
   0.0000000000000000       0.78125000000000000        0.0000000000000000     
   3.1250000000000000E-002  0.78125000000000000        0.0000000000000000     
   6.2500000000000000E-002  0.78125000000000000        0.0000000000000000     
   9.3750000000000000E-002  0.78125000000000000        0.0000000000000000     
  0.12500000000000000       0.78125000000000000        0.0000000000000000     
   0.0000000000000000       0.81250000000000000        0.0000000000000000     
   3.1250000000000000E-002  0.81250000000000000        0.0000000000000000     
   6.2500000000000000E-002  0.81250000000000000        0.0000000000000000     
   9.3750000000000000E-002  0.81250000000000000        0.0000000000000000     
  0.12500000000000000       0.81250000000000000        0.0000000000000000     
   0.0000000000000000       0.84375000000000000        0.0000000000000000     
   3.1250000000000000E-002  0.84375000000000000        0.0000000000000000     
   6.2500000000000000E-002  0.84375000000000000        0.0000000000000000     
   9.3750000000000000E-002  0.84375000000000000        0.0000000000000000     
  0.12500000000000000       0.84375000000000000        0.0000000000000000     
   0.0000000000000000       0.87500000000000000        0.0000000000000000     
   3.1250000000000000E-002  0.87500000000000000        0.0000000000000000     
   6.2500000000000000E-002  0.87500000000000000        0.0000000000000000     
   9.3750000000000000E-002  0.87500000000000000        0.0000000000000000     
  0.12500000000000000       0.87500000000000000        0.0000000000000000     
  0.12500000000000000       0.75000000000000000        0.0000000000000000     
  0.15625000000000000       0.75000000000000000        0.0000000000000000     
  0.18750000000000000       0.75000000000000000        0.0000000000000000     
  0.21875000000000000       0.75000000000000000        0.0000000000000000     
  0.25000000000000000       0.75000000000000000        0.0000000000000000     
  0.12500000000000000       0.78125000000000000        0.0000000000000000     
  0.15625000000000000       0.78125000000000000        0.0000000000000000     
  0.18750000000000000       0.78125000000000000        0.0000000000000000     
  0.21875000000000000       0.78125000000000000        0.0000000000000000     
  0.25000000000000000       0.78125000000000000        0.0000000000000000     
  0.12500000000000000       0.81250000000000000        0.0000000000000000     
  0.15625000000000000       0.81250000000000000        0.0000000000000000     
  0.18750000000000000       0.81250000000000000        0.0000000000000000     
  0.21875000000000000       0.81250000000000000        0.0000000000000000     
  0.25000000000000000       0.81250000000000000        0.0000000000000000     
  0.12500000000000000       0.84375000000000000        0.0000000000000000     
  0.15625000000000000       0.84375000000000000        0.0000000000000000     
  0.18750000000000000       0.84375000000000000        0.0000000000000000     
  0.21875000000000000       0.84375000000000000        0.0000000000000000     
  0.25000000000000000       0.84375000000000000        0.0000000000000000     
  0.12500000000000000       0.87500000000000000        0.0000000000000000     
  0.15625000000000000       0.87500000000000000        0.0000000000000000     
  0.18750000000000000       0.87500000000000000        0.0000000000000000     
  0.21875000000000000       0.87500000000000000        0.0000000000000000     
  0.25000000000000000       0.87500000000000000        0.0000000000000000     
  0.25000000000000000       0.75000000000000000        0.0000000000000000     
  0.28125000000000000       0.75000000000000000        0.0000000000000000     
  0.31250000000000000       0.75000000000000000        0.0000000000000000     
  0.34375000000000000       0.75000000000000000        0.0000000000000000     
  0.37500000000000000       0.75000000000000000        0.0000000000000000     
  0.25000000000000000       0.78125000000000000        0.0000000000000000     
  0.28125000000000000       0.78125000000000000        0.0000000000000000     
  0.31250000000000000       0.78125000000000000        0.0000000000000000     
  0.34375000000000000       0.78125000000000000        0.0000000000000000     
  0.37500000000000000       0.78125000000000000        0.0000000000000000     
  0.25000000000000000       0.81250000000000000        0.0000000000000000     
  0.28125000000000000       0.81250000000000000        0.0000000000000000     
  0.31250000000000000       0.81250000000000000        0.0000000000000000     
  0.34375000000000000       0.81250000000000000        0.0000000000000000     
  0.37500000000000000       0.81250000000000000        0.0000000000000000     
  0.25000000000000000       0.84375000000000000        0.0000000000000000     
  0.28125000000000000       0.84375000000000000        0.0000000000000000     
  0.31250000000000000       0.84375000000000000        0.0000000000000000     
  0.34375000000000000       0.84375000000000000        0.0000000000000000     
  0.37500000000000000       0.84375000000000000        0.0000000000000000     
  0.25000000000000000       0.87500000000000000        0.0000000000000000     
  0.28125000000000000       0.87500000000000000        0.0000000000000000     
  0.31250000000000000       0.87500000000000000        0.0000000000000000     
  0.34375000000000000       0.87500000000000000        0.0000000000000000     
  0.37500000000000000       0.87500000000000000        0.0000000000000000     
  0.37500000000000000       0.75000000000000000        0.0000000000000000     
  0.40625000000000000       0.75000000000000000        0.0000000000000000     
  0.43750000000000000       0.75000000000000000        0.0000000000000000     
  0.46875000000000000       0.75000000000000000        0.0000000000000000     
  0.50000000000000000       0.75000000000000000        0.0000000000000000     
  0.37500000000000000       0.78125000000000000        0.0000000000000000     
  0.40625000000000000       0.78125000000000000        0.0000000000000000     
  0.43750000000000000       0.78125000000000000        0.0000000000000000     
  0.46875000000000000       0.78125000000000000        0.0000000000000000     
  0.50000000000000000       0.78125000000000000        0.0000000000000000     
  0.37500000000000000       0.81250000000000000        0.0000000000000000     
  0.40625000000000000       0.81250000000000000        0.0000000000000000     
  0.43750000000000000       0.81250000000000000        0.0000000000000000     
  0.46875000000000000       0.81250000000000000        0.0000000000000000     
  0.50000000000000000       0.81250000000000000        0.0000000000000000     
  0.37500000000000000       0.84375000000000000        0.0000000000000000     
  0.40625000000000000       0.84375000000000000        0.0000000000000000     
  0.43750000000000000       0.84375000000000000        0.0000000000000000     
  0.46875000000000000       0.84375000000000000        0.0000000000000000     
  0.50000000000000000       0.84375000000000000        0.0000000000000000     
  0.37500000000000000       0.87500000000000000        0.0000000000000000     
  0.40625000000000000       0.87500000000000000        0.0000000000000000     
  0.43750000000000000       0.87500000000000000        0.0000000000000000     
  0.46875000000000000       0.87500000000000000        0.0000000000000000     
  0.50000000000000000       0.87500000000000000        0.0000000000000000     
  0.50000000000000000       0.75000000000000000        0.0000000000000000     
  0.53125000000000000       0.75000000000000000        0.0000000000000000     
  0.56250000000000000       0.75000000000000000        0.0000000000000000     
  0.59375000000000000       0.75000000000000000        0.0000000000000000     
  0.62500000000000000       0.75000000000000000        0.0000000000000000     
  0.50000000000000000       0.78125000000000000        0.0000000000000000     
  0.53125000000000000       0.78125000000000000        0.0000000000000000     
  0.56250000000000000       0.78125000000000000        0.0000000000000000     
  0.59375000000000000       0.78125000000000000        0.0000000000000000     
  0.62500000000000000       0.78125000000000000        0.0000000000000000     
  0.50000000000000000       0.81250000000000000        0.0000000000000000     
  0.53125000000000000       0.81250000000000000        0.0000000000000000     
  0.56250000000000000       0.81250000000000000        0.0000000000000000     
  0.59375000000000000       0.81250000000000000        0.0000000000000000     
  0.62500000000000000       0.81250000000000000        0.0000000000000000     
  0.50000000000000000       0.84375000000000000        0.0000000000000000     
  0.53125000000000000       0.84375000000000000        0.0000000000000000     
  0.56250000000000000       0.84375000000000000        0.0000000000000000     
  0.59375000000000000       0.84375000000000000        0.0000000000000000     
  0.62500000000000000       0.84375000000000000        0.0000000000000000     
  0.50000000000000000       0.87500000000000000        0.0000000000000000     
  0.53125000000000000       0.87500000000000000        0.0000000000000000     
  0.56250000000000000       0.87500000000000000        0.0000000000000000     
  0.59375000000000000       0.87500000000000000        0.0000000000000000     
  0.62500000000000000       0.87500000000000000        0.0000000000000000     
  0.62500000000000000       0.75000000000000000        0.0000000000000000     
  0.65625000000000000       0.75000000000000000        0.0000000000000000     
  0.68750000000000000       0.75000000000000000        0.0000000000000000     
  0.71875000000000000       0.75000000000000000        0.0000000000000000     
  0.75000000000000000       0.75000000000000000        0.0000000000000000     
  0.62500000000000000       0.78125000000000000        0.0000000000000000     
  0.65625000000000000       0.78125000000000000        0.0000000000000000     
  0.68750000000000000       0.78125000000000000        0.0000000000000000     
  0.71875000000000000       0.78125000000000000        0.0000000000000000     
  0.75000000000000000       0.78125000000000000        0.0000000000000000     
  0.62500000000000000       0.81250000000000000        0.0000000000000000     
  0.65625000000000000       0.81250000000000000        0.0000000000000000     
  0.68750000000000000       0.81250000000000000        0.0000000000000000     
  0.71875000000000000       0.81250000000000000        0.0000000000000000     
  0.75000000000000000       0.81250000000000000        0.0000000000000000     
  0.62500000000000000       0.84375000000000000        0.0000000000000000     
  0.65625000000000000       0.84375000000000000        0.0000000000000000     
  0.68750000000000000       0.84375000000000000        0.0000000000000000     
  0.71875000000000000       0.84375000000000000        0.0000000000000000     
  0.75000000000000000       0.84375000000000000        0.0000000000000000     
  0.62500000000000000       0.87500000000000000        0.0000000000000000     
  0.65625000000000000       0.87500000000000000        0.0000000000000000     
  0.68750000000000000       0.87500000000000000        0.0000000000000000     
  0.71875000000000000       0.87500000000000000        0.0000000000000000     
  0.75000000000000000       0.87500000000000000        0.0000000000000000     
  0.75000000000000000       0.75000000000000000        0.0000000000000000     
  0.78125000000000000       0.75000000000000000        0.0000000000000000     
  0.81250000000000000       0.75000000000000000        0.0000000000000000     
  0.84375000000000000       0.75000000000000000        0.0000000000000000     
  0.87500000000000000       0.75000000000000000        0.0000000000000000     
  0.75000000000000000       0.78125000000000000        0.0000000000000000     
  0.78125000000000000       0.78125000000000000        0.0000000000000000     
  0.81250000000000000       0.78125000000000000        0.0000000000000000     
  0.84375000000000000       0.78125000000000000        0.0000000000000000     
  0.87500000000000000       0.78125000000000000        0.0000000000000000     
  0.75000000000000000       0.81250000000000000        0.0000000000000000     
  0.78125000000000000       0.81250000000000000        0.0000000000000000     
  0.81250000000000000       0.81250000000000000        0.0000000000000000     
  0.84375000000000000       0.81250000000000000        0.0000000000000000     
  0.87500000000000000       0.81250000000000000        0.0000000000000000     
  0.75000000000000000       0.84375000000000000        0.0000000000000000     
  0.78125000000000000       0.84375000000000000        0.0000000000000000     
  0.81250000000000000       0.84375000000000000        0.0000000000000000     
  0.84375000000000000       0.84375000000000000        0.0000000000000000     
  0.87500000000000000       0.84375000000000000        0.0000000000000000     
  0.75000000000000000       0.87500000000000000        0.0000000000000000     
  0.78125000000000000       0.87500000000000000        0.0000000000000000     
  0.81250000000000000       0.87500000000000000        0.0000000000000000     
  0.84375000000000000       0.87500000000000000        0.0000000000000000     
  0.87500000000000000       0.87500000000000000        0.0000000000000000     
  0.87500000000000000       0.75000000000000000        0.0000000000000000     
  0.90625000000000000       0.75000000000000000        0.0000000000000000     
  0.93750000000000000       0.75000000000000000        0.0000000000000000     
  0.96875000000000000       0.75000000000000000        0.0000000000000000     
   1.0000000000000000       0.75000000000000000        0.0000000000000000     
  0.87500000000000000       0.78125000000000000        0.0000000000000000     
  0.90625000000000000       0.78125000000000000        0.0000000000000000     
  0.93750000000000000       0.78125000000000000        0.0000000000000000     
  0.96875000000000000       0.78125000000000000        0.0000000000000000     
   1.0000000000000000       0.78125000000000000        0.0000000000000000     
  0.87500000000000000       0.81250000000000000        0.0000000000000000     
  0.90625000000000000       0.81250000000000000        0.0000000000000000     
  0.93750000000000000       0.81250000000000000        0.0000000000000000     
  0.96875000000000000       0.81250000000000000        0.0000000000000000     
   1.0000000000000000       0.81250000000000000        0.0000000000000000     
  0.87500000000000000       0.84375000000000000        0.0000000000000000     
  0.90625000000000000       0.84375000000000000        0.0000000000000000     
  0.93750000000000000       0.84375000000000000        0.0000000000000000     
  0.96875000000000000       0.84375000000000000        0.0000000000000000     
   1.0000000000000000       0.84375000000000000        0.0000000000000000     
  0.87500000000000000       0.87500000000000000        0.0000000000000000     
  0.90625000000000000       0.87500000000000000        0.0000000000000000     
  0.93750000000000000       0.87500000000000000        0.0000000000000000     
  0.96875000000000000       0.87500000000000000        0.0000000000000000     
   1.0000000000000000       0.87500000000000000        0.0000000000000000     
   0.0000000000000000       0.87500000000000000        0.0000000000000000     
   3.1250000000000000E-002  0.87500000000000000        0.0000000000000000     
   6.2500000000000000E-002  0.87500000000000000        0.0000000000000000     
   9.3750000000000000E-002  0.87500000000000000        0.0000000000000000     
  0.12500000000000000       0.87500000000000000        0.0000000000000000     
   0.0000000000000000       0.90625000000000000        0.0000000000000000     
   3.1250000000000000E-002  0.90625000000000000        0.0000000000000000     
   6.2500000000000000E-002  0.90625000000000000        0.0000000000000000     
   9.3750000000000000E-002  0.90625000000000000        0.0000000000000000     
  0.12500000000000000       0.90625000000000000        0.0000000000000000     
   0.0000000000000000       0.93750000000000000        0.0000000000000000     
   3.1250000000000000E-002  0.93750000000000000        0.0000000000000000     
   6.2500000000000000E-002  0.93750000000000000        0.0000000000000000     
   9.3750000000000000E-002  0.93750000000000000        0.0000000000000000     
  0.12500000000000000       0.93750000000000000        0.0000000000000000     
   0.0000000000000000       0.96875000000000000        0.0000000000000000     
   3.1250000000000000E-002  0.96875000000000000        0.0000000000000000     
   6.2500000000000000E-002  0.96875000000000000        0.0000000000000000     
   9.3750000000000000E-002  0.96875000000000000        0.0000000000000000     
  0.12500000000000000       0.96875000000000000        0.0000000000000000     
   0.0000000000000000        1.0000000000000000        0.0000000000000000     
   3.1250000000000000E-002   1.0000000000000000        0.0000000000000000     
   6.2500000000000000E-002   1.0000000000000000        0.0000000000000000     
   9.3750000000000000E-002   1.0000000000000000        0.0000000000000000     
  0.12500000000000000        1.0000000000000000        0.0000000000000000     
  0.12500000000000000       0.87500000000000000        0.0000000000000000     
  0.15625000000000000       0.87500000000000000        0.0000000000000000     
  0.18750000000000000       0.87500000000000000        0.0000000000000000     
  0.21875000000000000       0.87500000000000000        0.0000000000000000     
  0.25000000000000000       0.87500000000000000        0.0000000000000000     
  0.12500000000000000       0.90625000000000000        0.0000000000000000     
  0.15625000000000000       0.90625000000000000        0.0000000000000000     
  0.18750000000000000       0.90625000000000000        0.0000000000000000     
  0.21875000000000000       0.90625000000000000        0.0000000000000000     
  0.25000000000000000       0.90625000000000000        0.0000000000000000     
  0.12500000000000000       0.93750000000000000        0.0000000000000000     
  0.15625000000000000       0.93750000000000000        0.0000000000000000     
  0.18750000000000000       0.93750000000000000        0.0000000000000000     
  0.21875000000000000       0.93750000000000000        0.0000000000000000     
  0.25000000000000000       0.93750000000000000        0.0000000000000000     
  0.12500000000000000       0.96875000000000000        0.0000000000000000     
  0.15625000000000000       0.96875000000000000        0.0000000000000000     
  0.18750000000000000       0.96875000000000000        0.0000000000000000     
  0.21875000000000000       0.96875000000000000        0.0000000000000000     
  0.25000000000000000       0.96875000000000000        0.0000000000000000     
  0.12500000000000000        1.0000000000000000        0.0000000000000000     
  0.15625000000000000        1.0000000000000000        0.0000000000000000     
  0.18750000000000000        1.0000000000000000        0.0000000000000000     
  0.21875000000000000        1.0000000000000000        0.0000000000000000     
  0.25000000000000000        1.0000000000000000        0.0000000000000000     
  0.25000000000000000       0.87500000000000000        0.0000000000000000     
  0.28125000000000000       0.87500000000000000        0.0000000000000000     
  0.31250000000000000       0.87500000000000000        0.0000000000000000     
  0.34375000000000000       0.87500000000000000        0.0000000000000000     
  0.37500000000000000       0.87500000000000000        0.0000000000000000     
  0.25000000000000000       0.90625000000000000        0.0000000000000000     
  0.28125000000000000       0.90625000000000000        0.0000000000000000     
  0.31250000000000000       0.90625000000000000        0.0000000000000000     
  0.34375000000000000       0.90625000000000000        0.0000000000000000     
  0.37500000000000000       0.90625000000000000        0.0000000000000000     
  0.25000000000000000       0.93750000000000000        0.0000000000000000     
  0.28125000000000000       0.93750000000000000        0.0000000000000000     
  0.31250000000000000       0.93750000000000000        0.0000000000000000     
  0.34375000000000000       0.93750000000000000        0.0000000000000000     
  0.37500000000000000       0.93750000000000000        0.0000000000000000     
  0.25000000000000000       0.96875000000000000        0.0000000000000000     
  0.28125000000000000       0.96875000000000000        0.0000000000000000     
  0.31250000000000000       0.96875000000000000        0.0000000000000000     
  0.34375000000000000       0.96875000000000000        0.0000000000000000     
  0.37500000000000000       0.96875000000000000        0.0000000000000000     
  0.25000000000000000        1.0000000000000000        0.0000000000000000     
  0.28125000000000000        1.0000000000000000        0.0000000000000000     
  0.31250000000000000        1.0000000000000000        0.0000000000000000     
  0.34375000000000000        1.0000000000000000        0.0000000000000000     
  0.37500000000000000        1.0000000000000000        0.0000000000000000     
  0.37500000000000000       0.87500000000000000        0.0000000000000000     
  0.40625000000000000       0.87500000000000000        0.0000000000000000     
  0.43750000000000000       0.87500000000000000        0.0000000000000000     
  0.46875000000000000       0.87500000000000000        0.0000000000000000     
  0.50000000000000000       0.87500000000000000        0.0000000000000000     
  0.37500000000000000       0.90625000000000000        0.0000000000000000     
  0.40625000000000000       0.90625000000000000        0.0000000000000000     
  0.43750000000000000       0.90625000000000000        0.0000000000000000     
  0.46875000000000000       0.90625000000000000        0.0000000000000000     
  0.50000000000000000       0.90625000000000000        0.0000000000000000     
  0.37500000000000000       0.93750000000000000        0.0000000000000000     
  0.40625000000000000       0.93750000000000000        0.0000000000000000     
  0.43750000000000000       0.93750000000000000        0.0000000000000000     
  0.46875000000000000       0.93750000000000000        0.0000000000000000     
  0.50000000000000000       0.93750000000000000        0.0000000000000000     
  0.37500000000000000       0.96875000000000000        0.0000000000000000     
  0.40625000000000000       0.96875000000000000        0.0000000000000000     
  0.43750000000000000       0.96875000000000000        0.0000000000000000     
  0.46875000000000000       0.96875000000000000        0.0000000000000000     
  0.50000000000000000       0.96875000000000000        0.0000000000000000     
  0.37500000000000000        1.0000000000000000        0.0000000000000000     
  0.40625000000000000        1.0000000000000000        0.0000000000000000     
  0.43750000000000000        1.0000000000000000        0.0000000000000000     
  0.46875000000000000        1.0000000000000000        0.0000000000000000     
  0.50000000000000000        1.0000000000000000        0.0000000000000000     
  0.50000000000000000       0.87500000000000000        0.0000000000000000     
  0.53125000000000000       0.87500000000000000        0.0000000000000000     
  0.56250000000000000       0.87500000000000000        0.0000000000000000     
  0.59375000000000000       0.87500000000000000        0.0000000000000000     
  0.62500000000000000       0.87500000000000000        0.0000000000000000     
  0.50000000000000000       0.90625000000000000        0.0000000000000000     
  0.53125000000000000       0.90625000000000000        0.0000000000000000     
  0.56250000000000000       0.90625000000000000        0.0000000000000000     
  0.59375000000000000       0.90625000000000000        0.0000000000000000     
  0.62500000000000000       0.90625000000000000        0.0000000000000000     
  0.50000000000000000       0.93750000000000000        0.0000000000000000     
  0.53125000000000000       0.93750000000000000        0.0000000000000000     
  0.56250000000000000       0.93750000000000000        0.0000000000000000     
  0.59375000000000000       0.93750000000000000        0.0000000000000000     
  0.62500000000000000       0.93750000000000000        0.0000000000000000     
  0.50000000000000000       0.96875000000000000        0.0000000000000000     
  0.53125000000000000       0.96875000000000000        0.0000000000000000     
  0.56250000000000000       0.96875000000000000        0.0000000000000000     
  0.59375000000000000       0.96875000000000000        0.0000000000000000     
  0.62500000000000000       0.96875000000000000        0.0000000000000000     
  0.50000000000000000        1.0000000000000000        0.0000000000000000     
  0.53125000000000000        1.0000000000000000        0.0000000000000000     
  0.56250000000000000        1.0000000000000000        0.0000000000000000     
  0.59375000000000000        1.0000000000000000        0.0000000000000000     
  0.62500000000000000        1.0000000000000000        0.0000000000000000     
  0.62500000000000000       0.87500000000000000        0.0000000000000000     
  0.65625000000000000       0.87500000000000000        0.0000000000000000     
  0.68750000000000000       0.87500000000000000        0.0000000000000000     
  0.71875000000000000       0.87500000000000000        0.0000000000000000     
  0.75000000000000000       0.87500000000000000        0.0000000000000000     
  0.62500000000000000       0.90625000000000000        0.0000000000000000     
  0.65625000000000000       0.90625000000000000        0.0000000000000000     
  0.68750000000000000       0.90625000000000000        0.0000000000000000     
  0.71875000000000000       0.90625000000000000        0.0000000000000000     
  0.75000000000000000       0.90625000000000000        0.0000000000000000     
  0.62500000000000000       0.93750000000000000        0.0000000000000000     
  0.65625000000000000       0.93750000000000000        0.0000000000000000     
  0.68750000000000000       0.93750000000000000        0.0000000000000000     
  0.71875000000000000       0.93750000000000000        0.0000000000000000     
  0.75000000000000000       0.93750000000000000        0.0000000000000000     
  0.62500000000000000       0.96875000000000000        0.0000000000000000     
  0.65625000000000000       0.96875000000000000        0.0000000000000000     
  0.68750000000000000       0.96875000000000000        0.0000000000000000     
  0.71875000000000000       0.96875000000000000        0.0000000000000000     
  0.75000000000000000       0.96875000000000000        0.0000000000000000     
  0.62500000000000000        1.0000000000000000        0.0000000000000000     
  0.65625000000000000        1.0000000000000000        0.0000000000000000     
  0.68750000000000000        1.0000000000000000        0.0000000000000000     
  0.71875000000000000        1.0000000000000000        0.0000000000000000     
  0.75000000000000000        1.0000000000000000        0.0000000000000000     
  0.75000000000000000       0.87500000000000000        0.0000000000000000     
  0.78125000000000000       0.87500000000000000        0.0000000000000000     
  0.81250000000000000       0.87500000000000000        0.0000000000000000     
  0.84375000000000000       0.87500000000000000        0.0000000000000000     
  0.87500000000000000       0.87500000000000000        0.0000000000000000     
  0.75000000000000000       0.90625000000000000        0.0000000000000000     
  0.78125000000000000       0.90625000000000000        0.0000000000000000     
  0.81250000000000000       0.90625000000000000        0.0000000000000000     
  0.84375000000000000       0.90625000000000000        0.0000000000000000     
  0.87500000000000000       0.90625000000000000        0.0000000000000000     
  0.75000000000000000       0.93750000000000000        0.0000000000000000     
  0.78125000000000000       0.93750000000000000        0.0000000000000000     
  0.81250000000000000       0.93750000000000000        0.0000000000000000     
  0.84375000000000000       0.93750000000000000        0.0000000000000000     
  0.87500000000000000       0.93750000000000000        0.0000000000000000     
  0.75000000000000000       0.96875000000000000        0.0000000000000000     
  0.78125000000000000       0.96875000000000000        0.0000000000000000     
  0.81250000000000000       0.96875000000000000        0.0000000000000000     
  0.84375000000000000       0.96875000000000000        0.0000000000000000     
  0.87500000000000000       0.96875000000000000        0.0000000000000000     
  0.75000000000000000        1.0000000000000000        0.0000000000000000     
  0.78125000000000000        1.0000000000000000        0.0000000000000000     
  0.81250000000000000        1.0000000000000000        0.0000000000000000     
  0.84375000000000000        1.0000000000000000        0.0000000000000000     
  0.87500000000000000        1.0000000000000000        0.0000000000000000     
  0.87500000000000000       0.87500000000000000        0.0000000000000000     
  0.90625000000000000       0.87500000000000000        0.0000000000000000     
  0.93750000000000000       0.87500000000000000        0.0000000000000000     
  0.96875000000000000       0.87500000000000000        0.0000000000000000     
   1.0000000000000000       0.87500000000000000        0.0000000000000000     
  0.87500000000000000       0.90625000000000000        0.0000000000000000     
  0.90625000000000000       0.90625000000000000        0.0000000000000000     
  0.93750000000000000       0.90625000000000000        0.0000000000000000     
  0.96875000000000000       0.90625000000000000        0.0000000000000000     
   1.0000000000000000       0.90625000000000000        0.0000000000000000     
  0.87500000000000000       0.93750000000000000        0.0000000000000000     
  0.90625000000000000       0.93750000000000000        0.0000000000000000     
  0.93750000000000000       0.93750000000000000        0.0000000000000000     
  0.96875000000000000       0.93750000000000000        0.0000000000000000     
   1.0000000000000000       0.93750000000000000        0.0000000000000000     
  0.87500000000000000       0.96875000000000000        0.0000000000000000     
  0.90625000000000000       0.96875000000000000        0.0000000000000000     
  0.93750000000000000       0.96875000000000000        0.0000000000000000     
  0.96875000000000000       0.96875000000000000        0.0000000000000000     
   1.0000000000000000       0.96875000000000000        0.0000000000000000     
  0.87500000000000000        1.0000000000000000        0.0000000000000000     
  0.90625000000000000        1.0000000000000000        0.0000000000000000     
  0.93750000000000000        1.0000000000000000        0.0000000000000000     
  0.96875000000000000        1.0000000000000000        0.0000000000000000     
   1.0000000000000000        1.0000000000000000        0.0000000000000000     
 </DataArray>
 </Points>
 <Cells>
 <DataArray  type="Int32"  Name="connectivity"  format="ascii">
           0           1           6           5
           1           2           7           6
           2           3           8           7
           3           4           9           8
           5           6          11          10
           6           7          12          11
           7           8          13          12
           8           9          14          13
          10          11          16          15
          11          12          17          16
          12          13          18          17
          13          14          19          18
          15          16          21          20
          16          17          22          21
          17          18          23          22
          18          19          24          23
          25          26          31          30
          26          27          32          31
          27          28          33          32
          28          29          34          33
          30          31          36          35
          31          32          37          36
          32          33          38          37
          33          34          39          38
          35          36          41          40
          36          37          42          41
          37          38          43          42
          38          39          44          43
          40          41          46          45
          41          42          47          46
          42          43          48          47
          43          44          49          48
          50          51          56          55
          51          52          57          56
          52          53          58          57
          53          54          59          58
          55          56          61          60
          56          57          62          61
          57          58          63          62
          58          59          64          63
          60          61          66          65
          61          62          67          66
          62          63          68          67
          63          64          69          68
          65          66          71          70
          66          67          72          71
          67          68          73          72
          68          69          74          73
          75          76          81          80
          76          77          82          81
          77          78          83          82
          78          79          84          83
          80          81          86          85
          81          82          87          86
          82          83          88          87
          83          84          89          88
          85          86          91          90
          86          87          92          91
          87          88          93          92
          88          89          94          93
          90          91          96          95
          91          92          97          96
          92          93          98          97
          93          94          99          98
         100         101         106         105
         101         102         107         106
         102         103         108         107
         103         104         109         108
         105         106         111         110
         106         107         112         111
         107         108         113         112
         108         109         114         113
         110         111         116         115
         111         112         117         116
         112         113         118         117
         113         114         119         118
         115         116         121         120
         116         117         122         121
         117         118         123         122
         118         119         124         123
         125         126         131         130
         126         127         132         131
         127         128         133         132
         128         129         134         133
         130         131         136         135
         131         132         137         136
         132         133         138         137
         133         134         139         138
         135         136         141         140
         136         137         142         141
         137         138         143         142
         138         139         144         143
         140         141         146         145
         141         142         147         146
         142         143         148         147
         143         144         149         148
         150         151         156         155
         151         152         157         156
         152         153         158         157
         153         154         159         158
         155         156         161         160
         156         157         162         161
         157         158         163         162
         158         159         164         163
         160         161         166         165
         161         162         167         166
         162         163         168         167
         163         164         169         168
         165         166         171         170
         166         167         172         171
         167         168         173         172
         168         169         174         173
         175         176         181         180
         176         177         182         181
         177         178         183         182
         178         179         184         183
         180         181         186         185
         181         182         187         186
         182         183         188         187
         183         184         189         188
         185         186         191         190
         186         187         192         191
         187         188         193         192
         188         189         194         193
         190         191         196         195
         191         192         197         196
         192         193         198         197
         193         194         199         198
         200         201         206         205
         201         202         207         206
         202         203         208         207
         203         204         209         208
         205         206         211         210
         206         207         212         211
         207         208         213         212
         208         209         214         213
         210         211         216         215
         211         212         217         216
         212         213         218         217
         213         214         219         218
         215         216         221         220
         216         217         222         221
         217         218         223         222
         218         219         224         223
         225         226         231         230
         226         227         232         231
         227         228         233         232
         228         229         234         233
         230         231         236         235
         231         232         237         236
         232         233         238         237
         233         234         239         238
         235         236         241         240
         236         237         242         241
         237         238         243         242
         238         239         244         243
         240         241         246         245
         241         242         247         246
         242         243         248         247
         243         244         249         248
         250         251         256         255
         251         252         257         256
         252         253         258         257
         253         254         259         258
         255         256         261         260
         256         257         262         261
         257         258         263         262
         258         259         264         263
         260         261         266         265
         261         262         267         266
         262         263         268         267
         263         264         269         268
         265         266         271         270
         266         267         272         271
         267         268         273         272
         268         269         274         273
         275         276         281         280
         276         277         282         281
         277         278         283         282
         278         279         284         283
         280         281         286         285
         281         282         287         286
         282         283         288         287
         283         284         289         288
         285         286         291         290
         286         287         292         291
         287         288         293         292
         288         289         294         293
         290         291         296         295
         291         292         297         296
         292         293         298         297
         293         294         299         298
         300         301         306         305
         301         302         307         306
         302         303         308         307
         303         304         309         308
         305         306         311         310
         306         307         312         311
         307         308         313         312
         308         309         314         313
         310         311         316         315
         311         312         317         316
         312         313         318         317
         313         314         319         318
         315         316         321         320
         316         317         322         321
         317         318         323         322
         318         319         324         323
         325         326         331         330
         326         327         332         331
         327         328         333         332
         328         329         334         333
         330         331         336         335
         331         332         337         336
         332         333         338         337
         333         334         339         338
         335         336         341         340
         336         337         342         341
         337         338         343         342
         338         339         344         343
         340         341         346         345
         341         342         347         346
         342         343         348         347
         343         344         349         348
         350         351         356         355
         351         352         357         356
         352         353         358         357
         353         354         359         358
         355         356         361         360
         356         357         362         361
         357         358         363         362
         358         359         364         363
         360         361         366         365
         361         362         367         366
         362         363         368         367
         363         364         369         368
         365         366         371         370
         366         367         372         371
         367         368         373         372
         368         369         374         373
         375         376         381         380
         376         377         382         381
         377         378         383         382
         378         379         384         383
         380         381         386         385
         381         382         387         386
         382         383         388         387
         383         384         389         388
         385         386         391         390
         386         387         392         391
         387         388         393         392
         388         389         394         393
         390         391         396         395
         391         392         397         396
         392         393         398         397
         393         394         399         398
         400         401         406         405
         401         402         407         406
         402         403         408         407
         403         404         409         408
         405         406         411         410
         406         407         412         411
         407         408         413         412
         408         409         414         413
         410         411         416         415
         411         412         417         416
         412         413         418         417
         413         414         419         418
         415         416         421         420
         416         417         422         421
         417         418         423         422
         418         419         424         423
         425         426         431         430
         426         427         432         431
         427         428         433         432
         428         429         434         433
         430         431         436         435
         431         432         437         436
         432         433         438         437
         433         434         439         438
         435         436         441         440
         436         437         442         441
         437         438         443         442
         438         439         444         443
         440         441         446         445
         441         442         447         446
         442         443         448         447
         443         444         449         448
         450         451         456         455
         451         452         457         456
         452         453         458         457
         453         454         459         458
         455         456         461         460
         456         457         462         461
         457         458         463         462
         458         459         464         463
         460         461         466         465
         461         462         467         466
         462         463         468         467
         463         464         469         468
         465         466         471         470
         466         467         472         471
         467         468         473         472
         468         469         474         473
         475         476         481         480
         476         477         482         481
         477         478         483         482
         478         479         484         483
         480         481         486         485
         481         482         487         486
         482         483         488         487
         483         484         489         488
         485         486         491         490
         486         487         492         491
         487         488         493         492
         488         489         494         493
         490         491         496         495
         491         492         497         496
         492         493         498         497
         493         494         499         498
         500         501         506         505
         501         502         507         506
         502         503         508         507
         503         504         509         508
         505         506         511         510
         506         507         512         511
         507         508         513         512
         508         509         514         513
         510         511         516         515
         511         512         517         516
         512         513         518         517
         513         514         519         518
         515         516         521         520
         516         517         522         521
         517         518         523         522
         518         519         524         523
         525         526         531         530
         526         527         532         531
         527         528         533         532
         528         529         534         533
         530         531         536         535
         531         532         537         536
         532         533         538         537
         533         534         539         538
         535         536         541         540
         536         537         542         541
         537         538         543         542
         538         539         544         543
         540         541         546         545
         541         542         547         546
         542         543         548         547
         543         544         549         548
         550         551         556         555
         551         552         557         556
         552         553         558         557
         553         554         559         558
         555         556         561         560
         556         557         562         561
         557         558         563         562
         558         559         564         563
         560         561         566         565
         561         562         567         566
         562         563         568         567
         563         564         569         568
         565         566         571         570
         566         567         572         571
         567         568         573         572
         568         569         574         573
         575         576         581         580
         576         577         582         581
         577         578         583         582
         578         579         584         583
         580         581         586         585
         581         582         587         586
         582         583         588         587
         583         584         589         588
         585         586         591         590
         586         587         592         591
         587         588         593         592
         588         589         594         593
         590         591         596         595
         591         592         597         596
         592         593         598         597
         593         594         599         598
         600         601         606         605
         601         602         607         606
         602         603         608         607
         603         604         609         608
         605         606         611         610
         606         607         612         611
         607         608         613         612
         608         609         614         613
         610         611         616         615
         611         612         617         616
         612         613         618         617
         613         614         619         618
         615         616         621         620
         616         617         622         621
         617         618         623         622
         618         619         624         623
         625         626         631         630
         626         627         632         631
         627         628         633         632
         628         629         634         633
         630         631         636         635
         631         632         637         636
         632         633         638         637
         633         634         639         638
         635         636         641         640
         636         637         642         641
         637         638         643         642
         638         639         644         643
         640         641         646         645
         641         642         647         646
         642         643         648         647
         643         644         649         648
         650         651         656         655
         651         652         657         656
         652         653         658         657
         653         654         659         658
         655         656         661         660
         656         657         662         661
         657         658         663         662
         658         659         664         663
         660         661         666         665
         661         662         667         666
         662         663         668         667
         663         664         669         668
         665         666         671         670
         666         667         672         671
         667         668         673         672
         668         669         674         673
         675         676         681         680
         676         677         682         681
         677         678         683         682
         678         679         684         683
         680         681         686         685
         681         682         687         686
         682         683         688         687
         683         684         689         688
         685         686         691         690
         686         687         692         691
         687         688         693         692
         688         689         694         693
         690         691         696         695
         691         692         697         696
         692         693         698         697
         693         694         699         698
         700         701         706         705
         701         702         707         706
         702         703         708         707
         703         704         709         708
         705         706         711         710
         706         707         712         711
         707         708         713         712
         708         709         714         713
         710         711         716         715
         711         712         717         716
         712         713         718         717
         713         714         719         718
         715         716         721         720
         716         717         722         721
         717         718         723         722
         718         719         724         723
         725         726         731         730
         726         727         732         731
         727         728         733         732
         728         729         734         733
         730         731         736         735
         731         732         737         736
         732         733         738         737
         733         734         739         738
         735         736         741         740
         736         737         742         741
         737         738         743         742
         738         739         744         743
         740         741         746         745
         741         742         747         746
         742         743         748         747
         743         744         749         748
         750         751         756         755
         751         752         757         756
         752         753         758         757
         753         754         759         758
         755         756         761         760
         756         757         762         761
         757         758         763         762
         758         759         764         763
         760         761         766         765
         761         762         767         766
         762         763         768         767
         763         764         769         768
         765         766         771         770
         766         767         772         771
         767         768         773         772
         768         769         774         773
         775         776         781         780
         776         777         782         781
         777         778         783         782
         778         779         784         783
         780         781         786         785
         781         782         787         786
         782         783         788         787
         783         784         789         788
         785         786         791         790
         786         787         792         791
         787         788         793         792
         788         789         794         793
         790         791         796         795
         791         792         797         796
         792         793         798         797
         793         794         799         798
         800         801         806         805
         801         802         807         806
         802         803         808         807
         803         804         809         808
         805         806         811         810
         806         807         812         811
         807         808         813         812
         808         809         814         813
         810         811         816         815
         811         812         817         816
         812         813         818         817
         813         814         819         818
         815         816         821         820
         816         817         822         821
         817         818         823         822
         818         819         824         823
         825         826         831         830
         826         827         832         831
         827         828         833         832
         828         829         834         833
         830         831         836         835
         831         832         837         836
         832         833         838         837
         833         834         839         838
         835         836         841         840
         836         837         842         841
         837         838         843         842
         838         839         844         843
         840         841         846         845
         841         842         847         846
         842         843         848         847
         843         844         849         848
         850         851         856         855
         851         852         857         856
         852         853         858         857
         853         854         859         858
         855         856         861         860
         856         857         862         861
         857         858         863         862
         858         859         864         863
         860         861         866         865
         861         862         867         866
         862         863         868         867
         863         864         869         868
         865         866         871         870
         866         867         872         871
         867         868         873         872
         868         869         874         873
         875         876         881         880
         876         877         882         881
         877         878         883         882
         878         879         884         883
         880         881         886         885
         881         882         887         886
         882         883         888         887
         883         884         889         888
         885         886         891         890
         886         887         892         891
         887         888         893         892
         888         889         894         893
         890         891         896         895
         891         892         897         896
         892         893         898         897
         893         894         899         898
         900         901         906         905
         901         902         907         906
         902         903         908         907
         903         904         909         908
         905         906         911         910
         906         907         912         911
         907         908         913         912
         908         909         914         913
         910         911         916         915
         911         912         917         916
         912         913         918         917
         913         914         919         918
         915         916         921         920
         916         917         922         921
         917         918         923         922
         918         919         924         923
         925         926         931         930
         926         927         932         931
         927         928         933         932
         928         929         934         933
         930         931         936         935
         931         932         937         936
         932         933         938         937
         933         934         939         938
         935         936         941         940
         936         937         942         941
         937         938         943         942
         938         939         944         943
         940         941         946         945
         941         942         947         946
         942         943         948         947
         943         944         949         948
         950         951         956         955
         951         952         957         956
         952         953         958         957
         953         954         959         958
         955         956         961         960
         956         957         962         961
         957         958         963         962
         958         959         964         963
         960         961         966         965
         961         962         967         966
         962         963         968         967
         963         964         969         968
         965         966         971         970
         966         967         972         971
         967         968         973         972
         968         969         974         973
         975         976         981         980
         976         977         982         981
         977         978         983         982
         978         979         984         983
         980         981         986         985
         981         982         987         986
         982         983         988         987
         983         984         989         988
         985         986         991         990
         986         987         992         991
         987         988         993         992
         988         989         994         993
         990         991         996         995
         991         992         997         996
         992         993         998         997
         993         994         999         998
        1000        1001        1006        1005
        1001        1002        1007        1006
        1002        1003        1008        1007
        1003        1004        1009        1008
        1005        1006        1011        1010
        1006        1007        1012        1011
        1007        1008        1013        1012
        1008        1009        1014        1013
        1010        1011        1016        1015
        1011        1012        1017        1016
        1012        1013        1018        1017
        1013        1014        1019        1018
        1015        1016        1021        1020
        1016        1017        1022        1021
        1017        1018        1023        1022
        1018        1019        1024        1023
        1025        1026        1031        1030
        1026        1027        1032        1031
        1027        1028        1033        1032
        1028        1029        1034        1033
        1030        1031        1036        1035
        1031        1032        1037        1036
        1032        1033        1038        1037
        1033        1034        1039        1038
        1035        1036        1041        1040
        1036        1037        1042        1041
        1037        1038        1043        1042
        1038        1039        1044        1043
        1040        1041        1046        1045
        1041        1042        1047        1046
        1042        1043        1048        1047
        1043        1044        1049        1048
        1050        1051        1056        1055
        1051        1052        1057        1056
        1052        1053        1058        1057
        1053        1054        1059        1058
        1055        1056        1061        1060
        1056        1057        1062        1061
        1057        1058        1063        1062
        1058        1059        1064        1063
        1060        1061        1066        1065
        1061        1062        1067        1066
        1062        1063        1068        1067
        1063        1064        1069        1068
        1065        1066        1071        1070
        1066        1067        1072        1071
        1067        1068        1073        1072
        1068        1069        1074        1073
        1075        1076        1081        1080
        1076        1077        1082        1081
        1077        1078        1083        1082
        1078        1079        1084        1083
        1080        1081        1086        1085
        1081        1082        1087        1086
        1082        1083        1088        1087
        1083        1084        1089        1088
        1085        1086        1091        1090
        1086        1087        1092        1091
        1087        1088        1093        1092
        1088        1089        1094        1093
        1090        1091        1096        1095
        1091        1092        1097        1096
        1092        1093        1098        1097
        1093        1094        1099        1098
        1100        1101        1106        1105
        1101        1102        1107        1106
        1102        1103        1108        1107
        1103        1104        1109        1108
        1105        1106        1111        1110
        1106        1107        1112        1111
        1107        1108        1113        1112
        1108        1109        1114        1113
        1110        1111        1116        1115
        1111        1112        1117        1116
        1112        1113        1118        1117
        1113        1114        1119        1118
        1115        1116        1121        1120
        1116        1117        1122        1121
        1117        1118        1123        1122
        1118        1119        1124        1123
        1125        1126        1131        1130
        1126        1127        1132        1131
        1127        1128        1133        1132
        1128        1129        1134        1133
        1130        1131        1136        1135
        1131        1132        1137        1136
        1132        1133        1138        1137
        1133        1134        1139        1138
        1135        1136        1141        1140
        1136        1137        1142        1141
        1137        1138        1143        1142
        1138        1139        1144        1143
        1140        1141        1146        1145
        1141        1142        1147        1146
        1142        1143        1148        1147
        1143        1144        1149        1148
        1150        1151        1156        1155
        1151        1152        1157        1156
        1152        1153        1158        1157
        1153        1154        1159        1158
        1155        1156        1161        1160
        1156        1157        1162        1161
        1157        1158        1163        1162
        1158        1159        1164        1163
        1160        1161        1166        1165
        1161        1162        1167        1166
        1162        1163        1168        1167
        1163        1164        1169        1168
        1165        1166        1171        1170
        1166        1167        1172        1171
        1167        1168        1173        1172
        1168        1169        1174        1173
        1175        1176        1181        1180
        1176        1177        1182        1181
        1177        1178        1183        1182
        1178        1179        1184        1183
        1180        1181        1186        1185
        1181        1182        1187        1186
        1182        1183        1188        1187
        1183        1184        1189        1188
        1185        1186        1191        1190
        1186        1187        1192        1191
        1187        1188        1193        1192
        1188        1189        1194        1193
        1190        1191        1196        1195
        1191        1192        1197        1196
        1192        1193        1198        1197
        1193        1194        1199        1198
        1200        1201        1206        1205
        1201        1202        1207        1206
        1202        1203        1208        1207
        1203        1204        1209        1208
        1205        1206        1211        1210
        1206        1207        1212        1211
        1207        1208        1213        1212
        1208        1209        1214        1213
        1210        1211        1216        1215
        1211        1212        1217        1216
        1212        1213        1218        1217
        1213        1214        1219        1218
        1215        1216        1221        1220
        1216        1217        1222        1221
        1217        1218        1223        1222
        1218        1219        1224        1223
        1225        1226        1231        1230
        1226        1227        1232        1231
        1227        1228        1233        1232
        1228        1229        1234        1233
        1230        1231        1236        1235
        1231        1232        1237        1236
        1232        1233        1238        1237
        1233        1234        1239        1238
        1235        1236        1241        1240
        1236        1237        1242        1241
        1237        1238        1243        1242
        1238        1239        1244        1243
        1240        1241        1246        1245
        1241        1242        1247        1246
        1242        1243        1248        1247
        1243        1244        1249        1248
        1250        1251        1256        1255
        1251        1252        1257        1256
        1252        1253        1258        1257
        1253        1254        1259        1258
        1255        1256        1261        1260
        1256        1257        1262        1261
        1257        1258        1263        1262
        1258        1259        1264        1263
        1260        1261        1266        1265
        1261        1262        1267        1266
        1262        1263        1268        1267
        1263        1264        1269        1268
        1265        1266        1271        1270
        1266        1267        1272        1271
        1267        1268        1273        1272
        1268        1269        1274        1273
        1275        1276        1281        1280
        1276        1277        1282        1281
        1277        1278        1283        1282
        1278        1279        1284        1283
        1280        1281        1286        1285
        1281        1282        1287        1286
        1282        1283        1288        1287
        1283        1284        1289        1288
        1285        1286        1291        1290
        1286        1287        1292        1291
        1287        1288        1293        1292
        1288        1289        1294        1293
        1290        1291        1296        1295
        1291        1292        1297        1296
        1292        1293        1298        1297
        1293        1294        1299        1298
        1300        1301        1306        1305
        1301        1302        1307        1306
        1302        1303        1308        1307
        1303        1304        1309        1308
        1305        1306        1311        1310
        1306        1307        1312        1311
        1307        1308        1313        1312
        1308        1309        1314        1313
        1310        1311        1316        1315
        1311        1312        1317        1316
        1312        1313        1318        1317
        1313        1314        1319        1318
        1315        1316        1321        1320
        1316        1317        1322        1321
        1317        1318        1323        1322
        1318        1319        1324        1323
        1325        1326        1331        1330
        1326        1327        1332        1331
        1327        1328        1333        1332
        1328        1329        1334        1333
        1330        1331        1336        1335
        1331        1332        1337        1336
        1332        1333        1338        1337
        1333        1334        1339        1338
        1335        1336        1341        1340
        1336        1337        1342        1341
        1337        1338        1343        1342
        1338        1339        1344        1343
        1340        1341        1346        1345
        1341        1342        1347        1346
        1342        1343        1348        1347
        1343        1344        1349        1348
        1350        1351        1356        1355
        1351        1352        1357        1356
        1352        1353        1358        1357
        1353        1354        1359        1358
        1355        1356        1361        1360
        1356        1357        1362        1361
        1357        1358        1363        1362
        1358        1359        1364        1363
        1360        1361        1366        1365
        1361        1362        1367        1366
        1362        1363        1368        1367
        1363        1364        1369        1368
        1365        1366        1371        1370
        1366        1367        1372        1371
        1367        1368        1373        1372
        1368        1369        1374        1373
        1375        1376        1381        1380
        1376        1377        1382        1381
        1377        1378        1383        1382
        1378        1379        1384        1383
        1380        1381        1386        1385
        1381        1382        1387        1386
        1382        1383        1388        1387
        1383        1384        1389        1388
        1385        1386        1391        1390
        1386        1387        1392        1391
        1387        1388        1393        1392
        1388        1389        1394        1393
        1390        1391        1396        1395
        1391        1392        1397        1396
        1392        1393        1398        1397
        1393        1394        1399        1398
        1400        1401        1406        1405
        1401        1402        1407        1406
        1402        1403        1408        1407
        1403        1404        1409        1408
        1405        1406        1411        1410
        1406        1407        1412        1411
        1407        1408        1413        1412
        1408        1409        1414        1413
        1410        1411        1416        1415
        1411        1412        1417        1416
        1412        1413        1418        1417
        1413        1414        1419        1418
        1415        1416        1421        1420
        1416        1417        1422        1421
        1417        1418        1423        1422
        1418        1419        1424        1423
        1425        1426        1431        1430
        1426        1427        1432        1431
        1427        1428        1433        1432
        1428        1429        1434        1433
        1430        1431        1436        1435
        1431        1432        1437        1436
        1432        1433        1438        1437
        1433        1434        1439        1438
        1435        1436        1441        1440
        1436        1437        1442        1441
        1437        1438        1443        1442
        1438        1439        1444        1443
        1440        1441        1446        1445
        1441        1442        1447        1446
        1442        1443        1448        1447
        1443        1444        1449        1448
        1450        1451        1456        1455
        1451        1452        1457        1456
        1452        1453        1458        1457
        1453        1454        1459        1458
        1455        1456        1461        1460
        1456        1457        1462        1461
        1457        1458        1463        1462
        1458        1459        1464        1463
        1460        1461        1466        1465
        1461        1462        1467        1466
        1462        1463        1468        1467
        1463        1464        1469        1468
        1465        1466        1471        1470
        1466        1467        1472        1471
        1467        1468        1473        1472
        1468        1469        1474        1473
        1475        1476        1481        1480
        1476        1477        1482        1481
        1477        1478        1483        1482
        1478        1479        1484        1483
        1480        1481        1486        1485
        1481        1482        1487        1486
        1482        1483        1488        1487
        1483        1484        1489        1488
        1485        1486        1491        1490
        1486        1487        1492        1491
        1487        1488        1493        1492
        1488        1489        1494        1493
        1490        1491        1496        1495
        1491        1492        1497        1496
        1492        1493        1498        1497
        1493        1494        1499        1498
        1500        1501        1506        1505
        1501        1502        1507        1506
        1502        1503        1508        1507
        1503        1504        1509        1508
        1505        1506        1511        1510
        1506        1507        1512        1511
        1507        1508        1513        1512
        1508        1509        1514        1513
        1510        1511        1516        1515
        1511        1512        1517        1516
        1512        1513        1518        1517
        1513        1514        1519        1518
        1515        1516        1521        1520
        1516        1517        1522        1521
        1517        1518        1523        1522
        1518        1519        1524        1523
        1525        1526        1531        1530
        1526        1527        1532        1531
        1527        1528        1533        1532
        1528        1529        1534        1533
        1530        1531        1536        1535
        1531        1532        1537        1536
        1532        1533        1538        1537
        1533        1534        1539        1538
        1535        1536        1541        1540
        1536        1537        1542        1541
        1537        1538        1543        1542
        1538        1539        1544        1543
        1540        1541        1546        1545
        1541        1542        1547        1546
        1542        1543        1548        1547
        1543        1544        1549        1548
        1550        1551        1556        1555
        1551        1552        1557        1556
        1552        1553        1558        1557
        1553        1554        1559        1558
        1555        1556        1561        1560
        1556        1557        1562        1561
        1557        1558        1563        1562
        1558        1559        1564        1563
        1560        1561        1566        1565
        1561        1562        1567        1566
        1562        1563        1568        1567
        1563        1564        1569        1568
        1565        1566        1571        1570
        1566        1567        1572        1571
        1567        1568        1573        1572
        1568        1569        1574        1573
        1575        1576        1581        1580
        1576        1577        1582        1581
        1577        1578        1583        1582
        1578        1579        1584        1583
        1580        1581        1586        1585
        1581        1582        1587        1586
        1582        1583        1588        1587
        1583        1584        1589        1588
        1585        1586        1591        1590
        1586        1587        1592        1591
        1587        1588        1593        1592
        1588        1589        1594        1593
        1590        1591        1596        1595
        1591        1592        1597        1596
        1592        1593        1598        1597
        1593        1594        1599        1598
 </DataArray>
 <DataArray  type="Int32"  Name="offsets"  format="ascii"> 
           4
           8
          12
          16
          20
          24
          28
          32
          36
          40
          44
          48
          52
          56
          60
          64
          68
          72
          76
          80
          84
          88
          92
          96
         100
         104
         108
         112
         116
         120
         124
         128
         132
         136
         140
         144
         148
         152
         156
         160
         164
         168
         172
         176
         180
         184
         188
         192
         196
         200
         204
         208
         212
         216
         220
         224
         228
         232
         236
         240
         244
         248
         252
         256
         260
         264
         268
         272
         276
         280
         284
         288
         292
         296
         300
         304
         308
         312
         316
         320
         324
         328
         332
         336
         340
         344
         348
         352
         356
         360
         364
         368
         372
         376
         380
         384
         388
         392
         396
         400
         404
         408
         412
         416
         420
         424
         428
         432
         436
         440
         444
         448
         452
         456
         460
         464
         468
         472
         476
         480
         484
         488
         492
         496
         500
         504
         508
         512
         516
         520
         524
         528
         532
         536
         540
         544
         548
         552
         556
         560
         564
         568
         572
         576
         580
         584
         588
         592
         596
         600
         604
         608
         612
         616
         620
         624
         628
         632
         636
         640
         644
         648
         652
         656
         660
         664
         668
         672
         676
         680
         684
         688
         692
         696
         700
         704
         708
         712
         716
         720
         724
         728
         732
         736
         740
         744
         748
         752
         756
         760
         764
         768
         772
         776
         780
         784
         788
         792
         796
         800
         804
         808
         812
         816
         820
         824
         828
         832
         836
         840
         844
         848
         852
         856
         860
         864
         868
         872
         876
         880
         884
         888
         892
         896
         900
         904
         908
         912
         916
         920
         924
         928
         932
         936
         940
         944
         948
         952
         956
         960
         964
         968
         972
         976
         980
         984
         988
         992
         996
        1000
        1004
        1008
        1012
        1016
        1020
        1024
        1028
        1032
        1036
        1040
        1044
        1048
        1052
        1056
        1060
        1064
        1068
        1072
        1076
        1080
        1084
        1088
        1092
        1096
        1100
        1104
        1108
        1112
        1116
        1120
        1124
        1128
        1132
        1136
        1140
        1144
        1148
        1152
        1156
        1160
        1164
        1168
        1172
        1176
        1180
        1184
        1188
        1192
        1196
        1200
        1204
        1208
        1212
        1216
        1220
        1224
        1228
        1232
        1236
        1240
        1244
        1248
        1252
        1256
        1260
        1264
        1268
        1272
        1276
        1280
        1284
        1288
        1292
        1296
        1300
        1304
        1308
        1312
        1316
        1320
        1324
        1328
        1332
        1336
        1340
        1344
        1348
        1352
        1356
        1360
        1364
        1368
        1372
        1376
        1380
        1384
        1388
        1392
        1396
        1400
        1404
        1408
        1412
        1416
        1420
        1424
        1428
        1432
        1436
        1440
        1444
        1448
        1452
        1456
        1460
        1464
        1468
        1472
        1476
        1480
        1484
        1488
        1492
        1496
        1500
        1504
        1508
        1512
        1516
        1520
        1524
        1528
        1532
        1536
        1540
        1544
        1548
        1552
        1556
        1560
        1564
        1568
        1572
        1576
        1580
        1584
        1588
        1592
        1596
        1600
        1604
        1608
        1612
        1616
        1620
        1624
        1628
        1632
        1636
        1640
        1644
        1648
        1652
        1656
        1660
        1664
        1668
        1672
        1676
        1680
        1684
        1688
        1692
        1696
        1700
        1704
        1708
        1712
        1716
        1720
        1724
        1728
        1732
        1736
        1740
        1744
        1748
        1752
        1756
        1760
        1764
        1768
        1772
        1776
        1780
        1784
        1788
        1792
        1796
        1800
        1804
        1808
        1812
        1816
        1820
        1824
        1828
        1832
        1836
        1840
        1844
        1848
        1852
        1856
        1860
        1864
        1868
        1872
        1876
        1880
        1884
        1888
        1892
        1896
        1900
        1904
        1908
        1912
        1916
        1920
        1924
        1928
        1932
        1936
        1940
        1944
        1948
        1952
        1956
        1960
        1964
        1968
        1972
        1976
        1980
        1984
        1988
        1992
        1996
        2000
        2004
        2008
        2012
        2016
        2020
        2024
        2028
        2032
        2036
        2040
        2044
        2048
        2052
        2056
        2060
        2064
        2068
        2072
        2076
        2080
        2084
        2088
        2092
        2096
        2100
        2104
        2108
        2112
        2116
        2120
        2124
        2128
        2132
        2136
        2140
        2144
        2148
        2152
        2156
        2160
        2164
        2168
        2172
        2176
        2180
        2184
        2188
        2192
        2196
        2200
        2204
        2208
        2212
        2216
        2220
        2224
        2228
        2232
        2236
        2240
        2244
        2248
        2252
        2256
        2260
        2264
        2268
        2272
        2276
        2280
        2284
        2288
        2292
        2296
        2300
        2304
        2308
        2312
        2316
        2320
        2324
        2328
        2332
        2336
        2340
        2344
        2348
        2352
        2356
        2360
        2364
        2368
        2372
        2376
        2380
        2384
        2388
        2392
        2396
        2400
        2404
        2408
        2412
        2416
        2420
        2424
        2428
        2432
        2436
        2440
        2444
        2448
        2452
        2456
        2460
        2464
        2468
        2472
        2476
        2480
        2484
        2488
        2492
        2496
        2500
        2504
        2508
        2512
        2516
        2520
        2524
        2528
        2532
        2536
        2540
        2544
        2548
        2552
        2556
        2560
        2564
        2568
        2572
        2576
        2580
        2584
        2588
        2592
        2596
        2600
        2604
        2608
        2612
        2616
        2620
        2624
        2628
        2632
        2636
        2640
        2644
        2648
        2652
        2656
        2660
        2664
        2668
        2672
        2676
        2680
        2684
        2688
        2692
        2696
        2700
        2704
        2708
        2712
        2716
        2720
        2724
        2728
        2732
        2736
        2740
        2744
        2748
        2752
        2756
        2760
        2764
        2768
        2772
        2776
        2780
        2784
        2788
        2792
        2796
        2800
        2804
        2808
        2812
        2816
        2820
        2824
        2828
        2832
        2836
        2840
        2844
        2848
        2852
        2856
        2860
        2864
        2868
        2872
        2876
        2880
        2884
        2888
        2892
        2896
        2900
        2904
        2908
        2912
        2916
        2920
        2924
        2928
        2932
        2936
        2940
        2944
        2948
        2952
        2956
        2960
        2964
        2968
        2972
        2976
        2980
        2984
        2988
        2992
        2996
        3000
        3004
        3008
        3012
        3016
        3020
        3024
        3028
        3032
        3036
        3040
        3044
        3048
        3052
        3056
        3060
        3064
        3068
        3072
        3076
        3080
        3084
        3088
        3092
        3096
        3100
        3104
        3108
        3112
        3116
        3120
        3124
        3128
        3132
        3136
        3140
        3144
        3148
        3152
        3156
        3160
        3164
        3168
        3172
        3176
        3180
        3184
        3188
        3192
        3196
        3200
        3204
        3208
        3212
        3216
        3220
        3224
        3228
        3232
        3236
        3240
        3244
        3248
        3252
        3256
        3260
        3264
        3268
        3272
        3276
        3280
        3284
        3288
        3292
        3296
        3300
        3304
        3308
        3312
        3316
        3320
        3324
        3328
        3332
        3336
        3340
        3344
        3348
        3352
        3356
        3360
        3364
        3368
        3372
        3376
        3380
        3384
        3388
        3392
        3396
        3400
        3404
        3408
        3412
        3416
        3420
        3424
        3428
        3432
        3436
        3440
        3444
        3448
        3452
        3456
        3460
        3464
        3468
        3472
        3476
        3480
        3484
        3488
        3492
        3496
        3500
        3504
        3508
        3512
        3516
        3520
        3524
        3528
        3532
        3536
        3540
        3544
        3548
        3552
        3556
        3560
        3564
        3568
        3572
        3576
        3580
        3584
        3588
        3592
        3596
        3600
        3604
        3608
        3612
        3616
        3620
        3624
        3628
        3632
        3636
        3640
        3644
        3648
        3652
        3656
        3660
        3664
        3668
        3672
        3676
        3680
        3684
        3688
        3692
        3696
        3700
        3704
        3708
        3712
        3716
        3720
        3724
        3728
        3732
        3736
        3740
        3744
        3748
        3752
        3756
        3760
        3764
        3768
        3772
        3776
        3780
        3784
        3788
        3792
        3796
        3800
        3804
        3808
        3812
        3816
        3820
        3824
        3828
        3832
        3836
        3840
        3844
        3848
        3852
        3856
        3860
        3864
        3868
        3872
        3876
        3880
        3884
        3888
        3892
        3896
        3900
        3904
        3908
        3912
        3916
        3920
        3924
        3928
        3932
        3936
        3940
        3944
        3948
        3952
        3956
        3960
        3964
        3968
        3972
        3976
        3980
        3984
        3988
        3992
        3996
        4000
        4004
        4008
        4012
        4016
        4020
        4024
        4028
        4032
        4036
        4040
        4044
        4048
        4052
        4056
        4060
        4064
        4068
        4072
        4076
        4080
        4084
        4088
        4092
        4096
 </DataArray>
 <DataArray  type="UInt8"  Name="types"  format="ascii">
 9
 9
 9
 9
 9
 9
 9
 9
 9
 9
 9
 9
 9
 9
 9
 9
 9
 9
 9
 9
 9
 9
 9
 9
 9
 9
 9
 9
 9
 9
 9
 9
 9
 9
 9
 9
 9
 9
 9
 9
 9
 9
 9
 9
 9
 9
 9
 9
 9
 9
 9
 9
 9
 9
 9
 9
 9
 9
 9
 9
 9
 9
 9
 9
 9
 9
 9
 9
 9
 9
 9
 9
 9
 9
 9
 9
 9
 9
 9
 9
 9
 9
 9
 9
 9
 9
 9
 9
 9
 9
 9
 9
 9
 9
 9
 9
 9
 9
 9
 9
 9
 9
 9
 9
 9
 9
 9
 9
 9
 9
 9
 9
 9
 9
 9
 9
 9
 9
 9
 9
 9
 9
 9
 9
 9
 9
 9
 9
 9
 9
 9
 9
 9
 9
 9
 9
 9
 9
 9
 9
 9
 9
 9
 9
 9
 9
 9
 9
 9
 9
 9
 9
 9
 9
 9
 9
 9
 9
 9
 9
 9
 9
 9
 9
 9
 9
 9
 9
 9
 9
 9
 9
 9
 9
 9
 9
 9
 9
 9
 9
 9
 9
 9
 9
 9
 9
 9
 9
 9
 9
 9
 9
 9
 9
 9
 9
 9
 9
 9
 9
 9
 9
 9
 9
 9
 9
 9
 9
 9
 9
 9
 9
 9
 9
 9
 9
 9
 9
 9
 9
 9
 9
 9
 9
 9
 9
 9
 9
 9
 9
 9
 9
 9
 9
 9
 9
 9
 9
 9
 9
 9
 9
 9
 9
 9
 9
 9
 9
 9
 9
 9
 9
 9
 9
 9
 9
 9
 9
 9
 9
 9
 9
 9
 9
 9
 9
 9
 9
 9
 9
 9
 9
 9
 9
 9
 9
 9
 9
 9
 9
 9
 9
 9
 9
 9
 9
 9
 9
 9
 9
 9
 9
 9
 9
 9
 9
 9
 9
 9
 9
 9
 9
 9
 9
 9
 9
 9
 9
 9
 9
 9
 9
 9
 9
 9
 9
 9
 9
 9
 9
 9
 9
 9
 9
 9
 9
 9
 9
 9
 9
 9
 9
 9
 9
 9
 9
 9
 9
 9
 9
 9
 9
 9
 9
 9
 9
 9
 9
 9
 9
 9
 9
 9
 9
 9
 9
 9
 9
 9
 9
 9
 9
 9
 9
 9
 9
 9
 9
 9
 9
 9
 9
 9
 9
 9
 9
 9
 9
 9
 9
 9
 9
 9
 9
 9
 9
 9
 9
 9
 9
 9
 9
 9
 9
 9
 9
 9
 9
 9
 9
 9
 9
 9
 9
 9
 9
 9
 9
 9
 9
 9
 9
 9
 9
 9
 9
 9
 9
 9
 9
 9
 9
 9
 9
 9
 9
 9
 9
 9
 9
 9
 9
 9
 9
 9
 9
 9
 9
 9
 9
 9
 9
 9
 9
 9
 9
 9
 9
 9
 9
 9
 9
 9
 9
 9
 9
 9
 9
 9
 9
 9
 9
 9
 9
 9
 9
 9
 9
 9
 9
 9
 9
 9
 9
 9
 9
 9
 9
 9
 9
 9
 9
 9
 9
 9
 9
 9
 9
 9
 9
 9
 9
 9
 9
 9
 9
 9
 9
 9
 9
 9
 9
 9
 9
 9
 9
 9
 9
 9
 9
 9
 9
 9
 9
 9
 9
 9
 9
 9
 9
 9
 9
 9
 9
 9
 9
 9
 9
 9
 9
 9
 9
 9
 9
 9
 9
 9
 9
 9
 9
 9
 9
 9
 9
 9
 9
 9
 9
 9
 9
 9
 9
 9
 9
 9
 9
 9
 9
 9
 9
 9
 9
 9
 9
 9
 9
 9
 9
 9
 9
 9
 9
 9
 9
 9
 9
 9
 9
 9
 9
 9
 9
 9
 9
 9
 9
 9
 9
 9
 9
 9
 9
 9
 9
 9
 9
 9
 9
 9
 9
 9
 9
 9
 9
 9
 9
 9
 9
 9
 9
 9
 9
 9
 9
 9
 9
 9
 9
 9
 9
 9
 9
 9
 9
 9
 9
 9
 9
 9
 9
 9
 9
 9
 9
 9
 9
 9
 9
 9
 9
 9
 9
 9
 9
 9
 9
 9
 9
 9
 9
 9
 9
 9
 9
 9
 9
 9
 9
 9
 9
 9
 9
 9
 9
 9
 9
 9
 9
 9
 9
 9
 9
 9
 9
 9
 9
 9
 9
 9
 9
 9
 9
 9
 9
 9
 9
 9
 9
 9
 9
 9
 9
 9
 9
 9
 9
 9
 9
 9
 9
 9
 9
 9
 9
 9
 9
 9
 9
 9
 9
 9
 9
 9
 9
 9
 9
 9
 9
 9
 9
 9
 9
 9
 9
 9
 9
 9
 9
 9
 9
 9
 9
 9
 9
 9
 9
 9
 9
 9
 9
 9
 9
 9
 9
 9
 9
 9
 9
 9
 9
 9
 9
 9
 9
 9
 9
 9
 9
 9
 9
 9
 9
 9
 9
 9
 9
 9
 9
 9
 9
 9
 9
 9
 9
 9
 9
 9
 9
 9
 9
 9
 9
 9
 9
 9
 9
 9
 9
 9
 9
 9
 9
 9
 9
 9
 9
 9
 9
 9
 9
 9
 9
 9
 9
 9
 9
 9
 9
 9
 9
 9
 9
 9
 9
 9
 9
 9
 9
 9
 9
 9
 9
 9
 9
 9
 9
 9
 9
 9
 9
 9
 9
 9
 9
 9
 9
 9
 9
 9
 9
 9
 9
 9
 9
 9
 9
 9
 9
 9
 9
 9
 9
 9
 9
 9
 9
 9
 9
 9
 9
 9
 9
 9
 9
 9
 9
 9
 9
 9
 9
 9
 9
 9
 9
 9
 9
 9
 9
 9
 9
 9
 9
 9
 9
 9
 9
 9
 9
 9
 9
 9
 9
 9
 9
 9
 9
 9
 9
 9
 9
 9
 9
 9
 9
 9
 9
 9
 9
 9
 9
 9
 9
 9
 9
 9
 9
 9
 9
 9
 9
 9
 9
 9
 9
 9
 9
 9
 9
 9
 9
 9
 9
 9
 9
 9
 9
 9
 9
 9
 9
 9
 9
 9
 9
 9
 9
 9
 9
 9
 9
 9
 9
 9
 9
 9
 9
 9
 9
 9
 9
 9
 9
 9
 9
 9
 9
 9
 9
 9
 9
 9
 9
 9
 9
 9
 9
 9
 9
 9
 9
 9
 9
 9
 9
 9
 9
 9
 9
 9
 9
 9
 9
 9
 9
 9
 9
 9
 9
 9
 9
 9
 9
 9
 9
 9
 9
 9
 9
 9
 9
 9
 9
 9
 9
 9
 9
 9
 9
 9
 9
 9
 9
 9
 9
 </DataArray>
 </Cells> 
 <PointData>
 <DataArray  type="Float64" Name="disp" NumberOfComponents="3" format="ascii">
   0.0000000000000000        0.0000000000000000        0.0000000000000000     
   6.0960142466314083E-003   3.7901717439410443E-003   0.0000000000000000     
   1.1666155730722976E-002   7.3236310310012993E-003   0.0000000000000000     
   1.6710424452274705E-002   1.0600377861180767E-002   0.0000000000000000     
   2.1228820411286594E-002   1.3620412234479448E-002   0.0000000000000000     
   0.0000000000000000        0.0000000000000000        0.0000000000000000     
   4.8911610890753736E-003   3.0219138770885582E-003   0.0000000000000000     
   9.5736801738425907E-003   6.0603498527797726E-003   0.0000000000000000     
   1.4047557254301655E-002   9.1153079270736431E-003   0.0000000000000000     
   1.8312792330452566E-002   1.2186788099970168E-002   0.0000000000000000     
   0.0000000000000000        0.0000000000000000        0.0000000000000000     
   3.9535460247672183E-003   2.4249400364916361E-003   0.0000000000000000     
   7.9105962865630951E-003   5.0627634878906615E-003   0.0000000000000000     
   1.1871150785387630E-002   7.9134703541970750E-003   0.0000000000000000     
   1.5835209521240821E-002   1.0977060635410879E-002   0.0000000000000000     
   0.0000000000000000        0.0000000000000000        0.0000000000000000     
   3.2831690537069433E-003   1.9992502221502779E-003   0.0000000000000000     
   6.6769040688844858E-003   4.3308719363339670E-003   0.0000000000000000     
   1.0181205045532625E-002   6.9948651425510667E-003   0.0000000000000000     
   1.3796071983651362E-002   9.9912298408015767E-003   0.0000000000000000     
   0.0000000000000000        0.0000000000000000        0.0000000000000000     
   2.8800301758945485E-003   1.7448444340644842E-003   0.0000000000000000     
   5.8726035208067628E-003   3.8646751981096890E-003   0.0000000000000000     
   8.9777200347366439E-003   6.3594922921356165E-003   0.0000000000000000     
   1.2195379717684189E-002   9.2292957161422638E-003   0.0000000000000000     
   2.1228820411286594E-002   1.3620412234479448E-002   0.0000000000000000     
   2.5433975220083067E-002   1.6613848884853379E-002   0.0000000000000000     
   2.9538520490988551E-002   1.9810802546258607E-002   0.0000000000000000     
   3.3542456224003044E-002   2.3211273218695122E-002   0.0000000000000000     
   3.7445782419126543E-002   2.6815260902162935E-002   0.0000000000000000     
   1.8312792330452566E-002   1.2186788099970168E-002   0.0000000000000000     
   2.2407513970811480E-002   1.5342692722731468E-002   0.0000000000000000     
   2.6369850743894564E-002   1.8650924146619664E-002   0.0000000000000000     
   3.0199802649701825E-002   2.2111482371634746E-002   0.0000000000000000     
   3.3897369688233252E-002   2.5724367397776719E-002   0.0000000000000000     
   1.5835209521240821E-002   1.0977060635410879E-002   0.0000000000000000     
   1.9731005402760883E-002   1.4211988411731645E-002   0.0000000000000000     
   2.3486771338586024E-002   1.7576707763358956E-002   0.0000000000000000     
   2.7102507328716250E-002   2.1071218690292794E-002   0.0000000000000000     
   3.0578213373151555E-002   2.4695521192533175E-002   0.0000000000000000     
   1.3796071983651362E-002   9.9912298408015767E-003   0.0000000000000000     
   1.7404449515931269E-002   1.3221735951853912E-002   0.0000000000000000     
   2.0889282275062919E-002   1.6588153396476478E-002   0.0000000000000000     
   2.4250570261046309E-002   2.0090482174669272E-002   0.0000000000000000     
   2.7488313473881445E-002   2.3728722286432295E-002   0.0000000000000000     
   1.2195379717684189E-002   9.2292957161422638E-003   0.0000000000000000     
   1.5427846310322643E-002   1.2371935343098260E-002   0.0000000000000000     
   1.8577383553325253E-002   1.5685261045972232E-002   0.0000000000000000     
   2.1643991446692015E-002   1.9169272824764175E-002   0.0000000000000000     
   2.4627669990422929E-002   2.2823970679474097E-002   0.0000000000000000     
   3.7445782419126543E-002   2.6815260902162935E-002   0.0000000000000000     
   4.1253981887135686E-002   3.0619246781076370E-002   0.0000000000000000     
   4.4972537438807123E-002   3.4619712039849759E-002   0.0000000000000000     
   4.8601449074140844E-002   3.8816656678483115E-002   0.0000000000000000     
   5.2140716793136851E-002   4.3210080696976419E-002   0.0000000000000000     
   3.3897369688233252E-002   2.5724367397776719E-002   0.0000000000000000     
   3.7486000226764057E-002   2.9519482955435397E-002   0.0000000000000000     
   4.0989142632569461E-002   3.3526732775000581E-002   0.0000000000000000     
   4.4406796905649436E-002   3.7746116856472285E-002   0.0000000000000000     
   4.7738963046004022E-002   4.2177635199850502E-002   0.0000000000000000     
   3.0578213373151555E-002   2.4695521192533175E-002   0.0000000000000000     
   3.3943078197082026E-002   2.8495083087279556E-002   0.0000000000000000     
   3.7226290525697758E-002   3.2515372191731423E-002   0.0000000000000000     
   4.0427850358998749E-002   3.6756388505888762E-002   0.0000000000000000     
   4.3547757696984990E-002   4.1218132029751581E-002   0.0000000000000000     
   2.7488313473881445E-002   2.3728722286432295E-002   0.0000000000000000     
   3.0625215798089592E-002   2.7546047176608867E-002   0.0000000000000000     
   3.3683981118192027E-002   3.1585630290042278E-002   0.0000000000000000     
   3.6664609434188748E-002   3.5847471626732533E-002   0.0000000000000000     
   3.9567100746079754E-002   4.0331571186679641E-002   0.0000000000000000     
   2.4627669990422929E-002   2.2823970679474097E-002   0.0000000000000000     
   2.7532413029786759E-002   2.6672375223423313E-002   0.0000000000000000     
   3.0362214410052261E-002   3.0737507069933147E-002   0.0000000000000000     
   3.3117074131219448E-002   3.5019366219003610E-002   0.0000000000000000     
   3.5796992193288309E-002   3.9517952670634689E-002   0.0000000000000000     
   5.2140716793136851E-002   4.3210080696976419E-002   0.0000000000000000     
   5.5583126930437175E-002   4.7802529828372423E-002   0.0000000000000000     
   5.8921465820683826E-002   5.2596549805713863E-002   0.0000000000000000     
   6.2155733463876824E-002   5.7592140629000733E-002   0.0000000000000000     
   6.5285929860016148E-002   6.2789302298233041E-002   0.0000000000000000     
   4.7738963046004022E-002   4.2177635199850502E-002   0.0000000000000000     
   5.0980333016566473E-002   4.6812860452827211E-002   0.0000000000000000     
   5.4125598780270054E-002   5.1643365263094383E-002   0.0000000000000000     
   5.7174760337114779E-002   5.6669149630652033E-002   0.0000000000000000     
   6.0127817687100640E-002   6.1890213555500138E-002   0.0000000000000000     
   4.3547757696984990E-002   4.1218132029751581E-002   0.0000000000000000     
   4.6582688624270910E-002   4.5886409808090306E-002   0.0000000000000000     
   4.9529319225470894E-002   5.0747028885675366E-002   0.0000000000000000     
   5.2387649500584950E-002   5.5799989262506754E-002   0.0000000000000000     
   5.5157679449613070E-002   6.1045290938584490E-002   0.0000000000000000     
   3.9567100746079754E-002   4.0331571186679641E-002   0.0000000000000000     
   4.2390193753550472E-002   4.5023177894161687E-002   0.0000000000000000     
   4.5132627156286319E-002   4.9907540673456784E-002   0.0000000000000000     
   4.7794400954287310E-002   5.4984659524564911E-002   0.0000000000000000     
   5.0375515147553430E-002   6.0254534447486081E-002   0.0000000000000000     
   3.5796992193288309E-002   3.9517952670634689E-002   0.0000000000000000     
   3.8402848404405165E-002   4.4223164711041367E-002   0.0000000000000000     
   4.0935522572716362E-002   4.9124900626438643E-002   0.0000000000000000     
   4.3395014698221879E-002   5.4223160416826503E-002   0.0000000000000000     
   4.5781324780921728E-002   5.9517944082204947E-002   0.0000000000000000     
   6.5285929860016148E-002   6.2789302298233041E-002   0.0000000000000000     
   6.8324701246990319E-002   6.8175468464225938E-002   0.0000000000000000     
   7.1284693862687834E-002   7.3738072777794567E-002   0.0000000000000000     
   7.4165907707108694E-002   7.9477115238938925E-002   0.0000000000000000     
   7.6968342780252913E-002   8.5392595847659014E-002   0.0000000000000000     
   6.0127817687100640E-002   6.1890213555500138E-002   0.0000000000000000     
   6.2991921739410983E-002   6.7298698163323997E-002   0.0000000000000000     
   6.5774223403229151E-002   7.2886744579808871E-002   0.0000000000000000     
   6.8474722678555158E-002   7.8654352804954752E-002   0.0000000000000000     
   7.1093419565388977E-002   8.4601522838761670E-002   0.0000000000000000     
   5.5157679449613070E-002   6.1045290938584490E-002   0.0000000000000000     
   5.7842539287102680E-002   6.6477442509123630E-002   0.0000000000000000     
   6.0445359227601171E-002   7.2090952569339214E-002   0.0000000000000000     
   6.2966139271108557E-002   7.7885821119231230E-002   0.0000000000000000     
   6.5404879417624837E-002   8.3862048158799718E-002   0.0000000000000000     
   5.0375515147553430E-002   6.0254534447486081E-002   0.0000000000000000     
   5.2876553890065389E-002   6.5711701501624808E-002   0.0000000000000000     
   5.5298101335803887E-002   7.1350696746385542E-002   0.0000000000000000     
   5.7640157484768924E-002   7.7171520181768316E-002   0.0000000000000000     
   5.9902722336960500E-002   8.3174171807773090E-002   0.0000000000000000     
   4.5781324780921728E-002   5.9517944082204947E-002   0.0000000000000000     
   4.8093965548299117E-002   6.5001475140827561E-002   0.0000000000000000     
   5.0332449727837292E-002   7.0665977110947908E-002   0.0000000000000000     
   5.2496777319536239E-002   7.6511449992566011E-002   0.0000000000000000     
   5.4586948323395973E-002   8.2537893785681868E-002   0.0000000000000000     
   7.6968342780252913E-002   8.5392595847659014E-002   0.0000000000000000     
   7.9677925202029626E-002   9.1481241685980416E-002   0.0000000000000000     
   8.2280581092347982E-002   9.7739779835928714E-002   0.0000000000000000     
   8.4776310451207995E-002  0.10416821029750394        0.0000000000000000     
   8.7165113278609624E-002  0.11076653307070605        0.0000000000000000     
   7.1093419565388977E-002   8.4601522838761670E-002   0.0000000000000000     
   7.3621416613201512E-002   9.0721809641045370E-002   0.0000000000000000     
   7.6049816371463658E-002   9.7008768171621546E-002   0.0000000000000000     
   7.8378618840175440E-002  0.10346239843049025        0.0000000000000000     
   8.0607824019336805E-002  0.11008270041765146        0.0000000000000000     
   6.5404879417624837E-002   8.3862048158799718E-002   0.0000000000000000     
   6.7756362080651847E-002   9.0010974184934187E-002   0.0000000000000000     
   7.0015369673691499E-002   9.6323939694524199E-002   0.0000000000000000     
   7.2181902196743697E-002  0.10280094468756973        0.0000000000000000     
   7.4255959649808537E-002  0.10944198916407082        0.0000000000000000     
   5.9902722336960500E-002   8.3174171807773090E-002   0.0000000000000000     
   6.2082761604380657E-002   8.9348735317646907E-002   0.0000000000000000     
   6.4177240999031424E-002   9.5685294404636675E-002   0.0000000000000000     
   6.6186160520912835E-002  0.10218384906874241        0.0000000000000000     
   6.8109520170024807E-002  0.10884439930996410        0.0000000000000000     
   5.4586948323395973E-002   8.2537893785681868E-002   0.0000000000000000     
   5.6600615184387915E-002   8.8735093039183505E-002   0.0000000000000000     
   5.8535430347483507E-002   9.5092832301958960E-002   0.0000000000000000     
   6.0391393812682756E-002  0.10161111157400826        0.0000000000000000     
   6.2168505579985656E-002  0.10828993085533137        0.0000000000000000     
   8.7165113278609624E-002  0.11076653307070605        0.0000000000000000     
   8.9442205129077204E-002  0.11750446209611083        0.0000000000000000     
   9.1602801557134961E-002  0.12435171131429409        0.0000000000000000     
   9.3646902562782922E-002  0.13130828072525577        0.0000000000000000     
   9.5574508146021073E-002  0.13837417032899590        0.0000000000000000     
   8.0607824019336805E-002  0.11008270041765146        0.0000000000000000     
   8.2743312755438739E-002  0.11684378660429492        0.0000000000000000     
   8.4790965894972148E-002  0.12371976946161041        0.0000000000000000     
   8.6750783437937060E-002  0.13071064898959789        0.0000000000000000     
   8.8622765384333474E-002  0.13781642518825737        0.0000000000000000     
   7.4255959649808537E-002  0.10944198916407082        0.0000000000000000     
   7.6249714809766403E-002  0.11622498982695649        0.0000000000000000     
   7.8175340453497791E-002  0.12312786337915584        0.0000000000000000     
   8.0032836581002686E-002  0.13015060982066887        0.0000000000000000     
   8.1822203192281090E-002  0.13729322915149558        0.0000000000000000     
   6.8109520170024807E-002  0.10884439930996410        0.0000000000000000     
   6.9961411292060224E-002  0.11564807176409553        0.0000000000000000     
   7.1755925232711917E-002  0.12257599306693039        0.0000000000000000     
   7.3493061991979816E-002  0.12962816321846868        0.0000000000000000     
   7.5172821569863948E-002  0.13680458221871045        0.0000000000000000     
   6.2168505579985656E-002  0.10828993085533137        0.0000000000000000     
   6.3878402202320231E-002  0.11511303241571205        0.0000000000000000     
   6.5532720232614472E-002  0.12206415852493407        0.0000000000000000     
   6.7131459670868421E-002  0.12914330918299738        0.0000000000000000     
   6.8674620517082036E-002  0.13635048438990199        0.0000000000000000     
   9.5574508146021073E-002  0.13837417032899590        0.0000000000000000     
   9.7446536628484279E-002  0.14556889726920966        0.0000000000000000     
   9.9323906331807404E-002  0.15291197868959219        0.0000000000000000     
  0.10120661725599044       0.16040341459014348        0.0000000000000000     
  0.10309466940103339       0.16804320497086359        0.0000000000000000     
   8.8622765384333474E-002  0.13781642518825737        0.0000000000000000     
   9.0417172211633257E-002  0.14504698057813725        0.0000000000000000     
   9.2144264397308356E-002  0.15241219767978592        0.0000000000000000     
   9.3804041941358787E-002  0.15991207649320335        0.0000000000000000     
   9.5396504843784494E-002  0.16754661701838958        0.0000000000000000     
   8.1822203192281090E-002  0.13729322915149558        0.0000000000000000     
   8.3522279291657203E-002  0.14455797440832008        0.0000000000000000     
   8.5111903883455242E-002  0.15194709862782649        0.0000000000000000     
   8.6591076967675221E-002  0.15946060181001492        0.0000000000000000     
   8.7959798544317111E-002  0.16709848395488522        0.0000000000000000     
   7.5172821569863948E-002  0.13680458221871045        0.0000000000000000     
   7.6761857868556105E-002  0.14410187875975802        0.0000000000000000     
   7.8226824790248048E-002  0.15151668153371392        0.0000000000000000     
   7.9567722334939750E-002  0.15904899054057808        0.0000000000000000     
   8.0784550502631253E-002  0.16669880578035060        0.0000000000000000     
   6.8674620517082036E-002  0.13635048438990199        0.0000000000000000     
   7.0135907942329934E-002  0.14367869363245117        0.0000000000000000     
   7.1489027117686718E-002  0.15112094639744819        0.0000000000000000     
   7.2733978043152389E-002  0.15867724268489300        0.0000000000000000     
   7.3870760718726933E-002  0.16634758249478565        0.0000000000000000     
   0.0000000000000000        0.0000000000000000        0.0000000000000000     
   2.8800301758945485E-003   1.7448444340644842E-003   0.0000000000000000     
   5.8726035208067628E-003   3.8646751981096890E-003   0.0000000000000000     
   8.9777200347366439E-003   6.3594922921356165E-003   0.0000000000000000     
   1.2195379717684189E-002   9.2292957161422638E-003   0.0000000000000000     
   0.0000000000000000        0.0000000000000000        0.0000000000000000     
   2.6102850114826590E-003   1.5890220358662673E-003   0.0000000000000000     
   5.2896988732851593E-003   3.5568183868509235E-003   0.0000000000000000     
   8.0382415854075018E-003   5.9033890529539678E-003   0.0000000000000000     
   1.0855913147849687E-002   8.6287340341754011E-003   0.0000000000000000     
   0.0000000000000000        0.0000000000000000        0.0000000000000000     
   2.3400891806239000E-003   1.4590823911876417E-003   0.0000000000000000     
   4.7201943572749072E-003   3.2999466161907640E-003   0.0000000000000000     
   7.1403155299530219E-003   5.5225926750093668E-003   0.0000000000000000     
   9.6004526986582430E-003   8.1270205676434500E-003   0.0000000000000000     
   0.0000000000000000        0.0000000000000000        0.0000000000000000     
   2.0694426833182721E-003   1.3550255000286072E-003   0.0000000000000000     
   4.1640899727760057E-003   3.0940598861292118E-003   0.0000000000000000     
   6.2839418683732010E-003   5.2171031583018125E-003   0.0000000000000000     
   8.4289983701098595E-003   7.7241553165464105E-003   0.0000000000000000     
   0.0000000000000000        0.0000000000000000        0.0000000000000000     
   1.7983455195657750E-003   1.2768513623891639E-003   0.0000000000000000     
   3.6213857197884549E-003   2.9391581966662656E-003   0.0000000000000000     
   5.4691206006680405E-003   4.9869205028313050E-003   0.0000000000000000     
   7.3415501622045307E-003   7.4201382808842834E-003   0.0000000000000000     
   1.2195379717684189E-002   9.2292957161422638E-003   0.0000000000000000     
   1.5427846310322643E-002   1.2371935343098260E-002   0.0000000000000000     
   1.8577383553325253E-002   1.5685261045972232E-002   0.0000000000000000     
   2.1643991446692015E-002   1.9169272824764175E-002   0.0000000000000000     
   2.4627669990422929E-002   2.2823970679474097E-002   0.0000000000000000     
   1.0855913147849687E-002   8.6287340341754011E-003   0.0000000000000000     
   1.3689322165514805E-002   1.1650660838976337E-002   0.0000000000000000     
   1.6485077243305935E-002   1.4886976975817878E-002   0.0000000000000000     
   1.9243178381223087E-002   1.8337682444700035E-002   0.0000000000000000     
   2.1963625579266257E-002   2.2002777245622801E-002   0.0000000000000000     
   9.6004526986582430E-003   8.1270205676434500E-003   0.0000000000000000     
   1.2077003461087541E-002   1.1045986692999766E-002   0.0000000000000000     
   1.4546365414937880E-002   1.4212247449985076E-002   0.0000000000000000     
   1.7008538560209258E-002   1.7625802838599370E-002   0.0000000000000000     
   1.9463522896901682E-002   2.1286652858842656E-002   0.0000000000000000     
   8.4289983701098595E-003   7.7241553165464105E-003   0.0000000000000000     
   1.0590890197040860E-002   1.0557912905168563E-002   0.0000000000000000     
   1.2761248068221084E-002   1.3661072468473819E-002   0.0000000000000000     
   1.4940071983650534E-002   1.7033634006462187E-002   0.0000000000000000     
   1.7127361943329204E-002   2.0675597519133660E-002   0.0000000000000000     
   7.3415501622045307E-003   7.4201382808842834E-003   0.0000000000000000     
   9.2309823733747569E-003   1.0186439475482712E-002   0.0000000000000000     
   1.1129725203155546E-002   1.3233452031284114E-002   0.0000000000000000     
   1.3037778651546900E-002   1.6561175948288480E-002   0.0000000000000000     
   1.4955142718548819E-002   2.0169611226495812E-002   0.0000000000000000     
   2.4627669990422929E-002   2.2823970679474097E-002   0.0000000000000000     
   2.7532413029786759E-002   2.6672375223423313E-002   0.0000000000000000     
   3.0362214410052261E-002   3.0737507069933147E-002   0.0000000000000000     
   3.3117074131219448E-002   3.5019366219003610E-002   0.0000000000000000     
   3.5796992193288309E-002   3.9517952670634689E-002   0.0000000000000000     
   2.1963625579266257E-002   2.2002777245622801E-002   0.0000000000000000     
   2.4629971782897209E-002   2.5880242347958621E-002   0.0000000000000000     
   2.7225769937577700E-002   2.9968058721079931E-002   0.0000000000000000     
   2.9751020043307742E-002   3.4266226364986732E-002   0.0000000000000000     
   3.2205722100087320E-002   3.8774745279679029E-002   0.0000000000000000     
   1.9463522896901682E-002   2.1286652858842656E-002   0.0000000000000000     
   2.1883193948144624E-002   2.5175823670450515E-002   0.0000000000000000     
   2.4239427237067564E-002   2.9274341433158511E-002   0.0000000000000000     
   2.6532222763670506E-002   3.3582206146966664E-002   0.0000000000000000     
   2.8761580527953447E-002   3.8099417811874967E-002   0.0000000000000000     
   1.7127361943329204E-002   2.0675597519133660E-002   0.0000000000000000     
   1.9292079525529009E-002   2.4559119190898981E-002   0.0000000000000000     
   2.1403186308521855E-002   2.8656355206168899E-002   0.0000000000000000     
   2.3460682292307748E-002   3.2967305564943393E-002   0.0000000000000000     
   2.5464567476886683E-002   3.7491970267222501E-002   0.0000000000000000     
   1.4955142718548819E-002   2.0169611226495812E-002   0.0000000000000000     
   1.6856628515050359E-002   2.4030128909304040E-002   0.0000000000000000     
   1.8717047151940572E-002   2.8114100040111081E-002   0.0000000000000000     
   2.0536398629219469E-002   3.2421524618916939E-002   0.0000000000000000     
   2.2314682946887033E-002   3.6952402645721624E-002   0.0000000000000000     
   3.5796992193288309E-002   3.9517952670634689E-002   0.0000000000000000     
   3.8402848404405165E-002   4.4223164711041367E-002   0.0000000000000000     
   4.0935522572716362E-002   4.9124900626438643E-002   0.0000000000000000     
   4.3395014698221879E-002   5.4223160416826503E-002   0.0000000000000000     
   4.5781324780921728E-002   5.9517944082204947E-002   0.0000000000000000     
   3.2205722100087320E-002   3.8774745279679029E-002   0.0000000000000000     
   3.4592132397232397E-002   4.3489035342935509E-002   0.0000000000000000     
   3.6912507224058928E-002   4.8404516432534871E-002   0.0000000000000000     
   3.9166846580566905E-002   5.3521188548477129E-002   0.0000000000000000     
   4.1355150466756328E-002   5.8839051690762256E-002   0.0000000000000000     
   2.8761580527953447E-002   3.8099417811874967E-002   0.0000000000000000     
   3.0929525552429532E-002   4.2823454874050260E-002   0.0000000000000000     
   3.3038082859611934E-002   4.7751795779659406E-002   0.0000000000000000     
   3.5087252449500624E-002   5.2884440528702392E-002   0.0000000000000000     
   3.7077034322095637E-002   5.8221389121179253E-002   0.0000000000000000     
   2.5464567476886683E-002   3.7491970267222501E-002   0.0000000000000000     
   2.7415027869996587E-002   4.2226423304385627E-002   0.0000000000000000     
   2.9312249479375378E-002   4.7166738667812236E-002   0.0000000000000000     
   3.1156232305023065E-002   5.2312916357502341E-002   0.0000000000000000     
   3.2946976346939640E-002   5.7664956373455915E-002   0.0000000000000000     
   2.2314682946887033E-002   3.6952402645721624E-002   0.0000000000000000     
   2.4048639349933548E-002   4.1697940633941603E-002   0.0000000000000000     
   2.5735007083349266E-002   4.6649345096993360E-002   0.0000000000000000     
   2.7373786147134191E-002   5.1806616034876914E-002   0.0000000000000000     
   2.8964976541288330E-002   5.7169753447592252E-002   0.0000000000000000     
   4.5781324780921728E-002   5.9517944082204947E-002   0.0000000000000000     
   4.8093965548299117E-002   6.5001475140827561E-002   0.0000000000000000     
   5.0332449727837292E-002   7.0665977110947908E-002   0.0000000000000000     
   5.2496777319536239E-002   7.6511449992566011E-002   0.0000000000000000     
   5.4586948323395973E-002   8.2537893785681868E-002   0.0000000000000000     
   4.1355150466756328E-002   5.8839051690762256E-002   0.0000000000000000     
   4.3476722447023122E-002   6.4347464348018316E-002   0.0000000000000000     
   4.5530866085763205E-002   7.0035785008873322E-002   0.0000000000000000     
   4.7517581382976563E-002   7.5904013673327275E-002   0.0000000000000000     
   4.9436868338663204E-002   8.1952150341380189E-002   0.0000000000000000     
   3.7077034322095637E-002   5.8221389121179253E-002   0.0000000000000000     
   3.9006772771456664E-002   6.3750370044483515E-002   0.0000000000000000     
   4.0875812091643426E-002   6.9459111786008790E-002   0.0000000000000000     
   4.2684152282655943E-002   7.5347614345755029E-002   0.0000000000000000     
   4.4431793344494180E-002   8.1415877723722288E-002   0.0000000000000000     
   3.2946976346939640E-002   5.7664956373455915E-002   0.0000000000000000     
   3.4684116521599730E-002   6.3210192230223172E-002   0.0000000000000000     
   3.6367287745477969E-002   6.8935957442354284E-002   0.0000000000000000     
   3.7996490018574358E-002   7.4842252009849300E-002   0.0000000000000000     
   3.9571723340888890E-002   8.0929075932708178E-002   0.0000000000000000     
   2.8964976541288330E-002   5.7169753447592252E-002   0.0000000000000000     
   3.0508753697452325E-002   6.2726930905237274E-002   0.0000000000000000     
   3.2005293047266827E-002   6.8466321977909861E-002   0.0000000000000000     
   3.3454594590731836E-002   7.4387926665610060E-002   0.0000000000000000     
   3.4856658327847345E-002   8.0491744968337831E-002   0.0000000000000000     
   5.4586948323395973E-002   8.2537893785681868E-002   0.0000000000000000     
   5.6600615184387915E-002   8.8735093039183505E-002   0.0000000000000000     
   5.8535430347483507E-002   9.5092832301958960E-002   0.0000000000000000     
   6.0391393812682756E-002  0.10161111157400826        0.0000000000000000     
   6.2168505579985656E-002  0.10828993085533137        0.0000000000000000     
   4.9436868338663204E-002   8.1952150341380189E-002   0.0000000000000000     
   5.1286251113192731E-002   8.8169974466750942E-002   0.0000000000000000     
   5.3063253866934730E-002   9.4547265503158492E-002   0.0000000000000000     
   5.4767876599889215E-002  0.10108402345060279        0.0000000000000000     
   5.6400119312056157E-002  0.10778024830908386        0.0000000000000000     
   4.4431793344494180E-002   8.1415877723722288E-002   0.0000000000000000     
   4.6115997683314223E-002   8.7653306717556265E-002   0.0000000000000000     
   4.7734027705272103E-002   9.4049306124902698E-002   0.0000000000000000     
   4.9285883410367839E-002  0.10060387594576155        0.0000000000000000     
   5.0771564798601405E-002  0.10731701618013288        0.0000000000000000     
   3.9571723340888890E-002   8.0929075932708178E-002   0.0000000000000000     
   4.1089854894752392E-002   8.7185089791599418E-002   0.0000000000000000     
   4.2547751862495632E-002   9.3598954167191550E-002   0.0000000000000000     
   4.3945414244118651E-002  0.10017066905948452        0.0000000000000000     
   4.5282842039621428E-002  0.10690023446847841        0.0000000000000000     
   3.4856658327847345E-002   8.0491744968337831E-002   0.0000000000000000     
   3.6207822747507216E-002   8.6765323688880402E-002   0.0000000000000000     
   3.7504426338605311E-002   9.3196209630025034E-002   0.0000000000000000     
   3.8746469101141635E-002   9.9784402791771726E-002   0.0000000000000000     
   3.9933951035116190E-002  0.10652990317412046        0.0000000000000000     
   6.2168505579985656E-002  0.10828993085533137        0.0000000000000000     
   6.3878402202320231E-002  0.11511303241571205        0.0000000000000000     
   6.5532720232614472E-002  0.12206415852493407        0.0000000000000000     
   6.7131459670868421E-002  0.12914330918299738        0.0000000000000000     
   6.8674620517082036E-002  0.13635048438990199        0.0000000000000000     
   5.6400119312056157E-002  0.10778024830908386        0.0000000000000000     
   5.7967657349516991E-002  0.11462174666743193        0.0000000000000000     
   5.9478166058353099E-002  0.12159432511447724        0.0000000000000000     
   6.0931645438564483E-002  0.12869798365021975        0.0000000000000000     
   6.2328095490151135E-002  0.13593272227465955        0.0000000000000000     
   5.0771564798601405E-002  0.10731701618013288        0.0000000000000000     
   5.2196146542621141E-002  0.11417608940488100        0.0000000000000000     
   5.3564703315075325E-002  0.12116845819687030        0.0000000000000000     
   5.4877235115963957E-002  0.12829412255610081        0.0000000000000000     
   5.6133741945287051E-002  0.13555308248257245        0.0000000000000000     
   4.5282842039621428E-002  0.10690023446847841        0.0000000000000000     
   4.6563869781632690E-002  0.11377606062805928        0.0000000000000000     
   4.7792332002781164E-002  0.12078655777211329        0.0000000000000000     
   4.8968228703066878E-002  0.12793172590064042        0.0000000000000000     
   5.0091559882489783E-002  0.13521156501364068        0.0000000000000000     
   3.9933951035116190E-002  0.10652990317412046        0.0000000000000000     
   4.1070827066551630E-002  0.11342166033696678        0.0000000000000000     
   4.2161052121470630E-002  0.12044862384020619        0.0000000000000000     
   4.3204626199873190E-002  0.12761079368383868        0.0000000000000000     
   4.4201549301759319E-002  0.13490816986786425        0.0000000000000000     
   6.8674620517082036E-002  0.13635048438990199        0.0000000000000000     
   7.0135907942329934E-002  0.14367869363245117        0.0000000000000000     
   7.1489027117686718E-002  0.15112094639744819        0.0000000000000000     
   7.2733978043152389E-002  0.15867724268489300        0.0000000000000000     
   7.3870760718726933E-002  0.16634758249478565        0.0000000000000000     
   6.2328095490151135E-002  0.13593272227465955        0.0000000000000000     
   6.3655147937057677E-002  0.14328919900441245        0.0000000000000000     
   6.4900434503228702E-002  0.15075807185609430        0.0000000000000000     
   6.6063955188664203E-002  0.15833934082970519        0.0000000000000000     
   6.7145709993364194E-002  0.16603300592524506        0.0000000000000000     
   5.6133741945287051E-002  0.13555308248257245        0.0000000000000000     
   5.7330296276818307E-002  0.14293417485365481        0.0000000000000000     
   5.8462970584331392E-002  0.15042623654671744        0.0000000000000000     
   5.9531764867826319E-002  0.15802926756176033        0.0000000000000000     
   6.0536679127303095E-002  0.16574326789878346        0.0000000000000000     
   5.0091559882489783E-002  0.13521156501364068        0.0000000000000000     
   5.1161352961611790E-002  0.14261362118017831        0.0000000000000000     
   5.2176635360994775E-002  0.15012544046931758        0.0000000000000000     
   5.3137407080638722E-002  0.15774702288105835        0.0000000000000000     
   5.4043668120543648E-002  0.16547836841540081        0.0000000000000000     
   4.4201549301759319E-002  0.13490816986786425        0.0000000000000000     
   4.5148317991438147E-002  0.14232753798398287        0.0000000000000000     
   4.6041428833218850E-002  0.14985568362389462        0.0000000000000000     
   4.6880881827101421E-002  0.15749260678759938        0.0000000000000000     
   4.7666676973085846E-002  0.16523830747509718        0.0000000000000000     
   0.0000000000000000        0.0000000000000000        0.0000000000000000     
   1.7983455195657750E-003   1.2768513623891639E-003   0.0000000000000000     
   3.6213857197884549E-003   2.9391581966662656E-003   0.0000000000000000     
   5.4691206006680405E-003   4.9869205028313050E-003   0.0000000000000000     
   7.3415501622045307E-003   7.4201382808842834E-003   0.0000000000000000     
   0.0000000000000000        0.0000000000000000        0.0000000000000000     
   1.5350601745865824E-003   1.2174937661782442E-003   0.0000000000000000     
   3.0994260605570739E-003   2.8207811379502195E-003   0.0000000000000000     
   4.6930976579114747E-003   4.8098621153159242E-003   0.0000000000000000     
   6.3160749666497850E-003   7.1847366982753609E-003   0.0000000000000000     
   0.0000000000000000        0.0000000000000000        0.0000000000000000     
   1.2878491336008684E-003   1.1698864993047809E-003   0.0000000000000000     
   2.6055554573266816E-003   2.7244683001293639E-003   0.0000000000000000     
   3.9531189711774391E-003   4.6637454024737474E-003   0.0000000000000000     
   5.3305396751531422E-003   6.9877178063379340E-003   0.0000000000000000     
   0.0000000000000000        0.0000000000000000        0.0000000000000000     
   1.0567123966086333E-003   1.1340295617687745E-003   0.0000000000000000     
   2.1397739100972781E-003   2.6502196832036999E-003   0.0000000000000000     
   3.2491845404659346E-003   4.5485703643047756E-003   0.0000000000000000     
   4.3849442877146039E-003   6.8290816050720019E-003   0.0000000000000000     
   0.0000000000000000        0.0000000000000000        0.0000000000000000     
   8.4164996360987644E-004   1.1099229535702245E-003   0.0000000000000000     
   1.7020814188688635E-003   2.5980352871732273E-003   0.0000000000000000     
   2.5812943657769608E-003   4.4643370008090079E-003   0.0000000000000000     
   3.4792888043341688E-003   6.7088280944775664E-003   0.0000000000000000     
   7.3415501622045307E-003   7.4201382808842834E-003   0.0000000000000000     
   9.2309823733747569E-003   1.0186439475482712E-002   0.0000000000000000     
   1.1129725203155546E-002   1.3233452031284114E-002   0.0000000000000000     
   1.3037778651546900E-002   1.6561175948288480E-002   0.0000000000000000     
   1.4955142718548819E-002   2.0169611226495812E-002   0.0000000000000000     
   6.3160749666497850E-003   7.1847366982753609E-003   0.0000000000000000     
   7.9556807448625689E-003   9.8957903654014953E-003   0.0000000000000000     
   9.5992377506403954E-003   1.2893408595267301E-002   0.0000000000000000     
   1.1246745983983260E-002   1.6177591387872781E-002   0.0000000000000000     
   1.2898205444891168E-002   1.9748338743217922E-002   0.0000000000000000     
   5.3305396751531422E-003   6.9877178063379340E-003   0.0000000000000000     
   6.7233860662776323E-003   9.6501895363841749E-003   0.0000000000000000     
   8.1172266415747533E-003   1.2604964617274736E-002   0.0000000000000000     
   9.5120614010445054E-003   1.5852043049009612E-002   0.0000000000000000     
   1.0907890344686890E-002   1.9391424831588802E-002   0.0000000000000000     
   4.3849442877146039E-003   6.8290816050720019E-003   0.0000000000000000     
   5.5340983376199453E-003   9.4496369884307548E-003   0.0000000000000000     
   6.6836918759586219E-003   1.2368120097306414E-002   0.0000000000000000     
   7.8337249027306353E-003   1.5584530931698979E-002   0.0000000000000000     
   8.9841974179359820E-003   1.9098869491608446E-002   0.0000000000000000     
   3.4792888043341688E-003   6.7088280944775664E-003   0.0000000000000000     
   4.3878175588895089E-003   9.2941327215412331E-003   0.0000000000000000     
   5.2986334537920010E-003   1.2182875035362337E-002   0.0000000000000000     
   6.2117364890416473E-003   1.5375055035940876E-002   0.0000000000000000     
   7.1271266646384451E-003   1.8870672723276853E-002   0.0000000000000000     
   1.4955142718548819E-002   2.0169611226495812E-002   0.0000000000000000     
   1.6856628515050359E-002   2.4030128909304040E-002   0.0000000000000000     
   1.8717047151940572E-002   2.8114100040111081E-002   0.0000000000000000     
   2.0536398629219469E-002   3.2421524618916939E-002   0.0000000000000000     
   2.2314682946887033E-002   3.6952402645721624E-002   0.0000000000000000     
   1.2898205444891168E-002   1.9748338743217922E-002   0.0000000000000000     
   1.4537264542602828E-002   2.3579639044103245E-002   0.0000000000000000     
   1.6147571686356953E-002   2.7645480673329247E-002   0.0000000000000000     
   1.7729126876153550E-002   3.1945863630895931E-002   0.0000000000000000     
   1.9281930111992609E-002   3.6480787916803294E-002   0.0000000000000000     
   1.0907890344686890E-002   1.9391424831588802E-002   0.0000000000000000     
   1.2294411234080576E-002   2.3198435813734163E-002   0.0000000000000000     
   1.3661321830804244E-002   2.7248401844167568E-002   0.0000000000000000     
   1.5008622134857885E-002   3.1541322922889012E-002   0.0000000000000000     
   1.6336312146241504E-002   3.6077199049898478E-002   0.0000000000000000     
   8.9841974179359820E-003   1.9098869491608446E-002   0.0000000000000000     
   1.0128068589483603E-002   2.2886519218196805E-002   0.0000000000000000     
   1.1258297585282434E-002   2.6922863552626047E-002   0.0000000000000000     
   1.2374884405332477E-002   3.1207902494896168E-002   0.0000000000000000     
   1.3477829049633733E-002   3.5741636045007165E-002   0.0000000000000000     
   7.1271266646384451E-003   1.8870672723276853E-002   0.0000000000000000     
   8.0382366088119044E-003   2.2643889257491157E-002   0.0000000000000000     
   8.9384989497915315E-003   2.6668865798704682E-002   0.0000000000000000     
   9.8279136875773238E-003   3.0945602346917418E-002   0.0000000000000000     
   1.0706480822169285E-002   3.5474098902129360E-002   0.0000000000000000     
   2.2314682946887033E-002   3.6952402645721624E-002   0.0000000000000000     
   2.4048639349933548E-002   4.1697940633941603E-002   0.0000000000000000     
   2.5735007083349266E-002   4.6649345096993360E-002   0.0000000000000000     
   2.7373786147134191E-002   5.1806616034876914E-002   0.0000000000000000     
   2.8964976541288330E-002   5.7169753447592252E-002   0.0000000000000000     
   1.9281930111992609E-002   3.6480787916803294E-002   0.0000000000000000     
   2.0799382499731678E-002   4.1235799170534299E-002   0.0000000000000000     
   2.2274885145228299E-002   4.6196443031571874E-002   0.0000000000000000     
   2.3708438048482470E-002   5.1362719499916026E-002   0.0000000000000000     
   2.5100041209494196E-002   5.6734628575566770E-002   0.0000000000000000     
   1.6336312146241504E-002   3.6077199049898478E-002   0.0000000000000000     
   1.7636279826882227E-002   4.0837791221979822E-002   0.0000000000000000     
   1.8900413138707165E-002   4.5804860435916847E-002   0.0000000000000000     
   2.0128712081716332E-002   5.0978406691709569E-002   0.0000000000000000     
   2.1321176655909713E-002   5.6358429989357979E-002   0.0000000000000000     
   1.3477829049633733E-002   3.5741636045007165E-002   0.0000000000000000     
   1.4559331331385201E-002   4.0503916788278166E-002   0.0000000000000000     
   1.5611591063785879E-002   4.5474597310028279E-002   0.0000000000000000     
   1.6634608246835773E-002   5.0653677610257512E-002   0.0000000000000000     
   1.7628382880534876E-002   5.6041157688965858E-002   0.0000000000000000     
   1.0706480822169285E-002   3.5474098902129360E-002   0.0000000000000000     
   1.1568537013240595E-002   4.0234175869429352E-002   0.0000000000000000     
   1.2408418920464431E-002   4.5205653653906192E-002   0.0000000000000000     
   1.3226126543840791E-002   5.0388532255559886E-002   0.0000000000000000     
   1.4021659883369682E-002   5.5782811674390441E-002   0.0000000000000000     
   2.8964976541288330E-002   5.7169753447592252E-002   0.0000000000000000     
   3.0508753697452325E-002   6.2726930905237274E-002   0.0000000000000000     
   3.2005293047266827E-002   6.8466321977909861E-002   0.0000000000000000     
   3.3454594590731836E-002   7.4387926665610060E-002   0.0000000000000000     
   3.4856658327847345E-002   8.0491744968337831E-002   0.0000000000000000     
   2.5100041209494196E-002   5.6734628575566770E-002   0.0000000000000000     
   2.6450299496856858E-002   6.2301345719981201E-002   0.0000000000000000     
   2.7759817779163847E-002   6.8052046394616469E-002   0.0000000000000000     
   2.9028596056415140E-002   7.3986730599472528E-002   0.0000000000000000     
   3.0256634328610754E-002   8.0105398334549438E-002   0.0000000000000000     
   2.1321176655909713E-002   5.6358429989357979E-002   0.0000000000000000     
   2.2478369117655751E-002   6.1934196324910366E-002   0.0000000000000000     
   2.3600851723322866E-002   6.7694971694415018E-002   0.0000000000000000     
   2.4688624472911074E-002   7.3640756097871976E-002   0.0000000000000000     
   2.5741687366420369E-002   7.9771549535281164E-002   0.0000000000000000     
   1.7628382880534876E-002   5.6041157688965858E-002   0.0000000000000000     
   1.8592962559848988E-002   6.1625482720024737E-002   0.0000000000000000     
   1.9528394879743907E-002   6.7395097877305563E-002   0.0000000000000000     
   2.0434679840219638E-002   7.3350003160808322E-002   0.0000000000000000     
   2.1311817441276176E-002   7.9490198570533022E-002   0.0000000000000000     
   1.4021659883369682E-002   5.5782811674390441E-002   0.0000000000000000     
   1.4794079823436579E-002   6.1375204905324332E-002   0.0000000000000000     
   1.5542447248426959E-002   6.7152424943288075E-002   0.0000000000000000     
   1.6266762158340831E-002   7.3114471788281621E-002   0.0000000000000000     
   1.6967024553178181E-002   7.9261345440305025E-002   0.0000000000000000     
   3.4856658327847345E-002   8.0491744968337831E-002   0.0000000000000000     
   3.6207822747507216E-002   8.6765323688880402E-002   0.0000000000000000     
   3.7504426338605311E-002   9.3196209630025034E-002   0.0000000000000000     
   3.8746469101141635E-002   9.9784402791771726E-002   0.0000000000000000     
   3.9933951035116190E-002  0.10652990317412046        0.0000000000000000     
   3.0256634328610754E-002   8.0105398334549438E-002   0.0000000000000000     
   3.1439937615874755E-002   8.6394602425329023E-002   0.0000000000000000     
   3.2574510938331198E-002   9.2840895697293216E-002   0.0000000000000000     
   3.3660354295980070E-002   9.9444278150442017E-002   0.0000000000000000     
   3.4697467688821405E-002  0.10620474978477538        0.0000000000000000     
   2.5741687366420369E-002   7.9771549535281164E-002   0.0000000000000000     
   2.6756235874151015E-002   8.6073520016875071E-002   0.0000000000000000     
   2.7728465466403302E-002   9.2532835552886078E-002   0.0000000000000000     
   2.8658376143177212E-002   9.9149496143314239E-002   0.0000000000000000     
   2.9545967904472756E-002  0.10592350178815950        0.0000000000000000     
   2.1311817441276176E-002   7.9490198570533022E-002   0.0000000000000000     
   2.2156717522336011E-002   8.5802076463518520E-002   0.0000000000000000     
   2.2966289922821632E-002   9.2272029196803662E-002   0.0000000000000000     
   2.3740534642733045E-002   9.8900056770388406E-002   0.0000000000000000     
   2.4479451682070243E-002  0.10568615918427277        0.0000000000000000     
   1.6967024553178181E-002   7.9261345440305025E-002   0.0000000000000000     
   1.7641382560429731E-002   8.5580271765259397E-002   0.0000000000000000     
   1.8287984307586200E-002   9.2058476629045885E-002   0.0000000000000000     
   1.8906829794647580E-002   9.8695960031664517E-002   0.0000000000000000     
   1.9497919021613873E-002  0.10549272197311524        0.0000000000000000     
   3.9933951035116190E-002  0.10652990317412046        0.0000000000000000     
   4.1070827066551630E-002  0.11342166033696678        0.0000000000000000     
   4.2161052121470630E-002  0.12044862384020619        0.0000000000000000     
   4.3204626199873190E-002  0.12761079368383868        0.0000000000000000     
   4.4201549301759319E-002  0.13490816986786425        0.0000000000000000     
   3.4697467688821405E-002  0.10620474978477538        0.0000000000000000     
   3.5690379818521224E-002  0.11311142645149058        0.0000000000000000     
   3.6643619386745617E-002  0.12015342400178486        0.0000000000000000     
   3.7557186393494556E-002  0.12733074243565817        0.0000000000000000     
   3.8431080838768061E-002  0.13464338175311058        0.0000000000000000     
   2.9545967904472756E-002  0.10592350178815950        0.0000000000000000     
   3.0395889458684756E-002  0.11284389689151782        0.0000000000000000     
   3.1212789514208028E-002  0.11989972585748522        0.0000000000000000     
   3.1996668071042580E-002  0.12709098868606167        0.0000000000000000     
   3.2747525129188410E-002  0.13441768537724716        0.0000000000000000     
   2.4479451682070243E-002  0.10568615918427277        0.0000000000000000     
   2.5187355987042200E-002  0.11261907165704849        0.0000000000000000     
   2.5868562503857866E-002  0.11968752940730727        0.0000000000000000     
   2.6523071232517254E-002  0.12689153243504908        0.0000000000000000     
   2.7150882173020363E-002  0.13423108074027393        0.0000000000000000     
   1.9497919021613873E-002  0.10549272197311524        0.0000000000000000     
   2.0064779403593563E-002  0.11243695074808258        0.0000000000000000     
   2.0610938355695135E-002  0.11951683465125099        0.0000000000000000     
   2.1136395877918587E-002  0.12673237368262044        0.0000000000000000     
   2.1641151970263922E-002  0.13408356784219100        0.0000000000000000     
   4.4201549301759319E-002  0.13490816986786425        0.0000000000000000     
   4.5148317991438147E-002  0.14232753798398287        0.0000000000000000     
   4.6041428833218850E-002  0.14985568362389462        0.0000000000000000     
   4.6880881827101421E-002  0.15749260678759938        0.0000000000000000     
   4.7666676973085846E-002  0.16523830747509718        0.0000000000000000     
   3.8431080838768061E-002  0.13464338175311058        0.0000000000000000     
   3.9257673637317476E-002  0.14207786637834419        0.0000000000000000     
   4.0029335703894178E-002  0.14962072073556110        0.0000000000000000     
   4.0746067038498153E-002  0.15727194482476142        0.0000000000000000     
   4.1407867641129414E-002  0.16503153864594505        0.0000000000000000     
   3.2747525129188410E-002  0.13441768537724716        0.0000000000000000     
   3.3455902170269863E-002  0.14186654747653776        0.0000000000000000     
   3.4112340675911290E-002  0.14942430652942965        0.0000000000000000     
   3.4716840646112690E-002  0.15709096253592272        0.0000000000000000     
   3.5269402080874070E-002  0.16486651549601700        0.0000000000000000     
   2.7150882173020363E-002  0.13423108074027393        0.0000000000000000     
   2.7743003590295301E-002  0.14169358127856369        0.0000000000000000     
   2.8290443749270183E-002  0.14926644100550013        0.0000000000000000     
   2.8793202649945022E-002  0.15694965992108323        0.0000000000000000     
   2.9251280292319805E-002  0.16474323802531299        0.0000000000000000     
   2.1641151970263922E-002  0.13408356784219100        0.0000000000000000     
   2.2118977897393793E-002  0.14155896778442192        0.0000000000000000     
   2.2563644923970873E-002  0.14914712416377260        0.0000000000000000     
   2.2975153049995149E-002  0.15684803698024294        0.0000000000000000     
   2.3353502275466627E-002  0.16466170623383303        0.0000000000000000     
   0.0000000000000000        0.0000000000000000        0.0000000000000000     
   8.4164996360987644E-004   1.1099229535702245E-003   0.0000000000000000     
   1.7020814188688635E-003   2.5980352871732273E-003   0.0000000000000000     
   2.5812943657769608E-003   4.4643370008090079E-003   0.0000000000000000     
   3.4792888043341688E-003   6.7088280944775664E-003   0.0000000000000000     
   0.0000000000000000        0.0000000000000000        0.0000000000000000     
   6.3377660025533346E-004   1.0939677988111133E-003   0.0000000000000000     
   1.2779616319738174E-003   2.5620257139635136E-003   0.0000000000000000     
   1.9325550951554522E-003   4.4041737454572011E-003   0.0000000000000000     
   2.5975569898002374E-003   6.6204118932921760E-003   0.0000000000000000     
   0.0000000000000000        0.0000000000000000        0.0000000000000000     
   4.2420707219573953E-004   1.0825652215934239E-003   0.0000000000000000     
   8.5289819774452046E-004   2.5363015655001275E-003   0.0000000000000000     
   1.2860733766463430E-003   4.3612090317201114E-003   0.0000000000000000     
   1.7237326089012068E-003   6.5572876202533766E-003   0.0000000000000000     
   0.0000000000000000        0.0000000000000000        0.0000000000000000     
   2.1294137943109475E-004   1.0757152219171557E-003   0.0000000000000000     
   4.2689111618097260E-004   2.5208628417830686E-003   0.0000000000000000     
   6.4184921024963357E-004   4.3354428595977386E-003   0.0000000000000000     
   8.5781566163707764E-004   6.5194552753611674E-003   0.0000000000000000     
   0.0000000000000000        0.0000000000000000        0.0000000000000000     
  -2.0478038600989582E-008   1.0734177997823089E-003   0.0000000000000000     
  -5.9612716826285082E-008   2.5157095428123373E-003   0.0000000000000000     
  -1.1740403467588650E-007   4.3268752290900837E-003   0.0000000000000000     
  -1.9385199214982094E-007   6.5069148586155492E-003   0.0000000000000000     
   3.4792888043341688E-003   6.7088280944775664E-003   0.0000000000000000     
   4.3878175588895089E-003   9.2941327215412331E-003   0.0000000000000000     
   5.2986334537920010E-003   1.2182875035362337E-002   0.0000000000000000     
   6.2117364890416473E-003   1.5375055035940876E-002   0.0000000000000000     
   7.1271266646384451E-003   1.8870672723276853E-002   0.0000000000000000     
   2.5975569898002374E-003   6.6204118932921760E-003   0.0000000000000000     
   3.2699786558600245E-003   9.1777952995656283E-003   0.0000000000000000     
   3.9468314332866648E-003   1.2043379106374753E-002   0.0000000000000000     
   4.6281153220801589E-003   1.5217163313719546E-002   0.0000000000000000     
   5.3138303222405054E-003   1.8699147921600007E-002   0.0000000000000000     
   1.7237326089012068E-003   6.5572876202533766E-003   0.0000000000000000     
   2.1660165543051940E-003   9.0947432863539603E-003   0.0000000000000000     
   2.6130658726543862E-003   1.1943781985275903E-002   0.0000000000000000     
   3.0648805639487838E-003   1.5104403717019214E-002   0.0000000000000000     
   3.5214606281883864E-003   1.8576608481583885E-002   0.0000000000000000     
   8.5781566163707764E-004   6.5194552753611674E-003   0.0000000000000000     
   1.0759312542250178E-003   9.0449766819062308E-003   0.0000000000000000     
   1.2973367718951659E-003   1.1884083672065801E-002   0.0000000000000000     
   1.5220322146475230E-003   1.5036776245839885E-002   0.0000000000000000     
   1.7500175824820881E-003   1.8503054403228480E-002   0.0000000000000000     
  -1.9385199214982094E-007   6.5069148586155492E-003   0.0000000000000000     
  -2.7724438050434218E-007   9.0284954862224348E-003   0.0000000000000000     
  -3.5586899099576496E-007   1.1864284166744435E-002   0.0000000000000000     
  -4.2972582362386736E-007   1.5014280900181556E-002   0.0000000000000000     
  -4.9881487838897634E-007   1.8478485686533791E-002   0.0000000000000000     
   7.1271266646384451E-003   1.8870672723276853E-002   0.0000000000000000     
   8.0382366088119044E-003   2.2643889257491157E-002   0.0000000000000000     
   8.9384989497915315E-003   2.6668865798704682E-002   0.0000000000000000     
   9.8279136875773238E-003   3.0945602346917418E-002   0.0000000000000000     
   1.0706480822169285E-002   3.5474098902129360E-002   0.0000000000000000     
   5.3138303222405054E-003   1.8699147921600007E-002   0.0000000000000000     
   5.9971256564255136E-003   2.2461882075013113E-002   0.0000000000000000     
   6.6711505472929920E-003   2.6477914918955823E-002   0.0000000000000000     
   7.3359049948429379E-003   3.0747246453428152E-002   0.0000000000000000     
   7.9913889990753540E-003   3.5269876678430089E-002   0.0000000000000000     
   3.5214606281883864E-003   1.8576608481583885E-002   0.0000000000000000     
   3.9769460966844611E-003   2.2331833814158548E-002   0.0000000000000000     
   4.4254770007482762E-003   2.6341517249931855E-002   0.0000000000000000     
   4.8670533403798299E-003   3.0605658788903787E-002   0.0000000000000000     
   5.3016751155791231E-003   3.5124258431074348E-002   0.0000000000000000     
   1.7500175824820881E-003   1.8503054403228480E-002   0.0000000000000000     
   1.9776979295887467E-003   2.2253744474927468E-002   0.0000000000000000     
   2.2014783101573844E-003   2.6259672791632747E-002   0.0000000000000000     
   2.4213587241880001E-003   3.0520839353344310E-002   0.0000000000000000     
   2.6373391716805949E-003   3.5037244160062167E-002   0.0000000000000000     
  -4.9881487838897634E-007   1.8478485686533791E-002   0.0000000000000000     
  -6.1884486162946820E-007   2.2227614057319874E-002   0.0000000000000000     
  -8.4552447968366503E-007   2.6232381544058523E-002   0.0000000000000000     
  -1.1788537325510925E-006   3.0492788146749737E-002   0.0000000000000000     
  -1.6188326202326315E-006   3.5008833865393524E-002   0.0000000000000000     
   1.0706480822169285E-002   3.5474098902129360E-002   0.0000000000000000     
   1.1568537013240595E-002   4.0234175869429352E-002   0.0000000000000000     
   1.2408418920464431E-002   4.5205653653906192E-002   0.0000000000000000     
   1.3226126543840791E-002   5.0388532255559886E-002   0.0000000000000000     
   1.4021659883369682E-002   5.5782811674390441E-002   0.0000000000000000     
   7.9913889990753540E-003   3.5269876678430089E-002   0.0000000000000000     
   8.6345810779325013E-003   4.0026356817665136E-002   0.0000000000000000     
   9.2624597493566399E-003   4.4997238094836828E-002   0.0000000000000000     
   9.8750250133477682E-003   5.0182520509945136E-002   0.0000000000000000     
   1.0472276869905891E-002   5.5582204062990082E-002   0.0000000000000000     
   5.3016751155791231E-003   3.5124258431074348E-002   0.0000000000000000     
   5.7281477309450027E-003   3.9878247985217323E-002   0.0000000000000000     
   6.1452765910763180E-003   4.4848559260106440E-002   0.0000000000000000     
   6.5530616959730672E-003   5.0035192255741733E-002   0.0000000000000000     
   6.9515030456352486E-003   5.5438146972123167E-002   0.0000000000000000     
   2.6373391716805949E-003   3.5037244160062167E-002   0.0000000000000000     
   2.8492369722781050E-003   3.9789849372085878E-002   0.0000000000000000     
   3.0568694456234685E-003   4.4759617149715054E-002   0.0000000000000000     
   3.2602365917166858E-003   4.9946547492949654E-002   0.0000000000000000     
   3.4593384105577564E-003   5.5350640401789705E-002   0.0000000000000000     
  -1.6188326202326315E-006   3.5008833865393524E-002   0.0000000000000000     
  -2.1511980681958916E-006   3.9761160978270843E-002   0.0000000000000000     
  -2.7616870019088078E-006   4.4730411763662638E-002   0.0000000000000000     
  -3.4502994213725456E-006   4.9916586221568915E-002   0.0000000000000000     
  -4.2170353265851262E-006   5.5319684351989702E-002   0.0000000000000000     
   1.4021659883369682E-002   5.5782811674390441E-002   0.0000000000000000     
   1.4794079823436579E-002   6.1375204905324332E-002   0.0000000000000000     
   1.5542447248426959E-002   6.7152424943288075E-002   0.0000000000000000     
   1.6266762158340831E-002   7.3114471788281621E-002   0.0000000000000000     
   1.6967024553178181E-002   7.9261345440305025E-002   0.0000000000000000     
   1.0472276869905891E-002   5.5582204062990082E-002   0.0000000000000000     
   1.1052433236072313E-002   6.1181194152431458E-002   0.0000000000000000     
   1.1613712028888340E-002   6.6964396176729099E-002   0.0000000000000000     
   1.2156113248353976E-002   7.2931810135882971E-002   0.0000000000000000     
   1.2679636894469219E-002   7.9083436029893095E-002   0.0000000000000000     
   6.9515030456352486E-003   5.5438146972123167E-002   0.0000000000000000     
   7.3387351254099783E-003   6.1041281732968446E-002   0.0000000000000000     
   7.7128924206443681E-003   6.6828454861995207E-002   0.0000000000000000     
   8.0739749313384190E-003   7.2799666359203458E-002   0.0000000000000000     
   8.4219826574921299E-003   7.8954916224593205E-002   0.0000000000000000     
   3.4593384105577564E-003   5.5350640401789705E-002   0.0000000000000000     
   3.6529854914495773E-003   6.0955467646935269E-002   0.0000000000000000     
   3.8399884236950438E-003   6.6744600999086384E-002   0.0000000000000000     
   4.0203472072941563E-003   7.2718040458243094E-002   0.0000000000000000     
   4.1940618422469135E-003   7.8875786024405342E-002   0.0000000000000000     
  -4.2170353265851262E-006   5.5319684351989702E-002   0.0000000000000000     
  -4.8156658088910126E-006   6.0923751894331947E-002   0.0000000000000000     
  -4.9999619596336376E-006   6.6712834588002673E-002   0.0000000000000000     
  -4.7699237788131232E-006   7.2686932433001852E-002   0.0000000000000000     
  -4.1255512664294287E-006   7.8846045429329492E-002   0.0000000000000000     
   1.6967024553178181E-002   7.9261345440305025E-002   0.0000000000000000     
   1.7641382560429731E-002   8.5580271765259397E-002   0.0000000000000000     
   1.8287984307586200E-002   9.2058476629045885E-002   0.0000000000000000     
   1.8906829794647580E-002   9.8695960031664517E-002   0.0000000000000000     
   1.9497919021613873E-002  0.10549272197311524        0.0000000000000000     
   1.2679636894469219E-002   7.9083436029893095E-002   0.0000000000000000     
   1.3183656257266347E-002   8.5407390857875937E-002   0.0000000000000000     
   1.3667544626777640E-002   9.1891791618947921E-002   0.0000000000000000     
   1.4131302003003103E-002   9.8536638313109076E-002   0.0000000000000000     
   1.4574928385942732E-002  0.10534193094035937        0.0000000000000000     
   8.4219826574921299E-003   7.8954916224593205E-002   0.0000000000000000     
   8.7569638816800202E-003   8.5282718677146346E-002   0.0000000000000000     
   9.0789668864766134E-003   9.1771587935844806E-002   0.0000000000000000     
   9.3879916718819095E-003   9.8421524000688584E-002   0.0000000000000000     
   9.6840382378959051E-003  0.10523252687167767        0.0000000000000000     
   4.1940618422469135E-003   7.8875786024405342E-002   0.0000000000000000     
   4.3613054336707549E-003   8.5206255223070668E-002   0.0000000000000000     
   4.5222510866831170E-003   9.1697865579736568E-002   0.0000000000000000     
   4.6768988012839989E-003   9.8350617094403042E-002   0.0000000000000000     
   4.8252485774734014E-003  0.10516450976707009        0.0000000000000000     
  -4.1255512664294287E-006   7.8846045429329492E-002   0.0000000000000000     
  -3.3190867614531650E-006   8.5178000495648873E-002   0.0000000000000000     
  -2.6027726028541838E-006   9.1670624550623178E-002   0.0000000000000000     
  -1.9766087906314281E-006   9.8323917594252436E-002   0.0000000000000000     
  -1.4405953247861175E-006  0.10513787962653665        0.0000000000000000     
   1.9497919021613873E-002  0.10549272197311524        0.0000000000000000     
   2.0064779403593563E-002  0.11243695074808258        0.0000000000000000     
   2.0610938355695135E-002  0.11951683465125099        0.0000000000000000     
   2.1136395877918587E-002  0.12673237368262044        0.0000000000000000     
   2.1641151970263922E-002  0.13408356784219100        0.0000000000000000     
   1.4574928385942732E-002  0.10534193094035937        0.0000000000000000     
   1.5000922839007644E-002  0.11229525356239435        0.0000000000000000     
   1.5411784425608980E-002  0.11938419024090952        0.0000000000000000     
   1.5807513145746726E-002  0.12660874097590488        0.0000000000000000     
   1.6188108999420889E-002  0.13396890576738041        0.0000000000000000     
   9.6840382378959051E-003  0.10523252687167767        0.0000000000000000     
   9.9685494239532373E-003  0.11219169949775813        0.0000000000000000     
   1.0242968069488542E-002  0.11928614482787604        0.0000000000000000     
   1.0507294174501818E-002  0.12651586286203143        0.0000000000000000     
   1.0761527738993065E-002  0.13388085360022431        0.0000000000000000     
   4.8252485774734014E-003  0.10516450976707009        0.0000000000000000     
   4.9676591584303376E-003  0.11212628855417388        0.0000000000000000     
   5.1044892873338245E-003  0.11922269841215057        0.0000000000000000     
   5.2357389641838606E-003  0.12645373934100018        0.0000000000000000     
   5.3614081889804500E-003  0.13381941134072267        0.0000000000000000     
  -1.4405953247861175E-006  0.10513787962653665        0.0000000000000000     
  -1.7479575610548307E-006  0.11209902073164157        0.0000000000000000     
  -3.6519208551730620E-006  0.11919385099373306        0.0000000000000000     
  -7.1524852071392394E-006  0.12642237041281104        0.0000000000000000     
  -1.2249650616955911E-005  0.13378457898887555        0.0000000000000000     
   2.1641151970263922E-002  0.13408356784219100        0.0000000000000000     
   2.2118977897393793E-002  0.14155896778442192        0.0000000000000000     
   2.2563644923970873E-002  0.14914712416377260        0.0000000000000000     
   2.2975153049995149E-002  0.15684803698024294        0.0000000000000000     
   2.3353502275466627E-002  0.16466170623383303        0.0000000000000000     
   1.6188108999420889E-002  0.13396890576738041        0.0000000000000000     
   1.6550697905326595E-002  0.14145438246260938        0.0000000000000000     
   1.6892405782158976E-002  0.14905486890886507        0.0000000000000000     
   1.7213232629918029E-002  0.15677036510614745        0.0000000000000000     
   1.7513178448603756E-002  0.16460087105445659        0.0000000000000000     
   1.0761527738993065E-002  0.13388085360022431        0.0000000000000000     
   1.1005036427854950E-002  0.14137150078162289        0.0000000000000000     
   1.1237187905980136E-002  0.14897818814539562        0.0000000000000000     
   1.1457982173368624E-002  0.15670091569154238        0.0000000000000000     
   1.1667419230020414E-002  0.16453968342006323        0.0000000000000000     
   5.3614081889804500E-003  0.13381941134072267        0.0000000000000000     
   5.4819934649788567E-003  0.14131032274146252        0.0000000000000000     
   5.5979912954343507E-003  0.14891708187336417        0.0000000000000000     
   5.7094016803469309E-003  0.15663968873642761        0.0000000000000000     
   5.8162246197165984E-003  0.16447814333065286        0.0000000000000000     
  -1.2249650616955911E-005  0.13378457898887555        0.0000000000000000     
  -1.8430983301682535E-005  0.14127084834212825        0.0000000000000000     
  -2.5184049478379654E-005  0.14887155009277081        0.0000000000000000     
  -3.2508849147049165E-005  0.15658668424080324        0.0000000000000000     
  -4.0405382307689280E-005  0.16441625078622554        0.0000000000000000     
   0.0000000000000000        0.0000000000000000        0.0000000000000000     
  -2.0478038600989582E-008   1.0734177997823089E-003   0.0000000000000000     
  -5.9612716826285082E-008   2.5157095428123373E-003   0.0000000000000000     
  -1.1740403467588650E-007   4.3268752290900837E-003   0.0000000000000000     
  -1.9385199214982094E-007   6.5069148586155492E-003   0.0000000000000000     
   0.0000000000000000        0.0000000000000000        0.0000000000000000     
  -2.1298291125471973E-004   1.0756866508368713E-003   0.0000000000000000     
  -4.2700850705985904E-004   2.5208537365355617E-003   0.0000000000000000     
  -6.4207678741541835E-004   4.3355012570960704E-003   0.0000000000000000     
  -8.5818775232139718E-004   6.5196292125183977E-003   0.0000000000000000     
   0.0000000000000000        0.0000000000000000        0.0000000000000000     
  -4.2425033125863341E-004   1.0825354707288308E-003   0.0000000000000000     
  -8.5301008495910894E-004   2.5363074909003722E-003   0.0000000000000000     
  -1.2862792611014263E-003   4.3613160605146233E-003   0.0000000000000000     
  -1.7240578596855857E-003   6.5575611795715867E-003   0.0000000000000000     
   0.0000000000000000        0.0000000000000000        0.0000000000000000     
  -6.3382273805034223E-004   1.0939642594581876E-003   0.0000000000000000     
  -1.2780643464145754E-003   2.5620708059067693E-003   0.0000000000000000     
  -1.9327248250926997E-003   4.4043196393457450E-003   0.0000000000000000     
  -2.5978041740847150E-003   6.6207107597751128E-003   0.0000000000000000     
   0.0000000000000000        0.0000000000000000        0.0000000000000000     
  -8.4170013162984604E-004   1.1099730170249413E-003   0.0000000000000000     
  -1.7021712914262589E-003   2.5981436815547517E-003   0.0000000000000000     
  -2.5814134793892391E-003   4.4645119935894312E-003   0.0000000000000000     
  -3.4794266955187852E-003   6.7090779531289802E-003   0.0000000000000000     
  -1.9385199214982094E-007   6.5069148586155492E-003   0.0000000000000000     
  -2.7724438050434218E-007   9.0284954862224348E-003   0.0000000000000000     
  -3.5586899099576496E-007   1.1864284166744435E-002   0.0000000000000000     
  -4.2972582362386736E-007   1.5014280900181556E-002   0.0000000000000000     
  -4.9881487838897634E-007   1.8478485686533791E-002   0.0000000000000000     
  -8.5818775232139718E-004   6.5196292125183977E-003   0.0000000000000000     
  -1.0764613166324188E-003   9.0452385502584488E-003   0.0000000000000000     
  -1.2980173952031053E-003   1.1884330217772125E-002   0.0000000000000000     
  -1.5228559880334567E-003   1.5036904215059431E-002   0.0000000000000000     
  -1.7509770951234732E-003   1.8502960542120358E-002   0.0000000000000000     
  -1.7240578596855857E-003   6.5575611795715867E-003   0.0000000000000000     
  -2.1664733376517715E-003   9.0951447249701441E-003   0.0000000000000000     
  -2.6136531519401675E-003   1.1944168573609183E-002   0.0000000000000000     
  -3.0655973025507746E-003   1.5104632725488704E-002   0.0000000000000000     
  -3.5223057894835912E-003   1.8576537180608706E-002   0.0000000000000000     
  -2.5978041740847150E-003   6.6207107597751128E-003   0.0000000000000000     
  -3.2703133074385624E-003   9.1782140103575192E-003   0.0000000000000000     
  -3.9472631392021822E-003   1.2043799234255607E-002   0.0000000000000000     
  -4.6286536693755757E-003   1.5217466431469378E-002   0.0000000000000000     
  -5.3144848979587433E-003   1.8699215601998827E-002   0.0000000000000000     
  -3.4794266955187852E-003   6.7090779531289802E-003   0.0000000000000000     
  -4.3879812259927922E-003   9.2944464064205774E-003   0.0000000000000000     
  -5.2988473569891524E-003   1.2183222199711401E-002   0.0000000000000000     
  -6.2120250885078646E-003   1.5375405333001455E-002   0.0000000000000000     
  -7.1275144205489296E-003   1.8870995806290730E-002   0.0000000000000000     
  -4.9881487838897634E-007   1.8478485686533791E-002   0.0000000000000000     
  -6.1884486162946820E-007   2.2227614057319874E-002   0.0000000000000000     
  -8.4552447968366503E-007   2.6232381544058523E-002   0.0000000000000000     
  -1.1788537325510925E-006   3.0492788146749737E-002   0.0000000000000000     
  -1.6188326202326315E-006   3.5008833865393524E-002   0.0000000000000000     
  -1.7509770951234732E-003   1.8502960542120358E-002   0.0000000000000000     
  -1.9788870317689320E-003   2.2253540032949541E-002   0.0000000000000000     
  -2.2030921132656111E-003   2.6259683521541607E-002   0.0000000000000000     
  -2.4235923396135096E-003   3.0521391007896553E-002   0.0000000000000000     
  -2.6403877108126285E-003   3.5038662492014372E-002   0.0000000000000000     
  -3.5223057894835912E-003   1.8576537180608706E-002   0.0000000000000000     
  -3.9779894362354249E-003   2.2331619873430256E-002   0.0000000000000000     
  -4.4268590663030802E-003   2.6341618738414438E-002   0.0000000000000000     
  -4.8689146796865607E-003   3.0606533775561235E-002   0.0000000000000000     
  -5.3041562763858638E-003   3.5126364984870657E-002   0.0000000000000000     
  -5.3144848979587433E-003   1.8699215601998827E-002   0.0000000000000000     
  -5.9979260582611084E-003   2.2461853578762021E-002   0.0000000000000000     
  -6.6721463835920950E-003   2.6478187194677007E-002   0.0000000000000000     
  -7.3371458739517051E-003   3.0748216449743796E-002   0.0000000000000000     
  -7.9929245293399384E-003   3.5271941343962374E-002   0.0000000000000000     
  -7.1275144205489296E-003   1.8870995806290730E-002   0.0000000000000000     
  -8.0386968978459813E-003   2.2644241148944824E-002   0.0000000000000000     
  -8.9389540651326517E-003   2.6669388890329323E-002   0.0000000000000000     
  -9.8282859224089417E-003   3.0946439030444226E-002   0.0000000000000000     
  -1.0706692469674851E-002   3.5475391569289534E-002   0.0000000000000000     
  -1.6188326202326315E-006   3.5008833865393524E-002   0.0000000000000000     
  -2.1511980681958916E-006   3.9761160978270843E-002   0.0000000000000000     
  -2.7616870019088078E-006   4.4730411763662638E-002   0.0000000000000000     
  -3.4502994213725456E-006   4.9916586221568915E-002   0.0000000000000000     
  -4.2170353265851262E-006   5.5319684351989702E-002   0.0000000000000000     
  -2.6403877108126285E-003   3.5038662492014372E-002   0.0000000000000000     
  -2.8532682750720328E-003   3.9791692050483114E-002   0.0000000000000000     
  -3.0620240806007882E-003   4.4760673759890804E-002   0.0000000000000000     
  -3.2666551273988938E-003   4.9945607620237441E-002   0.0000000000000000     
  -3.4671614154663504E-003   5.5346493631523032E-002   0.0000000000000000     
  -5.3041562763858638E-003   3.5126364984870657E-002   0.0000000000000000     
  -5.7313657537115398E-003   3.9880951835433637E-002   0.0000000000000000     
  -6.1493250089741398E-003   4.4850133796341139E-002   0.0000000000000000     
  -6.5580340421736655E-003   5.0033910867593130E-002   0.0000000000000000     
  -6.9574928533101136E-003   5.5432283049189623E-002   0.0000000000000000     
  -7.9929245293399384E-003   3.5271941343962374E-002   0.0000000000000000     
  -8.6364436339867179E-003   4.0028940333122431E-002   0.0000000000000000     
  -9.2646644721219671E-003   4.4998791873013630E-002   0.0000000000000000     
  -9.8775870437456861E-003   5.0181495963635969E-002   0.0000000000000000     
  -1.0475211348857875E-002   5.5577052604989470E-002   0.0000000000000000     
  -1.0706692469674851E-002   3.5475391569289534E-002   0.0000000000000000     
  -1.1568501915897565E-002   4.0235657543549477E-002   0.0000000000000000     
  -1.2408042470044267E-002   4.5206647989908290E-002   0.0000000000000000     
  -1.3225314132114956E-002   5.0388362908365986E-002   0.0000000000000000     
  -1.4020316902109633E-002   5.5780802298922551E-002   0.0000000000000000     
  -4.2170353265851262E-006   5.5319684351989702E-002   0.0000000000000000     
  -4.8156658088910126E-006   6.0923751894331947E-002   0.0000000000000000     
  -4.9999619596336376E-006   6.6712834588002673E-002   0.0000000000000000     
  -4.7699237788131232E-006   7.2686932433001852E-002   0.0000000000000000     
  -4.1255512664294287E-006   7.8846045429329492E-002   0.0000000000000000     
  -3.4671614154663504E-003   5.5346493631523032E-002   0.0000000000000000     
  -3.6619042548259304E-003   6.0948234998130311E-002   0.0000000000000000     
  -3.8492449555004088E-003   6.6735734924441986E-002   0.0000000000000000     
  -4.0291835174897815E-003   7.2708993410458084E-002   0.0000000000000000     
  -4.2017199407940534E-003   7.8868010456178597E-002   0.0000000000000000     
  -6.9574928533101136E-003   5.5432283049189623E-002   0.0000000000000000     
  -7.3455161840620467E-003   6.1031017481302179E-002   0.0000000000000000     
  -7.7199187761080243E-003   6.6815881304102348E-002   0.0000000000000000     
  -8.0807006294480437E-003   7.2786874517590153E-002   0.0000000000000000     
  -8.4278617440821102E-003   7.8943997121765544E-002   0.0000000000000000     
  -1.0475211348857875E-002   5.5577052604989470E-002   0.0000000000000000     
  -1.1055651453517237E-002   6.1172099343847555E-002   0.0000000000000000     
  -1.1617021423782480E-002   6.6953273726983745E-002   0.0000000000000000     
  -1.2159321259653601E-002   7.2920575754397990E-002   0.0000000000000000     
  -1.2682550961130599E-002   7.9074005426090319E-002   0.0000000000000000     
  -1.4020316902109633E-002   5.5780802298922551E-002   0.0000000000000000     
  -1.4792310063191505E-002   6.1371480585766455E-002   0.0000000000000000     
  -1.5540552898523781E-002   6.7147912193086162E-002   0.0000000000000000     
  -1.6265045408106450E-002   7.3110097120881637E-002   0.0000000000000000     
  -1.6965787591939521E-002   7.9258035369152935E-002   0.0000000000000000     
  -4.1255512664294287E-006   7.8846045429329492E-002   0.0000000000000000     
  -3.3190867614531650E-006   8.5178000495648873E-002   0.0000000000000000     
  -2.6027726028541838E-006   9.1670624550623178E-002   0.0000000000000000     
  -1.9766087906314281E-006   9.8323917594252436E-002   0.0000000000000000     
  -1.4405953247861175E-006  0.10513787962653665        0.0000000000000000     
  -4.2017199407940534E-003   7.8868010456178597E-002   0.0000000000000000     
  -4.3674906282890396E-003   8.5199878794175954E-002   0.0000000000000000     
  -4.5271319828505590E-003   9.1691691157022595E-002   0.0000000000000000     
  -4.6806440044786122E-003   9.8343447544718493E-002   0.0000000000000000     
  -4.8280266931731994E-003  0.10515514795726369        0.0000000000000000     
  -8.4278617440821102E-003   7.8943997121765544E-002   0.0000000000000000     
  -8.7617901395844414E-003   8.5273814417946944E-002   0.0000000000000000     
  -9.0828738355292656E-003   9.1762891707452748E-002   0.0000000000000000     
  -9.3911128319165774E-003   9.8411228990282928E-002   0.0000000000000000     
  -9.6865071287463821E-003  0.10521882626643753        0.0000000000000000     
  -1.2682550961130599E-002   7.9074005426090319E-002   0.0000000000000000     
  -1.3186217620647658E-002   8.5399807366961816E-002   0.0000000000000000     
  -1.3669828330638970E-002   9.1884226201913652E-002   0.0000000000000000     
  -1.4133383091104530E-002   9.8527261930945756E-002   0.0000000000000000     
  -1.4576881902044337E-002  0.10532891455405816        0.0000000000000000     
  -1.6965787591939521E-002   7.9258035369152935E-002   0.0000000000000000     
  -1.7640773071478693E-002   8.5577857641220598E-002   0.0000000000000000     
  -1.8287995468179677E-002   9.2055694640405278E-002   0.0000000000000000     
  -1.8907454782042463E-002   9.8691546366706934E-002   0.0000000000000000     
  -1.9499151013067064E-002  0.10548541282012561        0.0000000000000000     
  -1.4405953247861175E-006  0.10513787962653665        0.0000000000000000     
  -1.7479575610548307E-006  0.11209902073164157        0.0000000000000000     
  -3.6519208551730620E-006  0.11919385099373306        0.0000000000000000     
  -7.1524852071392394E-006  0.12642237041281104        0.0000000000000000     
  -1.2249650616955911E-005  0.13378457898887555        0.0000000000000000     
  -4.8280266931731994E-003  0.10515514795726369        0.0000000000000000     
  -4.9710170472912416E-003  0.11211333291083586        0.0000000000000000     
  -5.1113520651896666E-003  0.11920454292161274        0.0000000000000000     
  -5.2490317468684702E-003  0.12642877798959434        0.0000000000000000     
  -5.3840560923276506E-003  0.13378603811478063        0.0000000000000000     
  -9.6865071287463821E-003  0.10521882626643753        0.0000000000000000     
  -9.9714932340305307E-003  0.11217266197243124        0.0000000000000000     
  -1.0248507655780871E-002  0.11925971454477882        0.0000000000000000     
  -1.0517550393997406E-002  0.12647998398348029        0.0000000000000000     
  -1.0778621448680133E-002  0.13383347028853565        0.0000000000000000     
  -1.4576881902044337E-002  0.10532891455405816        0.0000000000000000     
  -1.5003176517778915E-002  0.11227700791642774        0.0000000000000000     
  -1.5415118692628786E-002  0.11935936586323133        0.0000000000000000     
  -1.5812708426593949E-002  0.12657598839446893        0.0000000000000000     
  -1.6195945719674414E-002  0.13392687551014057        0.0000000000000000     
  -1.9499151013067064E-002  0.10548541282012561        0.0000000000000000     
  -2.0066066898536405E-002  0.11242637074282533        0.0000000000000000     
  -2.0611185175733415E-002  0.11950349687697022        0.0000000000000000     
  -2.1134505844658109E-002  0.12671679122256024        0.0000000000000000     
  -2.1636028905310467E-002  0.13406625377959547        0.0000000000000000     
  -1.2249650616955911E-005  0.13378457898887555        0.0000000000000000     
  -1.8430983301682535E-005  0.14127084834212825        0.0000000000000000     
  -2.5184049478379654E-005  0.14887155009277081        0.0000000000000000     
  -3.2508849147049165E-005  0.15658668424080324        0.0000000000000000     
  -4.0405382307689280E-005  0.16441625078622554        0.0000000000000000     
  -5.3840560923276506E-003  0.13378603811478063        0.0000000000000000     
  -5.5159874004148983E-003  0.14126615749343027        0.0000000000000000     
  -5.6443879699779025E-003  0.14885897032180184        0.0000000000000000     
  -5.7692578010166530E-003  0.15656447659989542        0.0000000000000000     
  -5.8905968935311576E-003  0.16438267632771097        0.0000000000000000     
  -1.0778621448680133E-002  0.13383347028853565        0.0000000000000000     
  -1.1030426269789031E-002  0.14130933010517879        0.0000000000000000     
  -1.1271670307284057E-002  0.14889672007864374        0.0000000000000000     
  -1.1502353561165220E-002  0.15659564020893038        0.0000000000000000     
  -1.1722476031432515E-002  0.16440609049603883        0.0000000000000000     
  -1.6195945719674414E-002  0.13392687551014057        0.0000000000000000     
  -1.6561747591424071E-002  0.14140036617737384        0.0000000000000000     
  -1.6907031061396849E-002  0.14898479936329634        0.0000000000000000     
  -1.7231796129592747E-002  0.15668017506790810        0.0000000000000000     
  -1.7536042796011765E-002  0.16448649329120910        0.0000000000000000     
  -2.1636028905310467E-002  0.13406625377959547        0.0000000000000000     
  -2.2109951365320027E-002  0.14153926571001543        0.0000000000000000     
  -2.2550470232316280E-002  0.14912320817575983        0.0000000000000000     
  -2.2957585506299238E-002  0.15681808117682858        0.0000000000000000     
  -2.3331297187268903E-002  0.16462388471322176        0.0000000000000000     
   0.0000000000000000        0.0000000000000000        0.0000000000000000     
  -8.4170013162984604E-004   1.1099730170249413E-003   0.0000000000000000     
  -1.7021712914262589E-003   2.5981436815547517E-003   0.0000000000000000     
  -2.5814134793892391E-003   4.4645119935894312E-003   0.0000000000000000     
  -3.4794266955187852E-003   6.7090779531289802E-003   0.0000000000000000     
   0.0000000000000000        0.0000000000000000        0.0000000000000000     
  -1.0567616963929522E-003   1.1341318658044223E-003   0.0000000000000000     
  -2.1398447210909544E-003   2.6503858983737841E-003   0.0000000000000000     
  -3.2492490740940070E-003   4.5487620977080851E-003   0.0000000000000000     
  -4.3849747554021096E-003   6.8292604638073252E-003   0.0000000000000000     
   0.0000000000000000        0.0000000000000000        0.0000000000000000     
  -1.2878866167354685E-003   1.1700109281719611E-003   0.0000000000000000     
  -2.6055984365054578E-003   2.7246572368933297E-003   0.0000000000000000     
  -3.9531354593099676E-003   4.6639389261641049E-003   0.0000000000000000     
  -5.3304976851489983E-003   6.9878559959842875E-003   0.0000000000000000     
   0.0000000000000000        0.0000000000000000        0.0000000000000000     
  -1.5350748926573953E-003   1.2176102041275578E-003   0.0000000000000000     
  -3.0994324376697690E-003   2.8209576971133881E-003   0.0000000000000000     
  -4.6930726350371222E-003   4.8100424789574913E-003   0.0000000000000000     
  -6.3159954847594544E-003   7.1848645496598671E-003   0.0000000000000000     
   0.0000000000000000        0.0000000000000000        0.0000000000000000     
  -1.7983265241587312E-003   1.2769296936712120E-003   0.0000000000000000     
  -3.6213467245838878E-003   2.9392872790339601E-003   0.0000000000000000     
  -5.4690606012754691E-003   4.9870727560882445E-003   0.0000000000000000     
  -7.3414681542334761E-003   7.4202861248340640E-003   0.0000000000000000     
  -3.4794266955187852E-003   6.7090779531289802E-003   0.0000000000000000     
  -4.3879812259927922E-003   9.2944464064205774E-003   0.0000000000000000     
  -5.2988473569891524E-003   1.2183222199711401E-002   0.0000000000000000     
  -6.2120250885078646E-003   1.5375405333001455E-002   0.0000000000000000     
  -7.1275144205489296E-003   1.8870995806290730E-002   0.0000000000000000     
  -4.3849747554021096E-003   6.8292604638073252E-003   0.0000000000000000     
  -5.5340980494940507E-003   9.4498155465415155E-003   0.0000000000000000     
  -6.6836952408486153E-003   1.2368361895780663E-002   0.0000000000000000     
  -7.8337663294658060E-003   1.5584899511524775E-002   0.0000000000000000     
  -8.9843113153456229E-003   1.9099428393773842E-002   0.0000000000000000     
  -5.3304976851489983E-003   6.9878559959842875E-003   0.0000000000000000     
  -6.7232847341219234E-003   9.6502950641025338E-003   0.0000000000000000     
  -8.1170962263281115E-003   1.2605142748267502E-002   0.0000000000000000     
  -9.5119321617675653E-003   1.5852399048479186E-002   0.0000000000000000     
  -1.0907792540440286E-002   1.9392063964737586E-002   0.0000000000000000     
  -6.3159954847594544E-003   7.1848645496598671E-003   0.0000000000000000     
  -7.9555412798764137E-003   9.8958849591036339E-003   0.0000000000000000     
  -9.5990503134276445E-003   1.2893564757171905E-002   0.0000000000000000     
  -1.1246522585413149E-002   1.6177903943864681E-002   0.0000000000000000     
  -1.2897958095832926E-002   1.9748902519181970E-002   0.0000000000000000     
  -7.3414681542334761E-003   7.4202861248340640E-003   0.0000000000000000     
  -9.2308676867575191E-003   1.0186585231544813E-002   0.0000000000000000     
  -1.1129557502147211E-002   1.3233627922493881E-002   0.0000000000000000     
  -1.3037537600402551E-002   1.6561414197681271E-002   0.0000000000000000     
  -1.4954807981523542E-002   2.0169944057106981E-002   0.0000000000000000     
  -7.1275144205489296E-003   1.8870995806290730E-002   0.0000000000000000     
  -8.0386968978459813E-003   2.2644241148944824E-002   0.0000000000000000     
  -8.9389540651326517E-003   2.6669388890329323E-002   0.0000000000000000     
  -9.8282859224089417E-003   3.0946439030444226E-002   0.0000000000000000     
  -1.0706692469674851E-002   3.5475391569289534E-002   0.0000000000000000     
  -8.9843113153456229E-003   1.9099428393773842E-002   0.0000000000000000     
  -1.0128179207333794E-002   2.2887230557241151E-002   0.0000000000000000     
  -1.1258219014276059E-002   2.6923588016639976E-002   0.0000000000000000     
  -1.2374430736172415E-002   3.1208500771970307E-002   0.0000000000000000     
  -1.3476814373022864E-002   3.5741968823232162E-002   0.0000000000000000     
  -1.0907792540440286E-002   1.9392063964737586E-002   0.0000000000000000     
  -1.2294250239068298E-002   2.3199269776913459E-002   0.0000000000000000     
  -1.3660878134373625E-002   2.7249148764877534E-002   0.0000000000000000     
  -1.5007676226356272E-002   3.1541700928629811E-002   0.0000000000000000     
  -1.6334644515016233E-002   3.6076926268170308E-002   0.0000000000000000     
  -1.2897958095832926E-002   1.9748902519181970E-002   0.0000000000000000     
  -1.4536909993049489E-002   2.3580358807961742E-002   0.0000000000000000     
  -1.6146931425425351E-002   2.7646071135042003E-002   0.0000000000000000     
  -1.7728022392960507E-002   3.1946039500422754E-002   0.0000000000000000     
  -1.9280182895654967E-002   3.6480263904103971E-002   0.0000000000000000     
  -1.4954807981523542E-002   2.0169944057106981E-002   0.0000000000000000     
  -1.6856158469277367E-002   2.4030497650386021E-002   0.0000000000000000     
  -1.8716378887431231E-002   2.8114355127133388E-002   0.0000000000000000     
  -2.0535469235985124E-002   3.2421516487349103E-002   0.0000000000000000     
  -2.2313429514939052E-002   3.6951981731033146E-002   0.0000000000000000     
  -1.0706692469674851E-002   3.5475391569289534E-002   0.0000000000000000     
  -1.1568501915897565E-002   4.0235657543549477E-002   0.0000000000000000     
  -1.2408042470044267E-002   4.5206647989908290E-002   0.0000000000000000     
  -1.3225314132114956E-002   5.0388362908365986E-002   0.0000000000000000     
  -1.4020316902109633E-002   5.5780802298922551E-002   0.0000000000000000     
  -1.3476814373022864E-002   3.5741968823232162E-002   0.0000000000000000     
  -1.4557570495619159E-002   4.0504068639103483E-002   0.0000000000000000     
  -1.5608899674753056E-002   4.5474876688262250E-002   0.0000000000000000     
  -1.6630801910424559E-002   5.0654392970708437E-002   0.0000000000000000     
  -1.7623277202633666E-002   5.6042617486442056E-002   0.0000000000000000     
  -1.6334644515016233E-002   3.6076926268170308E-002   0.0000000000000000     
  -1.7633679269326578E-002   4.0837138792173176E-002   0.0000000000000000     
  -1.8896676758260362E-002   4.5804652509312607E-002   0.0000000000000000     
  -2.0123636981817582E-002   5.0979467419588580E-002   0.0000000000000000     
  -2.1314559939998250E-002   5.6361583523001121E-002   0.0000000000000000     
  -1.9280182895654967E-002   3.6480263904103971E-002   0.0000000000000000     
  -2.0796828237019820E-002   4.1234868002758551E-002   0.0000000000000000     
  -2.2271373720566173E-002   4.6195975453059375E-002   0.0000000000000000     
  -2.3703819346294026E-002   5.1363586255006442E-002   0.0000000000000000     
  -2.5094165114203378E-002   5.6737700408599753E-002   0.0000000000000000     
  -2.2313429514939052E-002   3.6951981731033146E-002   0.0000000000000000     
  -2.4047017398698887E-002   4.1697256270859601E-002   0.0000000000000000     
  -2.5732990561670499E-002   4.6648845519502560E-002   0.0000000000000000     
  -2.7371349003853889E-002   5.1806749476961997E-002   0.0000000000000000     
  -2.8962092725249054E-002   5.7170968143237945E-002   0.0000000000000000     
  -1.4020316902109633E-002   5.5780802298922551E-002   0.0000000000000000     
  -1.4792310063191505E-002   6.1371480585766455E-002   0.0000000000000000     
  -1.5540552898523781E-002   6.7147912193086162E-002   0.0000000000000000     
  -1.6265045408106450E-002   7.3110097120881637E-002   0.0000000000000000     
  -1.6965787591939521E-002   7.9258035369152935E-002   0.0000000000000000     
  -1.7623277202633666E-002   5.6042617486442056E-002   0.0000000000000000     
  -1.8586823934391844E-002   6.1627743496732786E-002   0.0000000000000000     
  -1.9521940488710556E-002   6.7397964262850274E-002   0.0000000000000000     
  -2.0428626865589807E-002   7.3353279784794570E-002   0.0000000000000000     
  -2.1306883065029598E-002   7.9493690062565625E-002   0.0000000000000000     
  -2.1314559939998250E-002   5.6361583523001121E-002   0.0000000000000000     
  -2.2470524988425243E-002   6.1939470366420439E-002   0.0000000000000000     
  -2.3592611482721459E-002   6.7701597496716795E-002   0.0000000000000000     
  -2.4680819422886899E-002   7.3647964913890224E-002   0.0000000000000000     
  -2.5735148808921554E-002   7.9778572617940649E-002   0.0000000000000000     
  -2.5094165114203378E-002   5.6737700408599753E-002   0.0000000000000000     
  -2.6443413225291704E-002   6.2306661194829464E-002   0.0000000000000000     
  -2.7752565880556482E-002   6.8058811894685739E-002   0.0000000000000000     
  -2.9021623079997717E-002   7.3994152508168570E-002   0.0000000000000000     
  -3.0250584823615392E-002   8.0112683035277965E-002   0.0000000000000000     
  -2.8962092725249054E-002   5.7170968143237945E-002   0.0000000000000000     
  -3.0505488644991228E-002   6.2729315981959827E-002   0.0000000000000000     
  -3.2001803682215627E-002   6.8469607456757065E-002   0.0000000000000000     
  -3.3451037836922257E-002   7.4391842567629651E-002   0.0000000000000000     
  -3.4853191109111115E-002   8.0496021314577643E-002   0.0000000000000000     
  -1.6965787591939521E-002   7.9258035369152935E-002   0.0000000000000000     
  -1.7640773071478693E-002   8.5577857641220598E-002   0.0000000000000000     
  -1.8287995468179677E-002   9.2055694640405278E-002   0.0000000000000000     
  -1.8907454782042463E-002   9.8691546366706934E-002   0.0000000000000000     
  -1.9499151013067064E-002  0.10548541282012561        0.0000000000000000     
  -2.1306883065029598E-002   7.9493690062565625E-002   0.0000000000000000     
  -2.2153220238789750E-002   8.5805411066924298E-002   0.0000000000000000     
  -2.2964149538630074E-002   9.2274658768631446E-002   0.0000000000000000     
  -2.3739670964550586E-002   9.8901433167687028E-002   0.0000000000000000     
  -2.4479784516551275E-002  0.10568573426409109        0.0000000000000000     
  -2.5735148808921554E-002   7.9778572617940649E-002   0.0000000000000000     
  -2.6751322869293014E-002   8.6079913470273939E-002   0.0000000000000000     
  -2.7725064832468862E-002   9.2538480332295892E-002   0.0000000000000000     
  -2.8656374698449085E-002   9.9154273204006577E-002   0.0000000000000000     
  -2.9545252467233694E-002  0.10592729208540591        0.0000000000000000     
  -3.0250584823615392E-002   8.0112683035277965E-002   0.0000000000000000     
  -3.1435080962988506E-002   8.6401364851269494E-002   0.0000000000000000     
  -3.2570741349696036E-002   9.2847159331398671E-002   0.0000000000000000     
  -3.3657565983737953E-002   9.9450066475665511E-002   0.0000000000000000     
  -3.4695554865114303E-002  0.10621008628407000        0.0000000000000000     
  -3.4853191109111115E-002   8.0496021314577643E-002   0.0000000000000000     
  -3.6204494519876208E-002   8.6769765209910990E-002   0.0000000000000000     
  -3.7501179090311587E-002   9.3200695765939742E-002   0.0000000000000000     
  -3.8743244820417223E-002   9.9788812982663885E-002   0.0000000000000000     
  -3.9930691710193138E-002  0.10653411686008342        0.0000000000000000     
  -1.9499151013067064E-002  0.10548541282012561        0.0000000000000000     
  -2.0066066898536405E-002  0.11242637074282533        0.0000000000000000     
  -2.0611185175733415E-002  0.11950349687697022        0.0000000000000000     
  -2.1134505844658109E-002  0.12671679122256024        0.0000000000000000     
  -2.1636028905310467E-002  0.13406625377959547        0.0000000000000000     
  -2.4479784516551275E-002  0.10568573426409109        0.0000000000000000     
  -2.5187503860249802E-002  0.11261777054986906        0.0000000000000000     
  -2.5865842661263818E-002  0.11968775051704637        0.0000000000000000     
  -2.6514800919593323E-002  0.12689567416562303        0.0000000000000000     
  -2.7134378635238314E-002  0.13424154149559903        0.0000000000000000     
  -2.9545252467233694E-002  0.10592729208540591        0.0000000000000000     
  -3.0394826886865928E-002  0.11284822743580393        0.0000000000000000     
  -3.1208226705389055E-002  0.11990776971451060        0.0000000000000000     
  -3.1985451922803061E-002  0.12710591892152595        0.0000000000000000     
  -3.2726502539107950E-002  0.13444267505684998        0.0000000000000000     
  -3.4695554865114303E-002  0.10621008628407000        0.0000000000000000     
  -3.5688035978384790E-002  0.11311774140062990        0.0000000000000000     
  -3.6638337308109135E-002  0.12016355446936292        0.0000000000000000     
  -3.7546458854287326E-002  0.12734752549026909        0.0000000000000000     
  -3.8412400616919362E-002  0.13466965446334836        0.0000000000000000     
  -3.9930691710193138E-002  0.10653411686008342        0.0000000000000000     
  -4.1067131134806388E-002  0.11342631244434703        0.0000000000000000     
  -4.2156174469424032E-002  0.12045510478160333        0.0000000000000000     
  -4.3197821714046097E-002  0.12762049387185240        0.0000000000000000     
  -4.4192072868672556E-002  0.13492247971509416        0.0000000000000000     
  -2.1636028905310467E-002  0.13406625377959547        0.0000000000000000     
  -2.2109951365320027E-002  0.14153926571001543        0.0000000000000000     
  -2.2550470232316280E-002  0.14912320817575983        0.0000000000000000     
  -2.2957585506299238E-002  0.15681808117682858        0.0000000000000000     
  -2.3331297187268903E-002  0.16462388471322176        0.0000000000000000     
  -2.7134378635238314E-002  0.13424154149559903        0.0000000000000000     
  -2.7716538408691344E-002  0.14171186302512254        0.0000000000000000     
  -2.8253242840444958E-002  0.14929314927234172        0.0000000000000000     
  -2.8744491930499154E-002  0.15698540023725663        0.0000000000000000     
  -2.9190285678853924E-002  0.16478861591986721        0.0000000000000000     
  -3.2726502539107950E-002  0.13444267505684998        0.0000000000000000     
  -3.3423009538752504E-002  0.14190399244471411        0.0000000000000000     
  -3.4066603906185496E-002  0.14947582540934976        0.0000000000000000     
  -3.4657285641406937E-002  0.15715817395075696        0.0000000000000000     
  -3.5195054744416823E-002  0.16495103806893568        0.0000000000000000     
  -3.8412400616919362E-002  0.13466965446334836        0.0000000000000000     
  -3.9229364755503475E-002  0.14211565396879020        0.0000000000000000     
  -3.9990553429537896E-002  0.14967123658678391        0.0000000000000000     
  -4.0695966639022606E-002  0.15733640231732957        0.0000000000000000     
  -4.1345604383957596E-002  0.16511115116042718        0.0000000000000000     
  -4.4192072868672556E-002  0.13492247971509416        0.0000000000000000     
  -4.5135604058944290E-002  0.14234684759735072        0.0000000000000000     
  -4.6025091410502150E-002  0.14987938280464419        0.0000000000000000     
  -4.6860534923346138E-002  0.15752008533697454        0.0000000000000000     
  -4.7641934597476246E-002  0.16526895519434176        0.0000000000000000     
   0.0000000000000000        0.0000000000000000        0.0000000000000000     
  -1.7983265241587312E-003   1.2769296936712120E-003   0.0000000000000000     
  -3.6213467245838878E-003   2.9392872790339601E-003   0.0000000000000000     
  -5.4690606012754691E-003   4.9870727560882445E-003   0.0000000000000000     
  -7.3414681542334761E-003   7.4202861248340640E-003   0.0000000000000000     
   0.0000000000000000        0.0000000000000000        0.0000000000000000     
  -2.0693936203518581E-003   1.3550594880788588E-003   0.0000000000000000     
  -4.1640119473266247E-003   3.0941339069665355E-003   0.0000000000000000     
  -6.2838549809242986E-003   5.2172232566630320E-003   0.0000000000000000     
  -8.4289227211448801E-003   7.7243275371683467E-003   0.0000000000000000     
   0.0000000000000000        0.0000000000000000        0.0000000000000000     
  -2.3400282903491554E-003   1.4590896786264326E-003   0.0000000000000000     
  -4.7200987559767879E-003   3.2999855052226073E-003   0.0000000000000000     
  -7.1402113968828985E-003   5.5226874797885250E-003   0.0000000000000000     
  -9.6003662130674846E-003   8.1271956023241821E-003   0.0000000000000000     
   0.0000000000000000        0.0000000000000000        0.0000000000000000     
  -2.6102305341506237E-003   1.5890202653139336E-003   0.0000000000000000     
  -5.2896071505343801E-003   3.5568420738021742E-003   0.0000000000000000     
  -8.0381298491512699E-003   5.9034654254647217E-003   0.0000000000000000     
  -1.0855798630001292E-002   8.6288903203015771E-003   0.0000000000000000     
   0.0000000000000000        0.0000000000000000        0.0000000000000000     
  -2.8800003517562628E-003   1.7448512481413620E-003   0.0000000000000000     
  -5.8725371309994003E-003   3.8647036127052361E-003   0.0000000000000000     
  -8.9776103377294126E-003   6.3595570936916240E-003   0.0000000000000000     
  -1.2195219971946300E-002   9.2294116911005222E-003   0.0000000000000000     
  -7.3414681542334761E-003   7.4202861248340640E-003   0.0000000000000000     
  -9.2308676867575191E-003   1.0186585231544813E-002   0.0000000000000000     
  -1.1129557502147211E-002   1.3233627922493881E-002   0.0000000000000000     
  -1.3037537600402551E-002   1.6561414197681271E-002   0.0000000000000000     
  -1.4954807981523542E-002   2.0169944057106981E-002   0.0000000000000000     
  -8.4289227211448801E-003   7.7243275371683467E-003   0.0000000000000000     
  -1.0590811612739543E-002   1.0558120384418734E-002   0.0000000000000000     
  -1.2761118100459462E-002   1.3661275434350443E-002   0.0000000000000000     
  -1.4939842184304632E-002   1.7033792686963478E-002   0.0000000000000000     
  -1.7126983864275056E-002   2.0675672142257840E-002   0.0000000000000000     
  -9.6003662130674846E-003   8.1271956023241821E-003   0.0000000000000000     
  -1.2076920715796788E-002   1.1046214920718054E-002   0.0000000000000000     
  -1.4546232416337042E-002   1.4212450482858609E-002   0.0000000000000000     
  -1.7008301314688251E-002   1.7625902288745842E-002   0.0000000000000000     
  -1.9463127410850409E-002   2.1286570338379759E-002   0.0000000000000000     
  -1.0855798630001292E-002   8.6288903203015771E-003   0.0000000000000000     
  -1.3689194995929254E-002   1.1650868840442780E-002   0.0000000000000000     
  -1.6484900449779964E-002   1.4887153068018374E-002   0.0000000000000000     
  -1.9242914991553405E-002   1.8337743003028362E-002   0.0000000000000000     
  -2.1963238621249593E-002   2.2002638645472736E-002   0.0000000000000000     
  -1.2195219971946300E-002   9.2294116911005222E-003   0.0000000000000000     
  -1.5427634453136939E-002   1.2372082143592904E-002   0.0000000000000000     
  -1.8577122200788207E-002   1.5685383189829743E-002   0.0000000000000000     
  -2.1643683214900098E-002   1.9169314829811032E-002   0.0000000000000000     
  -2.4627317495472614E-002   2.2823877063536776E-002   0.0000000000000000     
  -1.4954807981523542E-002   2.0169944057106981E-002   0.0000000000000000     
  -1.6856158469277367E-002   2.4030497650386021E-002   0.0000000000000000     
  -1.8716378887431231E-002   2.8114355127133388E-002   0.0000000000000000     
  -2.0535469235985124E-002   3.2421516487349103E-002   0.0000000000000000     
  -2.2313429514939052E-002   3.6951981731033146E-002   0.0000000000000000     
  -1.7126983864275056E-002   2.0675672142257840E-002   0.0000000000000000     
  -1.9291557910887318E-002   2.4559099912330806E-002   0.0000000000000000     
  -2.1402579094657991E-002   2.8656262109279667E-002   0.0000000000000000     
  -2.3460047415587083E-002   3.2967158733104421E-002   0.0000000000000000     
  -2.5463962873674587E-002   3.7491789783805060E-002   0.0000000000000000     
  -1.9463127410850409E-002   2.1286570338379759E-002   0.0000000000000000     
  -2.1882670561014714E-002   2.5175579201940648E-002   0.0000000000000000     
  -2.4238890621372359E-002   2.9274053449608813E-002   0.0000000000000000     
  -2.6531787591923334E-002   3.3581993081384237E-002   0.0000000000000000     
  -2.8761361472667654E-002   3.8099398097266944E-002   0.0000000000000000     
  -2.1963238621249593E-002   2.2002638645472736E-002   0.0000000000000000     
  -2.4629496419659558E-002   2.5879935519215545E-002   0.0000000000000000     
  -2.7225313467574324E-002   2.9967729148120827E-002   0.0000000000000000     
  -2.9750689764993888E-002   3.4266019532188573E-002   0.0000000000000000     
  -3.2205625311918257E-002   3.8774806671418797E-002   0.0000000000000000     
  -2.4627317495472614E-002   2.2823877063536776E-002   0.0000000000000000     
  -2.7532035486821847E-002   2.6672168864155497E-002   0.0000000000000000     
  -3.0361847633263894E-002   3.0737289204815704E-002   0.0000000000000000     
  -3.3116753934798737E-002   3.5019238085517414E-002   0.0000000000000000     
  -3.5796754391426398E-002   3.9518015506260606E-002   0.0000000000000000     
  -2.2313429514939052E-002   3.6951981731033146E-002   0.0000000000000000     
  -2.4047017398698887E-002   4.1697256270859601E-002   0.0000000000000000     
  -2.5732990561670499E-002   4.6648845519502560E-002   0.0000000000000000     
  -2.7371349003853889E-002   5.1806749476961997E-002   0.0000000000000000     
  -2.8962092725249054E-002   5.7170968143237945E-002   0.0000000000000000     
  -2.5463962873674587E-002   3.7491789783805060E-002   0.0000000000000000     
  -2.7414531455719229E-002   4.2226173866949400E-002   0.0000000000000000     
  -2.9311959148519730E-002   4.7166329588105238E-002   0.0000000000000000     
  -3.1156245952076091E-002   5.2312256947272588E-002   0.0000000000000000     
  -3.2947391866388315E-002   5.7663955944451416E-002   0.0000000000000000     
  -2.8761361472667654E-002   3.8099398097266944E-002   0.0000000000000000     
  -3.0929655109436308E-002   4.2823491061500997E-002   0.0000000000000000     
  -3.3038711348060273E-002   4.7751494538330504E-002   0.0000000000000000     
  -3.5088530188539566E-002   5.2883408527755464E-002   0.0000000000000000     
  -3.7079111630874170E-002   5.8219233029775858E-002   0.0000000000000000     
  -3.2205625311918257E-002   3.8774806671418797E-002   0.0000000000000000     
  -3.4592388359850110E-002   4.3489207854514426E-002   0.0000000000000000     
  -3.6913247160292137E-002   4.8404340370178371E-002   0.0000000000000000     
  -3.9168201713244304E-002   5.3520204218410659E-002   0.0000000000000000     
  -4.1357252018706644E-002   5.8836799399211291E-002   0.0000000000000000     
  -3.5796754391426398E-002   3.9518015506260606E-002   0.0000000000000000     
  -3.8402731206960652E-002   4.4223324245989633E-002   0.0000000000000000     
  -4.0935566585215293E-002   4.9124867083648827E-002   0.0000000000000000     
  -4.3395260526190312E-002   5.4222644019238181E-002   0.0000000000000000     
  -4.5781813029885723E-002   5.9516655052757689E-002   0.0000000000000000     
  -2.8962092725249054E-002   5.7170968143237945E-002   0.0000000000000000     
  -3.0505488644991228E-002   6.2729315981959827E-002   0.0000000000000000     
  -3.2001803682215627E-002   6.8469607456757065E-002   0.0000000000000000     
  -3.3451037836922257E-002   7.4391842567629651E-002   0.0000000000000000     
  -3.4853191109111115E-002   8.0496021314577643E-002   0.0000000000000000     
  -3.2947391866388315E-002   5.7663955944451416E-002   0.0000000000000000     
  -3.4684814427248099E-002   6.3208989719976877E-002   0.0000000000000000     
  -3.6367931170447197E-002   6.8934921414184086E-002   0.0000000000000000     
  -3.7996742095985567E-002   7.4841751027073036E-002   0.0000000000000000     
  -3.9571247203863243E-002   8.0929478558643728E-002   0.0000000000000000     
  -3.7079111630874170E-002   5.8219233029775858E-002   0.0000000000000000     
  -3.9009453751786653E-002   6.3747237401046000E-002   0.0000000000000000     
  -4.0878554627999483E-002   6.9455690998220118E-002   0.0000000000000000     
  -4.2686414259512709E-002   7.5344593821298267E-002   0.0000000000000000     
  -4.4433032646326323E-002   8.1413945870280377E-002   0.0000000000000000     
  -4.1357252018706644E-002   5.8836799399211291E-002   0.0000000000000000     
  -4.3479406618606810E-002   6.4344059025167155E-002   0.0000000000000000     
  -4.5533674054872492E-002   7.0031916208865161E-002   0.0000000000000000     
  -4.7520054327503669E-002   7.5900370950305301E-002   0.0000000000000000     
  -4.9438547436500349E-002   8.1949423249487577E-002   0.0000000000000000     
  -4.5781813029885723E-002   5.9516655052757689E-002   0.0000000000000000     
  -4.8094673027708645E-002   6.4999454592340369E-002   0.0000000000000000     
  -5.0333289451066222E-002   7.0663597046119200E-002   0.0000000000000000     
  -5.2497662299958454E-002   7.6509082414094182E-002   0.0000000000000000     
  -5.4587791574385335E-002   8.2535910696265341E-002   0.0000000000000000     
  -3.4853191109111115E-002   8.0496021314577643E-002   0.0000000000000000     
  -3.6204494519876208E-002   8.6769765209910990E-002   0.0000000000000000     
  -3.7501179090311587E-002   9.3200695765939742E-002   0.0000000000000000     
  -3.8743244820417223E-002   9.9788812982663885E-002   0.0000000000000000     
  -3.9930691710193138E-002  0.10653411686008342        0.0000000000000000     
  -3.9571247203863243E-002   8.0929478558643728E-002   0.0000000000000000     
  -4.1088480233784280E-002   8.7186411313050952E-002   0.0000000000000000     
  -4.2545474925452749E-002   9.3600856594449444E-002   0.0000000000000000     
  -4.3942231278868669E-002  0.10017281440283921        0.0000000000000000     
  -4.5278749294032014E-002  0.10690228473822026        0.0000000000000000     
  -4.4433032646326323E-002   8.1413945870280377E-002   0.0000000000000000     
  -4.6115954798540838E-002   8.7652599927541888E-002   0.0000000000000000     
  -4.7732725726256760E-002   9.4049408775458102E-002   0.0000000000000000     
  -4.9283345429474081E-002  0.10060437241402902        0.0000000000000000     
  -5.0767813908192808E-002  0.10731749084325466        0.0000000000000000     
  -4.9438547436500349E-002   8.1949423249487577E-002   0.0000000000000000     
  -5.1286918214145882E-002   8.8168331053383786E-002   0.0000000000000000     
  -5.3062931492723585E-002   9.4546352308965700E-002   0.0000000000000000     
  -5.4766587272233463E-002  0.10108348701623331        0.0000000000000000     
  -5.6397885552675518E-002  0.10777973517518663        0.0000000000000000     
  -5.4587791574385335E-002   8.2535910696265341E-002   0.0000000000000000     
  -5.6601370480599413E-002   8.8733604690576687E-002   0.0000000000000000     
  -5.8536092224853245E-002   9.5091687194972269E-002   0.0000000000000000     
  -6.0391956807146818E-002  0.10161015820945209        0.0000000000000000     
  -6.2168964227480146E-002  0.10828901773401617        0.0000000000000000     
  -3.9930691710193138E-002  0.10653411686008342        0.0000000000000000     
  -4.1067131134806388E-002  0.11342631244434703        0.0000000000000000     
  -4.2156174469424032E-002  0.12045510478160333        0.0000000000000000     
  -4.3197821714046097E-002  0.12762049387185240        0.0000000000000000     
  -4.4192072868672556E-002  0.13492247971509416        0.0000000000000000     
  -4.5278749294032014E-002  0.10690228473822026        0.0000000000000000     
  -4.6559394977368329E-002  0.11377771587222410        0.0000000000000000     
  -4.7788534335303147E-002  0.12078755607648214        0.0000000000000000     
  -4.8966167367836447E-002  0.12793180535099444        0.0000000000000000     
  -5.0092294074968249E-002  0.13521046369576098        0.0000000000000000     
  -5.0767813908192808E-002  0.10731749084325466        0.0000000000000000     
  -5.2192110127308282E-002  0.11417572698952991        0.0000000000000000     
  -5.3562213051715823E-002  0.12116604377924962        0.0000000000000000     
  -5.4878122681415453E-002  0.12828844121241378        0.0000000000000000     
  -5.6139839016407143E-002  0.13554291928902240        0.0000000000000000     
  -5.6397885552675518E-002  0.10777973517518663        0.0000000000000000     
  -5.7965276584626239E-002  0.11462034579626451        0.0000000000000000     
  -5.9477210618662096E-002  0.12159056788990577        0.0000000000000000     
  -6.0933687654783096E-002  0.12869040145611041        0.0000000000000000     
  -6.2334707692989239E-002  0.13591984649487845        0.0000000000000000     
  -6.2168964227480146E-002  0.10828901773401617        0.0000000000000000     
  -6.3878894349322188E-002  0.11511157229242787        0.0000000000000000     
  -6.5533527036141931E-002  0.12206112840845057        0.0000000000000000     
  -6.7132862287939382E-002  0.12913768608208434        0.0000000000000000     
  -6.8676900104714528E-002  0.13634124531332911        0.0000000000000000     
  -4.4192072868672556E-002  0.13492247971509416        0.0000000000000000     
  -4.5135604058944290E-002  0.14234684759735072        0.0000000000000000     
  -4.6025091410502150E-002  0.14987938280464419        0.0000000000000000     
  -4.6860534923346138E-002  0.15752008533697454        0.0000000000000000     
  -4.7641934597476246E-002  0.16526895519434176        0.0000000000000000     
  -5.0092294074968249E-002  0.13521046369576098        0.0000000000000000     
  -5.1165484012591710E-002  0.14261004582669873        0.0000000000000000     
  -5.2184306736600010E-002  0.15011706645972475        0.0000000000000000     
  -5.3148762246993109E-002  0.15773152559483891        0.0000000000000000     
  -5.4058850543771055E-002  0.16545342323204137        0.0000000000000000     
  -5.6139839016407143E-002  0.13554291928902240        0.0000000000000000     
  -5.7342761179962509E-002  0.14291772115313719        0.0000000000000000     
  -5.8482288295353159E-002  0.15040108994881965        0.0000000000000000     
  -5.9558420362579093E-002  0.15799302567606996        0.0000000000000000     
  -6.0571157381640296E-002  0.16569352833488804        0.0000000000000000     
  -6.2334707692989239E-002  0.13591984649487845        0.0000000000000000     
  -6.3667435561056682E-002  0.14326987357666596        0.0000000000000000     
  -6.4919036086761639E-002  0.15073145327192908        0.0000000000000000     
  -6.6089509270104055E-002  0.15830458558066760        0.0000000000000000     
  -6.7178855111083985E-002  0.16598927050288176        0.0000000000000000     
  -6.8676900104714528E-002  0.13634124531332911        0.0000000000000000     
  -7.0139507155874248E-002  0.14366650309728521        0.0000000000000000     
  -7.1494550110825422E-002  0.15110815642905279        0.0000000000000000     
  -7.2742028969568051E-002  0.15866620530863190        0.0000000000000000     
  -7.3881943732102107E-002  0.16634064973602253        0.0000000000000000     
   0.0000000000000000        0.0000000000000000        0.0000000000000000     
  -2.8800003517562628E-003   1.7448512481413620E-003   0.0000000000000000     
  -5.8725371309994003E-003   3.8647036127052361E-003   0.0000000000000000     
  -8.9776103377294126E-003   6.3595570936916240E-003   0.0000000000000000     
  -1.2195219971946300E-002   9.2294116911005222E-003   0.0000000000000000     
   0.0000000000000000        0.0000000000000000        0.0000000000000000     
  -3.2831615685951906E-003   1.9992694403725580E-003   0.0000000000000000     
  -6.6768606216808272E-003   4.3309088330025581E-003   0.0000000000000000     
  -1.0181097159256910E-002   6.9949181778899997E-003   0.0000000000000000     
  -1.3795871181323437E-002   9.9912974750348844E-003   0.0000000000000000     
   0.0000000000000000        0.0000000000000000        0.0000000000000000     
  -3.9535380100965264E-003   2.4249616552713621E-003   0.0000000000000000     
  -7.9105495468876404E-003   5.0627964457649020E-003   0.0000000000000000     
  -1.1871034610373343E-002   7.9135043714806206E-003   0.0000000000000000     
  -1.5834993200553631E-002   1.0977085432418519E-002   0.0000000000000000     
   0.0000000000000000        0.0000000000000000        0.0000000000000000     
  -4.8911296762602684E-003   3.0219278928377748E-003   0.0000000000000000     
  -9.5736039066198365E-003   6.0603664509922698E-003   0.0000000000000000     
  -1.4047422691078709E-002   9.1153156744634874E-003   0.0000000000000000     
  -1.8312586029636885E-002   1.2186775563251427E-002   0.0000000000000000     
   0.0000000000000000        0.0000000000000000        0.0000000000000000     
  -6.0959365670864183E-003   3.7901681530717953E-003   0.0000000000000000     
  -1.1666023700877421E-002   7.3236188486846612E-003   0.0000000000000000     
  -1.6710261401373015E-002   1.0600352086838599E-002   0.0000000000000000     
  -2.1228649668573192E-002   1.3620367867533610E-002   0.0000000000000000     
  -1.2195219971946300E-002   9.2294116911005222E-003   0.0000000000000000     
  -1.5427634453136939E-002   1.2372082143592904E-002   0.0000000000000000     
  -1.8577122200788207E-002   1.5685383189829743E-002   0.0000000000000000     
  -2.1643683214900098E-002   1.9169314829811032E-002   0.0000000000000000     
  -2.4627317495472614E-002   2.2823877063536776E-002   0.0000000000000000     
  -1.3795871181323437E-002   9.9912974750348844E-003   0.0000000000000000     
  -1.7404160821492515E-002   1.3221809274338176E-002   0.0000000000000000     
  -2.0888944213376229E-002   1.6588216125700841E-002   0.0000000000000000     
  -2.4250221356974598E-002   2.0090518029122876E-002   0.0000000000000000     
  -2.7487992252287614E-002   2.3728714984604285E-002   0.0000000000000000     
  -1.5834993200553631E-002   1.0977085432418519E-002   0.0000000000000000     
  -1.9730695835068639E-002   1.4212004676848329E-002   0.0000000000000000     
  -2.3486413031558500E-002   1.7576727153039793E-002   0.0000000000000000     
  -2.7102144790023194E-002   2.1071252860992904E-002   0.0000000000000000     
  -3.0577891110462746E-002   2.4695581800707668E-002   0.0000000000000000     
  -1.8312586029636885E-002   1.2186775563251427E-002   0.0000000000000000     
  -2.2407239493865323E-002   1.5342668351123375E-002   0.0000000000000000     
  -2.6369528655334991E-002   1.8650916271846604E-002   0.0000000000000000     
  -3.0199453514045883E-002   2.2111519325421120E-002   0.0000000000000000     
  -3.3897014069998004E-002   2.5724477511846928E-002   0.0000000000000000     
  -2.1228649668573192E-002   1.3620367867533610E-002   0.0000000000000000     
  -2.5433791797882556E-002   1.6613800297163299E-002   0.0000000000000000     
  -2.9538291084705719E-002   1.9810783482121272E-002   0.0000000000000000     
  -3.3542147529042665E-002   2.3211317422407535E-002   0.0000000000000000     
  -3.7445361130893404E-002   2.6815402118022073E-002   0.0000000000000000     
  -2.4627317495472614E-002   2.2823877063536776E-002   0.0000000000000000     
  -2.7532035486821847E-002   2.6672168864155497E-002   0.0000000000000000     
  -3.0361847633263894E-002   3.0737289204815704E-002   0.0000000000000000     
  -3.3116753934798737E-002   3.5019238085517414E-002   0.0000000000000000     
  -3.5796754391426398E-002   3.9518015506260606E-002   0.0000000000000000     
  -2.7487992252287614E-002   2.3728714984604285E-002   0.0000000000000000     
  -3.0624920182624932E-002   2.7546001565623000E-002   0.0000000000000000     
  -3.3683668431296207E-002   3.1585572345656968E-002   0.0000000000000000     
  -3.6664236998301451E-002   3.5847427324706187E-002   0.0000000000000000     
  -3.9566625883640648E-002   4.0331566502770651E-002   0.0000000000000000     
  -3.0577891110462746E-002   2.4695581800707668E-002   0.0000000000000000     
  -3.3942782927192147E-002   2.8495155952480578E-002   0.0000000000000000     
  -3.7225951174526421E-002   3.2515417296608132E-002   0.0000000000000000     
  -4.0427395852465582E-002   3.6756365833090325E-002   0.0000000000000000     
  -4.3547116961009602E-002   4.1218001561927162E-002   0.0000000000000000     
  -3.3897014069998004E-002   2.5724477511846928E-002   0.0000000000000000     
  -3.7485623720523518E-002   2.9519632024728220E-002   0.0000000000000000     
  -4.0988695862954561E-002   3.3526824057669193E-002   0.0000000000000000     
  -4.4406230497291151E-002   3.7746053610669836E-002   0.0000000000000000     
  -4.7738227623533261E-002   4.2177320683730160E-002   0.0000000000000000     
  -3.7445361130893404E-002   2.6815402118022073E-002   0.0000000000000000     
  -4.1253442562619015E-002   3.0619429782365936E-002   0.0000000000000000     
  -4.4971902496580590E-002   3.4619792628840150E-002   0.0000000000000000     
  -4.8600740932778129E-002   3.8816490657444712E-002   0.0000000000000000     
  -5.2139957871211617E-002   4.3209523868179625E-002   0.0000000000000000     
  -3.5796754391426398E-002   3.9518015506260606E-002   0.0000000000000000     
  -3.8402731206960652E-002   4.4223324245989633E-002   0.0000000000000000     
  -4.0935566585215293E-002   4.9124867083648827E-002   0.0000000000000000     
  -4.3395260526190312E-002   5.4222644019238181E-002   0.0000000000000000     
  -4.5781813029885723E-002   5.9516655052757689E-002   0.0000000000000000     
  -3.9566625883640648E-002   4.0331566502770651E-002   0.0000000000000000     
  -4.2389571332112443E-002   4.5023207931201695E-002   0.0000000000000000     
  -4.5131809588515447E-002   4.9907569661350674E-002   0.0000000000000000     
  -4.7793340652849653E-002   5.4984651693217583E-002   0.0000000000000000     
  -5.0374164525115075E-002   6.0254454026802400E-002   0.0000000000000000     
  -4.3547116961009602E-002   4.1218001561927162E-002   0.0000000000000000     
  -4.6581796416649994E-002   4.5886226605425628E-002   0.0000000000000000     
  -4.9528116135878257E-002   5.0746943085892719E-002   0.0000000000000000     
  -5.2386076118694384E-002   5.5800151003328420E-002   0.0000000000000000     
  -5.5155676365098390E-002   6.1045850357732745E-002   0.0000000000000000     
  -4.7738227623533261E-002   4.2177320683730160E-002   0.0000000000000000     
  -5.0979406460573334E-002   4.6812380268661434E-002   0.0000000000000000     
  -5.4124486227303745E-002   5.1642987357274947E-002   0.0000000000000000     
  -5.7173466923724527E-002   5.6669141949570706E-002   0.0000000000000000     
  -6.0126348549835645E-002   6.1890844045548718E-002   0.0000000000000000     
  -5.2139957871211617E-002   4.3209523868179625E-002   0.0000000000000000     
  -5.5582401463882429E-002   4.7801668920909104E-002   0.0000000000000000     
  -5.8920919862791903E-002   5.2595702475497386E-002   0.0000000000000000     
  -6.2155513067940052E-002   5.7591624531944455E-002   0.0000000000000000     
  -6.5286181079326849E-002   6.2789435090250312E-002   0.0000000000000000     
  -4.5781813029885723E-002   5.9516655052757689E-002   0.0000000000000000     
  -4.8094673027708645E-002   6.4999454592340369E-002   0.0000000000000000     
  -5.0333289451066222E-002   7.0663597046119200E-002   0.0000000000000000     
  -5.2497662299958454E-002   7.6509082414094182E-002   0.0000000000000000     
  -5.4587791574385335E-002   8.2535910696265341E-002   0.0000000000000000     
  -5.0374164525115075E-002   6.0254454026802400E-002   0.0000000000000000     
  -5.2875031389850884E-002   6.5711529122222639E-002   0.0000000000000000     
  -5.5296691431596254E-002   7.1350429439595769E-002   0.0000000000000000     
  -5.7639144650351186E-002   7.7171154978921797E-002   0.0000000000000000     
  -5.9902391046115659E-002   8.3173705740200735E-002   0.0000000000000000     
  -5.5155676365098390E-002   6.1045850357732745E-002   0.0000000000000000     
  -5.7840260115792290E-002   6.6478387634470976E-002   0.0000000000000000     
  -6.0443170611478157E-002   7.2092109318908401E-002   0.0000000000000000     
  -6.2964407852155971E-002   7.7887015411045021E-002   0.0000000000000000     
  -6.5403971837825758E-002   8.3863105910880836E-002   0.0000000000000000     
  -6.0126348549835645E-002   6.1890844045548718E-002   0.0000000000000000     
  -6.2990359205532864E-002   6.7300030129085364E-002   0.0000000000000000     
  -6.5772726990711919E-002   7.2888636684057068E-002   0.0000000000000000     
  -6.8473451905372837E-002   7.8656663710463842E-002   0.0000000000000000     
  -7.1092533949515591E-002   8.4604111208305674E-002   0.0000000000000000     
  -6.5286181079326849E-002   6.2789435090250312E-002   0.0000000000000000     
  -6.8325328659072607E-002   6.8176456606065819E-002   0.0000000000000000     
  -7.1285360569297587E-002   7.3740011535041797E-002   0.0000000000000000     
  -7.4166276810001763E-002   7.9480099877178273E-002   0.0000000000000000     
  -7.6968077381185190E-002   8.5396721632475220E-002   0.0000000000000000     
  -5.4587791574385335E-002   8.2535910696265341E-002   0.0000000000000000     
  -5.6601370480599413E-002   8.8733604690576687E-002   0.0000000000000000     
  -5.8536092224853245E-002   9.5091687194972269E-002   0.0000000000000000     
  -6.0391956807146818E-002  0.10161015820945209        0.0000000000000000     
  -6.2168964227480146E-002  0.10828901773401617        0.0000000000000000     
  -5.9902391046115659E-002   8.3173705740200735E-002   0.0000000000000000     
  -6.2083220657337151E-002   8.9348157734395861E-002   0.0000000000000000     
  -6.4178423522463085E-002   9.5684586972470537E-002   0.0000000000000000     
  -6.6187999641493481E-002  0.10218299345442473        0.0000000000000000     
  -6.8111949014428311E-002  0.10884337718025848        0.0000000000000000     
  -6.5403971837825758E-002   8.3863105910880836E-002   0.0000000000000000     
  -6.7756377803794801E-002   9.0011727080116649E-002   0.0000000000000000     
  -7.0016140985370484E-002   9.6324225180453235E-002   0.0000000000000000     
  -7.2183261382552766E-002  0.10280060021189061        0.0000000000000000     
  -7.4257738995341660E-002  0.10944085217442875        0.0000000000000000     
  -7.1092533949515591E-002   8.4604111208305674E-002   0.0000000000000000     
  -7.3620841919972368E-002   9.0724312727739051E-002   0.0000000000000000     
  -7.6049244613575401E-002   9.7010601818920392E-002   0.0000000000000000     
  -7.8377742030324674E-002  0.10346297848184974        0.0000000000000000     
  -8.0606334170220201E-002  0.11008144271652706        0.0000000000000000     
  -7.6968077381185190E-002   8.5396721632475220E-002   0.0000000000000000     
  -7.9676613005869867E-002   9.1485914677263011E-002   0.0000000000000000     
  -8.2277734407077890E-002   9.7743716887871951E-002   0.0000000000000000     
  -8.4771441584809246E-002  0.10417012826430207        0.0000000000000000     
  -8.7157734539063919E-002  0.11076514880655336        0.0000000000000000     
  -6.2168964227480146E-002  0.10828901773401617        0.0000000000000000     
  -6.3878894349322188E-002  0.11511157229242787        0.0000000000000000     
  -6.5533527036141931E-002  0.12206112840845057        0.0000000000000000     
  -6.7132862287939382E-002  0.12913768608208434        0.0000000000000000     
  -6.8676900104714528E-002  0.13634124531332911        0.0000000000000000     
  -6.8111949014428311E-002  0.10884337718025848        0.0000000000000000     
  -6.9963944675488318E-002  0.11564681442361795        0.0000000000000000     
  -7.1757659658894218E-002  0.12257438145814945        0.0000000000000000     
  -7.3493093964646011E-002  0.12962607828385292        0.0000000000000000     
  -7.5170247592743711E-002  0.13680190490072838        0.0000000000000000     
  -7.4257738995341660E-002  0.10944085217442875        0.0000000000000000     
  -7.6251408817216787E-002  0.11622348013543277        0.0000000000000000     
  -7.8176105841657823E-002  0.12312698316226767        0.0000000000000000     
  -8.0031830068664683E-002  0.13015136125493348        0.0000000000000000     
  -8.1818581498237453E-002  0.13729661441343022        0.0000000000000000     
  -8.0606334170220201E-002  0.11008144271652706        0.0000000000000000     
  -8.2741286774507650E-002  0.11684156942787229        0.0000000000000000     
  -8.4788865584432715E-002  0.12371893352080528        0.0000000000000000     
  -8.6749070599995426E-002  0.13071353499532606        0.0000000000000000     
  -8.8621901821195781E-002  0.13782537385143459        0.0000000000000000     
  -8.7157734539063919E-002  0.11076514880655336        0.0000000000000000     
  -8.9433578547360837E-002  0.11750108230093653        0.0000000000000000     
  -9.1595938887218953E-002  0.12435023253376229        0.0000000000000000     
  -9.3644815558638225E-002  0.13131259950503057        0.0000000000000000     
  -9.5580208561618668E-002  0.13838818321474150        0.0000000000000000     
  -6.8676900104714528E-002  0.13634124531332911        0.0000000000000000     
  -7.0139507155874248E-002  0.14366650309728521        0.0000000000000000     
  -7.1494550110825422E-002  0.15110815642905279        0.0000000000000000     
  -7.2742028969568051E-002  0.15866620530863190        0.0000000000000000     
  -7.3881943732102107E-002  0.16634064973602253        0.0000000000000000     
  -7.5170247592743711E-002  0.13680190490072838        0.0000000000000000     
  -7.6756368616906545E-002  0.14410067376342159        0.0000000000000000     
  -7.8218705110853839E-002  0.15152119732657823        0.0000000000000000     
  -7.9557257074585497E-002  0.15906347559019832        0.0000000000000000     
  -8.0772024508101614E-002  0.16672750855428184        0.0000000000000000     
  -8.1818581498237453E-002  0.13729661441343022        0.0000000000000000     
  -8.3515412596644981E-002  0.14456544962350187        0.0000000000000000     
  -8.5101375830156145E-002  0.15196057387089265        0.0000000000000000     
  -8.6576471198770960E-002  0.15948198715560233        0.0000000000000000     
  -8.7940698702489425E-002  0.16712968947763113        0.0000000000000000     
  -8.8621901821195781E-002  0.13782537385143459        0.0000000000000000     
  -9.0416639095089513E-002  0.14506083067752615        0.0000000000000000     
  -9.2142562268732395E-002  0.15242628606199593        0.0000000000000000     
  -9.3799671342124386E-002  0.15992174000484405        0.0000000000000000     
  -9.5387966315265554E-002  0.16754719250607039        0.0000000000000000     
  -9.5580208561618668E-002  0.13838818321474150        0.0000000000000000     
  -9.7460048112240155E-002  0.14558681692549427        0.0000000000000000     
  -9.9342264426582547E-002  0.15291833389988824        0.0000000000000000     
 -0.10122685750464583       0.16038273413792337        0.0000000000000000     
 -0.10311382734643000       0.16798001763959966        0.0000000000000000     
 </DataArray>
 <DataArray  type="Float64" Name="stress" NumberOfComponents="3" format="ascii">
   13416687039.088516        4025006111.7265544        2893682194.9893699     
   11766662824.863102        1890511077.8968158        1715699676.0521910     
   10313916189.584866        413607973.89100790        810780307.89344084     
   9058447133.2538090       -405703200.29087257        178924090.51311761     
   8000255655.8699322       -567422444.64882135       -179868976.08877680     
   10539918258.418182        3161975477.5254545        2225466703.5967236     
   9667633225.4323711        1589667528.4782796        1446602448.3380616     
   8943967545.2762280        512757422.19665575        863200469.84315228     
   8368921217.9497490       -68754841.319420815        475260768.11199665     
   7942494243.4529333       -154869262.06994534        282783343.14459217     
   8337850879.1269760        2501355263.7380929        1712121842.9818645     
   8021588244.4816990        1424719364.6037607        1275607920.9312854     
   7805286736.5485735        681287221.17659903        956955401.62978470     
   7688946355.3276005        271058833.45660782        756164285.07736099     
   7672567100.8187752        194034201.44378424        673234571.27401638     
   6810484901.2148981        2043145470.3644695        1353647613.1447921     
   6828527882.0110836        1395666586.2732589        1202716093.8318632     
   6897873763.4019051        919197370.83083844        1092045103.2533381     
   7018522545.3873653        613737824.03720784        1021634641.4092153     
   7190474227.9674616        479287945.89236832        991484708.29949629     
   5957820324.6819496        1787346097.4045849        1150044014.0855062     
   6088452138.0205250        1502509193.4867742        1227926967.0397952     
   6221728625.8362226        1226487871.1593735        1268469574.7138121     
   6357649788.1290445        959282130.42238319        1271671837.1075571     
   6496215624.8989897        700891971.27580357        1237533754.2210300     
   8000255655.8699322       -567422444.64882135       -179868976.08877680     
   7917226367.0423031       -200285698.23857832       -78455951.256000653     
   7792726532.8068285        28615896.812174797       -9417416.1716889367     
   7626756153.1635027        119282340.50343227        27246629.164157312     
   7419315228.1123295        71713632.835201263        31536184.751536250     
   7942494243.4529333       -154869262.06994534        282783343.14459217     
   7739604682.0277624        16095350.411464691        281045992.36700571     
   7513382235.4501429        109283679.05137825        264753414.09258419     
   7263826903.7200708        124695723.84978437        233905608.32132956     
   6990938686.8375502        62331484.806696892        188502575.05323699     
   7672567100.8187752        194034201.44378424        673234571.27401638     
   7400729444.6578655        184100333.35490274        589507448.51736450     
   7123696563.5999041        156849048.94251347        509044360.51550823     
   6841468457.6448908        112280348.20661211        431845307.26844722     
   6554045126.7928219        50394231.147205353        357910288.77618140     
   7190474227.9674616        479287945.89236832        991484708.29949629     
   6900600654.9326124        303729250.59173346        846928417.19507360     
   6623669517.2561150        171312006.48558426        723455423.09707868     
   6359680814.9379578        82036213.573915243        621065726.00551057     
   6108634547.9781456        35901871.856729031        539759325.92036712     
   6496215624.8989897        700891971.27580357        1237533754.2210300     
   6239218312.8520088        374982102.12195921        1053308898.4001367     
   6013301096.4187727        152672551.68058872        907986601.83729911     
   5818463975.5992756        33963319.951693058        801566864.53252089     
   5654706950.3935223        18854406.935271025        734049686.48579907     
   7419315228.1123295        71713632.835201263        31536184.751536250     
   7220347291.8334494       -17791756.866374016        16035022.616848065     
   7033523365.5788774       -66817113.153576374        3720954.6703117192     
   6858843449.3486176       -75362436.026406288       -5406019.0880643027     
   6696307543.1426716       -43427725.484863758       -11345898.658293292     
   6990938686.8375502        62331484.806696892        188502575.05323699     
   6809168003.0211821        3553254.8614153862        181462776.80130413     
   6635071357.6614170       -29644846.895184994        177373657.08093315     
   6468648750.7582588       -37262820.463100195        176235215.89211679     
   6309900182.3117027       -19300665.842339039        178047453.23486179     
   6554045126.7928219        50394231.147205353        357910288.77618140     
   6388796222.1344128        22140518.966856956        354116887.57801294     
   6226751384.3648987        4567029.7494931221        353037749.25480735     
   6067910613.4842834       -2326236.5048758984        354672873.80657011     
   5912273909.4925642        1460720.2037370205        359022261.23329449     
   6108634547.9781456        35901871.856729031        539759325.92036712     
   5959231949.1731424        37970035.449945450        533997354.94697011     
   5808563445.6893253        35818516.780456305        530713231.19194335     
   5656629037.5266972        29447315.848260403        529906954.65528452     
   5503428724.6852570        18856432.653361797        531578525.33699977     
   5654706950.3935223        18854406.935271025        734049686.48579907     
   5520475184.1373682        51041804.310686111        721104178.90818024     
   5380507541.6346931        64109614.197697401        710400102.89233696     
   5234804022.8854990        58057836.596315861        701937458.43826950     
   5083364627.8897848        32886471.506538153        695716245.54597652     
   6696307543.1426716       -43427725.484863758       -11345898.658293292     
   6506881880.9431458       -8790618.3398315907       -8960581.1368988100     
   6312412861.5115538        9035298.0316488743       -631667.37741900876     
   6112900484.8478909        10050023.629558563        13640842.620147394     
   5908344750.9521589       -5746441.5460915565        33856948.855795272     
   6309900182.3117027       -19300665.842339039        178047453.23486179     
   6131129383.5759745       -136404.39804720879        171800033.38250449     
   5949437585.4453697        9291192.3966500759        171375722.81053919     
   5764824787.9198837        8982124.5417380333        176774521.51896748     
   5577290990.9995193       -1063607.9627561569        187996429.50779417     
   5912273909.4925642        1460720.2037370205        359022261.23329449     
   5743813725.7700958        5048861.4121212959        346618188.15056741     
   5574554900.4899406        5974864.0948774815        339916737.39054513     
   5404497433.6520920        4238728.2519948483        338917908.95323050     
   5233641325.2565565       -159546.11651968956        343621702.83861899     
   5503428724.6852570        18856432.653361797        531578525.33699977     
   5344934907.5255098        6765179.0906796455        515493883.16728884     
   5187764806.6452637       -913686.87366938591        504991376.36259615     
   5031918422.0445185       -4180165.2396922112        500071004.92292196     
   4877395753.7232676       -3034256.0073828697        500732768.84826654     
   5083364627.8897848        32886471.506538153        695716245.54597652     
   4934492928.8422213        5012548.6376297474        678427118.43267632     
   4789067303.9113417       -11374460.508989573        666599639.72669899     
   4647087753.0971537       -16274555.933314085        660233809.42805302     
   4508554276.3996487       -9687737.6353473663        659329627.53673792     
   5908344750.9521589       -5746441.5460915565        33856948.855795272     
   5755830253.8409386       -9943962.4129312038        36854551.064062595     
   5605712898.5376625       -6151010.5866203308        36590611.187051199     
   5457992685.0423651        5632413.9329504967        33065129.224759810     
   5312669613.3550177        25406311.145686865        26278105.177193541     
   5577290990.9995193       -1063607.9627561569        187996429.50779417     
   5419250563.0922031       -4329747.9705619812        189920885.32470718     
   5262767342.3552303       -2405197.4105646610        190641233.18551838     
   5107841328.7885847        4710043.7171940804        190157473.09022313     
   4954472522.3922834        17015975.412767649        188469605.03880718     
   5233641325.2565565       -159546.11651968956        343621702.83861899     
   5075953349.7793541       -730790.29741215706        343493088.52028632     
   4918982646.8348656        1088873.9640641212        344217800.37501717     
   4762729216.4230967        5299446.6679351330        345795838.40280950     
   4607193058.5440388        11900927.814184666        348227202.60367221     
   4877395753.7232676       -3034256.0073828697        500732768.84826654     
   4725938613.9023876        852910.60649824142        497571160.65079284     
   4574358811.9765959        4331203.5373420715        497320312.75555599     
   4422656347.9458981        7400622.7851614952        499980225.16255277     
   4270831221.8102908        10061168.349952698        505550897.87178522     
   4508554276.3996487       -9687737.6353473663        659329627.53673792     
   4369206355.4612970        421354.74117231369        652155101.71622860     
   4228895837.7804136        7321791.3092513084        649948770.32712615     
   4087622723.3569927        11013572.068878651        652710633.36942959     
   3945387012.1910434        11496697.020077944        660440690.84314609     
   5312669613.3550177        25406311.145686865        26278105.177193541     
   5108044070.4916420        27650969.601252556        15770863.139088828     
   4901193805.1141386        22479886.343047142        10752423.375784628     
   4692118817.2224865        9893061.3710119724        11222785.887280941     
   4480819106.8166990       -10109505.314795732        17181950.673567519     
   4954472522.3922834        17015975.412767649        188469605.03880718     
   4763410872.0114174        17566460.599044800        179328816.54723707     
   4570496897.9895086        11942533.648503542        175523952.29109862     
   4375730600.3265457        144194.56112146378        177055012.27039027     
   4179111979.0225453       -17828556.663063288        183921996.48510525     
   4607193058.5440388        11900927.814184666        348227202.60367221     
   4429258506.2474985        10626201.411730289        340887333.01057273     
   4249844029.1829982        4418392.4494163990        338730509.61353004     
   4068949627.3505387       -6722499.0727617741        341756732.41255158     
   3886575300.7501163       -22796473.154813528        349966001.40764177     
   4270831221.8102908        10061168.349952698        505550897.87178522     
   4105586973.1998758        6830192.0393004417        500446412.52908927     
   3939235198.6945982       -92537.254240512848        500372095.34308678     
   3771775898.2944489       -10707019.530690193        505327946.31378597     
   3603209071.9994254       -25013254.790035963        515313965.44117874     
   3945387012.1910434        11496697.020077944        660440690.84314609     
   3792396272.8685684        6178432.4817752838        658006055.10279739     
   3638670406.5243101       -1590255.4624705315        660448709.47976935     
   3484209413.1582718       -11809366.812636375        667768653.97407651     
   3329013292.7704535       -24478901.568749189        679965888.58571517     
   4480819106.8166990       -10109505.314795732        17181950.673567519     
   4250077576.1855364       -33677237.329267263       -6609574.7649477571     
   4023055744.3798976       -44845973.258647680       -5930922.7824599911     
   3799753611.3998027       -43615713.102894068        19217906.621024415     
   3580171177.2452393       -29986456.862022161        68836913.445516989     
   4179111979.0225453       -17828556.663063288        183921996.48510525     
   4008052952.8499770       -25877492.533184528        164152144.48547006     
   3840333681.1852598       -22793913.377126932        162240473.23044696     
   3675954164.0283914       -8577819.1949121952        178186982.72002697     
   3514914401.3793859        16770790.013493538        211991672.95421654     
   3886575300.7501163       -22796473.154813528        349966001.40764177     
   3756307359.9607363       -20994038.603193283        333774554.47626227     
   3628999229.3615236       -9325570.0843508244        328829291.61309558     
   3504650908.9524784        12208932.401718855        335130212.81813687     
   3383262398.7335958        43609468.855001450        352677318.09139293     
   3603209071.9994254       -25013254.790035963        515313965.44117874     
   3494840797.5178189       -19026875.539304972        502257655.20742089     
   3389052388.9086919       -4440943.3803091049        493835532.36547893     
   3285843846.1720500        18744541.686975360        490047596.91535687     
   3185215169.3078957        50529579.662543178        490893848.85705155     
   3329013292.7704535       -24478901.568749189        679965888.58571517     
   3223653265.5212111       -19976003.341530204        669601446.67894554     
   3120493159.8267636       -8140033.2649838924        657259195.48760045     
   3019532975.6871204        11029008.660902977        642939135.01168025     
   2920772713.1022711        37531122.436104059        626641265.25118256     
   3580171177.2452393       -29986456.862022161        68836913.445516989     
   3614637378.2150426        50717066.200547218        127239888.00713229     
   3639357293.2940879        98932969.627256870        121089980.78395818     
   3654330922.4823542        114661253.41804242        50387191.776001088     
   3659558265.7798495        97901917.572912216       -84868479.016750529     
   3514914401.3793859        16770790.013493538        211991672.95421654     
   3395047547.8238602        48028317.893155456        247944057.12053430     
   3267592838.1845789        53992992.160293698        241142203.09437737     
   3132550272.4615674        34664812.815005064        191586110.87572974     
   2989919850.6548109       -9956220.1427890062        99275780.464575395     
   3383262398.7335958        43609468.855001450        352677318.09139293     
   3171344329.4878788        44105553.202286959        368697279.97062367     
   2953996833.9654446        26503549.960517764        363761647.24965924     
   2731219912.1662779       -9196540.8703528643        337870419.92849958     
   2503013564.0903983       -62994719.290289283        291023598.00715625     
   3185215169.3078957        50529579.662543178        490893848.85705155     
   2943527723.2071228        38948772.128004432        489499556.55737484     
   2698569280.6366563        16464643.027814865        488948313.24980283     
   2450339841.5964751       -16922807.638059735        489240118.93434119     
   2198839406.0866032       -61213579.869610906        490374973.61098182     
   2920772713.1022711        37531122.436104059        626641265.25118256     
   2711597728.9815798        32557974.670282722        610350886.88079023     
   2501310178.1982145        23876271.362208486        616702201.09481037     
   2289910060.7521682        11486012.511860132        645695207.89322925     
   2077397376.6434386       -4612801.8807432652        697329907.27605724     
   5957820324.6819496        1787346097.4045849        1150044014.0855062     
   6088452138.0205250        1502509193.4867742        1227926967.0397952     
   6221728625.8362226        1226487871.1593735        1268469574.7138121     
   6357649788.1290445        959282130.42238319        1271671837.1075571     
   6496215624.8989897        700891971.27580357        1237533754.2210300     
   5434487390.9226999        1630346217.2768099        1033576525.5190691     
   5489902692.3134317        1372639246.5322609        1113923959.9681013     
   5547468658.6540651        1122101158.9540515        1167492130.5436969     
   5607185289.9446001        878731954.54218042        1194281037.2458546     
   5669052586.1850376        642531633.29664969        1194290680.0745759     
   4895116341.3317194        1468534902.3995159        936510627.16054261     
   4905489649.0798512        1247010220.3198018        1018746198.6558931     
   4917519612.2506628        1031007722.9823558        1084763587.6846414     
   4931206230.8441563        820527410.38717759        1134562794.2467883     
   4946549504.8603277        615569282.53426754        1168143818.3423326     
   4339707175.9090090        1301912152.7727027        858846319.00992644     
   4335213008.3197851        1125622114.8493965        942393683.10317028     
   4331881486.6260185        953207563.24428713        1020283946.1366470     
   4329712610.8277111        784668497.95737433        1092517108.1103568     
   4328706380.9248619        620004918.98865855        1159093169.0243001     
   3768259894.6545701        1130477968.3963709        800583601.06722069     
   3779072770.0332298        1008474930.1210450        884866413.30993307     
   3790554281.7801280        888700679.73984504        974053205.89971352     
   3802704429.8952637        771155217.25277030        1068143978.8365618     
   3815523214.3786378        655838542.65982258        1167138732.1204789     
   6496215624.8989897        700891971.27580357        1237533754.2210300     
   6239218312.8520088        374982102.12195921        1053308898.4001367     
   6013301096.4187727        152672551.68058872        907986601.83729911     
   5818463975.5992756        33963319.951693058        801566864.53252089     
   5654706950.3935223        18854406.935271025        734049686.48579907     
   5669052586.1850376        642531633.29664969        1194290680.0745759     
   5518817934.5160799        382734676.26027083        1073501572.5811843     
   5392828627.9512672        203755536.23771000        980678203.32418144     
   5291084666.4905996        105594213.22896767        915820572.30356824     
   5213586050.1340780        88250707.234043121        878928679.51934648     
   4946549504.8603277        615569282.53426754        1168143818.3423326     
   4871829453.5074844        412510819.59678292        1102816583.5819130     
   4814519996.7491884        267487671.97446012        1054518266.0362149     
   4774621134.5854397        180499839.66729760        1023248865.7052392     
   4752132867.0162430        151547322.67529774        1009008382.5889865     
   4328706380.9248619        620004918.98865855        1159093169.0243001     
   4298252869.8262234        464310532.13149548        1141253931.4023230     
   4278375202.8125367        343868958.89083743        1129506789.9733999     
   4269073379.8838010        258680199.26668429        1123851744.7375317     
   4270347401.0400162        208744253.25903630        1124288795.6947179     
   3815523214.3786378        655838542.65982258        1167138732.1204789     
   3798088183.4722972        538133813.86440814        1188813616.0424144     
   3784394246.1413112        432899396.98684299        1205643775.1357367     
   3774441402.3856788        340135292.02712548        1217629209.4004457     
   3768229652.2054024        259841498.98525727        1224769918.8365405     
   5654706950.3935223        18854406.935271025        734049686.48579907     
   5520475184.1373682        51041804.310686111        721104178.90818024     
   5380507541.6346931        64109614.197697401        710400102.89233696     
   5234804022.8854990        58057836.596315861        701937458.43826950     
   5083364627.8897848        32886471.506538153        695716245.54597652     
   5213586050.1340780        88250707.234043121        878928679.51934648     
   5077639271.1239786        86602290.483304501        855161499.25476778     
   4939356732.5307856        77168008.455585241        835641911.64679885     
   4798738434.3544989        59947861.150885344        820369916.69544172     
   4655784376.5951185        34941848.569201946        809345514.40069568     
   4752132867.0162430        151547322.67529774        1009008382.5889865     
   4620202964.0945864        117782658.45112586        978386332.41144156     
   4489337418.2532625        87565851.161387444        954018035.98534441     
   4359536229.4922676        60896900.806081295        935903493.31069338     
   4230799397.8116050        37775807.385209799        924042704.38748789     
   4270347401.0400162        208744253.25903630        1124288795.6947179     
   4148166263.0491910        144582908.21414566        1090778678.3782039     
   4030449598.8021216        95303142.315104961        1065528475.9079711     
   3917197408.2988048        60904955.561908484        1048538188.2840205     
   3808409691.5392447        41388347.954565287        1039807815.5063516     
   3768229652.2054024        259841498.98525727        1224769918.8365405     
   3661529167.9877934        167003039.77236295        1192338537.1550527     
   3562693274.1773648        100379881.91673744        1170173231.4146821     
   3471721970.7741137        59972025.418368340        1158274001.6154280     
   3388615257.7780423        45779470.277266502        1156640847.7572880     
   5083364627.8897848        32886471.506538153        695716245.54597652     
   4934492928.8422213        5012548.6376297474        678427118.43267632     
   4789067303.9113417       -11374460.508989573        666599639.72669899     
   4647087753.0971537       -16274555.933314085        660233809.42805302     
   4508554276.3996487       -9687737.6353473663        659329627.53673792     
   4655784376.5951185        34941848.569201946        809345514.40069568     
   4522414599.9552765        13002936.475119829        796227064.94038546     
   4391507055.0864916       -728536.38211512566        788201904.89988196     
   4263061741.9887605       -6252570.0025002956        785270034.27918732     
   4137078660.6620817       -3569164.3860425949        787431453.07830107     
   4230799397.8116050        37775807.385209799        924042704.38748789     
   4111879089.3294277        21456169.790938616        913947116.51026487     
   3994437170.2726717        10064496.948068857        908576459.06532753     
   3878473640.6413364        3600788.8565995693        907930732.05267584     
   3763988500.4354229        2065045.5165355206        912009935.47231007     
   3808409691.5392447        41388347.954565287        1039807815.5063516     
   3702886396.9646726        30372248.585088491        1031587273.1423122     
   3597857649.4698853        21004639.481560946        1027723302.2230327     
   3493323449.0548873        13285520.643996477        1028215902.7485209     
   3389283795.7196746        7214892.0723836422        1033065074.7187717     
   3388615257.7780423        45779470.277266502        1156640847.7572880     
   3295436522.8610110        39751172.857561469        1149147534.8365214     
   3201768492.6781325        32091891.218366981        1145642434.3729975     
   3107611167.2294054        22801625.359680295        1146125546.3667185     
   3012964546.5148330        11880375.281507373        1150596870.8176799     
   4508554276.3996487       -9687737.6353473663        659329627.53673792     
   4369206355.4612970        421354.74117231369        652155101.71622860     
   4228895837.7804136        7321791.3092513084        649948770.32712615     
   4087622723.3569927        11013572.068878651        652710633.36942959     
   3945387012.1910434        11496697.020077944        660440690.84314609     
   4137078660.6620817       -3569164.3860425949        787431453.07830107     
   4009196402.7467189        1698028.3337380886        778907276.77610052     
   3880931170.2558594        5688639.1351931095        775352008.28865421     
   3752282963.1894970        8402668.0183122158        776765647.61596549     
   3623251781.5476389        9840114.9831016064        783148194.75802827     
   3763988500.4354229        2065045.5165355206        912009935.47231007     
   3647573943.7811899        2490950.0510215759        902812334.54995823     
   3531356034.7184877        3572346.5572896004        898584354.82570493     
   3415334773.2473240        5309235.0353388786        899325996.29955947     
   3299510159.3676929        7701615.4851698875        905037258.97151375     
   3389283795.7196746        7214892.0723836422        1033065074.7187717     
   3284338978.5647073        2800119.8930189610        1023870275.0378031     
   3180170431.1683078        972913.57554519176        1019645809.9382858     
   3076778153.5304761        1733273.1199650764        1020391679.4202209     
   2974162145.6512136        5081198.5262715816        1026107883.4836093     
   3012964546.5148330        11880375.281507373        1150596870.8176799     
   2919491507.0972719        2625537.8597290516        1142081098.2396355     
   2827374359.6053100       -2109659.8100479841        1138536373.6263912     
   2736613104.0389538       -2325217.7278119326        1139962696.9779487     
   2647207740.3981948        1978864.1064213514        1146360068.2943058     
   3945387012.1910434        11496697.020077944        660440690.84314609     
   3792396272.8685684        6178432.4817752838        658006055.10279739     
   3638670406.5243101       -1590255.4624705315        660448709.47976935     
   3484209413.1582718       -11809366.812636375        667768653.97407651     
   3329013292.7704535       -24478901.568749189        679965888.58571517     
   3623251781.5476389        9840114.9831016064        783148194.75802827     
   3483269941.2219977        6466113.6044616699        779260674.72170770     
   3342664756.3037443        1014296.9170982838        780054033.83647108     
   3201436226.7928820       -6515335.0789659023        785528272.10232019     
   3059584352.6894045       -16122782.383738399        795683389.51925409     
   3299510159.3676929        7701615.4851698875        905037258.97151375     
   3171976043.8496256        6103525.0094037056        899827267.47325051     
   3043930366.1681147        2800227.3221504688        899101744.15982747     
   2915373126.3231602       -2208277.5765849352        902860689.03124738     
   2786304324.3147550       -8921989.6868108511        911104102.08751392     
   2974162145.6512136        5081198.5262715816        1026107883.4836093     
   2858514580.7514563        5090666.6966131926        1019705833.3574289     
   2742467236.1174207        3767535.7526836395        1017591840.4498481     
   2626020111.7491055        1111805.6944987774        1019765904.7608684     
   2509173207.6465120       -2876523.4779551029        1026228026.2904849     
   2647207740.3981948        1978864.1064213514        1146360068.2943058     
   2542885551.9274788        3427538.6660706997        1138896372.3742361     
   2438275366.1516547        3916222.2086920738        1135524322.7065258     
   2333377183.0707164        3444914.7342672348        1136243919.2911744     
   2228191002.6846690        2013616.2428108454        1141055162.1281807     
   3329013292.7704535       -24478901.568749189        679965888.58571517     
   3223653265.5212111       -19976003.341530204        669601446.67894554     
   3120493159.8267636       -8140033.2649838924        657259195.48760045     
   3019532975.6871204        11029008.660902977        642939135.01168025     
   2920772713.1022711        37531122.436104059        626641265.25118256     
   3059584352.6894045       -16122782.383738399        795683389.51925409     
   2950643175.0831995       -14272337.872860312        787133961.48712015     
   2843370187.9156375       -6861258.5665037632        778419716.39951408     
   2737765391.1867180        6110455.5353096724        769540654.25644624     
   2633828784.8964310        24642804.432583332        760496775.05790746     
   2786304324.3147550       -8921989.6868108511        911104102.08751392     
   2678961974.1490498       -8170005.5530216694        903749334.96115911     
   2572756083.3058176       -3629823.6776410341        898042743.00844324     
   2467686651.7850666        4698555.9393420219        893984326.22936881     
   2363753679.5867968        16815133.297919154        891574084.62393093     
   2509173207.6465120       -2876523.4779551029        1026228026.2904849     
   2408609662.7187476       -1669006.3820272684        1019447567.1010597     
   2308650845.9972963        1554271.4016194344        1016128275.3143777     
   2209296757.4821706        6793309.8730041981        1016270150.9304427     
   2110547397.1733584        14048109.032119513        1019873193.9492608     
   2228191002.6846690        2013616.2428108454        1141055162.1281807     
   2139586240.7922947        5230659.6401087046        1134228657.9068260     
   2051054475.9900825        8691026.6712692976        1132676313.3173296     
   1962595708.2780256        12394717.336289287        1136398128.3596821     
   1874209937.6561277        16341731.635172248        1145394103.0338874     
   2920772713.1022711        37531122.436104059        626641265.25118256     
   2711597728.9815798        32557974.670282722        610350886.88079023     
   2501310178.1982145        23876271.362208486        616702201.09481037     
   2289910060.7521682        11486012.511860132        645695207.89322925     
   2077397376.6434386       -4612801.8807432652        697329907.27605724     
   2633828784.8964310        24642804.432583332        760496775.05790746     
   2478048400.2869382        28676492.441597223        745749384.34085238     
   2321295081.9031005        29467067.869442940        747354569.33074057     
   2163568829.7449007        27014530.716104507        765312330.02756715     
   2004869643.8123498        21318880.981585741        799622666.43132365     
   2363753679.5867968        16815133.297919154        891574084.62393093     
   2243398989.1243153        24464985.472515702        878532586.59659541     
   2122210997.7758062        29337168.027030468        875554547.39872897     
   2000189705.5412707        31431680.961433768        882639967.03033912     
   1877335112.4206970        30748524.275745392        899788845.49142396     
   2110547397.1733584        14048109.032119513        1019873193.9492608     
   2007649495.4936991        19923453.763037205        1008700493.6480184     
   1904057925.8163409        23486571.834949732        1001302135.2987819     
   1799772688.1412787        24737463.247857809        997678118.90155613     
   1694793782.4685133        23676128.001745880        997828444.45633006     
   1874209937.6561277        16341731.635172248        1145394103.0338874     
   1770799919.3951051        15051897.313165188        1136253105.4951198     
   1666835866.0247083        11915279.293248177        1124597333.0308943     
   1562317777.5449257        6931877.5753705502        1110426785.6412063     
   1457245653.9557650        101692.15957701206        1093741463.3260624     
   3768259894.6545701        1130477968.3963709        800583601.06722069     
   3779072770.0332298        1008474930.1210450        884866413.30993307     
   3790554281.7801280        888700679.73984504        974053205.89971352     
   3802704429.8952637        771155217.25277030        1068143978.8365618     
   3815523214.3786378        655838542.65982258        1167138732.1204789     
   3207892365.1403136        962367709.54209411        756625449.88163352     
   3235871579.7433939        868075205.36201072        853028216.11765409     
   3263610212.9552407        772980763.21114635        951337139.69571924     
   3291108264.7758522        677084383.08949971        1051552220.6158303     
   3318365735.2052293        580386064.99707246        1153673458.8779864     
   2685722454.9381542        805716736.48144627        721874842.00237322     
   2722302800.1798759        736565203.82087183        829336808.17898393     
   2757733346.2708912        663581007.32460880        935707108.69261694     
   2792014093.2111983        586764146.99265647        1040985743.5432725     
   2825145041.0008001        506114622.82501626        1145172712.7309506     
   2201750164.0480924        660525049.21442771        696331777.42943943     
   2238366431.3426752        613944925.49762821        813792189.49392283     
   2272923681.7270794        560501412.08023286        927163112.89040577     
   2305421915.2013049        500194508.96224129        1036444547.6188885     
   2335861131.7653508        433024216.14365387        1141636493.6793709     
   1755975492.4701281        526792647.74103844        679996256.16283238     
   1784062473.2317929        500214370.39228010        806394360.06247103     
   1809181219.3238065        463741977.47801858        925705152.28908634     
   1831331730.7461696        417375468.99825376        1037928632.8426788     
   1850514007.4988811        361114844.95298541        1143064801.7232480     
   3815523214.3786378        655838542.65982258        1167138732.1204789     
   3798088183.4722972        538133813.86440814        1188813616.0424144     
   3784394246.1413112        432899396.98684299        1205643775.1357367     
   3774441402.3856788        340135292.02712548        1217629209.4004457     
   3768229652.2054024        259841498.98525727        1224769918.8365405     
   3318365735.2052293        580386064.99707246        1153673458.8779864     
   3293842077.1105571        473352681.59857154        1181935602.4227021     
   3272987092.6606193        378548210.34918451        1207127062.4826419     
   3255800781.8554153        295972651.24891126        1229247839.0578074     
   3242283144.6949453        225626004.29775190        1248297932.1481962     
   2825145041.0008001        506114622.82501626        1145172712.7309506     
   2798601445.2716188        411273191.68957490        1179937625.9793892     
   2775654103.2565527        328419272.93451321        1213405897.0868907     
   2756303014.9555988        257552866.55983067        1245577526.0534539     
   2740548180.3687601        198673972.56552792        1276452512.8790808     
   2335861131.7653508        433024216.14365387        1141636493.6793709     
   2312366287.9554844        351895344.13741940        1182819686.7124758     
   2292395277.9291101        282512584.74282914        1224480278.9484811     
   2275948101.6862302        224875937.95988560        1266618270.3873868     
   2263024759.2268434        178985403.78858411        1309233661.0291922     
   1850514007.4988811        361114844.95298541        1143064801.7232480     
   1835136605.1621506        295219138.94210452        1190581784.6219616     
   1823210616.6782930        240828145.77413410        1240350208.0674138     
   1814736042.0473082        197941865.44907284        1292370072.0596049     
   1809712881.2691963        166560297.96692222        1346641376.5985322     
   3768229652.2054024        259841498.98525727        1224769918.8365405     
   3661529167.9877934        167003039.77236295        1192338537.1550527     
   3562693274.1773648        100379881.91673744        1170173231.4146821     
   3471721970.7741137        59972025.418368340        1158274001.6154280     
   3388615257.7780423        45779470.277266502        1156640847.7572880     
   3242283144.6949453        225626004.29775190        1248297932.1481962     
   3164685692.6187167        150980336.03853834        1231356793.5291848     
   3093260175.5790749        96907784.567949772        1222338190.3961930     
   3028006593.5760221        63408349.885987163        1221242122.7492208     
   2968924946.6095552        50482031.992650032        1228068590.5882647     
   2740548180.3687601        198673972.56552792        1276452512.8790808     
   2685357930.5622015        140212346.29847646        1273026852.7235224     
   2634646960.4216418        96681652.251418710        1275180187.5988863     
   2588415269.9470778        68081890.424349308        1282912517.5051718     
   2546662859.1385112        54413060.817269802        1296223842.4423783     
   2263024759.2268434        178985403.78858411        1309233661.0291922     
   2223545881.8182497        134699070.55218649        1317348714.7380650     
   2186853628.7050638        99701484.967145324        1328699223.0227635     
   2152947999.8872843        73992647.033456445        1343285185.8832848     
   2121828995.3649089        57572556.751120448        1361106603.3196294     
   1809712881.2691963        166560297.96692222        1346641376.5985322     
   1779249546.3868611        134440508.79966569        1364322379.5728140     
   1749880180.4293413        105967282.71512645        1382895296.6678224     
   1721604783.3966374        81140619.713308156        1402360127.8835573     
   1694423355.2887483        59960519.794203639        1422716873.2200186     
   3388615257.7780423        45779470.277266502        1156640847.7572880     
   3295436522.8610110        39751172.857561469        1149147534.8365214     
   3201768492.6781325        32091891.218366981        1145642434.3729975     
   3107611167.2294054        22801625.359680295        1146125546.3667185     
   3012964546.5148330        11880375.281507373        1150596870.8176799     
   2968924946.6095552        50482031.992650032        1228068590.5882647     
   2885180001.3860102        39810564.932492256        1219678372.3263714     
   2801628290.5612373        29783212.534912229        1215628203.5961742     
   2718269814.1352406        20399974.799914956        1215918084.3976741     
   2635104572.1080174        11660851.727498412        1220548014.7308702     
   2546662859.1385112        54413060.817269802        1296223842.4423783     
   2473356952.3926053        39399998.751903296        1287733003.4480822     
   2400926809.7100935        27306150.231184363        1283934051.0599358     
   2329372431.0909796        18131515.255120754        1284826985.2779431     
   2258693816.5352607        11876093.823708177        1290411806.1020982     
   2121828995.3649089        57572556.751120448        1361106603.3196294     
   2059967375.8807976        38519474.315792084        1353311428.2016561     
   1999664050.1247036        24660704.307183504        1350559976.7642865     
   1940919018.0966244        15996246.725297570        1352852249.0075228     
   1883732279.7965629        12526101.570132732        1360188244.9313650     
   1694423355.2887483        59960519.794203639        1422716873.2200186     
   1645011271.8505876        37168991.624162555        1416413646.5870912     
   1597840011.8050616        21846874.762903333        1415505980.7092240     
   1552909575.1521754        13994169.210446358        1419993875.5864146     
   1510219961.8919287        13610874.966782868        1429877331.2186642     
   3012964546.5148330        11880375.281507373        1150596870.8176799     
   2919491507.0972719        2625537.8597290516        1142081098.2396355     
   2827374359.6053100       -2109659.8100479841        1138536373.6263912     
   2736613104.0389538       -2325217.7278119326        1139962696.9779487     
   2647207740.3981948        1978864.1064213514        1146360068.2943058     
   2635104572.1080174        11660851.727498412        1220548014.7308702     
   2555030711.8117671        5484016.4296987057        1213673811.4165363     
   2475841555.5268483        2256194.5029993057        1211425312.8174920     
   2397537103.2532597        1977385.9474033117        1213802518.9337392     
   2320117354.9909978        4647590.7629059553        1220805429.7652776     
   2258693816.5352607        11876093.823708177        1290411806.1020982     
   2191032440.3617220        8481252.1503052711        1284629452.8181577     
   2123784580.2852457        6464797.4671030045        1283127460.9999995     
   2056950236.3058295        5826729.7741007805        1285905830.6476214     
   1990529408.4234703        6567049.0712963343        1292964561.7610233     
   1883732279.7965629        12526101.570132732        1360188244.9313650     
   1827496692.7471387        11617245.021552444        1354948022.4445002     
   1771203433.8805051        10516149.082267523        1353642818.1739109     
   1714852503.1966591        9222813.7522765398        1356272632.1195900     
   1658443900.6956007        7737239.0315867662        1362837464.2815380     
   1510219961.8919287        13610874.966782868        1429877331.2186642     
   1464423468.9680161        14891995.043434560        1424629520.2955656     
   1418098116.3126247        14410249.348488212        1422971384.3392270     
   1371243903.9257498        12165637.881928146        1424902923.3496482     
   1323860831.8073947        8158160.6437693238        1430424137.3268318     
   2647207740.3981948        1978864.1064213514        1146360068.2943058     
   2542885551.9274788        3427538.6660706997        1138896372.3742361     
   2438275366.1516547        3916222.2086920738        1135524322.7065258     
   2333377183.0707164        3444914.7342672348        1136243919.2911744     
   2228191002.6846690        2013616.2428108454        1141055162.1281807     
   2320117354.9909978        4647590.7629059553        1220805429.7652776     
   2226288008.5649266        3754877.4443584681        1212520796.0815711     
   2132470635.9176824        2902076.7219067812        1208756253.3825068     
   2038665237.0492749        2089188.5955770016        1209511801.6680875     
   1944871811.9596999        1316213.0653645992        1214787440.9383090     
   1990529408.4234703        6567049.0712963343        1292964561.7610233     
   1908417031.8485589        3700186.2164850235        1284208956.5782800     
   1826616600.1364274        1873139.5709365606        1280401887.1124678     
   1745128113.2870750        1085909.1346590519        1281543353.3635783     
   1663951571.3005042        1338494.9076435566        1287633355.3316209     
   1658443900.6956007        7737239.0315867662        1362837464.2815380     
   1589272621.7783830        3263464.9824774861        1353960853.8643684     
   1520713258.8078866        829410.75577741861        1350461223.8964057     
   1452765811.7841218        435076.35151541233        1352338574.3776567     
   1385430280.7070780        2080461.7696599960        1359592905.3081188     
   1323860831.8073947        8158160.6437693238        1430424137.3268318     
   1268854778.3543959        2444713.7423264980        1421776487.9398324     
   1214760611.9320652       -229109.72355842590        1418934263.7343266     
   1161578332.5404105        136690.24614286423        1421897464.7103193     
   1109307940.1794212        3542113.6513973475        1430666090.8678100     
   2228191002.6846690        2013616.2428108454        1141055162.1281807     
   2139586240.7922947        5230659.6401087046        1134228657.9068260     
   2051054475.9900825        8691026.6712692976        1132676313.3173296     
   1962595708.2780256        12394717.336289287        1136398128.3596821     
   1874209937.6561277        16341731.635172248        1145394103.0338874     
   1944871811.9596999        1316213.0653645992        1214787440.9383090     
   1870230502.9867489        6416243.2650221586        1208764286.4526498     
   1795661201.0447900        11756296.901315570        1207773554.5495358     
   1721163906.1338091        17336373.974207401        1211815245.2289627     
   1646738618.2538185        23156474.483731091        1220889358.4909315     
   1663951571.3005042        1338494.9076435566        1287633355.3316209     
   1602583037.9632254        8114308.7245455384        1282412395.5126283     
   1541285521.5977607        15126845.780827165        1281982121.2268641     
   1480059022.2041099        22376106.076487303        1286342532.4743273     
   1418903539.7822745        29862089.611527860        1295493629.2550159     
   1385430280.7070780        2080461.7696599960        1359592905.3081188     
   1336643845.7217214        10324856.018679976        1355172985.0867555     
   1287927437.6490035        18802673.309823811        1355302013.3493047     
   1239281056.4889286        27513913.643112659        1359979990.0957701     
   1190704702.2414973        36458577.018547118        1369206915.3261497     
   1109307940.1794212        3542113.6513973475        1430666090.8678100     
   1072412926.2622346        13047885.147406101        1427046055.1750362     
   1035586949.1985149        22783779.488304377        1427733230.9168639     
   998830008.98826385        32749796.674100339        1432727618.0932977     
   962142105.63148510        42945936.704799294        1442029216.7043321     
   1874209937.6561277        16341731.635172248        1145394103.0338874     
   1770799919.3951051        15051897.313165188        1136253105.4951198     
   1666835866.0247083        11915279.293248177        1124597333.0308943     
   1562317777.5449257        6931877.5753705502        1110426785.6412063     
   1457245653.9557650        101692.15957701206        1093741463.3260624     
   1646738618.2538185        23156474.483731091        1220889358.4909315     
   1540175169.6449225        19501663.746159613        1212894705.7042153     
   1433649518.6016960        15972844.894148588        1205534875.9789598     
   1327161665.1241167        12570017.927635133        1198809869.3151598     
   1220711609.2122085        9293182.8466818333        1192719685.7128141     
   1418903539.7822745        29862089.611527860        1295493629.2550159     
   1318185512.2166903        26541957.875745714        1289335792.6745713     
   1218097114.8918114        25320593.608981133        1286962377.1424999     
   1118638347.8076322        26197996.811208904        1288373382.6587930     
   1019809210.9641483        29174167.482442200        1293568809.2234640     
   1190704702.2414973        36458577.018547118        1369206915.3261497     
   1104830947.1104090        36172779.701920509        1365576366.4061885     
   1020178654.8950572        39958525.437749207        1368879836.5215116     
   936747825.59545362        47815814.226071835        1379117325.6721225     
   854538459.21158743        59744646.066852480        1396288833.8580086     
   962142105.63148510        42945936.704799294        1442029216.7043321     
   900111474.32607031        48394129.224664688        1441616426.8990650     
   839894138.61144483        59886640.380485713        1451287254.1159987     
   781490098.48759449        77423470.172225475        1471041698.3551309     
   724899353.95452452        101004618.59990539        1500879759.6164579     
   1755975492.4701281        526792647.74103844        679996256.16283238     
   1784062473.2317929        500214370.39228010        806394360.06247103     
   1809181219.3238065        463741977.47801858        925705152.28908634     
   1831331730.7461696        417375468.99825376        1037928632.8426788     
   1850514007.4988811        361114844.95298541        1143064801.7232480     
   1326218657.4567206        397865597.23701620        669727562.31911635     
   1339521032.8412595        375592887.15464920        791845965.24900079     
   1350602245.3431444        345916300.79676789        908685314.03879821     
   1359462294.9623742        308835838.16337204        1020245608.6885086     
   1366101181.6989505        264351499.25446150        1126526849.1981313     
   890299876.26032984        267089962.87809893        662384980.01485574     
   893984096.36184597        250672755.09035429        781095265.72648203     
   896194225.36770439        229341910.31708407        896334754.83095741     
   896930263.27790523        203097428.55828828        1008103447.3282814     
   896192210.09244823        171939309.81396630        1116401343.2184548     
   448219148.88095611        134465744.66428682        657968509.25005078     
   447451663.79355228        125453974.19939540        774142261.49491489     
   445957159.39748734        114018806.03896700        888653474.66556442     
   443735635.69276148        100160240.18300182        1001502148.7619987     
   440787092.67937452        83878276.631499678        1112688283.7842178     
  -23524.681400565136       -7057.4044201695406        656478150.02470112     
  -76264.863621529017       -63455.518227651148        770986952.55429959     
  -108952.56750684649       -53012.037583108140        885641473.54261899     
  -121587.79305651324        24273.037513668940        1000441712.9896591     
  -114170.54027094250        168399.70706141123        1115387670.8954203     
   1850514007.4988811        361114844.95298541        1143064801.7232480     
   1835136605.1621506        295219138.94210452        1190581784.6219616     
   1823210616.6782930        240828145.77413410        1240350208.0674138     
   1814736042.0473082        197941865.44907284        1292370072.0596049     
   1809712881.2691963        166560297.96692222        1346641376.5985322     
   1366101181.6989505        264351499.25446150        1126526849.1981313     
   1360306932.3220172        216678221.91682276        1181969061.5993576     
   1357090550.7103701        177597837.13013816        1238326313.7290959     
   1356452036.8640091        147110344.89440632        1295598605.5873451     
   1358391390.7829330        125215745.20962620        1353785937.1741064     
   896192210.09244823        171939309.81396630        1116401343.2184548     
   896162825.62323642        141342974.73394689        1178749648.0200093     
   897837762.83172369        116427711.91292468        1240676591.7318478     
   901217021.71790969        97193521.350898534        1302182174.3539720     
   906300602.28179455        83640403.047868550        1363266395.8863814     
   440787092.67937452        83878276.631499678        1112688283.7842178     
   442704285.06580800        69213397.393477336        1180923543.8839149     
   445452253.04235339        57317770.122494712        1247401042.0756702     
   449030996.60901064        48191394.818551302        1312120778.3594842     
   453440515.76578015        41834271.481648520        1375082752.7353561     
  -114170.54027094250        168399.70706141123        1115387670.8954203     
  -68689.350268531023        289489.89541172219        1188490749.1910753     
  -65978.657740512499        268011.75884760695        1258499664.7605627     
  -106038.46268826729        103965.29736405215        1325414417.6038811     
  -188868.76511109126       -202649.48903622647        1389235007.7210310     
   1809712881.2691963        166560297.96692222        1346641376.5985322     
   1779249546.3868611        134440508.79966569        1364322379.5728140     
   1749880180.4293413        105967282.71512645        1382895296.6678224     
   1721604783.3966374        81140619.713308156        1402360127.8835573     
   1694423355.2887483        59960519.794203639        1422716873.2200186     
   1358391390.7829330        125215745.20962620        1353785937.1741064     
   1333137855.3523021        100368131.00638556        1372606702.2381694     
   1308738222.8946733        78366860.046487808        1392864896.9988134     
   1285192493.4100473        59211932.329929650        1414560521.4560378     
   1262500666.8984241        42903347.856716156        1437693575.6098411     
   906300602.28179455        83640403.047868550        1363266395.8863814     
   887815482.23387825        66532548.587947875        1382946846.0964441     
   869944199.20715106        51470817.531990349        1404610241.5789392     
   852686753.20161366        38455209.880000621        1428256582.3338702     
   836043144.21726620        27485725.631976962        1453885868.3612342     
   453440515.76578015        41834271.481648520        1375082752.7353561     
   443282427.03158903        32933761.544348747        1395342811.1476347     
   433498109.36677438        25279155.171637848        1418131330.4082036     
   424087562.77133727        18870452.363517925        1443448310.5170598     
   415050787.24527681        13707653.119988203        1471293751.4742036     
  -188868.76511109126       -202649.48903622647        1389235007.7210310     
  -461310.25456503511       -428230.12440815417        1409794597.3917468     
  -600046.62645634124       -208127.03457128946        1433428163.4866045     
  -605077.88078227604        457659.78048382670        1460135706.0056033     
  -476404.01754472684        1569130.3207498626        1489917224.9487455     
   1694423355.2887483        59960519.794203639        1422716873.2200186     
   1645011271.8505876        37168991.624162555        1416413646.5870912     
   1597840011.8050616        21846874.762903333        1415505980.7092240     
   1552909575.1521754        13994169.210446358        1419993875.5864146     
   1510219961.8919287        13610874.966782868        1429877331.2186642     
   1262500666.8984241        42903347.856716156        1437693575.6098411     
   1228264494.0845797        26788579.381820321        1435189711.0564229     
   1195585706.1366267        15865093.793228924        1437423272.4523888     
   1164464303.0545614        10132891.090931475        1444394259.7977340     
   1134900284.8383887        9591971.2749406099        1456102673.0924613     
   836043144.21726620        27485725.631976962        1453885868.3612342     
   815102496.86866033        17483601.304512620        1454384020.9394560     
   795035795.85919535        10394631.440850943        1458961464.6613803     
   775843041.18887305        6218816.0409984887        1467618199.5270076     
   757524232.85769248        4956155.1049523056        1480354225.5363374     
   415050787.24527681        13707653.119988203        1471293751.4742036     
   405525280.20282722        9254057.3922268003        1473996576.2361894     
   396190280.97277176        5435487.7057800740        1480120557.3362012     
   387045789.55510950        2251944.0606433004        1489665694.7742372     
   378091805.94984061       -296573.54318143427        1502631988.5502968     
  -476404.01754472684        1569130.3207498626        1489917224.9487455     
  -467155.91291935416        2099947.6449669576        1494027376.9466252     
  -950838.52264824556        987662.58800282539        1500900550.4768500     
  -1927451.8467303035       -1767724.8501378337        1510536745.5394208     
  -3396995.8851676318       -6166214.6694637686        1522935962.1343400     
   1510219961.8919287        13610874.966782868        1429877331.2186642     
   1464423468.9680161        14891995.043434560        1424629520.2955656     
   1418098116.3126247        14410249.348488212        1422971384.3392270     
   1371243903.9257498        12165637.881928146        1424902923.3496482     
   1323860831.8073947        8158160.6437693238        1430424137.3268318     
   1134900284.8383887        9591971.2749406099        1456102673.0924613     
   1098470196.6864331        8974813.5442732573        1449912891.9553521     
   1061790580.6352246        7525896.1494239569        1447776426.7085252     
   1024861436.6847594        5245219.0903886557        1449693277.3519747     
   987682764.83503842        2132782.3671639562        1455663443.8857076     
   757524232.85769248        4956155.1049523056        1480354225.5363374     
   731785237.83060610        2838126.0728370249        1473548361.3228176     
   706076046.73649061        819443.48395824432        1471259453.9230971     
   680396659.57534480       -1099892.6616881788        1473487503.3371737     
   654747076.34716952       -2919882.3641001880        1480232509.5650513     
   378091805.94984061       -296573.54318143427        1502631988.5502968     
   364368592.40053397       -3518067.3708710372        1495535928.3979621     
   350954514.61642432       -5709108.6479031891        1493420465.9829466     
   337849572.59750819       -6869697.3742916435        1496285601.3052475     
   325053766.34378958       -6999833.5500201136        1504131334.3648691     
  -3396995.8851676318       -6166214.6694637686        1522935962.1343400     
  -3779739.6037834981       -10093766.786855210        1515875593.1807876     
  -3574015.7249774244       -12059760.246173171        1514259462.8880713     
  -2779824.2487480612       -12064195.047412980        1518087571.2561934     
  -1397165.1750981770       -10107071.190585770        1527359918.2851539     
   1323860831.8073947        8158160.6437693238        1430424137.3268318     
   1268854778.3543959        2444713.7423264980        1421776487.9398324     
   1214760611.9320652       -229109.72355842590        1418934263.7343266     
   1161578332.5404105        136690.24614286423        1421897464.7103193     
   1109307940.1794212        3542113.6513973475        1430666090.8678100     
   987682764.83503842        2132782.3671639562        1455663443.8857076     
   948017729.27420712       -1245645.8062664270        1448838243.8049650     
   908918650.84106851       -2737550.2207226753        1447469551.0610037     
   870385529.53562307       -2342930.8762031794        1451557365.6538289     
   832418365.35786748       -61787.772714972496        1461101687.5834351     
   654747076.34716952       -2919882.3641001880        1480232509.5650513     
   629426150.55075634       -4262364.2478312850        1474826173.9037595     
   604325251.97905552       -4871422.0491888523        1474527427.7345369     
   579444380.63206553       -4747055.7681770027        1479336271.0573828     
   554783536.50978792       -3889265.4047900140        1489252703.8722992     
   325053766.34378958       -6999833.5500201136        1504131334.3648691     
   313080042.18403941       -6605441.5823843628        1499740278.2362165     
   300980415.34602427       -6630725.2089636773        1500107893.7549186     
   288754885.82973701       -7075684.4297836721        1505234180.9209757     
   276403453.63518482       -7940319.2448213696        1515119139.7343888     
  -1397165.1750981770       -10107071.190585770        1527359918.2851539     
  -1020595.8259390949       -8274877.8099075556        1523580556.8023322     
  -1115859.0580238758       -8015459.7000418697        1524210949.1221507     
  -1682954.8713617609       -9328816.8610202130        1529251095.2446132     
  -2721883.2659421363       -12214949.292806510        1538700995.1697180     
   1109307940.1794212        3542113.6513973475        1430666090.8678100     
   1072412926.2622346        13047885.147406101        1427046055.1750362     
   1035586949.1985149        22783779.488304377        1427733230.9168639     
   998830008.98826385        32749796.674100339        1432727618.0932977     
   962142105.63148510        42945936.704799294        1442029216.7043321     
   832418365.35786748       -61787.772714972496        1461101687.5834351     
   805219162.62215137        6124548.4751745462        1456995441.5667007     
   777898928.94235253        11907448.242788851        1456806323.9275992     
   750457664.31846344        17286911.530100465        1460534334.6661327     
   722895368.75048268        22262938.337109655        1468179473.7822990     
   554783536.50978792       -3889265.4047900140        1489252703.8722992     
   536165621.93563712       -1356721.3109796047        1484438501.7677851     
   517236608.61984241        138826.97735232115        1483151344.9839387     
   497996496.56240416        597379.46020627022        1485391233.5207555     
   478445285.76332283        18936.137581050396        1491158167.3782380     
   276403453.63518482       -7940319.2448213696        1515119139.7343888     
   265252304.20268598       -9395924.2110714763        1509375235.7782853     
   253599988.23098722       -12522084.307989374        1506768294.0858757     
   241446505.72009233       -17318799.535562083        1507298314.6571667     
   228791856.66999796       -23786069.893797889        1510965297.4921477     
  -2721883.2659421363       -12214949.292806510        1538700995.1697180     
  -7520790.5766975526       -17993060.225089725        1531805643.5982039     
  -13010932.224205542       -26075285.613214862        1527657171.2334194     
  -19192308.208470978       -36461625.457198150        1526255578.0753613     
  -26064918.529490776       -49152079.757029310        1527600864.1240332     
   962142105.63148510        42945936.704799294        1442029216.7043321     
   900111474.32607031        48394129.224664688        1441616426.8990650     
   839894138.61144483        59886640.380485713        1451287254.1159987     
   781490098.48759449        77423470.172225475        1471041698.3551309     
   724899353.95452452        101004618.59990539        1500879759.6164579     
   722895368.75048268        22262938.337109655        1468179473.7822990     
   683664191.89279640        25130934.880774856        1466592617.3338416     
   645472266.28044510        31463102.242228359        1473055615.5867155     
   608319591.91343117        41259440.421472758        1487568468.5409236     
   572206168.79175675        54519949.418511450        1510131176.1964540     
   478445285.76332283        18936.137581050396        1491158167.3782380     
   456202813.86516070       -1436488.1414235234        1487494192.5502415     
   434225548.86689180       -2007889.4207846522        1489846310.1027060     
   412513490.76851487       -1695267.7005057633        1498214520.0356278     
   391066639.57003361       -498622.98057575524        1512598822.3490179     
   228791856.66999796       -23786069.893797889        1510965297.4921477     
   217727340.24316517       -31308139.841929853        1504321152.5482595     
   206153986.37078223       -40526334.608563095        1501659337.6639662     
   194071795.05284458       -51440654.193713829        1502979852.8392639     
   181480766.28936285       -64051098.597340591        1508282698.0741453     
  -26064918.529490776       -49152079.757029310        1527600864.1240332     
  -31762228.973192662       -64484020.220751517        1517073497.3279045     
  -38742421.207884908       -84092233.321109623        1508494698.2704945     
  -47005495.233579189       -107976719.05813983        1501864466.9518161     
  -56551451.050261959       -136137477.43179831        1497182803.3718498     
  -23524.681400565136       -7057.4044201695406        656478150.02470112     
  -76264.863621529017       -63455.518227651148        770986952.55429959     
  -108952.56750684649       -53012.037583108140        885641473.54261899     
  -121587.79305651324        24273.037513668940        1000441712.9896591     
  -114170.54027094250        168399.70706141123        1115387670.8954203     
  -448270563.12160313       -134481168.93648094        657929673.89978731     
  -447584920.37897396       -125522512.00503105        774138049.22419548     
  -446151551.71968836       -114071435.35139242        888688295.63701510     
  -443970457.14374614       -100127938.97556496        1001580413.1382471     
  -441041636.65114731       -83692022.877549380        1112814401.7278907     
  -890364385.13451409       -267109315.54035422        662338852.43628991     
  -894094209.09648955       -250681758.45248330        781095752.90021539     
  -896348633.70348728       -229336203.51468697        896390677.08224356     
  -897127658.95550728       -203072650.72696531        1008223624.9823750     
  -896431284.85254991       -171891100.08931828        1116594596.6006088     
  -1326304990.7201335       -397891497.21604007        669705685.63420856     
  -1339604131.0161676       -375541194.86058438        791860063.58235955     
  -1350700198.5189033       -345847316.52746665        908748617.87830377     
  -1359593193.2283404       -308809862.21668714        1020371348.5220425     
  -1366283115.1444788       -264428831.92824477        1126728255.5135748     
  -1756092379.8784614       -526827713.96353841        680030173.49354339     
  -1784114686.1380088       -500100821.22933447        806430981.27062738     
  -1809206246.1659362       -463604774.38973153        925762118.02519619     
  -1831367059.9622445       -417339573.44473010        1038023583.7572500     
  -1850597127.5269330       -361305218.39432931        1143215378.4667883     
  -114170.54027094250        168399.70706141123        1115387670.8954203     
  -68689.350268531023        289489.89541172219        1188490749.1910753     
  -65978.657740512499        268011.75884760695        1258499664.7605627     
  -106038.46268826729        103965.29736405215        1325414417.6038811     
  -188868.76511109126       -202649.48903622647        1389235007.7210310     
  -441041636.65114731       -83692022.877549380        1112814401.7278907     
  -442902721.32648259       -68887547.200143874        1180986429.0396776     
  -445639753.15159249       -57002895.355320722        1247397556.3760526     
  -449252732.12647748       -48038067.343081325        1312047783.7370157     
  -453741658.25113827       -41993063.163427114        1374937111.1225667     
  -896431284.85254991       -171891100.08931828        1116594596.6006088     
  -896389613.24820447       -141260442.27935266        1178863533.5008440     
  -898057065.44593334       -116326863.80963615        1240704833.1764238     
  -901433641.44573736       -97090364.680169970        1302118495.6273484     
  -906519341.24761677       -83550944.890954256        1363104520.8536174     
  -1366283115.1444788       -264428831.92824477        1126728255.5135748     
  -1360529365.1154335       -216829195.34221366        1182122062.5745752     
  -1357317915.5407631       -177703893.60409826        1238421495.1616764     
  -1356648766.4204679       -147052926.71389955        1295626553.2748790     
  -1358521917.7545474       -124876294.67161781        1353737236.9141834     
  -1850597127.5269330       -361305218.39432931        1143215378.4667883     
  -1835321976.9281697       -295593806.38872617        1190762016.2608702     
  -1823422303.4360814       -241133984.73870659        1240547542.3318100     
  -1814898107.0506678       -197925753.44426852        1292571956.6796076     
  -1809749387.7719290       -165969112.50541508        1346835259.3042629     
  -188868.76511109126       -202649.48903622647        1389235007.7210310     
  -461310.25456503511       -428230.12440815417        1409794597.3917468     
  -600046.62645634124       -208127.03457128946        1433428163.4866045     
  -605077.88078227604        457659.78048382670        1460135706.0056033     
  -476404.01754472684        1569130.3207498626        1489917224.9487455     
  -453741658.25113827       -41993063.163427114        1374937111.1225667     
  -444040376.23808974       -33366529.405458257        1395453189.4329052     
  -434567894.01790267       -25502661.623693630        1418524590.6917939     
  -425324211.59057850       -18401459.818138435        1444151314.8992338     
  -416309328.95611495       -12062923.988785371        1472333362.0552223     
  -906519341.24761677       -83550944.890954256        1363104520.8536174     
  -888326202.80518436       -66516856.861577630        1383154165.4080813     
  -870724369.06603909       -51453784.509827137        1405240479.4355052     
  -853713840.03018093       -38361727.835700035        1429363462.9358881     
  -837294615.69761062       -27240686.839199066        1455523115.9092283     
  -1358521917.7545474       -124876294.67161781        1353737236.9141834     
  -1333318789.9558482       -99879212.492767811        1372897525.3172765     
  -1309069471.7708628       -78061495.692965150        1393575829.7177362     
  -1285773963.1995904       -59423144.272204995        1415772150.1155646     
  -1263432264.2420321       -43964158.230491757        1439486486.5107601     
  -1809749387.7719290       -165969112.50541508        1346835259.3042629     
  -1779018137.6900830       -133453596.29903090        1364683269.1604881     
  -1749603202.1323750       -105325795.17310858        1383530641.5384891     
  -1721504581.0988073       -81585709.127652884        1403377376.4382668     
  -1694722274.5893767       -62233338.162657261        1424223473.8598199     
  -476404.01754472684        1569130.3207498626        1489917224.9487455     
  -467155.91291935416        2099947.6449669576        1494027376.9466252     
  -950838.52264824556        987662.58800282539        1500900550.4768500     
  -1927451.8467303035       -1767724.8501378337        1510536745.5394208     
  -3396995.8851676318       -6166214.6694637686        1522935962.1343400     
  -416309328.95611495       -12062923.988785371        1472333362.0552223     
  -406891371.57554328       -7068188.5963677168        1474263401.4399076     
  -398210365.73887902       -4529958.3503083438        1479637753.0272367     
  -390266311.44612151       -4448233.2506041974        1488456416.8172088     
  -383059208.69726861       -6823013.2972511649        1500719392.8098242     
  -837294615.69761062       -27240686.839199066        1455523115.9092283     
  -816521404.26881492       -17198069.946898371        1454988351.7129080     
  -796729165.21347785       -10425360.966126621        1458579190.3895276     
  -777917898.53160131       -6922559.8968888521        1466295631.9390886     
  -760087604.22318387       -6689666.7391836643        1478137676.3615894     
  -1263432264.2420321       -43964158.230491757        1439486486.5107601     
  -1229357253.9927340       -28289696.406623304        1436202227.7656231     
  -1196507236.9464493       -16698545.259464920        1437724862.5637231     
  -1164882213.1031756       -9190704.7890092731        1444054390.9050617     
  -1134482182.4629130       -5766174.9952616692        1455190812.7896383     
  -1694722274.5893767       -62233338.162657261        1424223473.8598199     
  -1645398920.7472997       -40343067.975538790        1417905029.5980546     
  -1597544580.9377868       -23349511.230304599        1417074769.5498235     
  -1551159255.1608393       -11252667.926952004        1421732693.7151272     
  -1506242943.4164557       -4052538.0654802918        1431878802.0939674     
  -3396995.8851676318       -6166214.6694637686        1522935962.1343400     
  -3779739.6037834981       -10093766.786855210        1515875593.1807876     
  -3574015.7249774244       -12059760.246173171        1514259462.8880713     
  -2779824.2487480612       -12064195.047412980        1518087571.2561934     
  -1397165.1750981770       -10107071.190585770        1527359918.2851539     
  -383059208.69726861       -6823013.2972511649        1500719392.8098242     
  -369129350.97282463       -7763841.8004308790        1494845824.4919887     
  -354846854.85778868       -7529209.0016376972        1493848467.0200839     
  -340211720.35216707       -6119114.9008924067        1497727320.3941092     
  -325223947.45595831       -3533559.4981893748        1506482384.6140614     
  -760087604.22318387       -6689666.7391836643        1478137676.3615894     
  -733468081.66969776       -5130652.6123474240        1473175774.6048312     
  -706731749.93245673       -3182274.5396628380        1472522055.8790960     
  -679878609.01146352       -844532.52113679051        1476176520.1843843     
  -652908658.90671849        1882573.4432286620        1484139167.5206916     
  -1134482182.4629130       -5766174.9952616692        1455190812.7896383     
  -1096795931.6944067       -2194199.2226182222        1450865443.5193155     
  -1059228700.9489799        981043.13975739479        1450280229.4651091     
  -1021780490.2266368        3759552.0918566585        1453435170.6270180     
  -984451299.52737343        6141327.6336874366        1460330267.0050404     
  -1506242943.4164557       -4052538.0654802918        1431878802.0939674     
  -1459112901.0469506        1045518.3687587976        1427914831.2354417     
  -1412337707.9073586        4960744.0366224647        1427122987.7781234     
  -1365917363.9976840        7693138.9380916357        1429503271.7220125     
  -1319851869.3179293        9242703.0731659532        1435055683.0671105     
  -1397165.1750981770       -10107071.190585770        1527359918.2851539     
  -1020595.8259390949       -8274877.8099075556        1523580556.8023322     
  -1115859.0580238758       -8015459.7000418697        1524210949.1221507     
  -1682954.8713617609       -9328816.8610202130        1529251095.2446132     
  -2721883.2659421363       -12214949.292806510        1538700995.1697180     
  -325223947.45595831       -3533559.4981893748        1506482384.6140614     
  -312968297.53010803       -1909123.8528755456        1501000485.4231365     
  -301158571.40117985       -1771100.8639661372        1500294530.8121090     
  -289794769.06917721       -3119490.5314758420        1504364520.7809765     
  -278876890.53409439       -5954292.8553861827        1513210455.3297422     
  -652908658.90671849        1882573.4432286620        1484139167.5206916     
  -627727669.04059243        3613129.1622560024        1476984957.5367076     
  -602966694.18706286        3943634.8392947912        1474972882.9098766     
  -578625734.34613669        2874090.4743219614        1478102943.6401944     
  -554704789.51780796        404496.06735906005        1486375139.7276642     
  -984451299.52737343        6141327.6336874366        1460330267.0050404     
  -945298710.35738635        8291881.2355009317        1451533973.1430414     
  -906540227.41567481        9128747.4097320437        1448246005.4154491     
  -868175850.70223820        8651926.1563804746        1450466363.8222644     
  -830205580.21707785        6861417.4754391313        1458195048.3634832     
  -1319851869.3179293        9242703.0731659532        1435055683.0671105     
  -1265681421.4804959        12127132.366846144        1424647532.2421420     
  -1211879171.0870128        13784236.847359002        1420113898.3288343     
  -1158445118.1374834        14214016.514692843        1421454781.3271866     
  -1105379262.6319058        13416471.368855059        1428670181.2372003     
  -2721883.2659421363       -12214949.292806510        1538700995.1697180     
  -7520790.5766975526       -17993060.225089725        1531805643.5982039     
  -13010932.224205542       -26075285.613214862        1527657171.2334194     
  -19192308.208470978       -36461625.457198150        1526255578.0753613     
  -26064918.529490776       -49152079.757029310        1527600864.1240332     
  -278876890.53409439       -5954292.8553861827        1513210455.3297422     
  -275586461.30592436       -11980347.233721957        1506332192.4478478     
  -272445504.27797127       -18504642.279448047        1502986834.6459475     
  -269454019.45024407       -25527177.992592894        1503174381.9240429     
  -266612006.82273641       -33047954.373137183        1506894834.2821348     
  -554704789.51780796        404496.06735906005        1486375139.7276642     
  -541079235.54137266       -5195765.2942156494        1480146021.3613424     
  -527061391.62862551       -9488393.5347482264        1478235833.9482846     
  -512651257.77956712       -12473388.654242754        1480644577.4884880     
  -497848833.99419677       -14150750.652697802        1487372251.9819558     
  -830205580.21707785        6861417.4754391313        1458195048.3634832     
  -803999113.28304517        2360685.5934225619        1453247130.3386912     
  -776858594.27617013        973460.62087976933        1453404169.1404331     
  -748784023.19644678        2699742.5578321517        1458666164.7687001     
  -719775400.04387760        7539531.4042729437        1469033117.2235019     
  -1105379262.6319058        13416471.368855059        1428670181.2372003     
  -1064346094.5309426        10689005.429188371        1425635519.3798935     
  -1021837112.2205998        12880920.187453091        1428491840.2223847     
  -977852315.70087695        19992215.643652081        1437239143.7646725     
  -932391704.97177625        32022891.797775030        1451877430.0067611     
  -26064918.529490776       -49152079.757029310        1527600864.1240332     
  -31762228.973192662       -64484020.220751517        1517073497.3279045     
  -38742421.207884908       -84092233.321109623        1508494698.2704945     
  -47005495.233579189       -107976719.05813983        1501864466.9518161     
  -56551451.050261959       -136137477.43179831        1497182803.3718498     
  -266612006.82273641       -33047954.373137183        1506894834.2821348     
  -262456983.28096965       -41794602.455768123        1499422862.9663560     
  -259220471.03987682       -53602954.873979010        1496061359.5050437     
  -256902470.09946388       -68473011.627789721        1496810323.8981912     
  -255502980.45972779       -86404772.717186689        1501669756.1458001     
  -497848833.99419677       -14150750.652697802        1487372251.9819558     
  -477664618.99341440       -14459049.112165064        1483380775.0519037     
  -458034544.80299366       -16614483.606168807        1485661666.0920529     
  -438958611.42293370       -20617054.134711742        1494214925.1024013     
  -420436818.85323179       -26466760.697779834        1509040552.0829608     
  -719775400.04387760        7539531.4042729437        1469033117.2235019     
  -677385136.11053824        17522639.810020924        1468947233.5845370     
  -635184642.49724340        26873180.482289702        1477295618.0315182     
  -593173919.20399129        35591153.421084881        1494078270.5644386     
  -551352966.23077869        43676558.626410753        1519295191.1833112     
  -932391704.97177625        32022891.797775030        1451877430.0067611     
  -861618534.63233209        54150464.310819268        1456122238.5642605     
  -790670764.12261963        76860037.391426057        1470963215.3234441     
  -719548393.44263434        100151611.03960982        1496400360.2843094     
  -648251422.59237003        124025185.25538805        1532433673.4468646     
  -1756092379.8784614       -526827713.96353841        680030173.49354339     
  -1784114686.1380088       -500100821.22933447        806430981.27062738     
  -1809206246.1659362       -463604774.38973153        925762118.02519619     
  -1831367059.9622445       -417339573.44473010        1038023583.7572500     
  -1850597127.5269330       -361305218.39432931        1143215378.4667883     
  -2201883496.5951867       -660565048.97855604        696421500.86544192     
  -2238417597.6230493       -613888884.58577561        813858244.89901340     
  -2272914262.2587934       -560421265.55260348        927213447.44287884     
  -2305373490.5024209       -500162191.87903953        1036487108.4970381     
  -2335795282.3539305       -433111663.56508392        1141679228.0614917     
  -2685835284.8559995       -805750585.45679986        721988852.60105181     
  -2722343667.7012930       -736563895.52017796        829419338.07835805     
  -2757707923.9939704       -663563450.40817118        935756411.59876788     
  -2791928053.7340331       -586749250.12077987        1041000073.1622804     
  -2825004056.9214811       -506121294.65800387        1145150322.7688963     
  -3207947744.6608987       -962384323.39826965        756732228.70037270     
  -3235892896.3727407       -868125854.03254151        853114260.80866158     
  -3263587231.3714690       -773031328.95643556        951391010.49286306     
  -3291030749.6570840       -677100748.16995168        1051562477.7529763     
  -3318223451.2295852       -580334111.67309034        1153628662.5890026     
  -3768220876.0098858       -1130466262.8029656        800651629.16340470     
  -3779065283.6373920       -1008574760.1228659        884943013.08992374     
  -3790552184.3912868       -888824901.19739580        974117244.12516427     
  -3802681578.2715712       -771216686.02655458        1068174322.2691263     
  -3815453465.2782435       -655750114.61034262        1167114247.5218096     
  -1850597127.5269330       -361305218.39432931        1143215378.4667883     
  -1835321976.9281697       -295593806.38872617        1190762016.2608702     
  -1823422303.4360814       -241133984.73870659        1240547542.3318100     
  -1814898107.0506678       -197925753.44426852        1292571956.6796076     
  -1809749387.7719290       -165969112.50541508        1346835259.3042629     
  -2335795282.3539305       -433111663.56508392        1141679228.0614917     
  -2312403574.3035626       -352106360.91639036        1182940771.8809385     
  -2292492781.0865159       -282704107.71210057        1224677573.7763567     
  -2276062902.7027912       -224904903.95221573        1266889633.7477453     
  -2263113939.1523862       -178708749.63673472        1309576951.7951047     
  -2825004056.9214811       -506121294.65800387        1145150322.7688963     
  -2798534734.8506136       -411333784.39555091        1180003761.9326208     
  -2775651765.3397155       -328500782.66632414        1213568828.9714289     
  -2756355148.3887844       -257622289.47032356        1245845523.8853211     
  -2740644883.9978213       -198698304.80754817        1276833846.6742976     
  -3318223451.2295852       -580334111.67309034        1153628662.5890026     
  -3293715458.5693254       -473276076.82621038        1181950986.4159167     
  -3272899256.1956797       -378524009.60137796        1207221307.9170282     
  -3255774844.1086493       -296077909.99859321        1229439627.0923362     
  -3242342222.3082304       -225937778.01785362        1248605943.9418418     
  -3815453465.2782435       -655750114.61034262        1167114247.5218096     
  -3797945745.4596963       -537933238.20836723        1188782445.3308265     
  -3784235253.6544080       -432773788.51725805        1205635010.6131530     
  -3774321989.8623829       -340271765.53702223        1217671943.3687892     
  -3768205954.0836177       -260427169.26765239        1224893243.5977364     
  -1809749387.7719290       -165969112.50541508        1346835259.3042629     
  -1779018137.6900830       -133453596.29903090        1364683269.1604881     
  -1749603202.1323750       -105325795.17310858        1383530641.5384891     
  -1721504581.0988073       -81585709.127652884        1403377376.4382668     
  -1694722274.5893767       -62233338.162657261        1424223473.8598199     
  -2263113939.1523862       -178708749.63673472        1309576951.7951047     
  -2223190270.4596224       -134129598.28800380        1317639242.4531004     
  -2186187498.6980143       -99286770.043127418        1328989346.0264072     
  -2152105623.8675628       -74180264.902103543        1343627262.5150249     
  -2120944645.9682682       -58810082.864937067        1361552991.9189556     
  -2740644883.9978213       -198698304.80754817        1276833846.6742976     
  -2684990366.9983244       -140093989.40772641        1273238405.3258767     
  -2633861329.3369999       -96574605.135149479        1275219227.2863028     
  -2587257771.0138493       -68140151.989816189        1282776312.5555751     
  -2545179692.0288715       -54790629.971727610        1295909661.1336951     
  -3242342222.3082304       -225937778.01785362        1248605943.9418418     
  -3164418427.3061862       -151346769.65819848        1231480757.7788179     
  -3092624694.0493298       -97189300.449173093        1222220285.3181763     
  -3026961022.5376658       -63465370.390787125        1220824526.5599165     
  -2967427412.7711906       -50174979.483033419        1227293481.5040400     
  -3768205954.0836177       -260427169.26765239        1224893243.5977364     
  -3661474451.3832083       -167887939.03941536        1192366299.8119237     
  -3562477592.8350067       -101130855.98520505        1169992520.1220284     
  -3471215378.4390125       -60155920.105016232        1157771904.5280509     
  -3387687808.1952262       -44963131.398854256        1155704453.0299897     
  -1694722274.5893767       -62233338.162657261        1424223473.8598199     
  -1645398920.7472997       -40343067.975538790        1417905029.5980546     
  -1597544580.9377868       -23349511.230304599        1417074769.5498235     
  -1551159255.1608393       -11252667.926952004        1421732693.7151272     
  -1506242943.4164557       -4052538.0654802918        1431878802.0939674     
  -2120944645.9682682       -58810082.864937067        1361552991.9189556     
  -2058873945.1179767       -40240184.856638312        1354238958.1296258     
  -1997886655.6315868       -25281658.061337352        1352008631.4051142     
  -1937982777.5090942       -13934502.479033589        1354862011.7454197     
  -1879162310.7505016       -6198718.1097277403        1362799099.1505449     
  -2545179692.0288715       -54790629.971727610        1295909661.1336951     
  -2471517293.1667056       -39887798.841149926        1288049907.5969124     
  -2398552702.9997711       -27310996.694683790        1284869383.9762304     
  -2326285921.5280714       -17060223.532333732        1286368090.2716491     
  -2254716948.7516069       -9135479.3540945053        1292546026.4831676     
  -2967427412.7711906       -50174979.483033419        1227293481.5040400     
  -2883328964.8934822       -39285909.929076910        1219337877.9999142     
  -2799542723.0423431       -29437527.130352616        1215657027.2631717     
  -2716068687.2177711       -20629831.086849689        1216250929.2938101     
  -2632906857.4197659       -12862821.798573375        1221119584.0918326     
  -3387687808.1952262       -44963131.398854256        1155704453.0299897     
  -3294308960.2983127       -38434518.120422363        1148102869.3386300     
  -3200856715.7592988       -31661249.368325949        1144371561.2659357     
  -3107331074.5781918       -24643325.142583489        1144510528.8119078     
  -3013732036.7549844       -17380745.443176746        1148519771.9765437     
  -1506242943.4164557       -4052538.0654802918        1431878802.0939674     
  -1459112901.0469506        1045518.3687587976        1427914831.2354417     
  -1412337707.9073586        4960744.0366224647        1427122987.7781234     
  -1365917363.9976840        7693138.9380916357        1429503271.7220125     
  -1319851869.3179293        9242703.0731659532        1435055683.0671105     
  -1879162310.7505016       -6198718.1097277403        1362799099.1505449     
  -1823226041.5444694       -1697623.0355122089        1357710221.9721198     
  -1767768622.5323281        1207304.7257301807        1356360998.3498223     
  -1712790053.7140789        2516065.1739982367        1358751428.2836549     
  -1658290335.0897226        2228658.3092887402        1364881511.7736106     
  -2254716948.7516069       -9135479.3540945053        1292546026.4831676     
  -2188352949.4092741       -4744894.6499689817        1286187575.1935382     
  -2122591801.2248094       -2363813.8054054976        1284136303.6149557     
  -2057433504.1982179       -1992236.8204165697        1286392211.7474201     
  -1992878058.3294933       -3630163.6949882507        1292955299.5909324     
  -2632906857.4197659       -12862821.798573375        1221119584.0918326     
  -2554493624.6413636       -8096296.4746103287        1213346890.8996921     
  -2476807243.9848094       -5752611.5568052530        1210448903.5735180     
  -2399847715.4500999       -5831767.0451519489        1212425622.1133118     
  -2323615039.0372391       -8333762.9396561384        1219277046.5190706     
  -3013732036.7549844       -17380745.443176746        1148519771.9765437     
  -2921648067.2407422       -11751828.509439945        1139188169.0905852     
  -2830414950.8123226       -8959088.5284504890        1135298798.2255139     
  -2740032687.4697285       -9002525.5002150536        1136851659.3813288     
  -2650501277.2129564       -11882139.424715638        1143846752.5580297     
  -1319851869.3179293        9242703.0731659532        1435055683.0671105     
  -1265681421.4804959        12127132.366846144        1424647532.2421420     
  -1211879171.0870128        13784236.847359002        1420113898.3288343     
  -1158445118.1374834        14214016.514692843        1421454781.3271866     
  -1105379262.6319058        13416471.368855059        1428670181.2372003     
  -1658290335.0897226        2228658.3092887402        1364881511.7736106     
  -1589432676.8012097        5143792.8508279324        1355231596.8928602     
  -1520824634.5779188        7226873.8416243196        1350997933.4671581     
  -1452466208.4198482        8477901.2816812396        1352180521.4965050     
  -1384357398.3270054        8896875.1709867716        1358779360.9809020     
  -1992878058.3294933       -3630163.6949882507        1292955299.5909324     
  -1910642519.4659290       -1077122.8683929443        1284201965.5962479     
  -1828538015.2888608        1039135.6698818207        1280406617.6000018     
  -1746564545.7982836        2718611.9198485613        1281569255.6021948     
  -1664722110.9942050        3961305.8814949989        1287689879.6028252     
  -2323615039.0372391       -8333762.9396561384        1219277046.5190706     
  -2229310949.4746561       -6535614.7908172607        1211558638.3523047     
  -2135019313.2198420       -4778977.6678723097        1208339950.7273679     
  -2040740130.2727914       -3063851.5708061457        1209620983.6442566     
  -1946473400.6335087       -1390236.4996328354        1215401737.1029730     
  -2650501277.2129564       -11882139.424715638        1143846752.5580297     
  -2545437966.8273878       -11231682.916442990        1137301615.1610336     
  -2440268528.3708644       -10227466.171645522        1134797932.8492527     
  -2334992961.8433685       -8869489.1902770996        1136335705.6226861     
  -2229611267.2449150       -7157751.9723846912        1141914933.4813390     
  -1105379262.6319058        13416471.368855059        1428670181.2372003     
  -1064346094.5309426        10689005.429188371        1425635519.3798935     
  -1021837112.2205998        12880920.187453091        1428491840.2223847     
  -977852315.70087695        19992215.643652081        1437239143.7646725     
  -932391704.97177625        32022891.797775030        1451877430.0067611     
  -1384357398.3270054        8896875.1709867716        1358779360.9809020     
  -1328704495.9848447        6371076.4639874101        1356279236.1695018     
  -1272279779.9540124        6417990.0525599718        1359087539.4824586     
  -1215083250.2345049        9037615.9367156625        1367204270.9197657     
  -1157114906.8263249        14229954.116448164        1380629430.4814286     
  -1664722110.9942050        3961305.8814949989        1287689879.6028252     
  -1596113916.0549715        1137841.9139232635        1284902957.8965068     
  -1527437907.9477744       -1459578.1604349017        1286841909.7391009     
  -1458694086.6726074       -3830954.3415598869        1293506735.1306064     
  -1389882452.2294743       -5976286.6294672489        1304897434.0710199     
  -1946473400.6335087       -1390236.4996328354        1215401737.1029730     
  -1866574354.7413304       -5010698.2210226059        1211506684.5609126     
  -1787311496.2018833       -10751784.451528788        1211754950.9923210     
  -1708684825.0151772       -18613495.191170454        1216146536.3971980     
  -1630694341.1812177       -28595830.439956665        1224681440.7755418     
  -2229611267.2449150       -7157751.9723846912        1141914933.4813390     
  -2140085812.0439057       -12074543.940813422        1136090416.1627114     
  -2051900544.7163463       -21458628.820739627        1133826663.2421136     
  -1965055465.2622283       -35310006.612136483        1135123674.7195368     
  -1879550573.6815565       -53628677.315024734        1139981450.5949879     
  -932391704.97177625        32022891.797775030        1451877430.0067611     
  -861618534.63233209        54150464.310819268        1456122238.5642605     
  -790670764.12261963        76860037.391426057        1470963215.3234441     
  -719548393.44263434        100151611.03960982        1496400360.2843094     
  -648251422.59237003        124025185.25538805        1532433673.4468646     
  -1157114906.8263249        14229954.116448164        1380629430.4814286     
  -1064910260.8847871        30664587.045291245        1380387545.8376274     
  -972836942.48526073        46661461.500764489        1387348998.7439518     
  -880894951.62773871        62220577.482903540        1401513789.2004025     
  -789084288.31221890        77341934.991677791        1422881917.2069809     
  -1389882452.2294743       -5976286.6294672489        1304897434.0710199     
  -1285940132.5474312        1857266.1567199230        1299811940.5615957     
  -1182435068.1196809        8233301.4285929203        1298536953.9507368     
  -1079367258.9462154        13151819.186180592        1301072474.2384431     
  -976736705.02703917        16612819.429476142        1307418501.4247227     
  -1630694341.1812177       -28595830.439956665        1224681440.7755418     
  -1524708149.6202683       -32271498.354922712        1214395422.7361586     
  -1419465141.0258873       -38424442.825119734        1204527080.9437845     
  -1314965315.3980784       -47054663.850555778        1195076415.3984208     
  -1211208672.7368388       -58162161.431222737        1186043426.1000705     
  -1879550573.6815565       -53628677.315024734        1139981450.5949879     
  -1781214312.1032894       -71721706.489603758        1124137992.3613212     
  -1683927161.2038808       -93311771.260380089        1105319379.7231066     
  -1587689120.9833200       -118398871.62731022        1083525612.6803439     
  -1492500191.4416077       -146983007.59040564        1058756691.2330350     
  -3768220876.0098858       -1130466262.8029656        800651629.16340470     
  -3779065283.6373920       -1008574760.1228659        884943013.08992374     
  -3790552184.3912868       -888824901.19739580        974117244.12516427     
  -3802681578.2715712       -771216686.02655458        1068174322.2691263     
  -3815453465.2782435       -655750114.61034262        1167114247.5218096     
  -4339582453.5357981       -1301874736.0607393        858869185.97497785     
  -4335153179.9631386       -1125672368.4319298        942436482.74810266     
  -4331870128.5793543       -953290741.43270457        1020336641.4244698     
  -4329733299.3844452       -784729855.06306398        1092569662.0040793     
  -4328742692.3784113       -619989709.32300830        1159135544.4869304     
  -4894960251.8714724       -1468488075.5614419        936507031.11992216     
  -4905400111.9714451       -1247017687.4457614        1018762556.8334185     
  -4917489923.3227787       -1031047136.8346210        1084800959.2446780     
  -4931229685.9254761       -820576423.72802043        1134622238.3537004     
  -4946619399.7795334       -615605548.12595987        1168226394.1604857     
  -5434354271.0169115       -1630306281.3050735        1033565164.5982376     
  -5489806079.6623125       -1372610717.1643620        1113921235.3458707     
  -5547411568.6215639       -1122094087.4031453        1167510197.5857880     
  -5607170737.8946629       -878756392.02142406        1194332051.3179893     
  -5669083587.4816103       -642597631.01919699        1194386796.5424745     
  -5957764510.9721136       -1787329353.2916343        1150043586.4099240     
  -6088371083.0357437       -1502451457.5877304        1227912518.2854600     
  -6221635064.4757061       -1226431593.1382771        1268464356.4478009     
  -6357556455.2920065       -959269759.94327414        1271699100.8969467     
  -6496135255.4846401       -700965958.00272179        1237616751.6328969     
  -3815453465.2782435       -655750114.61034262        1167114247.5218096     
  -3797945745.4596963       -537933238.20836723        1188782445.3308265     
  -3784235253.6544080       -432773788.51725805        1205635010.6131530     
  -3774321989.8623829       -340271765.53702223        1217671943.3687892     
  -3768205954.0836177       -260427169.26765239        1224893243.5977364     
  -4328742692.3784113       -619989709.32300830        1159135544.4869304     
  -4298169465.5605526       -464206338.06185210        1141253489.7758136     
  -4278207089.3598285       -343792468.85781097        1129475958.7771990     
  -4268855563.7762384       -258748101.71088219        1123802951.4910879     
  -4270114888.8097811       -209073236.62106538        1124234467.9174800     
  -4946619399.7795334       -615605548.12595987        1168226394.1604857     
  -4871780219.5646687       -412495548.08631635        1102844860.5580482     
  -4814365512.5708132       -267467125.45003033        1054488006.9073068     
  -4774375278.7979622       -180520280.21710253        1023155833.2082627     
  -4751809518.2461195       -151655012.38753343        1008848339.4609145     
  -5669083587.4816103       -642597631.01919699        1194386796.5424745     
  -5518778007.4720449       -382800868.28175688        1073556557.6775317     
  -5392710523.2873611       -203797758.29391980        980671155.00347805     
  -5290881134.9275570       -105588301.05568337        915730588.52031434     
  -5213289842.3926344       -88172496.567054033        878734858.22804105     
  -6496135255.4846401       -700965958.00272179        1237616751.6328969     
  -6239162829.2826805       -375122298.64817643        1053388581.1342627     
  -6013242121.5094728       -152784367.38947845        908025403.06571138     
  -5818373132.1650209       -33952164.226627350        801527217.42724276     
  -5654555861.2493238       -18625689.159625769        733894024.21885753     
  -3768205954.0836177       -260427169.26765239        1224893243.5977364     
  -3661474451.3832083       -167887939.03941536        1192366299.8119237     
  -3562477592.8350067       -101130855.98520505        1169992520.1220284     
  -3471215378.4390125       -60155920.105016232        1157771904.5280509     
  -3387687808.1952262       -44963131.398854256        1155704453.0299897     
  -4270114888.8097811       -209073236.62106538        1124234467.9174800     
  -4148118609.1427288       -145157293.25036955        1090736446.2588868     
  -4030501986.4163227       -95840206.348494530        1065432770.5227640     
  -3917265020.6305599       -61121975.915431023        1048323440.7091138     
  -3808407711.7854414       -41002601.951182604        1039408456.8179342     
  -4751809518.2461195       -151655012.38753343        1008848339.4609145     
  -4620145084.9651270       -118041342.88018918        978293391.67636216     
  -4489505321.4132147       -87843239.136453390        953973971.64083588     
  -4359890227.5903854       -61060701.156326532        935890079.35433650     
  -4231299803.4966393       -37693728.939809561        924041714.81686199     
  -5213289842.3926344       -88172496.567054033        878734858.22804105     
  -5077553878.8503990       -86540087.928871155        855037136.06435215     
  -4939487597.8256845       -77139954.349085808        835616123.47624362     
  -4799090999.3184929       -59972095.827708483        820471820.46371710     
  -4656364083.3288183       -35036512.364726782        809604227.02676964     
  -5654555861.2493238       -18625689.159625769        733894024.21885753     
  -5520344990.7985497       -50653528.396414757        720967679.42285609     
  -5380448815.6537361       -63730351.986396551        710359226.02898955     
  -5234867335.8148794       -57856159.929573536        702068664.03725779     
  -5083600551.2819815       -33030952.225943804        696095993.44765985     
  -3387687808.1952262       -44963131.398854256        1155704453.0299897     
  -3294308960.2983127       -38434518.120422363        1148102869.3386300     
  -3200856715.7592988       -31661249.368325949        1144371561.2659357     
  -3107331074.5781918       -24643325.142583489        1144510528.8119078     
  -3013732036.7549844       -17380745.443176746        1148519771.9765437     
  -3808407711.7854414       -41002601.951182604        1039408456.8179342     
  -3702989894.6666098       -29711569.384237766        1030856157.6231720     
  -3598332966.0221276       -20956831.731800556        1026595308.5292552     
  -3494436925.8520021       -14738388.993880033        1026625909.5361841     
  -3391301774.1562285       -11056241.170470715        1030947960.6439596     
  -4231299803.4966393       -37693728.939809561        924041714.81686199     
  -4112639661.4925151       -21279270.385341167        913565367.48283720     
  -3995574693.0791922       -10182057.133548021        907801644.73183787     
  -3880104898.2566781       -4402089.1844425201        906750546.56386709     
  -3766230277.0249658       -3939366.5380125046        910412072.97892189     
  -4656364083.3288183       -35036512.364726782        809604227.02676964     
  -4523258260.7760305       -13137621.123723984        796230498.91762400     
  -4392581896.9304943        663074.42643523216        787990569.87368476     
  -4264334991.7922158        6365574.2857387066        784884439.89495432     
  -4138517545.3611879        3969878.4542031288        786912108.98142827     
  -5083600551.2819815       -33030952.225943804        696095993.44765985     
  -4934845692.5171537       -5286621.5993914604        678851551.92753649     
  -4789354577.5760317        11578562.948149920        667162083.95479536     
  -4647127206.4586153        17564601.416661501        661027589.52944624     
  -4508163579.1649036        12671493.806162596        660448068.65148282     
  -3013732036.7549844       -17380745.443176746        1148519771.9765437     
  -2921648067.2407422       -11751828.509439945        1139188169.0905852     
  -2830414950.8123226       -8959088.5284504890        1135298798.2255139     
  -2740032687.4697285       -9002525.5002150536        1136851659.3813288     
  -2650501277.2129564       -11882139.424715638        1143846752.5580297     
  -3391301774.1562285       -11056241.170470715        1030947960.6439596     
  -3286325673.8458352       -8693139.8310289383        1021661672.4691417     
  -3181822529.7215466       -7906559.1119303703        1017603825.7153121     
  -3077792341.7833567       -8696499.0131654739        1018774420.3824718     
  -2974235110.0312710       -11062959.534749627        1025173456.4706187     
  -3766230277.0249658       -3939366.5380125046        910412072.97892189     
  -3648972876.2038436       -5025329.8784892559        901611979.23158526     
  -3531810534.6691027       -6428157.5069012642        897826536.30533910     
  -3414743252.4207435       -8147849.4232504368        899055744.20018518     
  -3297771029.4587622       -10184405.627531767        905299602.91612124     
  -4138517545.3611879        3969878.4542031288        786912108.98142827     
  -4009589674.3147621       -748398.65182423592        779039089.37791491     
  -3880378965.6549950       -4523883.7133781910        775966929.99559712     
  -3750885419.3818860       -7356576.7304601669        777695630.83447015     
  -3621109035.4954333       -9246477.7030684948        784225191.89453673     
  -4508163579.1649036        12671493.806162596        660448068.65148282     
  -4368176068.1785927        4137653.8489694595        653943002.90813529     
  -4227527822.6792173       -2193737.7313482761        652025006.78608239     
  -4086218842.6667829       -6322680.9347960949        654694080.28532553     
  -3944249128.1412840       -8249175.7613627911        661950223.40586567     
  -2650501277.2129564       -11882139.424715638        1143846752.5580297     
  -2545437966.8273878       -11231682.916442990        1137301615.1610336     
  -2440268528.3708644       -10227466.171645522        1134797932.8492527     
  -2334992961.8433685       -8869489.1902770996        1136335705.6226861     
  -2229611267.2449150       -7157751.9723846912        1141914933.4813390     
  -2974235110.0312710       -11062959.534749627        1025173456.4706187     
  -2858244191.2617936       -9951928.4528909922        1019046556.4828621     
  -2741946875.3183775       -7819573.4578926563        1017177767.5728385     
  -2625343162.2010260       -4665894.5497816801        1019567089.7405486     
  -2508433051.9097300       -490891.72851932049        1026214522.9859892     
  -3297771029.4587622       -10184405.627531767        905299602.91612124     
  -3170233485.1838965       -8427094.8356328011        899824587.62441027     
  -3042189274.6321192       -4980896.4540213346        898824339.40294814     
  -2913638397.8034229        154189.51731193066        902298858.25173783     
  -2784580854.6978116        6978163.0783711672        910248144.17077351     
  -3621109035.4954333       -9246477.7030684948        784225191.89453673     
  -3481405848.5937004       -6657182.0646893978        779635708.58567595     
  -3340995726.3120818       -1711435.1600081921        779737648.33958137     
  -3199878668.6505685        5590763.0109776258        784531011.15625668     
  -3058054675.6091633        15249412.448274851        794015797.03569686     
  -3944249128.1412840       -8249175.7613627911        661950223.40586567     
  -3791761281.4912090       -4642190.1400604248        658479919.36666059     
  -3638366230.3582649        1988810.4241368771        659917694.38273954     
  -3484063974.7424598        11643825.931213140        666263548.45410407     
  -3328854514.6437755        24322856.381210327        677517481.58075321     
  -2229611267.2449150       -7157751.9723846912        1141914933.4813390     
  -2140085812.0439057       -12074543.940813422        1136090416.1627114     
  -2051900544.7163463       -21458628.820739627        1133826663.2421136     
  -1965055465.2622283       -35310006.612136483        1135123674.7195368     
  -1879550573.6815565       -53628677.315024734        1139981450.5949879     
  -2508433051.9097300       -490891.72851932049        1026214522.9859892     
  -2410507967.7006707       -3714426.9346213341        1019184866.1267563     
  -2314012157.7222719       -11702209.576260090        1014664946.3920811     
  -2218945621.9745283       -24454239.653420568        1012654763.7819597     
  -2125308360.4574463       -41970517.166111469        1013154318.2963921     
  -2784580854.6978116        6978163.0783711672        910248144.17077351     
  -2681259076.5477562        4547004.1144778728        901909413.68752301     
  -2579455658.9855781       -2945356.8090008497        895029393.05535328     
  -2479170602.0112696       -15498919.692040205        889608082.27427042     
  -2380403905.6248369       -33113684.534668446        885645481.34427261     
  -3058054675.6091633        15249412.448274851        794015797.03569686     
  -2952339138.5851693        12709749.206477165        784264058.84500325     
  -2848231048.5062695        4811929.4810494184        774920003.23192918     
  -2745730405.3724527       -8444046.7280007601        765983630.19646621     
  -2644837209.1837215       -27058179.420656919        757454939.73861694     
  -3328854514.6437755        24322856.381210327        677517481.58075321     
  -3223748153.8129077        20773808.341380477        666248801.59921014     
  -3120338326.2843404        11569649.293878913        654336776.92180705     
  -3018625032.0580692       -3289620.7612696886        641781407.54855478     
  -2918608271.1341062       -23804001.824112058        628582693.47943985     
  -1879550573.6815565       -53628677.315024734        1139981450.5949879     
  -1781214312.1032894       -71721706.489603758        1124137992.3613212     
  -1683927161.2038808       -93311771.260380089        1105319379.7231066     
  -1587689120.9833200       -118398871.62731022        1083525612.6803439     
  -1492500191.4416077       -146983007.59040564        1058756691.2330350     
  -2125308360.4574463       -41970517.166111469        1013154318.2963921     
  -2026286341.8681192       -59847289.005471110        996718391.24142778     
  -1927137854.3986917       -77302497.911156416        983735218.44524026     
  -1827862898.0491500       -94336143.883129358        974204799.90781593     
  -1728461472.8195040       -110948226.92142195        968127135.62917864     
  -2380403905.6248369       -33113684.534668446        885645481.34427261     
  -2262330676.7006736       -45264563.041660666        869988594.95345783     
  -2142955399.3374481       -53075280.085114002        864212371.48473930     
  -2022278073.5351605       -56545835.665014505        868316810.93811893     
  -1900298699.2938044       -55676229.781366110        882301913.31358099     
  -2644837209.1837215       -27058179.420656919        757454939.73861694     
  -2489347316.6009502       -27973528.598164558        743948603.49741340     
  -2331379796.0201569       -20630117.782258153        746750838.84161937     
  -2170934647.4413457       -5027946.9729459286        765861645.77123904     
  -2008011870.8645072        18832983.829775572        801281024.28628016     
  -2918608271.1341062       -23804001.824112058        628582693.47943985     
  -2707336261.5689483       -7974185.6749812365        618598416.87328684     
  -2492411044.4468207        20032988.997401714        631350620.51586902     
  -2273832619.7677064        60217522.193062425        666839304.40718591     
  -2051600987.5316088        112579413.91199100        725064468.54723358     
  -5957764510.9721136       -1787329353.2916343        1150043586.4099240     
  -6088371083.0357437       -1502451457.5877304        1227912518.2854600     
  -6221635064.4757061       -1226431593.1382771        1268464356.4478009     
  -6357556455.2920065       -959269759.94327414        1271699100.8969467     
  -6496135255.4846401       -700965958.00272179        1237616751.6328969     
  -6810499150.1010303       -2043149745.0303092        1353662373.5954487     
  -6828477362.1540155       -1395637217.8014042        1202721664.4906936     
  -6897766407.8176546       -919160802.60801673        1092050334.1400135     
  -7018366287.0919495       -613720499.45014668        1021648382.5434084     
  -7190276999.9769011       -479316308.32779360        991515809.70087898     
  -8337866366.7676096       -2501359910.0302830        1712141603.1952784     
  -8021540583.1891785       -1424710060.5901456        1275628924.8368583     
  -7805179057.4557199       -681274403.96659255        956972097.69978452     
  -7688781789.5672388       -271052940.15962362        756171121.78405499     
  -7672348779.5237341       -194045669.16923761        673225997.08967221     
  -10539866160.971851       -3161959848.2915554        2225481275.2094131     
  -9667560746.1412296       -1589669985.9539530        1446634299.3239553     
  -8943873013.3899059       -512772397.21400261        863229647.12711298     
  -8368802962.7178726        68732917.928298473        475267318.61888731     
  -7942350594.1251392        154845959.47294474        282747313.79927641     
  -13416498532.713757       -4024949559.8141270        2893681389.6378527     
  -11766537851.010172       -1890516993.8928280        1715737787.9519835     
  -10313848275.620205       -413654782.35024881        810822982.42200029     
  -9058429806.5438538        405637074.81361246        178936973.04790342     
  -8000282443.7811165        567358577.59875870       -179920240.17030674     
  -6496135255.4846401       -700965958.00272179        1237616751.6328969     
  -6239162829.2826805       -375122298.64817643        1053388581.1342627     
  -6013242121.5094728       -152784367.38947845        908025403.06571138     
  -5818373132.1650209       -33952164.226627350        801527217.42724276     
  -5654555861.2493238       -18625689.159625769        733894024.21885753     
  -7190276999.9769011       -479316308.32779360        991515809.70087898     
  -6900497166.1462879       -303823517.91867828        846962683.84034026     
  -6623638519.4047346       -171401351.13977170        723477387.32839715     
  -6359701059.7522478       -82049807.991075516        621059920.16504979     
  -6108684787.1888218       -35768888.472590208        539710282.35029709     
  -7672348779.5237341       -194045669.16923761        673225997.08967221     
  -7400610575.4401445       -184158458.91825390        589500202.43020201     
  -7123663027.1059294       -156906767.83184528        509045074.03784072     
  -6841506134.5210810       -112290595.91000295        431860611.91258746     
  -6554139897.6856108       -50309943.152740240        357946816.05444241     
  -7942350594.1251392        154845959.47294474        282747313.79927641     
  -7739503057.1642551       -16127121.646908283        281001136.90385002     
  -7513315644.6130486       -109300617.46569347        264728463.19404304     
  -7263788356.4715271       -124674527.98341894        233929292.66985548     
  -6990921192.7396812       -62248853.200074673        188603625.33129033     
  -8000282443.7811165        567358577.59875870       -179920240.17030674     
  -7917174611.3186150        200270493.89536619       -78534512.738718361     
  -7792596371.9261007       -28582900.041325092       -9472445.2029994596     
  -7626547725.6035728       -119201604.21130753        27265962.436853729     
  -7419028672.3510399       -71585618.614598274        31680710.180841226     
  -5654555861.2493238       -18625689.159625769        733894024.21885753     
  -5520344990.7985497       -50653528.396414757        720967679.42285609     
  -5380448815.6537361       -63730351.986396551        710359226.02898955     
  -5234867335.8148794       -57856159.929573536        702068664.03725779     
  -5083600551.2819815       -33030952.225943804        696095993.44765985     
  -6108684787.1888218       -35768888.472590208        539710282.35029709     
  -5959152582.8688211       -37678170.068564653        533948278.40580171     
  -5808399178.6958666       -35516785.488030434        530703588.11838961     
  -5656424574.6699619       -29284734.730991364        529976211.48806047     
  -5503228770.7911015       -18982017.797439098        531766148.51481718     
  -6554139897.6856108       -50309943.152740240        357946816.05444241     
  -6388716581.6250963       -21929733.746517897        354141030.64684612     
  -6226536170.5527172       -4359207.6340823174        353051981.15128326     
  -6067598664.4684792        2401635.1845612526        354679667.56775367     
  -5911904063.3723726       -1647205.2905828953        359024089.89625865     
  -6990921192.7396812       -62248853.200074673        188603625.33129033     
  -6809036987.0673723       -3408219.4302692413        181545936.14599010     
  -6634859791.2242889        29742381.575449944        177404405.12767321     
  -6468389605.2104292        37202949.817081451        176179032.27633792     
  -6309626429.0257978        18973485.294623613        177869817.59198931     
  -7419028672.3510399       -71585618.614598274        31680710.180841226     
  -7220113799.1956482        17886372.880178452        16162994.903234489     
  -7033370040.7105713        66787982.140572548        3760860.0475588995     
  -6858797396.8958130        75119209.166572571       -5525694.3861855445     
  -6696395867.7513685        42880053.958193779       -11696668.397996280     
  -5083600551.2819815       -33030952.225943804        696095993.44765985     
  -4934845692.5171537       -5286621.5993914604        678851551.92753649     
  -4789354577.5760317        11578562.948149920        667162083.95479536     
  -4647127206.4586153        17564601.416661501        661027589.52944624     
  -4508163579.1649036        12671493.806162596        660448068.65148282     
  -5503228770.7911015       -18982017.797439098        531766148.51481718     
  -5344681843.0354156       -7018287.8520700932        515792473.43655843     
  -5187319405.7818518        997140.41957521439        505437862.65338099     
  -5031141459.0303946        5064267.0175123215        500702316.16528803     
  -4876148002.7810574        5183091.9417316914        501585833.97227842     
  -5911904063.3723726       -1647205.2905828953        359024089.89625865     
  -5743381950.2038498       -5409141.0998091698        346746976.80172241     
  -5573965074.2158470       -6188534.1774454117        340153018.74996531     
  -5403653435.4083662       -3985384.5234978199        339242215.74098396     
  -5232447033.7814178        1200307.8620326519        344014567.77478212     
  -6309626429.0257978        18973485.294623613        177869817.59198931     
  -6130946014.0224419       -459181.34259271622        171715062.02303028     
  -5949291582.8780193       -9978460.8429195881        171307552.24454352     
  -5764663135.5925303       -9584353.2063679695        176647288.25653303     
  -5577060672.1659765        723141.56707429886        187734270.05899787     
  -6696395867.7513685        42880053.958193779       -11696668.397996280     
  -6507374034.4911976        7831591.4195766449       -9303270.8995227218     
  -6313298931.7683668       -10372639.576852322       -1098536.8628763945     
  -6114170559.5828791       -11732639.031090260        12917533.711932931     
  -5909988917.9347391        3751593.0568575859        32744940.824916627     
  -4508163579.1649036        12671493.806162596        660448068.65148282     
  -4368176068.1785927        4137653.8489694595        653943002.90813529     
  -4227527822.6792173       -2193737.7313482761        652025006.78608239     
  -4086218842.6667829       -6322680.9347960949        654694080.28532553     
  -3944249128.1412840       -8249175.7613627911        661950223.40586567     
  -4876148002.7810574        5183091.9417316914        501585833.97227842     
  -4724937488.0091362        2294474.0426418781        498604919.89282328     
  -4573777137.9307632       -761359.50160193443        498367272.47528702     
  -4422666952.5459270       -3984408.6909799576        500872891.71966881     
  -4271606931.8546429       -7374673.5255124569        506121777.62597001     
  -5232447033.7814178        1200307.8620326519        344014567.77478212     
  -5075281523.6792498        2376509.4844405651        343728422.95151353     
  -4918877077.4772339        1015831.4396750927        344341741.83078790     
  -4763233695.1753635       -2881726.2722501755        345854524.41259712     
  -4608351376.7736502       -9316163.6513531208        348266770.69694811     
  -5577060672.1659765        723141.56707429886        187734270.05899787     
  -5419208175.1889248        4383760.1743686199        189313512.08420798     
  -5262827641.3186331        3137835.0924711227        189948414.85257277     
  -5107919070.5550909       -3014633.6786050797        189638978.36411300     
  -4954482462.8983135       -14073646.138890982        188385202.61881113     
  -5909988917.9347391        3751593.0568575859        32744940.824916627     
  -5756717442.5381660        8316226.1124417782        35360187.290893145     
  -5605628829.4549627        5604651.4567868710        35187291.540662967     
  -5456723078.6851177       -4383130.9100587368        32226253.574208956     
  -5310000190.2286396       -21647120.988130808        26477073.391547929     
  -3944249128.1412840       -8249175.7613627911        661950223.40586567     
  -3791761281.4912090       -4642190.1400604248        658479919.36666059     
  -3638366230.3582649        1988810.4241368771        659917694.38273954     
  -3484063974.7424598        11643825.931213140        666263548.45410407     
  -3328854514.6437755        24322856.381210327        677517481.58075321     
  -4271606931.8546429       -7374673.5255124569        506121777.62597001     
  -4106474647.3692527       -4944900.2524113655        500630366.42747539     
  -3940238335.1335731        1164965.5216538906        500229031.20429260     
  -3772897995.1476054        10954923.796687603        504917771.95642304     
  -3604453627.4113436        24424974.572692633        514696588.68386209     
  -4608351376.7736502       -9316163.6513531208        348266770.69694811     
  -4430054663.2528706       -7907605.3664240837        340983879.48449260     
  -4250457098.7143760       -2162877.0224645138        338973061.16737306     
  -4069558683.1581745        7918021.3805353642        342234315.74559295     
  -3887359416.5842533        22335089.842577219        350767643.21914881     
  -4954482462.8983135       -14073646.138890982        188385202.61881113     
  -4762501329.1420650       -13530305.482121229        179540458.53771588     
  -4569022521.1006823       -7994717.2082371712        176149784.27198249     
  -4374046038.7741652        2533118.6827526093        178213179.82162154     
  -4177571882.1625128        18053202.190874815        185730645.18662098     
  -5310000190.2286396       -21647120.988130808        26477073.391547929     
  -5103814645.0368443       -21813000.599483967        16300103.587134458     
  -4895934602.2924910       -16330555.035670519        11759200.518119598     
  -4686360061.9955826       -5199784.2966668606        12854364.184495425     
  -4475091024.1461182        11579311.617535114        19585594.586267143     
  -3328854514.6437755        24322856.381210327        677517481.58075321     
  -3223748153.8129077        20773808.341380477        666248801.59921014     
  -3120338326.2843404        11569649.293878913        654336776.92180705     
  -3018625032.0580692       -3289620.7612696886        641781407.54855478     
  -2918608271.1341062       -23804001.824112058        628582693.47943985     
  -3604453627.4113436        24424974.572692633        514696588.68386209     
  -3494123911.9800644        19194355.690693855        501596237.53711659     
  -3385733130.2110696        7500624.6010706425        493545250.97320062     
  -3279281282.1043553       -10656218.696147799        490543628.99211276     
  -3174768367.6599135       -35276174.200946212        492591371.59385091     
  -3887359416.5842533        22335089.842577219        350767643.21914881     
  -3755541462.8991847        20302365.214403868        335552820.48722643     
  -3625904843.2363667        10998527.178711891        331080071.61681968     
  -3498449557.5958238       -5576424.2645604610        337349396.60792172     
  -3373175605.9775267       -29422489.115320444        354360795.46053296     
  -4177571882.1625128        18053202.190874815        185730645.18662098     
  -4008000806.5702667        24097836.912539244        168118550.44954082     
  -3840853465.3602595        22063357.026741505        166941238.85266045     
  -3676129858.5324903        11949762.533480406        182198710.39597639     
  -3513829986.0869608       -6242946.5672414303        213890965.07949090     
  -4475091024.1461182        11579311.617535114        19585594.586267143     
  -4251501942.9933085        30580770.785079956       -706572.57594295929     
  -4030578996.5827131        40695114.145242453        1128752.6807325110     
  -3812322184.9143600        41922341.697922468        25091570.356276579     
  -3596731507.9882073        34262453.443286896        71181880.450717106     
  -2918608271.1341062       -23804001.824112058        628582693.47943985     
  -2707336261.5689483       -7974185.6749812365        618598416.87328684     
  -2492411044.4468207        20032988.997401714        631350620.51586902     
  -2273832619.7677064        60217522.193062425        666839304.40718591     
  -2051600987.5316088        112579413.91199100        725064468.54723358     
  -3174768367.6599135       -35276174.200946212        492591371.59385091     
  -2931453426.1926417       -16447362.689764023        496019809.87536132     
  -2685007358.3757401        12818536.653522849        500668101.21082884     
  -2435430164.2092228        52521523.828872442        506536245.60024935     
  -2182721843.6930666        102661598.83633530        513624243.04364049     
  -3373175605.9775267       -29422489.115320444        354360795.46053296     
  -3159293810.3075085       -26037505.551900387        370592853.88779694     
  -2942802969.4952092       -13955704.847544789        366528138.17423666     
  -2723703083.5406346        6822912.9977151155        342166648.31985885     
  -2501994152.4437985        36298347.983883977        297508384.32466072     
  -3513829986.0869608       -6242946.5672414303        213890965.07949090     
  -3390857413.9135628       -36744614.261385441        242317548.91059387     
  -3265797877.8052292       -60289735.505778909        228930731.40609878     
  -3138651377.7619710       -76878310.300423384        173730512.56600744     
  -3009417913.7838058       -86510338.645346522        76716892.390305519     
  -3596731507.9882073        34262453.443286896        71181880.450717106     
  -3626144237.0107803       -48568688.818212748        111193894.94374521     
  -3653992083.3057795       -126183555.32114387        87875880.906402811     
  -3680275046.8732195       -198582146.06553864        1227838.3386843288     
  -3704993127.7130847       -265764461.05135179       -148750232.75941521     
 </DataArray>
 <DataArray  type="Float64" Name="VM" NumberOfComponents="1" format="ascii">
   12935459323.488426     
   11340822540.036606     
   10210490432.236568     
   9273140893.7212315     
   8304374868.5687971     
   10130109026.699625     
   9322007742.2992744     
   8826479198.1660595     
   8443730918.4938173     
   8035990715.2494593     
   7982148324.1586075     
   7734902573.9773140     
   7669178712.7680855     
   7669717426.0069437     
   7666611319.3079548     
   6491488443.1509161     
   6586798013.0083513     
   6757423055.9694443     
   6961322582.9137192     
   7171851554.2224283     
   5657680256.9378595     
   5890860880.3085461     
   6116400091.5850544     
   6331871838.9498911     
   6537078170.2471418     
   8304374868.5687971     
   8020396556.7674513     
   7778475164.8054819     
   7567967197.9057531     
   7383921643.9452085     
   8035990715.2494593     
   7746878635.5824718     
   7473422816.6548004     
   7213674352.0821304     
   6967636113.5597544     
   7666611319.3079548     
   7381379924.0730534     
   7101527146.0694628     
   6827122833.3100748     
   6558358053.8070955     
   7171851554.2224283     
   6911330539.2321939     
   6658663139.8292809     
   6409969873.7737875     
   6162094932.7438879     
   6537078170.2471418     
   6329078956.6994123     
   6143154887.2840643     
   5965365915.3288727     
   5786703453.9742022     
   7383921643.9452085     
   7229312940.4291992     
   7067171762.7245607     
   6896839840.4798479     
   6718155421.9655523     
   6967636113.5597544     
   6814644013.2828646     
   6657036176.5144148     
   6494537845.7189112     
   6327092601.5166550     
   6558358053.8070955     
   6407179755.3066454     
   6254432257.1143513     
   6100085127.4413815     
   5944160133.1730270     
   6162094932.7438879     
   6011911045.9607210     
   5863242084.6132059     
   5716130755.3687487     
   5570640487.9001102     
   5786703453.9742022     
   5635286170.2782745     
   5488445508.8947287     
   5346098676.6529436     
   5208317081.0777760     
   6718155421.9655523     
   6511300137.3579512     
   6307900160.6156912     
   6107927370.5630159     
   5911510936.6723967     
   6327092601.5166550     
   6138414258.1108408     
   5952203411.7807541     
   5768470580.1577244     
   5587319209.8875084     
   5944160133.1730270     
   5772595117.7038565     
   5602590561.0469341     
   5434178716.9946003     
   5267453291.4893522     
   5570640487.9001102     
   5415664070.2876034     
   5261434536.9965553     
   5107980790.9058437     
   4955400864.7039595     
   5208317081.0777760     
   5070039572.7947187     
   4931818459.3229952     
   4793646293.2778854     
   4655639577.9409018     
   5911510936.6723967     
   5761162324.2988844     
   5609148986.5779409     
   5455479273.9345512     
   5300207560.1372223     
   5587319209.8875084     
   5431387412.9422703     
   5274316649.4334641     
   5116100728.3232450     
   4956747392.3940887     
   5267453291.4893522     
   5111063970.0782909     
   4954441744.0979443     
   4797614212.2099609     
   4640617005.5999031     
   4955400864.7039595     
   4803456764.2891083     
   4652627999.4646425     
   4503016123.2850361     
   4354753280.1983385     
   4655639577.9409018     
   4512653565.0782785     
   4372636588.4647818     
   4235782691.8481832     
   4102364884.9494290     
   5300207560.1372223     
   5094348102.6783152     
   4890028080.1566315     
   4687220423.7636395     
   4485981118.2140694     
   4956747392.3940887     
   4764786660.4987679     
   4574650498.0305004     
   4386391772.6284876     
   4200152881.4716868     
   4640617005.5999031     
   4463181618.5039396     
   4287963548.1465559     
   4115111513.0035982     
   3944872122.5814953     
   4354753280.1983385     
   4192754337.4267125     
   4033491686.6904292     
   3877223432.4846020     
   3724313992.5320444     
   4102364884.9494290     
   3956992861.3576145     
   3815008357.1702442     
   3676784726.9847469     
   3542806816.3109970     
   4485981118.2140694     
   4267031226.8069911     
   4045678195.5033536     
   3821893089.1583686     
   3597234640.1779156     
   4200152881.4716868     
   4031093431.9917150     
   3862018188.9865937     
   3693168838.2255468     
   3525730849.8078423     
   3944872122.5814953     
   3810952919.3523269     
   3678036292.4639153     
   3546389119.1243224     
   3416718870.5453892     
   3724313992.5320444     
   3610755929.0978394     
   3497480093.6671467     
   3384666814.3328185     
   3272633747.0158777     
   3542806816.3109970     
   3435379661.3478789     
   3325494502.9198804     
   3213177674.6613197     
   3098506055.2462139     
   3597234640.1779156     
   3596306683.3755441     
   3597032828.1113467     
   3599428862.6607432     
   3614592880.3399529     
   3525730849.8078423     
   3398532759.1181703     
   3267736184.4558492     
   3132985685.1826706     
   2999842526.1440282     
   3416718870.5453892     
   3213613124.3079677     
   3007569772.8557391     
   2797719396.6718125     
   2584725532.2992678     
   3272633747.0158777     
   3044676521.6037531     
   2820519034.8699732     
   2600766431.7360892     
   2386345220.6159492     
   3098506055.2462139     
   2895362283.1530108     
   2708941774.5352120     
   2543282324.8112717     
   2404992881.4233875     
   5657680256.9378595     
   5890860880.3085461     
   6116400091.5850544     
   6331871838.9498911     
   6537078170.2471418     
   5151351990.6884146     
   5311308119.7433300     
   5467889185.3422318     
   5618220841.3488474     
   5760854901.2113676     
   4643411032.9089365     
   4755544018.3604155     
   4868789529.9623394     
   4980518893.2379818     
   5088812588.1094122     
   4134122290.5730853     
   4224405626.8372068     
   4320596911.1804485     
   4421030168.1467142     
   4524243219.1732492     
   3625000770.6876850     
   3719714807.1350341     
   3825671370.9169369     
   3942785901.8759413     
   4070947416.6519327     
   6537078170.2471418     
   6329078956.6994123     
   6143154887.2840643     
   5965365915.3288727     
   5786703453.9742022     
   5760854901.2113676     
   5652327937.2524748     
   5559720087.8728971     
   5473956624.3547049     
   5389500153.4813004     
   5088812588.1094122     
   5054089264.2112265     
   5029846322.5394154     
   5010876524.6398048     
   4993981789.3337374     
   4524243219.1732492     
   4538966791.4423685     
   4558387497.3484211     
   4580033454.9194613     
   4602184969.9708042     
   4070947416.6519327     
   4112300525.5640526     
   4151085454.2630939     
   4186423516.9224439     
   4217595753.1828256     
   5786703453.9742022     
   5635286170.2782745     
   5488445508.8947287     
   5346098676.6529436     
   5208317081.0777760     
   5389500153.4813004     
   5248246269.2477646     
   5110472749.5729065     
   4976226542.5422697     
   4845615323.8275499     
   4993981789.3337374     
   4866999881.1088867     
   4743327610.4433765     
   4622935038.4608488     
   4505866559.4538727     
   4602184969.9708042     
   4494199372.1677723     
   4390392345.1809082     
   4290438813.4531202     
   4194243014.9019456     
   4217595753.1828256     
   4133789172.6120491     
   4056248627.8522434     
   3984098376.8434176     
   3917031307.7345409     
   5208317081.0777760     
   5070039572.7947187     
   4931818459.3229952     
   4793646293.2778854     
   4655639577.9409018     
   4845615323.8275499     
   4721814358.6251869     
   4599165233.7098131     
   4477760230.6082840     
   4357791112.1517611     
   4505866559.4538727     
   4396098592.1517410     
   4288584981.8498840     
   4183493734.2825484     
   4081069376.4559546     
   4194243014.9019456     
   4097846027.1838851     
   4004759008.4413657     
   3915195835.7113895     
   3829427337.2944279     
   3917031307.7345409     
   3833028141.7635083     
   3753277278.1028600     
   3678004866.6787343     
   3607481230.6865849     
   4655639577.9409018     
   4512653565.0782785     
   4372636588.4647818     
   4235782691.8481832     
   4102364884.9494290     
   4357791112.1517611     
   4229295519.0497565     
   4104033881.7088690     
   3982243521.7563329     
   3864241241.3132463     
   4081069376.4559546     
   3967483621.8853998     
   3857490700.7330556     
   3751368914.0304580     
   3649478369.3693609     
   3829427337.2944279     
   3731303370.7003164     
   3637227463.3334556     
   3547510599.2369580     
   3462549081.8952088     
   3607481230.6865849     
   3525453165.6012487     
   3448015406.0391712     
   3375494743.0921278     
   3308307496.4227147     
   4102364884.9494290     
   3956992861.3576145     
   3815008357.1702442     
   3676784726.9847469     
   3542806816.3109970     
   3864241241.3132463     
   3732617000.4963126     
   3604923180.0954990     
   3481559821.7437973     
   3363031599.1835823     
   3649478369.3693609     
   3531455277.1521440     
   3417915747.5615273     
   3309277197.0134664     
   3206050970.0506964     
   3462549081.8952088     
   3357972563.6204329     
   3258417998.5678420     
   3164305728.0937366     
   3076135244.3988299     
   3308307496.4227147     
   3216957830.1077847     
   3131117968.4280319     
   3051192126.5060482     
   2977645567.6521173     
   3542806816.3109970     
   3435379661.3478789     
   3325494502.9198804     
   3213177674.6613197     
   3098506055.2462139     
   3363031599.1835823     
   3256892850.9562116     
   3149939993.8879156     
   3042243602.4779429     
   2933909072.0273919     
   3206050970.0506964     
   3106296786.1201949     
   3007967419.2991829     
   2911276155.0020056     
   2816483697.5173941     
   3076135244.3988299     
   2987179824.5214701     
   2902384001.1579237     
   2822134818.3993297     
   2746885956.9225783     
   2977645567.6521173     
   2902772664.0994620     
   2835126297.1019316     
   2775213837.2633228     
   2723616173.5029926     
   3098506055.2462139     
   2895362283.1530108     
   2708941774.5352120     
   2543282324.8112717     
   2404992881.4233875     
   2933909072.0273919     
   2781889809.4455409     
   2645088649.2765250     
   2525949515.8816323     
   2428045393.3274713     
   2816483697.5173941     
   2700742741.0578189     
   2596568470.9419174     
   2505202071.3372350     
   2428264238.3412805     
   2746885956.9225783     
   2653956327.1703186     
   2566921562.7147031     
   2486233445.8261704     
   2412414803.3245063     
   2723616173.5029926     
   2642445529.2087765     
   2559839926.1766133     
   2475721719.4588437     
   2390026753.3340678     
   3625000770.6876850     
   3719714807.1350341     
   3825671370.9169369     
   3942785901.8759413     
   4070947416.6519327     
   3137992865.0369663     
   3255520076.5965285     
   3382465081.7502465     
   3518346924.5100532     
   3662697538.0050888     
   2694747278.5894942     
   2830495706.1744094     
   2973566355.4625745     
   3122872883.7198043     
   3277500712.9255257     
   2298764847.2242460     
   2449439144.7069879     
   2604853407.8629012     
   2763088357.6042752     
   2922716957.5854239     
   1955277517.3896456     
   2119314801.9523759     
   2284729768.8539810     
   2448573623.7188630     
   2608898113.5930791     
   4070947416.6519327     
   4112300525.5640526     
   4151085454.2630939     
   4186423516.9224439     
   4217595753.1828256     
   3662697538.0050888     
   3702056822.2247758     
   3740083833.9257646     
   3775892119.9576778     
   3808740851.7337108     
   3277500712.9255257     
   3320705398.3484654     
   3364163823.3751760     
   3407056818.8607478     
   3448708908.4470959     
   2922716957.5854239     
   2975625058.0425205     
   3030728429.9638262     
   3087340038.5388694     
   3144923969.3266039     
   2608898113.5930791     
   2676857898.5085325     
   2749258196.7421193     
   2825579030.2889285     
   2905461360.9981599     
   4217595753.1828256     
   4133789172.6120491     
   4056248627.8522434     
   3984098376.8434176     
   3917031307.7345409     
   3808740851.7337108     
   3756187421.3781471     
   3709477132.5523548     
   3668124945.4133444     
   3632030258.6273255     
   3448708908.4470959     
   3422875762.3463278     
   3402093981.5417371     
   3386133212.2986655     
   3374976966.9459829     
   3144923969.3266039     
   3141498603.0895443     
   3141744977.0917687     
   3145568780.4333739     
   3152958502.9637160     
   2905461360.9981599     
   2920398371.9068222     
   2936848288.1664577     
   2954768440.3668938     
   2974127967.9567013     
   3917031307.7345409     
   3833028141.7635083     
   3753277278.1028600     
   3678004866.6787343     
   3607481230.6865849     
   3632030258.6273255     
   3560032846.9626565     
   3492824418.0799809     
   3430644934.9355392     
   3373780800.0070467     
   3374976966.9459829     
   3316076835.2861586     
   3262682185.8217583     
   3215028890.8652420     
   3173405462.0798092     
   3152958502.9637160     
   3108046966.2268286     
   3069525711.3040900     
   3037598182.4733343     
   3012531255.9787383     
   2974127967.9567013     
   2943634329.0196900     
   2920553667.1843219     
   2905019815.0988188     
   2897247266.1372204     
   3607481230.6865849     
   3525453165.6012487     
   3448015406.0391712     
   3375494743.0921278     
   3308307496.4227147     
   3373780800.0070467     
   3306540872.8595223     
   3244512965.6058149     
   3188008293.6317053     
   3137400337.3932953     
   3173405462.0798092     
   3119764555.3635788     
   3071810727.1453562     
   3029810942.6354289     
   2994069241.2732949     
   3012531255.9787383     
   2970909132.9266009     
   2935250004.9906011     
   2905755454.3824835     
   2882644987.1411691     
   2897247266.1372204     
   2865598975.9964757     
   2839950256.1249027     
   2820429189.4899197     
   2807171784.2313480     
   3308307496.4227147     
   3216957830.1077847     
   3131117968.4280319     
   3051192126.5060482     
   2977645567.6521173     
   3137400337.3932953     
   3059188291.0908675     
   2987394497.2135439     
   2922440341.9782362     
   2864802578.1312075     
   2994069241.2732949     
   2929605040.4275956     
   2872524531.1876230     
   2823231899.8047757     
   2782176918.4911637     
   2882644987.1411691     
   2832003100.7010980     
   2789721269.0959520     
   2756148669.4989066     
   2731669390.8268328     
   2807171784.2313480     
   2769700630.6530638     
   2741540633.4137468     
   2722954767.4047570     
   2714233547.1717720     
   2977645567.6521173     
   2902772664.0994620     
   2835126297.1019316     
   2775213837.2633228     
   2723616173.5029926     
   2864802578.1312075     
   2805198165.7667303     
   2753103323.6056461     
   2708939934.0333695     
   2673174912.9814229     
   2782176918.4911637     
   2736618175.5115342     
   2698686637.9030962     
   2668705449.1284776     
   2647020741.3748274     
   2731669390.8268328     
   2698592999.3663497     
   2673092738.4738989     
   2655393342.0175562     
   2645728301.9267230     
   2714233547.1717720     
   2691770484.6068478     
   2676682906.3711443     
   2669109915.1726999     
   2669192101.8213916     
   2723616173.5029926     
   2642445529.2087765     
   2559839926.1766133     
   2475721719.4588437     
   2390026753.3340678     
   2673174912.9814229     
   2599196912.7380438     
   2528368965.1972294     
   2460948791.2397790     
   2397210805.4958429     
   2647020741.3748274     
   2586598278.5549593     
   2534240567.1693525     
   2490471827.5429115     
   2455823826.4749851     
   2645728301.9267230     
   2603150307.3560591     
   2573536935.3151813     
   2557515449.5622592     
   2555703195.9675856     
   2669192101.8213916     
   2646461092.4529777     
   2641479550.8222070     
   2654827023.9953790     
   2687077033.1443372     
   1955277517.3896456     
   2119314801.9523759     
   2284729768.8539810     
   2448573623.7188630     
   2608898113.5930791     
   1653814138.8393376     
   1820256064.4643979     
   1988395378.0813618     
   2155543999.8262129     
   2319950750.3769879     
   1393715301.7336352     
   1571074912.4950984     
   1749421299.7168400     
   1926755281.3339853     
   2101829872.0509357     
   1207260948.5023615     
   1399180411.7719743     
   1590643130.1190534     
   1780872927.0144832     
   1969411591.1307251     
   1137053510.0938551     
   1335388575.6701691     
   1533976032.3686173     
   1732815882.1966999     
   1931908131.8158455     
   2608898113.5930791     
   2676857898.5085325     
   2749258196.7421193     
   2825579030.2889285     
   2905461360.9981599     
   2319950750.3769879     
   2407028895.2054377     
   2496512684.8879504     
   2588007475.8994236     
   2681235397.0118866     
   2101829872.0509357     
   2205622706.8648853     
   2309322428.7410579     
   2412691752.0894103     
   2515563346.3540745     
   1969411591.1307251     
   2086594776.2520530     
   2200956334.4115438     
   2312421810.0110936     
   2420939236.0366554     
   1931908131.8158455     
   2058526388.2558780     
   2179785382.2048373     
   2295685119.5784593     
   2406225625.0187817     
   2905461360.9981599     
   2920398371.9068222     
   2936848288.1664577     
   2954768440.3668938     
   2974127967.9567013     
   2681235397.0118866     
   2702900890.7592058     
   2727011782.0688863     
   2753556150.4503555     
   2782529708.3669081     
   2515563346.3540745     
   2543855385.2747269     
   2575551437.6336021     
   2610653912.1714778     
   2649169059.5900550     
   2420939236.0366554     
   2454369504.9604836     
   2492165843.4770126     
   2534330820.1815648     
   2580868379.6174788     
   2406225625.0187817     
   2441835911.5931840     
   2482770464.2428446     
   2529029397.2884088     
   2580612998.5465956     
   2974127967.9567013     
   2943634329.0196900     
   2920553667.1843219     
   2905019815.0988188     
   2897247266.1372204     
   2782529708.3669081     
   2766903748.7197027     
   2758489767.0857482     
   2757372795.2197556     
   2763676847.1129432     
   2649169059.5900550     
   2645022773.1969709     
   2647570872.9098558     
   2656850731.9443059     
   2672912085.8038197     
   2580868379.6174788     
   2584333832.2501664     
   2593667941.0846305     
   2608878984.4603825     
   2629976104.9775100     
   2580612998.5465956     
   2587732408.5414548     
   2599636552.6634784     
   2616327045.9924760     
   2637807887.1412678     
   2897247266.1372204     
   2865598975.9964757     
   2839950256.1249027     
   2820429189.4899197     
   2807171784.2313480     
   2763676847.1129432     
   2739270146.9300685     
   2721697024.9818325     
   2711056002.5850964     
   2707449623.8938990     
   2672912085.8038197     
   2654708102.5933304     
   2644197157.5737782     
   2641436248.5001435     
   2646484251.0884337     
   2629976104.9775100     
   2616092861.6104836     
   2610769880.1992841     
   2614024149.2358732     
   2625874613.1523399     
   2637807887.1412678     
   2625588402.7685981     
   2622796269.7226501     
   2629427572.2846303     
   2645481987.0229287     
   2807171784.2313480     
   2769700630.6530638     
   2741540633.4137468     
   2722954767.4047570     
   2714233547.1717720     
   2707449623.8938990     
   2682781547.4048576     
   2667233233.5638404     
   2660953225.7882881     
   2664099509.4885325     
   2646484251.0884337     
   2631390320.7167287     
   2625046679.5304790     
   2627515249.8457260     
   2638859307.9503598     
   2625874613.1523399     
   2616828898.3221369     
   2616027517.8376002     
   2623482877.0336781     
   2639207205.2572579     
   2645481987.0229287     
   2638930504.7899933     
   2640021515.2312436     
   2648754593.4087386     
   2665131445.8348026     
   2714233547.1717720     
   2691770484.6068478     
   2676682906.3711443     
   2669109915.1726999     
   2669192101.8213916     
   2664099509.4885325     
   2648016419.2073584     
   2638723126.0678234     
   2636284141.7818270     
   2640763616.6973805     
   2638859307.9503598     
   2626571118.1606331     
   2620434249.9970369     
   2620470325.0434422     
   2626701138.7553105     
   2639207205.2572579     
   2628227571.1905122     
   2622727098.5077128     
   2622712822.1896367     
   2628193664.9664888     
   2665131445.8348026     
   2653211371.1024418     
   2646076196.8556371     
   2643740963.2734933     
   2646225115.5533700     
   2669192101.8213916     
   2646461092.4529777     
   2641479550.8222070     
   2654827023.9953790     
   2687077033.1443372     
   2640763616.6973805     
   2627456733.5223656     
   2628116122.4850941     
   2642959702.1448164     
   2672205864.2757874     
   2626701138.7553105     
   2616619062.7259746     
   2616935960.0445766     
   2627700481.2063885     
   2648960919.3300323     
   2628193664.9664888     
   2616132340.3715343     
   2611022561.0871434     
   2612879349.8283043     
   2621719272.9484010     
   2646225115.5533700     
   2628241781.2526250     
   2613806287.0673704     
   2602995124.9599137     
   2595900951.0425210     
   1137053510.0938551     
   1335388575.6701691     
   1533976032.3686173     
   1732815882.1966999     
   1931908131.8158455     
   1207212533.3283758     
   1399205251.6336172     
   1590745426.5163753     
   1781059093.9344556     
   1969689846.4701769     
   1393682090.5821650     
   1571128389.3426657     
   1749576952.4617636     
   1927028562.3491666     
   2102236313.6711233     
   1653842256.5515647     
   1820335398.1508152     
   1988551609.8468647     
   2155800190.6618361     
   2320326958.6377020     
   1955395832.9330823     
   2119415392.8954010     
   2284842767.4428787     
   2448725089.0128818     
   2609108084.1195059     
   1931908131.8158455     
   2058526388.2558780     
   2179785382.2048373     
   2295685119.5784593     
   2406225625.0187817     
   1969689846.4701769     
   2086764162.3635561     
   2201009621.6081548     
   2312350016.9016047     
   2420732758.1329026     
   2102236313.6711233     
   2205901663.7022719     
   2309462214.3039598     
   2412680326.4886537     
   2515388505.4280839     
   2320326958.6377020     
   2407340914.4309883     
   2496748549.2606645     
   2588158759.3718433     
   2681294878.6911111     
   2609108084.1195059     
   2677128160.2438793     
   2749581790.6968365     
   2825958502.3799706     
   2905902913.0747852     
   2406225625.0187817     
   2441835911.5931840     
   2482770464.2428446     
   2529029397.2884088     
   2580612998.5465956     
   2420732758.1329026     
   2454656372.3744864     
   2493000811.3715792     
   2535770449.6414652     
   2582969928.3542838     
   2515388505.4280839     
   2544367427.0466161     
   2576840850.7132998     
   2612812418.1366386     
   2652289288.6930041     
   2681294878.6911111     
   2703532294.4366336     
   2728319874.5052357     
   2755643918.5658708     
   2785500355.7887578     
   2905902913.0747852     
   2921023845.0959554     
   2937753843.9710035     
   2956042668.9678974     
   2975857164.3212228     
   2580612998.5465956     
   2587732408.5414548     
   2599636552.6634784     
   2616327045.9924760     
   2637807887.1412678     
   2582969928.3542838     
   2585167749.5040102     
   2593216493.0995560     
   2607124680.4360204     
   2626907569.8756738     
   2652289288.6930041     
   2646494605.2988648     
   2647440202.4645538     
   2655162450.0536413     
   2669712747.8080668     
   2785500355.7887578     
   2768640810.6674681     
   2759182273.8868141     
   2757210220.9662285     
   2762839545.3208838     
   2975857164.3212228     
   2945156829.4238343     
   2922275604.7486215     
   2907359374.8523550     
   2900605252.7792797     
   2637807887.1412678     
   2625588402.7685981     
   2622796269.7226501     
   2629427572.2846303     
   2645481987.0229287     
   2626907569.8756738     
   2614793110.3832426     
   2611139787.6237149     
   2615962737.1943665     
   2629277739.1006827     
   2669712747.8080668     
   2654237963.9253893     
   2646165998.9371142     
   2645553403.8952684     
   2652457278.6695895     
   2762839545.3208838     
   2741457850.6893802     
   2726342565.4789448     
   2717593112.8603363     
   2715312391.0904031     
   2900605252.7792797     
   2871821612.8856030     
   2848116697.5309982     
   2829617718.5810990     
   2816460158.4152460     
   2645481987.0229287     
   2638930504.7899933     
   2640021515.2312436     
   2648754593.4087386     
   2665131445.8348026     
   2629277739.1006827     
   2618465710.3907709     
   2615877917.1197667     
   2621530957.5735669     
   2635443967.4100966     
   2652457278.6695895     
   2634535411.9270391     
   2625375646.0695615     
   2625041706.2493248     
   2633601167.8001413     
   2715312391.0904031     
   2687442899.3564472     
   2668786910.0605221     
   2659487464.6553879     
   2659696066.9905500     
   2816460158.4152460     
   2776023664.7989435     
   2745125937.4944549     
   2724016221.3387017     
   2712963152.2485666     
   2665131445.8348026     
   2653211371.1024418     
   2646076196.8556371     
   2643740963.2734933     
   2646225115.5533700     
   2635443967.4100966     
   2622956314.3311834     
   2616569460.8297701     
   2616290957.0835233     
   2622128767.3934007     
   2633601167.8001413     
   2619633399.5528874     
   2613125775.1135840     
   2614095922.8160143     
   2622563139.0756736     
   2659696066.9905500     
   2642744747.7259641     
   2634656998.7382088     
   2635493742.5122581     
   2645323257.8974109     
   2712963152.2485666     
   2691028347.5496960     
   2679411505.7320156     
   2678266854.4189682     
   2687765215.0196891     
   2646225115.5533700     
   2628241781.2526250     
   2613806287.0673704     
   2602995124.9599137     
   2595900951.0425210     
   2622128767.3934007     
   2608537509.3235836     
   2602070775.4359865     
   2602771596.5537357     
   2610690914.3722639     
   2622563139.0756736     
   2612033986.6730185     
   2612285098.5581455     
   2623374624.2588501     
   2645363901.4110470     
   2645323257.8974109     
   2635231520.4644022     
   2639783733.3002052     
   2659143359.8638330     
   2693464788.9208708     
   2687765215.0196891     
   2674481582.7820487     
   2680118849.8991766     
   2705085263.2220263     
   2749740087.1339293     
   1955395832.9330823     
   2119415392.8954010     
   2284842767.4428787     
   2448725089.0128818     
   2609108084.1195059     
   2298947271.5440512     
   2449556888.5198059     
   2604917672.8779945     
   2763107864.1682973     
   2922697300.9630089     
   2694927742.9958639     
   2830602528.7145948     
   2973596382.6750169     
   3122822233.9410243     
   3277364758.6191912     
   3138114831.6332698     
   3255594396.8804226     
   3382478151.0346222     
   3518286567.2613397     
   3662552875.7957759     
   3625013801.9681311     
   3719739239.7945108     
   3825685770.2525668     
   3942773139.0467095     
   4070893797.6412249     
   2609108084.1195059     
   2677128160.2438793     
   2749581790.6968365     
   2825958502.3799706     
   2905902913.0747852     
   2922697300.9630089     
   2975739199.2018399     
   3030982203.3244963     
   3087745921.6477847     
   3145498153.6236897     
   3277364758.6191912     
   3320705782.7557487     
   3364312651.5346136     
   3407368138.6541324     
   3449198156.0974765     
   3662552875.7957759     
   3701991280.2935796     
   3740110810.7168536     
   3776020966.9763455     
   3808978049.1041455     
   4070893797.6412249     
   4112217638.6726108     
   4150985318.7059541     
   4186307565.7896080     
   4217457241.9502525     
   2905902913.0747852     
   2921023845.0959554     
   2937753843.9710035     
   2956042668.9678974     
   2975857164.3212228     
   3145498153.6236897     
   3141797197.4119883     
   3141791239.4476151     
   3145380775.7453461     
   3152556349.3991799     
   3449198156.0974765     
   3422872579.4423323     
   3401579085.0124950     
   3385084182.1721458     
   3373371492.8229175     
   3808978049.1041455     
   3755949931.9452777     
   3708728960.8879147     
   3666831228.2811728     
   3630151544.8126659     
   4217457241.9502525     
   4133409766.4640274     
   4055594300.7796984     
   3983145507.2600632     
   3915748672.3718147     
   2975857164.3212228     
   2945156829.4238343     
   2922275604.7486215     
   2907359374.8523550     
   2900605252.7792797     
   3152556349.3991799     
   3107993113.4677463     
   3070091591.7760339     
   3039065613.4865227     
   3015179127.4717345     
   3373371492.8229175     
   3314909210.7744761     
   3262048757.4992938     
   3215033261.5873017     
   3174154965.9032741     
   3630151544.8126659     
   3558399876.7252073     
   3491326457.8214025     
   3429172150.0096965     
   3372224262.4521947     
   3915748672.3718147     
   3831677720.8432899     
   3751519936.9809752     
   3675493406.6327472     
   3603858344.9095054     
   2900605252.7792797     
   2871821612.8856030     
   2848116697.5309982     
   2829617718.5810990     
   2816460158.4152460     
   3015179127.4717345     
   2975095304.4407778     
   2940456949.0710292     
   2911457010.1031847     
   2888309572.8208575     
   3174154965.9032741     
   3121115678.2084050     
   3073662679.8048539     
   3032054166.0325832     
   2996588373.4848418     
   3372224262.4521947     
   3304762218.9183636     
   3242825735.5131841     
   3186728005.5737643     
   3136845771.2886066     
   3603858344.9095054     
   3520664693.0688539     
   3442772313.8031497     
   3370532309.0042968     
   3304385080.4705315     
   2816460158.4152460     
   2776023664.7989435     
   2745125937.4944549     
   2724016221.3387017     
   2712963152.2485666     
   2888309572.8208575     
   2836275101.0398250     
   2792765090.9647784     
   2758118981.2416201     
   2732706546.8393192     
   2996588373.4848418     
   2931897349.1508098     
   2874678377.0391636     
   2825332299.9954572     
   2784303422.8261189     
   3136845771.2886066     
   3059235706.6090612     
   2988040061.0437565     
   2923683620.6840186     
   2866645900.9481702     
   3304385080.4705315     
   3214211556.9894099     
   3129433874.2006941     
   3050465064.9501209     
   2977779000.8521576     
   2712963152.2485666     
   2691028347.5496960     
   2679411505.7320156     
   2678266854.4189682     
   2687765215.0196891     
   2732706546.8393192     
   2700452111.3326921     
   2677360515.1300440     
   2663687856.0583572     
   2659698472.4137187     
   2784303422.8261189     
   2739037036.3788834     
   2701615364.9206519     
   2672394796.0107198     
   2651749337.9723692     
   2866645900.9481702     
   2806780616.3438020     
   2753258320.8141971     
   2706507507.9591846     
   2666999173.4418201     
   2977779000.8521576     
   2902822216.1266875     
   2832563159.5479383     
   2767457484.2946787     
   2708036503.8060226     
   2687765215.0196891     
   2674481582.7820487     
   2680118849.8991766     
   2705085263.2220263     
   2749740087.1339293     
   2659698472.4137187     
   2623745137.0393376     
   2601575433.2979259     
   2593719301.0451622     
   2600662212.9071083     
   2651749337.9723692     
   2593177018.5432644     
   2542941305.6997895     
   2501553725.7314601     
   2469523504.8142853     
   2666999173.4418201     
   2588598173.3111701     
   2512861323.9534979     
   2440101552.6251106     
   2370666530.1915092     
   2708036503.8060226     
   2615564064.6610146     
   2520392893.6546645     
   2422576664.8911176     
   2322215720.5346761     
   3625013801.9681311     
   3719739239.7945108     
   3825685770.2525668     
   3942773139.0467095     
   4070893797.6412249     
   4134033112.3456459     
   4224368449.7490497     
   4320600762.3264542     
   4421068400.7073736     
   4524313234.5565081     
   4643278862.3190012     
   4755472017.5101986     
   4868776109.2532692     
   4980564619.9575644     
   5088919930.0270519     
   5151234207.3836584     
   5311226399.6874208     
   5467850831.4985886     
   5618231616.7773447     
   5760918348.0712814     
   5657633564.2037506     
   5890793518.4317665     
   6116328391.6780500     
   6331805959.5615549     
   6537020921.7135143     
   4070893797.6412249     
   4112217638.6726108     
   4150985318.7059541     
   4186307565.7896080     
   4217457241.9502525     
   4524313234.5565081     
   4538930419.6884499     
   4558243258.9675436     
   4579772849.4170465     
   4601796981.3889027     
   5088919930.0270519     
   5054068439.6320848     
   5029692268.6630325     
   5010580693.7181301     
   4993534031.6476269     
   5760918348.0712814     
   5652293802.9615116     
   5559585033.1884880     
   5473719435.2088289     
   5389157767.4446344     
   6537020921.7135143     
   6329004894.5847044     
   6143063151.1614552     
   5965266962.6153679     
   5786607833.6820812     
   4217457241.9502525     
   4133409766.4640274     
   4055594300.7796984     
   3983145507.2600632     
   3915748672.3718147     
   4601796981.3889027     
   4493878831.4225531     
   4390135354.5311241     
   4290246644.2584386     
   4194115604.9152193     
   4993534031.6476269     
   4866773070.0350838     
   4743332245.5643826     
   4623183316.0176716     
   4506371561.3097277     
   5389157767.4446344     
   5248132632.8948250     
   5110598729.2358389     
   4976603415.1061153     
   4846255078.8409729     
   5786607833.6820812     
   5635293499.8934488     
   5488553890.4871025     
   5346308564.2433262     
   5208629218.7230892     
   3915748672.3718147     
   3831677720.8432899     
   3751519936.9809752     
   3675493406.6327472     
   3603858344.9095054     
   4194115604.9152193     
   4097680874.5072641     
   4004338078.5289283     
   3914292599.2487240     
   3827808250.9753418     
   4506371561.3097277     
   4396652006.1595936     
   4289096537.8491488     
   4183866930.6204224     
   4081203239.7980185     
   4846255078.8409729     
   4722558846.6119070     
   4600051758.8675709     
   4478824526.1336908     
   4359066946.7923756     
   5208629218.7230892     
   5070420059.9317799     
   4932425459.6624794     
   4794642546.3950987     
   4657187943.8445654     
   3603858344.9095054     
   3520664693.0688539     
   3442772313.8031497     
   3370532309.0042968     
   3304385080.4705315     
   3827808250.9753418     
   3728648714.4302950     
   3633930722.3359413     
   3543983531.1481400     
   3459224607.2932348     
   4081203239.7980185     
   3966787553.6853299     
   3856073314.5895100     
   3749349109.7924562     
   3646986942.6891313     
   4359066946.7923756     
   4230190876.6983304     
   4104409948.9156165     
   3981963504.9577041     
   3863167236.2383642     
   4657187943.8445654     
   4514640366.2381086     
   4374715081.5956411     
   4237600920.8948965     
   4103555376.0416842     
   3304385080.4705315     
   3214211556.9894099     
   3129433874.2006941     
   3050465064.9501209     
   2977779000.8521576     
   3459224607.2932348     
   3355082936.2190328     
   3255893854.2774205     
   3162080022.2293310     
   3074142805.6310606     
   3646986942.6891313     
   3528850857.3979406     
   3415178346.9615674     
   3306382869.2748594     
   3202971361.4575992     
   3863167236.2383642     
   3731025350.0111694     
   3602847467.6850915     
   3479024466.1993775     
   3360051746.3961058     
   4103555376.0416842     
   3957355240.7558918     
   3814632733.6117659     
   3675748432.7999949     
   3541175093.7821460     
   2977779000.8521576     
   2902822216.1266875     
   2832563159.5479383     
   2767457484.2946787     
   2708036503.8060226     
   3074142805.6310606     
   2986272287.9235187     
   2901093761.4758859     
   2818947333.1245780     
   2740244857.3737950     
   3202971361.4575992     
   3105106178.2753425     
   3008194740.6725264     
   2912440599.3029652     
   2818102035.3951116     
   3360051746.3961058     
   3255641528.0185118     
   3150817636.9822674     
   3045671428.4790030     
   2940330846.2850008     
   3541175093.7821460     
   3433892198.8773141     
   3325239269.6277294     
   3215249274.8496809     
   3103983718.0389519     
   2708036503.8060226     
   2615564064.6610146     
   2520392893.6546645     
   2422576664.8911176     
   2322215720.5346761     
   2740244857.3737950     
   2639790322.5918660     
   2544419060.6313348     
   2454541407.5237479     
   2370639004.2753739     
   2818102035.3951116     
   2699708507.9539523     
   2592667726.4851589     
   2498074636.0127611     
   2417396020.6750770     
   2940330846.2850008     
   2790766082.3788400     
   2657173528.6193886     
   2541987285.7300582     
   2448762350.5662017     
   3103983718.0389519     
   2907943676.0163283     
   2730980665.6650624     
   2577768312.4458046     
   2455578185.2517052     
   5657633564.2037506     
   5890793518.4317665     
   6116328391.6780500     
   6331805959.5615549     
   6537020921.7135143     
   6491509486.7950706     
   6586763043.2809410     
   6757336996.7127094     
   6961185185.0713406     
   7171660981.5999393     
   7982173820.0026150     
   7734871038.0870161     
   7669085539.3294764     
   7669560123.6252441     
   7666387884.3189478     
   10130075808.451324     
   9321952728.7466888     
   8826387997.1692200     
   8443603292.5782652     
   8035831584.8308430     
   12935304322.978821     
   11340718504.920834     
   10210411627.074644     
   9273089144.7589874     
   8304369794.3918686     
   6537020921.7135143     
   6329004894.5847044     
   6143063151.1614552     
   5965266962.6153679     
   5786607833.6820812     
   7171660981.5999393     
   6911199165.7802114     
   6658597724.5328360     
   6409981572.7409210     
   6162196844.0136232     
   7666387884.3189478     
   7381232800.4660721     
   7101466354.1445875     
   6827158217.7518520     
   6558499847.7180166     
   8035831584.8308430     
   7746756525.5041885     
   7473345438.2271099     
   7213648479.2878380     
   6967667557.9583807     
   8304369794.3918686     
   8020339243.1723928     
   7778361612.6035061     
   7567798412.2195244     
   7383700033.6634932     
   5786607833.6820812     
   5635293499.8934488     
   5488553890.4871025     
   5346308564.2433262     
   5208629218.7230892     
   6162196844.0136232     
   6011962364.9826317     
   5863224854.0195713     
   5716027818.8312874     
   5570435399.8867006     
   6558499847.7180166     
   6407208848.5314322     
   6254323786.4751186     
   6099813479.0424147     
   5943699953.6930656     
   6967667557.9583807     
   6814592166.5088539     
   6656876336.4623880     
   6494244257.2166071     
   6326640047.2368736     
   7383700033.6634932     
   7229127787.6748505     
   7067003734.8932638     
   6896670476.6455603     
   6717969080.6786613     
   5208629218.7230892     
   5070420059.9317799     
   4932425459.6624794     
   4794642546.3950987     
   4657187943.8445654     
   5570435399.8867006     
   5415375182.8424664     
   5261165117.7994413     
   5107836870.8844023     
   4955490367.2000685     
   5943699953.6930656     
   5772009972.1968145     
   5601940958.4234114     
   5433526160.7303572     
   5266860736.5206699     
   6326640047.2368736     
   6137926539.9041567     
   5951709331.5323486     
   5767997499.3427134     
   5586892851.7389727     
   6717969080.6786613     
   6511313301.1547823     
   6308119294.9649382     
   6108353666.7722626     
   5912137654.9773769     
   4657187943.8445654     
   4514640366.2381086     
   4374715081.5956411     
   4237600920.8948965     
   4103555376.0416842     
   4955490367.2000685     
   4804341929.4476271     
   4654144971.2345238     
   4504997014.0933867     
   4357023780.1609840     
   5266860736.5206699     
   5111261814.2009449     
   4955407469.6970043     
   4799325292.1311750     
   4643051397.2863646     
   5586892851.7389727     
   5431308478.6205730     
   5274667734.9772549     
   5116965569.6363516     
   4958208735.3595352     
   5912137654.9773769     
   5761205608.6632814     
   5608764393.1598415     
   5454818423.3717470     
   5299408222.4109259     
   4103555376.0416842     
   3957355240.7558918     
   3814632733.6117659     
   3675748432.7999949     
   3541175093.7821460     
   4357023780.1609840     
   4194609000.2969956     
   4034942005.4800215     
   3878277577.9314771     
   3724977712.0068860     
   4643051397.2863646     
   4465336016.8980932     
   4289744190.3505392     
   4116426411.8303909     
   3945630549.1458383     
   4958208735.3595352     
   4765906861.2552500     
   4575214629.9765444     
   4386187975.4671555     
   4198968792.0112119     
   5299408222.4109259     
   5093021431.9308271     
   4887832221.3297586     
   4683815251.5871983     
   4481020309.5815134     
   3541175093.7821460     
   3433892198.8773141     
   3325239269.6277294     
   3215249274.8496809     
   3103983718.0389519     
   3724977712.0068860     
   3609866223.1846385     
   3495625973.3933167     
   3382418321.1842456     
   3270526516.1562529     
   3945630549.1458383     
   3810319845.6240730     
   3676415177.0761957     
   3544162159.2026324     
   3414183189.1617827     
   4198968792.0112119     
   4030636036.9065318     
   3862770040.6671672     
   3695617881.0423951     
   3530205592.8067598     
   4481020309.5815134     
   4266874694.5467124     
   4051080329.3188596     
   3833701626.1481566     
   3616086957.2543507     
   3103983718.0389519     
   2907943676.0163283     
   2730980665.6650624     
   2577768312.4458046     
   2455578185.2517052     
   3270526516.1562529     
   3046897107.4412169     
   2827693819.5926189     
   2613757449.1388688     
   2406309488.4543581     
   3414183189.1617827     
   3211163712.9668179     
   3003705015.0641084     
   2790774565.2898011     
   2572478236.9456072     
   3530205592.8067598     
   3398649997.2798457     
   3260276733.6474180     
   3115492802.7788277     
   2970082642.0122848     
   3616086957.2543507     
   3607250493.2290139     
   3595785482.1503444     
   3585111838.5923610     
   3588778234.8051839     
 </DataArray>
 <DataArray  type="Float64" Name="strain" NumberOfComponents="3" format="ascii">
  0.20348642009284248        0.0000000000000000       0.12539289511620602     
  0.18665849169156762       -2.7324796159368579E-002   7.4346985962261608E-002
  0.16983056329029275       -4.4676114716407540E-002   3.5133813342049104E-002
  0.15300263488901786       -5.2053955671116925E-002   7.7533772555684298E-003
  0.13617470648774299       -4.9458319023496691E-002  -7.7943222971803283E-003
  0.15985542691934243        0.0000000000000000        9.6436890489191351E-002
  0.15317888278148145       -2.1843707319190529E-002   6.2686106094649335E-002
  0.14650233864362053       -3.6173880689770212E-002   3.7405353693203268E-002
  0.13982579450575958       -4.2990520111739088E-002   2.0594633284853187E-002
  0.13314925036789860       -4.2293625585097083E-002   1.2253944869598993E-002
  0.12645740500009248        0.0000000000000000        7.4191946529214126E-002
  0.12656954058500952       -1.6362618479012481E-002   5.5276343240355699E-002
  0.12668167616992657       -2.7671646663132887E-002   4.1468067403957337E-002
  0.12679381175484364       -3.3927084552361209E-002   3.2767119020018977E-002
  0.12690594733976066       -3.5128932146697468E-002   2.9173498088540712E-002
  0.10329235433509262        0.0000000000000000        5.8658063236274323E-002
  0.10683046510215177       -1.0881529638834438E-002   5.2117697399380741E-002
  0.11036857586921089       -1.9169412636495554E-002   4.7321954474311319E-002
  0.11390668663627004       -2.4863648992983357E-002   4.4270834461066000E-002
  0.11744479740332919       -2.7964238708297839E-002   4.2964337359644840E-002
   9.0360274924342898E-002   0.0000000000000000        4.9835240610371936E-002
   9.3961656332908206E-002  -5.4004407986563878E-003   5.3210168571724462E-002
   9.7563037741473513E-002  -1.0667178609858222E-002   5.4967014904265192E-002
  0.10116441915003882       -1.5800213433605499E-002   5.5105779607994135E-002
  0.10476580055860414       -2.0799545269898224E-002   5.3626462682911304E-002
  0.13617470648774299       -4.9458319023496691E-002  -7.7943222971803283E-003
  0.13295520127523128       -4.2924226805854490E-002  -3.3997578877600285E-003
  0.12973569606271959       -3.8486701050497896E-002  -4.0808803410652059E-004
  0.12651619085020788       -3.6145741757426970E-002   1.1806872637801502E-003
  0.12329668563769616       -3.5901348926641624E-002   1.3665680058999041E-003
  0.13314925036789860       -4.2293625585097083E-002   1.2253944869598993E-002
  0.12891293461507206       -3.8429767569947731E-002   1.2178659669236914E-002
  0.12467661886224549       -3.5745516526394405E-002   1.1472647944011982E-002
  0.12044030310941893       -3.4240872454437285E-002   1.0135909693924281E-002
  0.11620398735659235       -3.3915835354076135E-002   8.1684449189736025E-003
  0.12690594733976066       -3.5128932146697468E-002   2.9173498088540712E-002
  0.12242498907752325       -3.3935308334040952E-002   2.5545322769085794E-002
  0.11794403081528584       -3.3004332002290970E-002   2.2058588955672025E-002
  0.11346307255304845       -3.2336003151447586E-002   1.8713296648299380E-002
  0.10898211429081101       -3.1930321781510687E-002   1.5509445846967861E-002
  0.11744479740332919       -2.7964238708297839E-002   4.2964337359644840E-002
  0.11349136466258489       -2.9440849098134176E-002   3.6700231411786521E-002
  0.10953793192184066       -3.0263147478187508E-002   3.1349735000873409E-002
  0.10558449918109639       -3.0431133848457869E-002   2.6912848126905458E-002
  0.10163106644035212       -2.9944808208945246E-002   2.3389570789882574E-002
  0.10476580055860414       -2.0799545269898224E-002   5.3626462682911304E-002
  0.10211206137025702       -2.4946389862227393E-002   4.5643385597339256E-002
   9.9458322181909933E-002  -2.7521962954084052E-002   3.9346086079616295E-002
   9.6804582993562802E-002  -2.8526264545468163E-002   3.4734564129742573E-002
   9.4150843805215698E-002  -2.7959294636379764E-002   3.1808819747717959E-002
  0.12329668563769616       -3.5901348926641624E-002   1.3665680058999041E-003
  0.12042808031488936       -3.6398265740273480E-002   6.9485098006341617E-004
  0.11755947499208251       -3.6281235380453990E-002   1.6124136904684117E-004
  0.11469086966927566       -3.5550257847183193E-002  -2.3426082714945312E-004
  0.11182226434646886       -3.4205333140461092E-002  -4.9165560852604262E-004
  0.11620398735659235       -3.3915835354076135E-002   8.1684449189736025E-003
  0.11346836710937928       -3.3986619100748988E-002   7.8633869947231788E-003
  0.11073274686216621       -3.3669437569893504E-002   7.6861918068404367E-003
  0.10799712661495314       -3.2964290761509626E-002   7.6368593553250604E-003
  0.10526150636774007       -3.1871178675597495E-002   7.7153896401773447E-003
  0.10898211429081101       -3.1930321781510687E-002   1.5509445846967861E-002
  0.10636923444073926       -3.1574972461224447E-002   1.5345065128380561E-002
  0.10375635459066751       -3.1057639759332938E-002   1.5298302467708320E-002
  0.10114347474059576       -3.0378323675836014E-002   1.5369157864951371E-002
   9.8530594890524043E-002  -2.9537024210733870E-002   1.5557631320109427E-002
  0.10163106644035212       -2.9944808208945246E-002   2.3389570789882574E-002
   9.9130682308969320E-002  -2.9163325821699958E-002   2.3139885381035372E-002
   9.6630298177586477E-002  -2.8445841948772359E-002   2.2997573351650879E-002
   9.4129914046203647E-002  -2.7792356590162479E-002   2.2962634701728997E-002
   9.1629529914820818E-002  -2.7202869745870259E-002   2.3035069431269990E-002
   9.4150843805215698E-002  -2.7959294636379764E-002   3.1808819747717959E-002
   9.1752710714069374E-002  -2.6751679182175407E-002   3.1247847752687810E-002
   8.9354577622923065E-002  -2.5834044138211842E-002   3.0784004458667934E-002
   8.6956444531776728E-002  -2.5206389504488894E-002   3.0417289865658347E-002
   8.4558311440630390E-002  -2.4868715281006620E-002   3.0147703973658985E-002
  0.11182226434646886       -3.4205333140461092E-002  -4.9165560852604262E-004
  0.10849198444075159       -3.2680919710379591E-002  -3.8829184926561511E-004
  0.10516170453503432       -3.1411476007030287E-002  -2.7372253021490378E-005
  0.10183142462931705       -3.0397002030413477E-002   5.9110318020638708E-004
   9.8501144723599776E-002  -2.9637497780528987E-002   1.4671344504177952E-003
  0.10526150636774007       -3.1871178675597495E-002   7.7153896401773447E-003
  0.10218617174825648       -3.0657920324513990E-002   7.4446681132418618E-003
   9.9110837128772916E-002  -2.9592334720616016E-002   7.4262813217900320E-003
   9.6035502509289383E-002  -2.8674421863903787E-002   7.6602292658219245E-003
   9.2960167889805767E-002  -2.7904181754376867E-002   8.1465119453377477E-003
   9.8530594890524043E-002  -2.9537024210733870E-002   1.5557631320109427E-002
   9.5704984455774328E-002  -2.8634920938648459E-002   1.5020121486524589E-002
   9.2879374021024627E-002  -2.7773193434201746E-002   1.4729725286923623E-002
   9.0053763586274899E-002  -2.6951841697393879E-002   1.4686442721306654E-002
   8.7228153151525198E-002  -2.6170865728224774E-002   1.4890273789673489E-002
   9.1629529914820818E-002  -2.7202869745870259E-002   2.3035069431269990E-002
   8.9048422563305113E-002  -2.6611921552782893E-002   2.2338068270582517E-002
   8.6467315211789408E-002  -2.5954052147787475E-002   2.1882959642379168E-002
   8.3886207860273759E-002  -2.5229261530884124E-002   2.1669743546659952E-002
   8.1305100508758041E-002  -2.4437549702072722E-002   2.1698419983424883E-002
   8.4558311440630390E-002  -2.4868715281006620E-002   3.0147703973658985E-002
   8.2216486070848860E-002  -2.4588922166917271E-002   2.9398508465415973E-002
   7.9874660701067315E-002  -2.4134910861373204E-002   2.8885984388156954E-002
   7.7532835331285799E-002  -2.3506681364374338E-002   2.8610131741882296E-002
   7.5191009961504213E-002  -2.2704233675920699E-002   2.8570950526591976E-002
   9.8501144723599776E-002  -2.9637497780528987E-002   1.4671344504177952E-003
   9.5980224042746975E-002  -2.8944883976086883E-002   1.5970305461093792E-003
   9.3459303361894147E-002  -2.8131081335798655E-002   1.5855931514388855E-003
   9.0938382681041333E-002  -2.7196089859662650E-002   1.4328222664062584E-003
   8.8417462000188518E-002  -2.6139909547680307E-002   1.1387178910117202E-003
   9.2960167889805767E-002  -2.7904181754376867E-002   8.1465119453377477E-003
   9.0342491458056201E-002  -2.7168415281637048E-002   8.2299050307373112E-003
   8.7724815026306663E-002  -2.6353923335285565E-002   8.2611201047057964E-003
   8.5107138594557111E-002  -2.5460705915323022E-002   8.2401571672430021E-003
   8.2489462162807559E-002  -2.4488763021748627E-002   8.1670162183483108E-003
   8.7228153151525198E-002  -2.6170865728224774E-002   1.4890273789673489E-002
   8.4602876447809644E-002  -2.5391946587186978E-002   1.4884700502545742E-002
   8.1977599744094104E-002  -2.4576765334773258E-002   1.4916104682917410E-002
   7.9352323040378606E-002  -2.3725321970983232E-002   1.4984486330788412E-002
   7.6727046336663052E-002  -2.2837616495817115E-002   1.5089845446159128E-002
   8.1305100508758041E-002  -2.4437549702072722E-002   2.1698419983424883E-002
   7.8761379012007304E-002  -2.3615477892736970E-002   2.1561416961534356E-002
   7.6217657515256568E-002  -2.2799607334260615E-002   2.1550546886074093E-002
   7.3673936018505831E-002  -2.1989938026643466E-002   2.1665809757043953E-002
   7.1130214521755081E-002  -2.1186469969885574E-002   2.1907205574444026E-002
   7.5191009961504213E-002  -2.2704233675920699E-002   2.8570950526591976E-002
   7.2817999150649099E-002  -2.1839009198286949E-002   2.8260054407703239E-002
   7.0444988339793971E-002  -2.1022449333747882E-002   2.8164446714175465E-002
   6.8071977528938815E-002  -2.0254554082303651E-002   2.8284127446008618E-002
   6.5698966718083673E-002  -1.9535323443953923E-002   2.8619096603202998E-002
   8.8417462000188518E-002  -2.6139909547680307E-002   1.1387178910117202E-003
   8.4995812993521103E-002  -2.5079370859104000E-002   6.8340406936051590E-004
   8.1574163986853743E-002  -2.4131304253186575E-002   4.6593834628400055E-004
   7.8152514980186383E-002  -2.3295709729928900E-002   4.8632072178217411E-004
   7.4730865973518967E-002  -2.2572587289330093E-002   7.4455119585459251E-004
   8.2489462162807559E-002  -2.4488763021748627E-002   8.1670162183483108E-003
   7.9302348897195063E-002  -2.3524280016739674E-002   7.7709153837136058E-003
   7.6115235631582623E-002  -2.2653442262472484E-002   7.6060379326142735E-003
   7.2928122365970155E-002  -2.1876249758947371E-002   7.6723838650502446E-003
   6.9741009100357743E-002  -2.1192702506163785E-002   7.9699531810212276E-003
   7.6727046336663052E-002  -2.2837616495817115E-002   1.5089845446159128E-002
   7.3767844097066326E-002  -2.1969189174375320E-002   1.4771784430458151E-002
   7.0808641857469545E-002  -2.1175580271758046E-002   1.4678322083252968E-002
   6.7849439617872792E-002  -2.0456789787965394E-002   1.4809458404543903E-002
   6.4890237378276011E-002  -1.9812817722997478E-002   1.5165193394331145E-002
   7.1130214521755081E-002  -2.1186469969885574E-002   2.1907205574444026E-002
   6.8392298593134754E-002  -2.0414098332011035E-002   2.1686011209593868E-002
   6.5654382664514510E-002  -1.9697718281043670E-002   2.1682790798200426E-002
   6.2916466735894266E-002  -1.9037329816983750E-002   2.1897544340264058E-002
   6.0178550807273939E-002  -1.8432932939831059E-002   2.2330271835784413E-002
   6.5698966718083673E-002  -1.9535323443953923E-002   2.8619096603202998E-002
   6.3175712385400595E-002  -1.8859007489646584E-002   2.8513595721121221E-002
   6.0652458052717517E-002  -1.8219856290329392E-002   2.8619444077456674E-002
   5.8129203720034384E-002  -1.7617869846001968E-002   2.8936641672209981E-002
   5.5605949387351306E-002  -1.7053048156664752E-002   2.9465188505380990E-002
   7.4730865973518967E-002  -2.2572587289330093E-002   7.4455119585459251E-004
   7.1003012456405279E-002  -2.1811675169748801E-002  -2.8641490648106949E-004
   6.7275158939291535E-002  -2.0862711609543616E-002  -2.5700665390659960E-004
   6.3547305422177847E-002  -1.9725696608713914E-002   8.3277595357772460E-004
   5.9819451905064103E-002  -1.8400630167259902E-002   2.9829329159724027E-003
   6.9741009100357743E-002  -2.1192702506163785E-002   7.9699531810212276E-003
   6.6930270010165549E-002  -2.0471556306469629E-002   7.1132595943703691E-003
   6.4119530919973300E-002  -1.9581566962211749E-002   7.0304205066527015E-003
   6.1308791829781079E-002  -1.8522734473390493E-002   7.7214359178678360E-003
   5.8498052739588968E-002  -1.7295058840005373E-002   9.1863058280160503E-003
   6.4890237378276011E-002  -1.9812817722997478E-002   1.5165193394331145E-002
   6.2710092859028232E-002  -1.9131437443190236E-002   1.4463564027304698E-002
   6.0529948339780482E-002  -1.8300422314880133E-002   1.4249269303234141E-002
   5.8349803820532717E-002  -1.7319772338067078E-002   1.4522309222119265E-002
   5.6169659301284924E-002  -1.6189487512751288E-002   1.5282683783960360E-002
   6.0178550807273939E-002  -1.8432932939831059E-002   2.2330271835784413E-002
   5.8342481002993510E-002  -1.7791318579910842E-002   2.1764498392321571E-002
   5.6506411198713080E-002  -1.7019277667548613E-002   2.1399539735837421E-002
   5.4670341394432623E-002  -1.6116810202743994E-002   2.1235395866332132E-002
   5.2834271590152214E-002  -1.5083916185497093E-002   2.1272066783805568E-002
   5.5605949387351306E-002  -1.7053048156664752E-002   2.9465188505380990E-002
   5.3827434442061173E-002  -1.6451199716631559E-002   2.9016062689420974E-002
   5.2048919496770985E-002  -1.5738133020216885E-002   2.8481231804462687E-002
   5.0270404551480824E-002  -1.4913848067420552E-002   2.7860695850506143E-002
   4.8491889606190663E-002  -1.3978344858242953E-002   2.7154454827551244E-002
   5.9819451905064103E-002  -1.8400630167259902E-002   2.9829329159724027E-003
   5.9990370972581308E-002  -1.7227902454399424E-002   5.5137284803090658E-003
   6.0161290040098514E-002  -1.6547903639349493E-002   5.2472325006381881E-003
   6.0332209107615692E-002  -1.6360633722111065E-002   2.1834449769600472E-003
   6.0503128175132925E-002  -1.6666092702684043E-002  -3.6776340907258565E-003
   5.8498052739588968E-002  -1.7295058840005373E-002   9.1863058280160503E-003
   5.6343984207598563E-002  -1.6174765774233379E-002   1.0744242475223154E-002
   5.4189915675608186E-002  -1.5438080988251335E-002   1.0449495467423020E-002
   5.2035847143617767E-002  -1.5085004482057754E-002   8.3020648046149559E-003
   4.9881778611627459E-002  -1.5115536255653872E-002   4.3019504867982672E-003
   5.6169659301284924E-002  -1.6189487512751288E-002   1.5282683783960360E-002
   5.2635211058786546E-002  -1.5121629094067945E-002   1.5976882132060360E-002
   4.9100762816288154E-002  -1.4328258337151928E-002   1.5763004714151901E-002
   4.5566314573789728E-002  -1.3809375242003936E-002   1.4641051530234983E-002
   4.2031866331291412E-002  -1.3564979808623479E-002   1.2611022580310105E-002
   5.2834271590152214E-002  -1.5083916185497093E-002   2.1272066783805568E-002
   4.8864051526145355E-002  -1.4068492413902206E-002   2.1211647450819576E-002
   4.4893831462138531E-002  -1.3218435686053034E-002   2.1187760240824791E-002
   4.0923611398131554E-002  -1.2533746001950039E-002   2.1200405153821451E-002
   3.6953391334124772E-002  -1.2014423361593196E-002   2.1249582189809213E-002
   4.8491889606190663E-002  -1.3978344858242953E-002   2.7154454827551244E-002
   4.5030505609674920E-002  -1.3015355733736522E-002   2.6448538431500912E-002
   4.1569121613159205E-002  -1.2108613034954266E-002   2.6723762047441785E-002
   3.8107737616643503E-002  -1.1258116761896506E-002   2.7980125675373266E-002
   3.4646353620127690E-002  -1.0463866914562914E-002   3.0217629315295813E-002
   9.0360274924342898E-002   0.0000000000000000        4.9835240610371936E-002
   9.3961656332908206E-002  -5.4004407986563878E-003   5.3210168571724462E-002
   9.7563037741473513E-002  -1.0667178609858222E-002   5.4967014904265192E-002
  0.10116441915003882       -1.5800213433605499E-002   5.5105779607994135E-002
  0.10476580055860414       -2.0799545269898224E-002   5.3626462682911304E-002
   8.2423058762327611E-002   0.0000000000000000        4.4788316105826328E-002
   8.4635181972562548E-002  -4.5721926860294738E-003   4.8270038265284393E-002
   8.6847305182797499E-002  -9.0356573107028028E-003   5.0591325656893532E-002
   8.9059428393032436E-002  -1.3390393874019994E-002   5.1752178280653698E-002
   9.1271551603267387E-002  -1.7636402375981030E-002   5.1752596136564959E-002
   7.4242597843531086E-002   0.0000000000000000        4.0582127176956848E-002
   7.5523109716398515E-002  -3.7439445734025610E-003   4.4145668608422034E-002
   7.6803621589265944E-002  -7.4041360115473884E-003   4.7006422133001123E-002
   7.8084133462133387E-002  -1.0980574314434489E-002   4.9164387750694163E-002
   7.9364645335000802E-002  -1.4473259482063849E-002   5.0619565461501079E-002
   6.5818892167953308E-002   0.0000000000000000        3.7216673823763480E-002
   6.6625439564416092E-002  -2.9156964607756465E-003   4.0837059601137378E-002
   6.7431986960878876E-002  -5.7726147123919750E-003   4.4212304332588034E-002
   6.8238534357341646E-002  -8.5707547548489818E-003   4.7342408018115463E-002
   6.9045081753804416E-002  -1.1310116588146671E-002   5.0227370657719671E-002
   5.7151941735594312E-002   0.0000000000000000        3.4691956046246232E-002
   5.7942171516615279E-002  -2.0874483481487342E-003   3.8344211243430432E-002
   5.8732401297636246E-002  -4.1410934132365563E-003   4.2208972255654252E-002
   5.9522631078657212E-002  -6.1609351952634818E-003   4.6286239082917680E-002
   6.0312860859678186E-002  -8.1469736942294813E-003   5.0576011725220749E-002
  0.10476580055860414       -2.0799545269898224E-002   5.3626462682911304E-002
  0.10211206137025702       -2.4946389862227393E-002   4.5643385597339256E-002
   9.9458322181909933E-002  -2.7521962954084052E-002   3.9346086079616295E-002
   9.6804582993562802E-002  -2.8526264545468163E-002   3.4734564129742573E-002
   9.4150843805215698E-002  -2.7959294636379764E-002   3.1808819747717959E-002
   9.1271551603267387E-002  -1.7636402375981030E-002   5.1752596136564959E-002
   9.0066625527299979E-002  -2.1215178401575885E-002   4.6518401478517983E-002
   8.8861699451332571E-002  -2.3568217535794501E-002   4.2496055477381195E-002
   8.7656773375365149E-002  -2.4695519778636869E-002   3.9685558133154622E-002
   8.6451847299397741E-002  -2.4597085130103002E-002   3.8086909445838348E-002
   7.9364645335000802E-002  -1.4473259482063849E-002   5.0619565461501079E-002
   7.9134603460474157E-002  -1.7483966940924373E-002   4.7788718621882893E-002
   7.8904561585947511E-002  -1.9614472117504941E-002   4.5695791528235982E-002
   7.8674519711420837E-002  -2.0864775011805572E-002   4.4340784180560366E-002
   7.8444477836894219E-002  -2.1234875623826248E-002   4.3723696578856081E-002
   6.9045081753804416E-002  -1.1310116588146671E-002   5.0227370657719671E-002
   6.9315995169779585E-002  -1.3752755480272862E-002   4.9454337027433994E-002
   6.9586908585754753E-002  -1.5660726699215390E-002   4.8945294232180664E-002
   6.9857822001729936E-002  -1.7034030244974269E-002   4.8700242271959703E-002
   7.0128735417705090E-002  -1.7872666117549476E-002   4.8719181146771109E-002
   6.0312860859678186E-002  -8.1469736942294813E-003   5.0576011725220749E-002
   6.0610800655216242E-002  -1.0021544019621350E-002   5.1515256695171291E-002
   6.0908740450754305E-002  -1.1706981280925840E-002   5.2244563589215261E-002
   6.1206680246292347E-002  -1.3203285478142968E-002   5.2763932407352651E-002
   6.1504620041830417E-002  -1.4510456611272725E-002   5.3073363149583420E-002
   9.4150843805215698E-002  -2.7959294636379764E-002   3.1808819747717959E-002
   9.1752710714069374E-002  -2.6751679182175407E-002   3.1247847752687810E-002
   8.9354577622923065E-002  -2.5834044138211842E-002   3.0784004458667934E-002
   8.6956444531776728E-002  -2.5206389504488894E-002   3.0417289865658347E-002
   8.4558311440630390E-002  -2.4868715281006620E-002   3.0147703973658985E-002
   8.6451847299397741E-002  -2.4597085130103002E-002   3.8086909445838348E-002
   8.4194309732983114E-002  -2.3944824847564817E-002   3.7056998301039937E-002
   8.1936772166568500E-002  -2.3410650188394173E-002   3.6211149504694617E-002
   7.9679234600153900E-002  -2.2994561152591075E-002   3.5549363056802473E-002
   7.7421697033739287E-002  -2.2696557740155554E-002   3.5071638957363482E-002
   7.8444477836894219E-002  -2.1234875623826248E-002   4.3723696578856081E-002
   7.6414469442654148E-002  -2.1137970512954168E-002   4.2396741071162466E-002
   7.4384461048414105E-002  -2.0987256238576522E-002   4.1340781559364922E-002
   7.2354452654174048E-002  -2.0782732800693315E-002   4.0555818043463379E-002
   7.0324444259934032E-002  -2.0524400199304529E-002   4.0041850523457809E-002
   7.0128735417705090E-002  -1.7872666117549476E-002   4.8719181146771109E-002
   6.8413189843082464E-002  -1.8331116178343529E-002   4.7267076063055496E-002
   6.6697644268459838E-002  -1.8563862288758861E-002   4.6172900622678752E-002
   6.4982098693837198E-002  -1.8570904448795545E-002   4.5436654825640889E-002
   6.3266553119214586E-002  -1.8352242658453470E-002   4.5058338671941901E-002
   6.1504620041830417E-002  -1.4510456611272725E-002   5.3073363149583420E-002
   6.0190470934268075E-002  -1.5524261843732918E-002   5.1668003276718950E-002
   5.8876321826705727E-002  -1.6140468338941200E-002   5.0707506694636223E-002
   5.7562172719143385E-002  -1.6359076096897761E-002   5.0191873403335210E-002
   5.6248023611581044E-002  -1.6180085117602439E-002   5.0121103402815809E-002
   8.4558311440630390E-002  -2.4868715281006620E-002   3.0147703973658985E-002
   8.2216486070848860E-002  -2.4588922166917271E-002   2.9398508465415973E-002
   7.9874660701067315E-002  -2.4134910861373204E-002   2.8885984388156954E-002
   7.7532835331285799E-002  -2.3506681364374338E-002   2.8610131741882296E-002
   7.5191009961504213E-002  -2.2704233675920699E-002   2.8570950526591976E-002
   7.7421697033739287E-002  -2.2696557740155554E-002   3.5071638957363482E-002
   7.5308561983545672E-002  -2.2395357391857718E-002   3.4503172814083369E-002
   7.3195426933352098E-002  -2.1969677548467709E-002   3.4155415878994885E-002
   7.1082291883158510E-002  -2.1419518209985472E-002   3.4028368152098115E-002
   6.8969156832964909E-002  -2.0744879376411118E-002   3.4122029633393045E-002
   7.0324444259934032E-002  -2.0524400199304529E-002   4.0041850523457809E-002
   6.8424037306535776E-002  -2.0201792616798164E-002   3.9604375048778145E-002
   6.6523630353137519E-002  -1.9804444235562213E-002   3.9371646559497528E-002
   6.4623223399739277E-002  -1.9332355055596689E-002   3.9343665055615956E-002
   6.2722816446341034E-002  -1.8785525076901524E-002   3.9520430537133437E-002
   6.3266553119214586E-002  -1.8352242658453470E-002   4.5058338671941901E-002
   6.1562912039819104E-002  -1.8008227841738556E-002   4.4702115169500192E-002
   5.9859270960423622E-002  -1.7639210922656745E-002   4.4534676429664750E-002
   5.8155629881028133E-002  -1.7245191901207824E-002   4.4556022452435902E-002
   5.6451988801632658E-002  -1.6826170777391979E-002   4.4766153237813439E-002
   5.6248023611581044E-002  -1.6180085117602439E-002   5.0121103402815809E-002
   5.4725186183395710E-002  -1.5814663066679030E-002   4.9796393176249260E-002
   5.3202348755210377E-002  -1.5473977609751215E-002   4.9644505489496560E-002
   5.1679511327025029E-002  -1.5158028746819025E-002   4.9665440342557800E-002
   5.0156673898839682E-002  -1.4866816477882377E-002   4.9859197735432792E-002
   7.5191009961504213E-002  -2.2704233675920699E-002   2.8570950526591976E-002
   7.2817999150649099E-002  -2.1839009198286949E-002   2.8260054407703239E-002
   7.0444988339793971E-002  -2.1022449333747882E-002   2.8164446714175465E-002
   6.8071977528938815E-002  -2.0254554082303651E-002   2.8284127446008618E-002
   6.5698966718083673E-002  -1.9535323443953923E-002   2.8619096603202998E-002
   6.8969156832964909E-002  -2.0744879376411118E-002   3.4122029633393045E-002
   6.6811449904109962E-002  -2.0017681541504628E-002   3.3752648660297688E-002
   6.4653742975255030E-002  -1.9309845199026079E-002   3.3598587025841682E-002
   6.2496036046400055E-002  -1.8621370348975614E-002   3.3659844730025174E-002
   6.0338329117545136E-002  -1.7952256991353166E-002   3.3936421772847891E-002
   6.2722816446341034E-002  -1.8785525076901524E-002   3.9520430537133437E-002
   6.0780444312764727E-002  -1.8196353884722259E-002   3.9121867830498189E-002
   5.8838072179188350E-002  -1.7597241064304280E-002   3.8938655375780548E-002
   5.6895700045612035E-002  -1.6988186615647636E-002   3.8970793172980911E-002
   5.4953327912035693E-002  -1.6369190538752298E-002   3.9218281222098930E-002
   5.6451988801632658E-002  -1.6826170777391979E-002   4.4766153237813439E-002
   5.4724982376613357E-002  -1.6375026227939887E-002   4.4367711918304797E-002
   5.2997975951594070E-002  -1.5884636929582453E-002   4.4184651763992389E-002
   5.1270969526574776E-002  -1.5355002882319628E-002   4.4216972774876240E-002
   4.9543963101555538E-002  -1.4786124086151542E-002   4.4464674950956407E-002
   5.0156673898839682E-002  -1.4866816477882377E-002   4.9859197735432792E-002
   4.8645064095655888E-002  -1.4553698571157542E-002   4.9490180923717542E-002
   4.7133454292472080E-002  -1.4172032794860685E-002   4.9336576190476947E-002
   4.5621844489288292E-002  -1.3721819148991636E-002   4.9398383535711111E-002
   4.4110234686104477E-002  -1.3203057633550619E-002   4.9675602959419918E-002
   6.5698966718083673E-002  -1.9535323443953923E-002   2.8619096603202998E-002
   6.3175712385400595E-002  -1.8859007489646584E-002   2.8513595721121221E-002
   6.0652458052717517E-002  -1.8219856290329392E-002   2.8619444077456674E-002
   5.8129203720034384E-002  -1.7617869846001968E-002   2.8936641672209981E-002
   5.5605949387351306E-002  -1.7053048156664752E-002   2.9465188505380990E-002
   6.0338329117545136E-002  -1.7952256991353166E-002   3.3936421772847891E-002
   5.8022168452344328E-002  -1.7308581146035631E-002   3.3767962571273999E-002
   5.5706007787143588E-002  -1.6696418832900420E-002   3.3802341466247082E-002
   5.3389847121942863E-002  -1.6115770051947174E-002   3.4039558457767211E-002
   5.1073686456742096E-002  -1.5566634803175994E-002   3.4479613545834342E-002
   5.4953327912035693E-002  -1.6369190538752298E-002   3.9218281222098930E-002
   5.2835749772446747E-002  -1.5758154802424734E-002   3.8992514923840857E-002
   5.0718171632857828E-002  -1.5172981375471399E-002   3.8961075580259193E-002
   4.8600593493268923E-002  -1.4613670257892215E-002   3.9123963191354055E-002
   4.6483015353679977E-002  -1.4080221449687291E-002   3.9481177757125605E-002
   4.9543963101555538E-002  -1.4786124086151542E-002   4.4464674950956407E-002
   4.7616456345707867E-002  -1.4207728458813726E-002   4.4187252778821920E-002
   4.5688949589860257E-002  -1.3649543918042375E-002   4.4095646419493414E-002
   4.3761442834012600E-002  -1.3111570463837215E-002   4.4189855872970966E-002
   4.1833936078164977E-002  -1.2593808096198478E-002   4.4469881139254347E-002
   4.4110234686104477E-002  -1.3203057633550619E-002   4.9675602959419918E-002
   4.2364288172127632E-002  -1.2657302115202884E-002   4.9352176136216896E-002
   4.0618341658150786E-002  -1.2126106460613406E-002   4.9206053983949449E-002
   3.8872395144173941E-002  -1.1609470669782462E-002   4.9237236502617562E-002
   3.7126448630197095E-002  -1.1107394742709831E-002   4.9445723692221166E-002
   5.5605949387351306E-002  -1.7053048156664752E-002   2.9465188505380990E-002
   5.3827434442061173E-002  -1.6451199716631559E-002   2.9016062689420974E-002
   5.2048919496770985E-002  -1.5738133020216885E-002   2.8481231804462687E-002
   5.0270404551480824E-002  -1.4913848067420552E-002   2.7860695850506143E-002
   4.8491889606190663E-002  -1.3978344858242953E-002   2.7154454827551244E-002
   5.1073686456742096E-002  -1.5566634803175994E-002   3.4479613545834342E-002
   4.9248747940750959E-002  -1.4991088173297001E-002   3.4109138331108541E-002
   4.7423809424759808E-002  -1.4331205249019915E-002   3.3731521043978946E-002
   4.5598870908768747E-002  -1.3586986030345093E-002   3.3346761684446002E-002
   4.3773932392777604E-002  -1.2758430517272434E-002   3.2954860252509321E-002
   4.6483015353679977E-002  -1.4080221449687291E-002   3.9481177757125605E-002
   4.4690216263582605E-002  -1.3530976629962277E-002   3.9162471181650227E-002
   4.2897417173485164E-002  -1.2924277477823105E-002   3.8915185530365874E-002
   4.1104618083387730E-002  -1.2260123993269633E-002   3.8739320803272650E-002
   3.9311818993290351E-002  -1.1538516176301999E-002   3.8634877000370341E-002
   4.1833936078164977E-002  -1.2593808096198478E-002   4.4469881139254347E-002
   4.0151839410555924E-002  -1.2070865086627525E-002   4.4176061241045922E-002
   3.8469742742946844E-002  -1.1517349706626160E-002   4.4032225263623034E-002
   3.6787646075337820E-002  -1.0933261956194117E-002   4.4038373206985851E-002
   3.5105549407728712E-002  -1.0318601835331467E-002   4.4194505071134635E-002
   3.7126448630197095E-002  -1.1107394742709831E-002   4.9445723692221166E-002
   3.5633617381671034E-002  -1.0610753543292994E-002   4.9149908509295792E-002
   3.4140786133145029E-002  -1.0110421935429256E-002   4.9082640243750947E-002
   3.2647954884618982E-002  -9.6063999191186404E-003   4.9243918895586228E-002
   3.1155123636092935E-002  -9.0986874943611018E-003   4.9633744464801788E-002
   4.8491889606190663E-002  -1.3978344858242953E-002   2.7154454827551244E-002
   4.5030505609674920E-002  -1.3015355733736522E-002   2.6448538431500912E-002
   4.1569121613159205E-002  -1.2108613034954266E-002   2.6723762047441785E-002
   3.8107737616643503E-002  -1.1258116761896506E-002   2.7980125675373266E-002
   3.4646353620127690E-002  -1.0463866914562914E-002   3.0217629315295813E-002
   4.3773932392777604E-002  -1.2758430517272434E-002   3.2954860252509321E-002
   4.1157424209240984E-002  -1.1912300460741404E-002   3.2315806654770268E-002
   3.8540916025704461E-002  -1.1115357611691454E-002   3.2385364670998756E-002
   3.5924407842167820E-002  -1.0367601970122760E-002   3.3163534301194578E-002
   3.3307899658631235E-002  -9.6690335360353208E-003   3.4650315545357357E-002
   3.9311818993290351E-002  -1.1538516176301999E-002   3.8634877000370341E-002
   3.7267658224709344E-002  -1.0809245187746314E-002   3.8069745419185799E-002
   3.5223497456128287E-002  -1.0122102188428524E-002   3.7940697053944920E-002
   3.3179336687547342E-002  -9.4770871783491240E-003   3.8247731904648030E-002
   3.1135175918966224E-002  -8.8742001575077278E-003   3.8990849971295038E-002
   3.5105549407728712E-002  -1.0318601835331467E-002   4.4194505071134635E-002
   3.3361207656079798E-002  -9.7061899147512093E-003   4.3710354724747463E-002
   3.1616865904430934E-002  -9.1288467651658746E-003   4.3389759196280547E-002
   2.9872524152782024E-002  -8.5865723865754320E-003   4.3232718485734102E-002
   2.8128182401133156E-002  -8.0793667789801349E-003   4.3239232593107635E-002
   3.1155123636092935E-002  -9.0986874943611018E-003   4.9633744464801788E-002
   2.9438072503352591E-002  -8.6031346417561050E-003   4.9237634571455191E-002
   2.7721021370612234E-002  -8.1355913419027398E-003   4.8732551098005422E-002
   2.6003970237871911E-002  -7.6960575948017869E-003   4.8118494044452273E-002
   2.4286919105131533E-002  -7.2845334004525419E-003   4.7395463410796035E-002
   5.7151941735594312E-002   0.0000000000000000        3.4691956046246232E-002
   5.7942171516615279E-002  -2.0874483481487342E-003   3.8344211243430432E-002
   5.8732401297636246E-002  -4.1410934132365563E-003   4.2208972255654252E-002
   5.9522631078657212E-002  -6.1609351952634818E-003   4.6286239082917680E-002
   6.0312860859678186E-002  -8.1469736942294813E-003   5.0576011725220749E-002
   4.8653034204628090E-002   0.0000000000000000        3.2787102828204122E-002
   4.9590816968913182E-002  -1.7114378093501239E-003   3.6964556031765010E-002
   5.0528599733198280E-002  -3.4350383445904322E-003   4.1224609386814499E-002
   5.1466382497483372E-002  -5.1708016057209309E-003   4.5567262893352646E-002
   5.2404165261768464E-002  -6.9187275927416088E-003   4.9992516551379415E-002
   4.0733457233228673E-002   0.0000000000000000        3.1281243153436174E-002
   4.1688887317226905E-002  -1.3354272705515154E-003   3.5937928354422638E-002
   4.2644317401225137E-002  -2.7289832759443073E-003   4.0547308043346733E-002
   4.3599747485223356E-002  -4.1806680161783818E-003   4.5109382220208473E-002
   4.4555177569221595E-002  -5.6904814912537328E-003   4.9624150885007864E-002
   3.3393210821396069E-002   0.0000000000000000        3.0174377021942374E-002
   3.4236382561556450E-002  -9.5941673175290593E-004   3.5264328211403323E-002
   3.5079554301716831E-002  -2.0229282072981836E-003   4.0177068225250918E-002
   3.5922726041877205E-002  -3.1905344266358352E-003   4.4912597063485167E-002
   3.6765897782037579E-002  -4.4622353897658569E-003   4.9470914726106069E-002
   2.6632294969130277E-002   0.0000000000000000        2.9466504433722736E-002
   2.7233302701901815E-002  -5.8340619295429649E-004   3.4943755602707079E-002
   2.7834310434673350E-002  -1.3168731386520565E-003   4.0113889932527076E-002
   2.8435318167444892E-002  -2.2004008370932852E-003   4.4976907423182749E-002
   2.9036325900216424E-002  -3.2339892882779818E-003   4.9532808074674084E-002
   6.0312860859678186E-002  -8.1469736942294813E-003   5.0576011725220749E-002
   6.0610800655216242E-002  -1.0021544019621350E-002   5.1515256695171291E-002
   6.0908740450754305E-002  -1.1706981280925840E-002   5.2244563589215261E-002
   6.1206680246292347E-002  -1.3203285478142968E-002   5.2763932407352651E-002
   6.1504620041830417E-002  -1.4510456611272725E-002   5.3073363149583420E-002
   5.2404165261768464E-002  -6.9187275927416088E-003   4.9992516551379415E-002
   5.2530604543849765E-002  -8.5799990255765943E-003   5.1217209438317091E-002
   5.2657043825931067E-002  -1.0055798624150021E-002   5.2308839374247816E-002
   5.2783483108012369E-002  -1.1346126388461891E-002   5.3267406359171661E-002
   5.2909922390093664E-002  -1.2450982318512195E-002   5.4092910393088500E-002
   4.4555177569221595E-002  -5.6904814912537328E-003   4.9624150885007864E-002
   4.4586991462745779E-002  -7.1384540315318473E-003   5.1130630459106867E-002
   4.4618805356269983E-002  -8.4046159673742109E-003   5.2580922207098597E-002
   4.4650619249794160E-002  -9.4889672987808153E-003   5.3975026128983000E-002
   4.4682433143318365E-002  -1.0391508025751669E-002   5.5312942224760173E-002
   3.6765897782037579E-002  -4.4622353897658569E-003   4.9470914726106069E-002
   3.6779961411904302E-002  -5.6969090374870959E-003   5.1255519757540620E-002
   3.6794025041771025E-002  -6.7534333105983982E-003   5.3060812087767514E-002
   3.6808088671637741E-002  -7.6318082090997249E-003   5.4886791716786759E-002
   3.6822152301504471E-002  -8.3320337329911478E-003   5.6733458644598334E-002
   2.9036325900216424E-002  -3.2339892882779818E-003   4.9532808074674084E-002
   2.9109514391325322E-002  -4.2553640434423454E-003   5.1591877333618336E-002
   2.9182702882434210E-002  -5.1022506538225621E-003   5.3748509016254602E-002
   2.9255891373543105E-002  -5.7746491194186605E-003   5.6002703122582875E-002
   2.9329079864651997E-002  -6.2725594402306128E-003   5.8354459652603066E-002
   6.1504620041830417E-002  -1.4510456611272725E-002   5.3073363149583420E-002
   6.0190470934268075E-002  -1.5524261843732918E-002   5.1668003276718950E-002
   5.8876321826705727E-002  -1.6140468338941200E-002   5.0707506694636223E-002
   5.7562172719143385E-002  -1.6359076096897761E-002   5.0191873403335210E-002
   5.6248023611581044E-002  -1.6180085117602439E-002   5.0121103402815809E-002
   5.2909922390093664E-002  -1.2450982318512195E-002   5.4092910393088500E-002
   5.1989859863452587E-002  -1.3307089529117945E-002   5.3358794386264681E-002
   5.1069797336811502E-002  -1.3851171135096213E-002   5.2967988250501703E-002
   5.0149734810170432E-002  -1.4083227136446991E-002   5.2920491985799574E-002
   4.9229672283529341E-002  -1.4003257533170277E-002   5.3216305592158133E-002
   4.4682433143318365E-002  -1.0391508025751669E-002   5.5312942224760173E-002
   4.4054903777877644E-002  -1.1089917214503068E-002   5.5164496951352636E-002
   4.3427374412436937E-002  -1.1561873931251229E-002   5.5257808129285074E-002
   4.2799845046996222E-002  -1.1807378175996235E-002   5.5592875758557446E-002
   4.2172315681555508E-002  -1.1826429948738060E-002   5.6169699839169730E-002
   3.6822152301504471E-002  -8.3320337329911478E-003   5.6733458644598334E-002
   3.6385602677543233E-002  -8.8727448998881416E-003   5.7085110971982815E-002
   3.5949053053582002E-002  -9.2725767274062301E-003   5.7576966330986419E-002
   3.5512503429620784E-002  -9.5315292155454794E-003   5.8209024721609007E-002
   3.5075953805659546E-002  -9.6496023643058704E-003   5.8981286143850606E-002
   2.9329079864651997E-002  -6.2725594402306128E-003   5.8354459652603066E-002
   2.8981956562449358E-002  -6.6555725852732103E-003   5.9120636448155274E-002
   2.8634833260246725E-002  -6.9832795235612657E-003   5.9925462855605641E-002
   2.8287709958044086E-002  -7.2556802550947184E-003   6.0768938874954152E-002
   2.7940586655841454E-002  -7.4727747798736810E-003   6.1651064506200809E-002
   5.6248023611581044E-002  -1.6180085117602439E-002   5.0121103402815809E-002
   5.4725186183395710E-002  -1.5814663066679030E-002   4.9796393176249260E-002
   5.3202348755210377E-002  -1.5473977609751215E-002   4.9644505489496560E-002
   5.1679511327025029E-002  -1.5158028746819025E-002   4.9665440342557800E-002
   5.0156673898839682E-002  -1.4866816477882377E-002   4.9859197735432792E-002
   4.9229672283529341E-002  -1.4003257533170277E-002   5.3216305592158133E-002
   4.7887280531771041E-002  -1.3762390591388514E-002   5.2852729467476094E-002
   4.6544888780012734E-002  -1.3511754577224318E-002   5.2677222155834216E-002
   4.5202497028254435E-002  -1.3251349490677621E-002   5.2689783657232543E-002
   4.3860105276496128E-002  -1.2981175331748446E-002   5.2890413971671046E-002
   4.2172315681555508E-002  -1.1826429948738060E-002   5.6169699839169730E-002
   4.1025615879450569E-002  -1.1710118116097970E-002   5.5801763482750226E-002
   3.9878916077345644E-002  -1.1549531544697397E-002   5.5637142212597218E-002
   3.8732216275240719E-002  -1.1344670234536218E-002   5.5675836028710873E-002
   3.7585516473135801E-002  -1.1095534185614500E-002   5.5917844931090928E-002
   3.5075953805659546E-002  -9.6496023643058704E-003   5.8981286143850606E-002
   3.4140192226434336E-002  -9.6578456408074539E-003   5.8643495222071768E-002
   3.3204430647209141E-002  -9.5873085121704598E-003   5.8524265659785753E-002
   3.2268669067983917E-002  -9.4379909783948272E-003   5.8623597456992659E-002
   3.1332907488758721E-002  -9.2098930394806031E-003   5.8941490613692485E-002
   2.7940586655841454E-002  -7.4727747798736810E-003   6.1651064506200809E-002
   2.7231009572722314E-002  -7.6055731655168962E-003   6.1377924685440621E-002
   2.6521432489603175E-002  -7.6250854796435855E-003   6.1338592497399702E-002
   2.5811855406484025E-002  -7.5313117222534382E-003   6.1533067942077961E-002
   2.5102278323364896E-002  -7.3242518933465950E-003   6.1961351019475447E-002
   5.0156673898839682E-002  -1.4866816477882377E-002   4.9859197735432792E-002
   4.8645064095655888E-002  -1.4553698571157542E-002   4.9490180923717542E-002
   4.7133454292472080E-002  -1.4172032794860685E-002   4.9336576190476947E-002
   4.5621844489288292E-002  -1.3721819148991636E-002   4.9398383535711111E-002
   4.4110234686104477E-002  -1.3203057633550619E-002   4.9675602959419918E-002
   4.3860105276496128E-002  -1.2981175331748446E-002   5.2890413971671046E-002
   4.2556425114714296E-002  -1.2683753285230526E-002   5.2592531828049904E-002
   4.1252744952932477E-002  -1.2341604535917587E-002   5.2495096888757989E-002
   3.9949064791150651E-002  -1.1954729083809580E-002   5.2598109153795362E-002
   3.8645384629368770E-002  -1.1523126928906557E-002   5.2901568623162032E-002
   3.7585516473135801E-002  -1.1095534185614500E-002   5.5917844931090928E-002
   3.6474801078610508E-002  -1.0813807999303524E-002   5.5667276288786836E-002
   3.5364085684085250E-002  -1.0511176276974513E-002   5.5602189976666647E-002
   3.4253370289559985E-002  -1.0187639018627466E-002   5.5722585994730262E-002
   3.3142654895034693E-002  -9.8431962242624127E-003   5.6028464342977674E-002
   3.1332907488758721E-002  -9.2098930394806031E-003   5.8941490613692485E-002
   3.0400191987344553E-002  -8.9438627133764867E-003   5.8714414305928345E-002
   2.9467476485930413E-002  -8.6807480180313996E-003   5.8657855454202802E-002
   2.8534760984516270E-002  -8.4205489534453538E-003   5.8771814058515573E-002
   2.7602045483102081E-002  -8.1632655196182263E-003   5.9056290118866650E-002
   2.5102278323364896E-002  -7.3242518933465950E-003   6.1961351019475447E-002
   2.4332597840916431E-002  -7.0739174274495054E-003   6.1733945879474506E-002
   2.3562917358467973E-002  -6.8503197590883205E-003   6.1662093321366504E-002
   2.2793236876019519E-002  -6.6534588882632782E-003   6.1745793345151422E-002
   2.2023556393571064E-002  -6.4833348149741510E-003   6.1985045950829376E-002
   4.4110234686104477E-002  -1.3203057633550619E-002   4.9675602959419918E-002
   4.2364288172127632E-002  -1.2657302115202884E-002   4.9352176136216896E-002
   4.0618341658150786E-002  -1.2126106460613406E-002   4.9206053983949449E-002
   3.8872395144173941E-002  -1.1609470669782462E-002   4.9237236502617562E-002
   3.7126448630197095E-002  -1.1107394742709831E-002   4.9445723692221166E-002
   3.8645384629368770E-002  -1.1523126928906557E-002   5.2901568623162032E-002
   3.7086025755526983E-002  -1.1068858752085325E-002   5.2542567830201420E-002
   3.5526666881685175E-002  -1.0613985234223300E-002   5.2379437646575294E-002
   3.3967308007843366E-002  -1.0158506375320092E-002   5.2412178072283794E-002
   3.2407949134001510E-002  -9.7024221753757578E-003   5.2640789107326724E-002
   3.3142654895034693E-002  -9.8431962242624127E-003   5.6028464342977674E-002
   3.1788449599726890E-002  -9.4804153889680443E-003   5.5649054785058799E-002
   3.0434244304419107E-002  -9.1018640078331936E-003   5.5484081774873600E-002
   2.9080039009111287E-002  -8.7075420808577220E-003   5.5533545312421731E-002
   2.7725833713803522E-002  -8.2974496080417959E-003   5.5797445397703579E-002
   2.7602045483102081E-002  -8.1632655196182263E-003   5.9056290118866650E-002
   2.6471559704727331E-002  -7.8919720258506243E-003   5.8671637000789298E-002
   2.5341073926352556E-002  -7.5897427814431428E-003   5.8519986368844243E-002
   2.4210588147977784E-002  -7.2565777863953518E-003   5.8601338223031790E-002
   2.3080102369602999E-002  -6.8924770407077229E-003   5.8915692563351815E-002
   2.2023556393571064E-002  -6.4833348149741510E-003   6.1985045950829376E-002
   2.1135356070528299E-002  -6.3035286627332043E-003   6.1610314477392736E-002
   2.0247155747485548E-002  -6.0776215550529672E-003   6.1487151428487485E-002
   1.9358955424442797E-002  -5.8056134919330059E-003   6.1615556804113833E-002
   1.8470755101400033E-002  -5.4875044733738165E-003   6.1995530604271765E-002
   3.7126448630197095E-002  -1.1107394742709831E-002   4.9445723692221166E-002
   3.5633617381671034E-002  -1.0610753543292994E-002   4.9149908509295792E-002
   3.4140786133145029E-002  -1.0110421935429256E-002   4.9082640243750947E-002
   3.2647954884618982E-002  -9.6063999191186404E-003   4.9243918895586228E-002
   3.1155123636092935E-002  -9.0986874943611018E-003   4.9633744464801788E-002
   3.2407949134001510E-002  -9.7024221753757578E-003   5.2640789107326724E-002
   3.1138427166787372E-002  -9.2442151271833750E-003   5.2379785746281493E-002
   2.9868905199573255E-002  -8.7823677235353559E-003   5.2336854030479885E-002
   2.8599383232359114E-002  -8.3168799644322555E-003   5.2511993959921718E-002
   2.7329861265144986E-002  -7.8477518498735743E-003   5.2905205534607036E-002
   2.7725833713803522E-002  -8.2974496080417959E-003   5.5797445397703579E-002
   2.6669145755764359E-002  -7.8776767110737000E-003   5.5571203805547226E-002
   2.5612457797725210E-002  -7.4543135116416845E-003   5.5552558586497443E-002
   2.4555769839686062E-002  -7.0273600097457613E-003   5.5741509740554182E-002
   2.3499081881646934E-002  -6.5968162053859081E-003   5.6138057267717353E-002
   2.3080102369602999E-002  -6.8924770407077229E-003   5.8915692563351815E-002
   2.2225773148601958E-002  -6.5111382949639418E-003   5.8724162687092740E-002
   2.1371443927600941E-002  -6.1262592997479541E-003   5.8729753911803205E-002
   2.0517114706599913E-002  -5.7378400550594328E-003   5.8932466237483376E-002
   1.9662785485598883E-002  -5.3458805608983667E-003   5.9332299664133156E-002
   1.8470755101400033E-002  -5.4875044733738165E-003   6.1995530604271765E-002
   1.7808309345300213E-002  -5.1445998788544056E-003   6.1838662390918231E-002
   1.7145863589200394E-002  -4.7982050878541682E-003   6.1868440006397435E-002
   1.6483417833100561E-002  -4.4483201003729794E-003   6.2084863450709571E-002
   1.5820972077000756E-002  -4.0949449164107699E-003   6.2487932723854389E-002
   3.1155123636092935E-002  -9.0986874943611018E-003   4.9633744464801788E-002
   2.9438072503352591E-002  -8.6031346417561050E-003   4.9237634571455191E-002
   2.7721021370612234E-002  -8.1355913419027398E-003   4.8732551098005422E-002
   2.6003970237871911E-002  -7.6960575948017869E-003   4.8118494044452273E-002
   2.4286919105131533E-002  -7.2845334004525419E-003   4.7395463410796035E-002
   2.7329861265144986E-002  -7.8477518498735743E-003   5.2905205534607036E-002
   2.5572077842017912E-002  -7.3758481191219527E-003   5.2558770580516001E-002
   2.3814294418890859E-002  -6.9020335114393372E-003   5.2239844625754928E-002
   2.2056510995763768E-002  -6.4263080268266645E-003   5.1948427670323594E-002
   2.0298727572636732E-002  -5.9486716652830118E-003   5.1684519714221944E-002
   2.3499081881646934E-002  -6.5968162053859081E-003   5.6138057267717353E-002
   2.1837048747566111E-002  -6.1485615964876894E-003   5.5871217682564756E-002
   2.0175015613485284E-002  -5.6684756809760387E-003   5.5768369676174996E-002
   1.8512982479404493E-002  -5.1565584588513461E-003   5.5829513248547694E-002
   1.6850949345323593E-002  -4.6128099301133707E-003   5.6054648399683438E-002
   1.9662785485598883E-002  -5.3458805608983667E-003   5.9332299664133156E-002
   1.8232985219997215E-002  -4.9212750738533706E-003   5.9174975877601503E-002
   1.6803184954395541E-002  -4.4349178505127991E-003   5.9318126249265503E-002
   1.5373384688793868E-002  -3.8868088908760702E-003   5.9761750779125308E-002
   1.3943584423192195E-002  -3.2769481949437296E-003   6.0505849467180378E-002
   1.5820972077000756E-002  -4.0949449164107699E-003   6.2487932723854389E-002
   1.4759887259311183E-002  -3.6939885512192738E-003   6.2470045165626154E-002
   1.3698802441621652E-002  -3.2013600200491293E-003   6.2889114345026614E-002
   1.2637717623932114E-002  -2.6170593229008811E-003   6.3745140262055675E-002
   1.1576632806242548E-002  -1.9410864597741995E-003   6.5038122916713181E-002
   2.6632294969130277E-002   0.0000000000000000        2.9466504433722736E-002
   2.7233302701901815E-002  -5.8340619295429649E-004   3.4943755602707079E-002
   2.7834310434673350E-002  -1.3168731386520565E-003   4.0113889932527076E-002
   2.8435318167444892E-002  -2.2004008370932852E-003   4.4976907423182749E-002
   2.9036325900216424E-002  -3.2339892882779818E-003   4.9532808074674084E-002
   2.0114316304760262E-002   0.0000000000000000        2.9021527700495042E-002
   2.0447386111581079E-002  -4.3772371162881067E-004   3.4313325160790033E-002
   2.0780455918401899E-002  -9.8773954676959017E-004   3.9376363608347925E-002
   2.1113525725222713E-002  -1.6500475054223385E-003   4.4210643043168706E-002
   2.1446595532043533E-002  -2.4246475875870609E-003   4.8816163465252360E-002
   1.3502881456615002E-002   0.0000000000000000        2.8703349133977082E-002
   1.3646371163912327E-002  -2.9204123030332485E-004   3.3847461514814221E-002
   1.3789860871209654E-002  -6.5860595488712124E-004   3.8841172709341489E-002
   1.3933350578506979E-002  -1.0996941737513883E-003   4.3684482717558863E-002
   1.4076840285804306E-002  -1.6153058868961360E-003   4.8377391539466373E-002
   6.7979904246945012E-003   0.0000000000000000        2.8511968734168867E-002
   6.8302578588955616E-003  -1.4635874897783816E-004   3.3546164664779644E-002
   6.8625252930966212E-003  -3.2947236300465360E-004   3.8508317235507794E-002
   6.8947927272976816E-003  -5.4934084208044329E-004   4.3398426446353278E-002
   6.9270601614987437E-003  -8.0596418620521135E-004   4.8216492297316109E-002
  -3.5679100124190455E-007   0.0000000000000000        2.8447386501070385E-002
  -9.5380346922056131E-007  -6.7626765235320740E-007   3.3409434610686316E-002
  -1.5508159371985675E-006  -3.3877112218423655E-007   3.8377797186846821E-002
  -2.1478284051768990E-006   1.0124895905103820E-006   4.3352474229551893E-002
  -2.7448408731560979E-006   3.3775144857115663E-006   4.8333465738801547E-002
   2.9036325900216424E-002  -3.2339892882779818E-003   4.9532808074674084E-002
   2.9109514391325322E-002  -4.2553640434423454E-003   5.1591877333618336E-002
   2.9182702882434210E-002  -5.1022506538225621E-003   5.3748509016254602E-002
   2.9255891373543105E-002  -5.7746491194186605E-003   5.6002703122582875E-002
   2.9329079864651997E-002  -6.2725594402306128E-003   5.8354459652603066E-002
   2.1446595532043533E-002  -2.4246475875870609E-003   4.8816163465252360E-002
   2.1588391095782838E-002  -3.1902309629963728E-003   5.1218659335972160E-002
   2.1730186659522144E-002  -3.8254888013828812E-003   5.3660806928260828E-002
   2.1871982223261453E-002  -4.3304211027466065E-003   5.6142606242118288E-002
   2.2013777787000754E-002  -4.7050278670875620E-003   5.8664057277544611E-002
   1.4076840285804306E-002  -1.6153058868961360E-003   4.8377391539466373E-002
   1.4229332220050872E-002  -2.1250978825504007E-003   5.1079151414200399E-002
   1.4381824154297437E-002  -2.5487269489432069E-003   5.3762652308380066E-002
   1.4534316088544002E-002  -2.8861930860745724E-003   5.6427894222005455E-002
   1.4686808022790567E-002  -3.1374962939444972E-003   5.9074877155076526E-002
   6.9270601614987437E-003  -8.0596418620521135E-004   4.8216492297316109E-002
   7.0323377641294139E-003  -1.0599648021044179E-003   5.1173353568302979E-002
   7.1376153667600840E-003  -1.2719650965035223E-003   5.4054045156612378E-002
   7.2428929693907542E-003  -1.4419650694025318E-003   5.6858567062244313E-002
   7.3481705720214270E-003  -1.5699647208014256E-003   5.9586919285198763E-002
  -2.7448408731560979E-006   3.3775144857115663E-006   4.8333465738801547E-002
  -2.5922719815341284E-006   5.1682783415380254E-006   5.1501265798279933E-002
  -2.4397030899132432E-006   4.7967559361626784E-006   5.4534985472957716E-002
  -2.2871341982913821E-006   2.2629472695088722E-006   5.7434624762834847E-002
  -2.1345653066703885E-006  -2.4331476583816514E-006   6.0200183667911342E-002
   2.9329079864651997E-002  -6.2725594402306128E-003   5.8354459652603066E-002
   2.8981956562449358E-002  -6.6555725852732103E-003   5.9120636448155274E-002
   2.8634833260246725E-002  -6.9832795235612657E-003   5.9925462855605641E-002
   2.8287709958044086E-002  -7.2556802550947184E-003   6.0768938874954152E-002
   2.7940586655841454E-002  -7.4727747798736810E-003   6.1651064506200809E-002
   2.2013777787000754E-002  -4.7050278670875620E-003   5.8664057277544611E-002
   2.1717123600839775E-002  -4.9928870933217510E-003   5.9479623763654010E-002
   2.1420469414678785E-002  -5.2375767803652367E-003   6.0357478869948578E-002
   2.1123815228517809E-002  -5.4390969282180762E-003   6.1297622596428306E-002
   2.0827161042356820E-002  -5.5974475368801846E-003   6.2300054943093111E-002
   1.4686808022790567E-002  -3.1374962939444972E-003   5.9074877155076526E-002
   1.4464261960958232E-002  -3.3302016013702605E-003   5.9927696664179242E-002
   1.4241715899125899E-002  -3.4918740371692493E-003   6.0866443801754030E-002
   1.4019169837293559E-002  -3.6225136013413916E-003   6.1891118567801044E-002
   1.3796623775461220E-002  -3.7221202938867159E-003   6.3001720962320151E-002
   7.3481705720214270E-003  -1.5699647208014256E-003   5.9586919285198763E-002
   7.2233716428047401E-003  -1.6675161094187995E-003   6.0464855149730837E-002
   7.0985727135880507E-003  -1.7461712939732411E-003   6.1452357651022159E-002
   6.9737737843713656E-003  -1.8059302744647212E-003   6.2549426789072590E-002
   6.8489748551546726E-003  -1.8467930508932473E-003   6.3756062563882152E-002
  -2.1345653066703885E-006  -2.4331476583816514E-006   6.0200183667911342E-002
  -5.5473536207098148E-006  -4.8306174673107272E-006   6.1091099220309024E-002
  -8.9601419347492411E-006  -4.6855077723978455E-007   6.2115220417752859E-002
  -1.2372930248790402E-005   1.0653052411975159E-005   6.3272547260242812E-002
  -1.5785718562828094E-005   2.8534192100221345E-005   6.4563079747778973E-002
   2.7940586655841454E-002  -7.4727747798736810E-003   6.1651064506200809E-002
   2.7231009572722314E-002  -7.6055731655168962E-003   6.1377924685440621E-002
   2.6521432489603175E-002  -7.6250854796435855E-003   6.1338592497399702E-002
   2.5811855406484025E-002  -7.5313117222534382E-003   6.1533067942077961E-002
   2.5102278323364896E-002  -7.3242518933465950E-003   6.1961351019475447E-002
   2.0827161042356820E-002  -5.5974475368801846E-003   6.2300054943093111E-002
   2.0337132004500560E-002  -5.6948461473925599E-003   6.2191554145778330E-002
   1.9847102966644298E-002  -5.7135103007959834E-003   6.2288341806270180E-002
   1.9357073928788035E-002  -5.6534399970906164E-003   6.2590417924568473E-002
   1.8867044890931772E-002  -5.5146352362762663E-003   6.3097782500673327E-002
   1.3796623775461220E-002  -3.7221202938867159E-003   6.3001720962320151E-002
   1.3497623607955110E-002  -3.7841191292680917E-003   6.3023307574043091E-002
   1.3198623440449002E-002  -3.8019351219484611E-003   6.3221663468659817E-002
   1.2899623272942893E-002  -3.7755682719277242E-003   6.3596788646170327E-002
   1.2600623105436779E-002  -3.7050185792059237E-003   6.4148683106574622E-002
   6.8489748551546726E-003  -1.8467930508932473E-003   6.3756062563882152E-002
   6.7124843830859860E-003  -1.8733921111436895E-003   6.3873184970234878E-002
   6.5759939110172951E-003  -1.8903599431008573E-003   6.4138557484568717E-002
   6.4395034389486084E-003  -1.8976965467648256E-003   6.4552180106883614E-002
   6.3030129668799175E-003  -1.8954019221355603E-003   6.5114052837179526E-002
  -1.5785718562828094E-005   2.8534192100221345E-005   6.4563079747778973E-002
  -1.8285670106824026E-005   3.7334906980712734E-005   6.4741186334353759E-002
  -2.0785621650818223E-005   2.1215235746621652E-005   6.5039023853996833E-002
  -2.3285573194815889E-005  -1.9824821601979042E-005   6.5456592306708236E-002
  -2.5785524738808352E-005  -8.5785265065224658E-005   6.5993891692488066E-002
   2.5102278323364896E-002  -7.3242518933465950E-003   6.1961351019475447E-002
   2.4332597840916431E-002  -7.0739174274495054E-003   6.1733945879474506E-002
   2.3562917358467973E-002  -6.8503197590883205E-003   6.1662093321366504E-002
   2.2793236876019519E-002  -6.6534588882632782E-003   6.1745793345151422E-002
   2.2023556393571064E-002  -6.4833348149741510E-003   6.1985045950829376E-002
   1.8867044890931772E-002  -5.5146352362762663E-003   6.3097782500673327E-002
   1.8262962543719188E-002  -5.3427707576942790E-003   6.2829558651398595E-002
   1.7658880196506622E-002  -5.1835213006857228E-003   6.2736978490702755E-002
   1.7054797849294048E-002  -5.0368868652506532E-003   6.2820042018585570E-002
   1.6450715502081485E-002  -4.9028674513891257E-003   6.3078749235047332E-002
   1.2600623105436779E-002  -3.7050185792059237E-003   6.4148683106574622E-002
   1.2182230000145917E-002  -3.6116240879390804E-003   6.3853762323988761E-002
   1.1763836894855053E-002  -3.5167228422831494E-003   6.3754576336667548E-002
   1.1345443789564189E-002  -3.4203148422381939E-003   6.3851125144610860E-002
   1.0927050684273326E-002  -3.3224000878041837E-003   6.4143408747818889E-002
   6.3030129668799175E-003  -1.8954019221355603E-003   6.5114052837179526E-002
   6.0904002101965886E-003  -1.8804774181838541E-003   6.4806556897245030E-002
   5.8777874535132554E-003  -1.8499243838805083E-003   6.4714886859261023E-002
   5.6651746968299282E-003  -1.8037428192257351E-003   6.4839042723227394E-002
   5.4525619401465941E-003  -1.7419327242192834E-003   6.5179024489144324E-002
  -2.5785524738808352E-005  -8.5785265065224658E-005   6.5993891692488066E-002
  -1.2526826128782254E-005  -1.4933074842866934E-004   6.5687942371167457E-002
   7.3187248124211013E-007  -1.8312592547799905E-004   6.5617910058483095E-002
   1.3990571091263872E-005  -1.8717079621314268E-004   6.5783794754435049E-002
   2.7249269701292572E-005  -1.6146536063427197E-004   6.6185596459023333E-002
   2.2023556393571064E-002  -6.4833348149741510E-003   6.1985045950829376E-002
   2.1135356070528299E-002  -6.3035286627332043E-003   6.1610314477392736E-002
   2.0247155747485548E-002  -6.0776215550529672E-003   6.1487151428487485E-002
   1.9358955424442797E-002  -5.8056134919330059E-003   6.1615556804113833E-002
   1.8470755101400033E-002  -5.4875044733738165E-003   6.1995530604271765E-002
   1.6450715502081485E-002  -4.9028674513891257E-003   6.3078749235047332E-002
   1.5806523716934785E-002  -4.7608494098088094E-003   6.2782990564881819E-002
   1.5162331931788089E-002  -4.5902190912173874E-003   6.2723680545976823E-002
   1.4518140146641401E-002  -4.3909764956148352E-003   6.2900819178332582E-002
   1.3873948361494699E-002  -4.1631216230012535E-003   6.3314406461948858E-002
   1.0927050684273326E-002  -3.3224000878041837E-003   6.4143408747818889E-002
   1.0511747663751764E-002  -3.2181701568843035E-003   6.3909134202496248E-002
   1.0096444643230205E-002  -3.1028166273817590E-003   6.3896188535163267E-002
   9.6811416227086423E-003  -2.9763394992966107E-003   6.4104571745819919E-002
   9.2658386021870834E-003  -2.8387387726287738E-003   6.4534283834466299E-002
   5.4525619401465941E-003  -1.7419327242192834E-003   6.5179024489144324E-002
   5.2510279109792453E-003  -1.6754909039599364E-003   6.4988745390236052E-002
   5.0494938818118895E-003  -1.6154141635461826E-003   6.5004675396046471E-002
   4.8479598526445355E-003  -1.5617025029784131E-003   6.5226814506575609E-002
   4.6464258234771866E-003  -1.5143559222562802E-003   6.5655162721823521E-002
   2.7249269701292572E-005  -1.6146536063427197E-004   6.6185596459023333E-002
   2.4364458617219531E-005  -1.3281165103543047E-004   6.6021824128101064E-002
   2.1479647533144755E-005  -1.2801169971057846E-004   6.6049141128626532E-002
   1.8594836449071714E-005  -1.4706550666019474E-004   6.6267547460599902E-002
   1.5710025364996938E-005  -1.8997307188373114E-004   6.6677043124021118E-002
   1.8470755101400033E-002  -5.4875044733738165E-003   6.1995530604271765E-002
   1.7808309345300213E-002  -5.1445998788544056E-003   6.1838662390918231E-002
   1.7145863589200394E-002  -4.7982050878541682E-003   6.1868440006397435E-002
   1.6483417833100561E-002  -4.4483201003729794E-003   6.2084863450709571E-002
   1.5820972077000756E-002  -4.0949449164107699E-003   6.2487932723854389E-002
   1.3873948361494699E-002  -4.1631216230012535E-003   6.3314406461948858E-002
   1.3389696634659984E-002  -3.9240200051911811E-003   6.3136469134557033E-002
   1.2905444907825265E-002  -3.6910371739986153E-003   6.3128274036862636E-002
   1.2421193180990555E-002  -3.4641731294239760E-003   6.3289821168865751E-002
   1.1936941454155831E-002  -3.2434278714672526E-003   6.3621110530566294E-002
   9.2658386021870834E-003  -2.8387387726287738E-003   6.4534283834466299E-002
   8.9428773054821831E-003  -2.7034401315278456E-003   6.4325668409937350E-002
   8.6199160087772793E-003  -2.5838692601433400E-003   6.4269891615970673E-002
   8.2969547120723720E-003  -2.4800261584752500E-003   6.4366953452566072E-002
   7.9739934153674752E-003  -2.3919108265235967E-003   6.4616853919723646E-002
   4.6464258234771866E-003  -1.5143559222562802E-003   6.5655162721823521E-002
   4.4678513577667903E-003  -1.4828602578646211E-003   6.5406260217059031E-002
   4.2892768920564008E-003  -1.4767013462880924E-003   6.5293292743721282E-002
   4.1107024263460157E-003  -1.4958791875264964E-003   6.5316260301810564E-002
   3.9321279606356219E-003  -1.5403937815799545E-003   6.5475162891326405E-002
   1.5710025364996938E-005  -1.8997307188373114E-004   6.6677043124021118E-002
  -3.5381208486177235E-005  -2.6228038420134103E-004   6.6378244555922172E-002
  -8.6472442337351407E-005  -3.6953343243255332E-004   6.6198477420114837E-002
  -1.3756367618852558E-004  -5.1173221657761434E-004   6.6137741716598988E-002
  -1.8865491003969975E-004  -6.8887673663636795E-004   6.6196037445374778E-002
   1.5820972077000756E-002  -4.0949449164107699E-003   6.2487932723854389E-002
   1.4759887259311183E-002  -3.6939885512192738E-003   6.2470045165626154E-002
   1.3698802441621652E-002  -3.2013600200491293E-003   6.2889114345026614E-002
   1.2637717623932114E-002  -2.6170593229008811E-003   6.3745140262055675E-002
   1.1576632806242548E-002  -1.9410864597741995E-003   6.5038122916713181E-002
   1.1936941454155831E-002  -3.2434278714672526E-003   6.3621110530566294E-002
   1.1268748523809401E-002  -2.9994720447844014E-003   6.3552346751133137E-002
   1.0600555593462943E-002  -2.7029762940317531E-003   6.3832410008757667E-002
   9.9323626631164889E-003  -2.3539406192092764E-003   6.4461300303440022E-002
   9.2641697327700556E-003  -1.9523650203169263E-003   6.5439017635179675E-002
   7.9739934153674752E-003  -2.3919108265235967E-003   6.4616853919723646E-002
   7.6105626717931293E-003  -2.3049555383495290E-003   6.4458081677177134E-002
   7.2471319282187870E-003  -2.2045925680142034E-003   6.4560006771117256E-002
   6.8837011846444428E-003  -2.0908219155176700E-003   6.4922629201543874E-002
   6.5202704410701057E-003  -1.9636435808597641E-003   6.5545948968457446E-002
   3.9321279606356219E-003  -1.5403937815799545E-003   6.5475162891326405E-002
   3.7853297032624019E-003  -1.6104390319146566E-003   6.5187249943757908E-002
   3.6385314458891862E-003  -1.7062088419966294E-003   6.5071904632105201E-002
   3.4917331885159788E-003  -1.8277032118261200E-003   6.5129126956368105E-002
   3.3449349311427505E-003  -1.9749221414024909E-003   6.5358916916546300E-002
  -1.8865491003969975E-004  -6.8887673663636795E-004   6.6196037445374778E-002
  -2.0695038178278682E-004  -9.1592252547989528E-004   6.5739851550875861E-002
  -2.2524585352586696E-004  -1.2078251159790693E-003   6.5368103591721433E-002
  -2.4354132526895403E-004  -1.5645845081344346E-003   6.5080793567912035E-002
  -2.6183679701204110E-004  -1.9862007019453287E-003   6.4877921479446821E-002
  -3.5679100124190455E-007   0.0000000000000000        2.8447386501070385E-002
  -9.5380346922056131E-007  -6.7626765235320740E-007   3.3409434610686316E-002
  -1.5508159371985675E-006  -3.3877112218423655E-007   3.8377797186846821E-002
  -2.1478284051768990E-006   1.0124895905103820E-006   4.3352474229551893E-002
  -2.7448408731560979E-006   3.3775144857115663E-006   4.8333465738801547E-002
  -6.7987702073443144E-003   0.0000000000000000        2.8510285868990785E-002
  -6.8321361129577447E-003   1.4588273514435247E-004   3.3545982133048470E-002
  -6.8655020185711775E-003   3.2956716940856813E-004   3.8509826144270655E-002
  -6.8988679241846112E-003   5.5105330279264786E-004   4.3401817902657375E-002
  -6.9322338297980414E-003   8.1034113529658038E-004   4.8221957408208602E-002
  -1.3503859841206797E-002   0.0000000000000000        2.8701350272239232E-002
  -1.3648161359345743E-002   2.9244173794105901E-004   3.3847482625676002E-002
  -1.3792462877484686E-002   6.5947310993931963E-004   3.8843596006897220E-002
  -1.3936764395623628E-002   1.1010941159947810E-003   4.3689690415902920E-002
  -1.4081065913762575E-002   1.6173047561074448E-003   4.8385765852693052E-002
  -2.0115625692588693E-002   0.0000000000000000        2.9020579710815703E-002
  -2.0449029542633206E-002   4.3900074073776512E-004   3.4313936088568912E-002
  -2.0782433392677720E-002   9.8937905047007156E-004   3.9379106774726495E-002
  -2.1115837242722237E-002   1.6511349291969163E-003   4.4216091769288507E-002
  -2.1449241092766753E-002   2.4242683769183132E-003   4.8824891072254906E-002
  -2.6634067761489997E-002   0.0000000000000000        2.9467974184720216E-002
  -2.7234740662820143E-002   5.8555974353447036E-004   3.4945342521727187E-002
  -2.7835413564150282E-002   1.3192849910008235E-003   4.0116358447758502E-002
  -2.8436086465480428E-002   2.2011757423990551E-003   4.4981021962814165E-002
  -2.9036759366810570E-002   3.2312319977291773E-003   4.9539333066894162E-002
  -2.7448408731560979E-006   3.3775144857115663E-006   4.8333465738801547E-002
  -2.5922719815341284E-006   5.1682783415380254E-006   5.1501265798279933E-002
  -2.4397030899132432E-006   4.7967559361626784E-006   5.4534985472957716E-002
  -2.2871341982913821E-006   2.2629472695088722E-006   5.7434624762834847E-002
  -2.1345653066703885E-006  -2.4331476583816514E-006   6.0200183667911342E-002
  -6.9322338297980414E-003   8.1034113529658038E-004   4.8221957408208602E-002
  -7.0372742861073241E-003   1.0663878199633483E-003   5.1176078591719361E-002
  -7.1423147424166051E-003   1.2781505098359504E-003   5.4053894109628943E-002
  -7.2473551987258852E-003   1.4456292049143653E-003   5.6855403961937348E-002
  -7.3523956550351688E-003   1.5688239051985728E-003   5.9580608148644562E-002
  -1.4081065913762575E-002   1.6173047561074448E-003   4.8385765852693052E-002
  -1.4233524676073311E-002   2.1276073615851443E-003   5.1084086451703238E-002
  -1.4385983438384042E-002   2.5515042637357307E-003   5.3763876104311700E-002
  -1.4538442200694774E-002   2.8889954625591872E-003   5.6425134810518432E-002
  -1.4690900963005508E-002   3.1400809580555133E-003   5.9067862570323419E-002
  -2.1449241092766753E-002   2.4242683769183132E-003   4.8824891072254906E-002
  -2.1591343441879490E-002   3.1888269032069403E-003   5.1225289378231592E-002
  -2.1733445790992227E-002   3.8248580176355115E-003   5.3664931457005981E-002
  -2.1875548140104964E-002   4.3323617202040126E-003   5.6143817308578092E-002
  -2.2017650489217701E-002   4.7113380109124400E-003   5.8661946932947948E-002
  -2.9036759366810570E-002   3.2312319977291773E-003   4.9539333066894162E-002
  -2.9110730583525864E-002   4.2500464448287463E-003   5.1599687371304374E-002
  -2.9184701800241158E-002   5.0982117715352975E-003   5.3757060167711763E-002
  -2.9258673016956456E-002   5.7757279778488648E-003   5.6011451456116329E-002
  -2.9332644233671743E-002   6.2825950637693945E-003   5.8362861236518057E-002
  -2.1345653066703885E-006  -2.4331476583816514E-006   6.0200183667911342E-002
  -5.5473536207098148E-006  -4.8306174673107272E-006   6.1091099220309024E-002
  -8.9601419347492411E-006  -4.6855077723978455E-007   6.2115220417752859E-002
  -1.2372930248790402E-005   1.0653052411975159E-005   6.3272547260242812E-002
  -1.5785718562828094E-005   2.8534192100221345E-005   6.4563079747778973E-002
  -7.3523956550351688E-003   1.5688239051985728E-003   5.9580608148644562E-002
  -7.2338402902742049E-003   1.6640930577661445E-003   6.0469638208759224E-002
  -7.1152849255132437E-003   1.7477951096946196E-003   6.1469398929977742E-002
  -6.9967295607522833E-003   1.8199300609839189E-003   6.2579890312300129E-002
  -6.8781741959913229E-003   1.8804979116341519E-003   6.3801112355726303E-002
  -1.4690900963005508E-002   3.1400809580555133E-003   5.9067862570323419E-002
  -1.4472852429111850E-002   3.3330167329996274E-003   5.9936680501016852E-002
  -1.4254803895218181E-002   3.4960587701664096E-003   6.0893754108871892E-002
  -1.4036755361324517E-002   3.6292070695559042E-003   6.1939083393888483E-002
  -1.3818706827430848E-002   3.7324616311680686E-003   6.3072668356066564E-002
  -2.2017650489217701E-002   4.7113380109124400E-003   5.8661946932947948E-002
  -2.1722583770133631E-002   5.0019404082331104E-003   5.9492226097081977E-002
  -2.1427517051049554E-002   5.2443224306382274E-003   6.0388285954435239E-002
  -2.1132450331965483E-002   5.4384840781278691E-003   6.1350126505007797E-002
  -2.0837383612881410E-002   5.5844253507019645E-003   6.2377747748799603E-002
  -2.9332644233671743E-002   6.2825950637693945E-003   5.8362861236518057E-002
  -2.8983034313339560E-002   6.6708640834665656E-003   5.9136274996954487E-002
  -2.8633424393007374E-002   6.9925860911100660E-003   5.9952994466667867E-002
  -2.8283814472675188E-002   7.2477610866998211E-003   6.0813019645658224E-002
  -2.7934204552342995E-002   7.4363890702359298E-003   6.1716350533925532E-002
  -1.5785718562828094E-005   2.8534192100221345E-005   6.4563079747778973E-002
  -1.8285670106824026E-005   3.7334906980712734E-005   6.4741186334353759E-002
  -2.0785621650818223E-005   2.1215235746621652E-005   6.5039023853996833E-002
  -2.3285573194815889E-005  -1.9824821601979042E-005   6.5456592306708236E-002
  -2.5785524738808352E-005  -8.5785265065224658E-005   6.5993891692488066E-002
  -6.8781741959913229E-003   1.8804979116341519E-003   6.3801112355726303E-002
  -6.7461819166105491E-003   1.9166537146049212E-003   6.3884747395729330E-002
  -6.6141896372297754E-003   1.9155525228559227E-003   6.4117635964513586E-002
  -6.4821973578490042E-003   1.8771943363872041E-003   6.4499778062079044E-002
  -6.3502050784682209E-003   1.8015791551988236E-003   6.5031173688425717E-002
  -1.3818706827430848E-002   3.7324616311680686E-003   6.3072668356066564E-002
  -1.3522699721412424E-002   3.7959725222291019E-003   6.3049495240892678E-002
  -1.3226692615393998E-002   3.8098898099652792E-003   6.3205098250212866E-002
  -1.2930685509375579E-002   3.7742134943765260E-003   6.3539477384027168E-002
  -1.2634678403357146E-002   3.6889435754628580E-003   6.4052632642335544E-002
  -2.0837383612881410E-002   5.5844253507019645E-003   6.2377747748799603E-002
  -2.0347839084512452E-002   5.6752913298532826E-003   6.2235429869843671E-002
  -1.9858294556143494E-002   5.7042270970744970E-003   6.2301410711094671E-002
  -1.9368750027774547E-002   5.6712326523657231E-003   6.2575690272552678E-002
  -1.8879205499405579E-002   5.5763079957268716E-003   6.3058268554217659E-002
  -2.7934204552342995E-002   7.4363890702359298E-003   6.1716350533925532E-002
  -2.7221600005910632E-002   7.5546101374775187E-003   6.1442551282582372E-002
  -2.6508995459478258E-002   7.5985643841838570E-003   6.1406573347159023E-002
  -2.5796390913045898E-002   7.5682518103549973E-003   6.1608416727655518E-002
  -2.5083786366613528E-002   7.4636724159909407E-003   6.2048081424071921E-002
  -2.5785524738808352E-005  -8.5785265065224658E-005   6.5993891692488066E-002
  -1.2526826128782254E-005  -1.4933074842866934E-004   6.5687942371167457E-002
   7.3187248124211013E-007  -1.8312592547799905E-004   6.5617910058483095E-002
   1.3990571091263872E-005  -1.8717079621314268E-004   6.5783794754435049E-002
   2.7249269701292572E-005  -1.6146536063427197E-004   6.6185596459023333E-002
  -6.3502050784682209E-003   1.8015791551988236E-003   6.5031173688425717E-002
  -6.1133366405449223E-003   1.7162493915236082E-003   6.4776652394652842E-002
  -5.8764682026216227E-003   1.6487474575949818E-003   6.4733433570870302E-002
  -5.6395997646983224E-003   1.5990733534126285E-003   6.4901517217078070E-002
  -5.4027313267750246E-003   1.5672270789766352E-003   6.5280903333275991E-002
  -1.2634678403357146E-002   3.6889435754628580E-003   6.4052632642335544E-002
  -1.2198814764766558E-002   3.5818295314760315E-003   6.3837616899542690E-002
  -1.1762951126175966E-002   3.4806208406679036E-003   6.3809289088094162E-002
  -1.1327087487585374E-002   3.3853175030383710E-003   6.3967649207989988E-002
  -1.0891223848994784E-002   3.2959195185874035E-003   6.4312697259229973E-002
  -1.8879205499405579E-002   5.5763079957268716E-003   6.3058268554217659E-002
  -1.8268961198793687E-002   5.4474096714283958E-003   6.2870835885837001E-002
  -1.7658716898181784E-002   5.3124942237408549E-003   6.2845476610154730E-002
  -1.7048472597569895E-002   5.1715616526641275E-003   6.2982190727170775E-002
  -1.6438228296957996E-002   5.0246119581983245E-003   6.3280978236885083E-002
  -2.5083786366613528E-002   7.4636724159909407E-003   6.2048081424071921E-002
  -2.4323775942626302E-002   7.3129898113807323E-003   6.1876309353535802E-002
  -2.3563765518639090E-002   7.1443676068138340E-003   6.1841996137052019E-002
  -2.2803755094651858E-002   6.9578058022899472E-003   6.1945141774620543E-002
  -2.2043744670664649E-002   6.7533043978090790E-003   6.2185746266241460E-002
   2.7249269701292572E-005  -1.6146536063427197E-004   6.6185596459023333E-002
   2.4364458617219531E-005  -1.3281165103543047E-004   6.6021824128101064E-002
   2.1479647533144755E-005  -1.2801169971057846E-004   6.6049141128626532E-002
   1.8594836449071714E-005  -1.4706550666019474E-004   6.6267547460599902E-002
   1.5710025364996938E-005  -1.8997307188373114E-004   6.6677043124021118E-002
  -5.4027313267750246E-003   1.5672270789766352E-003   6.5280903333275991E-002
  -5.2065926729040896E-003   1.5330227567692811E-003   6.5043354368335915E-002
  -5.0104540190331667E-003   1.4762745092731303E-003   6.5012763001858057E-002
  -4.8143153651622412E-003   1.3969823364879553E-003   6.5189129233842319E-002
  -4.6181767112913087E-003   1.2951462384140355E-003   6.5572453064288827E-002
  -1.0891223848994784E-002   3.2959195185874035E-003   6.4312697259229973E-002
  -1.0480193463154487E-002   3.1988571645738956E-003   6.4002681493257330E-002
  -1.0069163077314189E-002   3.0805607182568945E-003   6.3915491592761317E-002
  -9.6581326914738884E-003   2.9410301796360498E-003   6.4051127557741755E-002
  -9.2471023056335949E-003   2.7802655487116912E-003   6.4409589388198782E-002
  -1.6438228296957996E-002   5.0246119581983245E-003   6.3280978236885083E-002
  -1.5796437912133945E-002   4.8646915723786141E-003   6.2899805502865128E-002
  -1.5154647527309908E-002   4.6848469272405754E-003   6.2757326901336133E-002
  -1.4512857142485874E-002   4.4850780227841999E-003   6.2853542432298126E-002
  -1.3871066757661827E-002   4.2653848590093746E-003   6.3188452095750941E-002
  -2.2043744670664649E-002   6.7533043978090790E-003   6.2185746266241460E-002
  -2.1155326019842498E-002   6.5305259801832494E-003   6.1734726397159490E-002
  -2.0266907369020343E-002   6.2891331362243813E-003   6.1538268927582823E-002
  -1.9378488718198188E-002   6.0291258659322979E-003   6.1596373857511419E-002
  -1.8490070067376040E-002   5.7505041693071135E-003   6.1909041186945346E-002
   1.5710025364996938E-005  -1.8997307188373114E-004   6.6677043124021118E-002
  -3.5381208486177235E-005  -2.6228038420134103E-004   6.6378244555922172E-002
  -8.6472442337351407E-005  -3.6953343243255332E-004   6.6198477420114837E-002
  -1.3756367618852558E-004  -5.1173221657761434E-004   6.6137741716598988E-002
  -1.8865491003969975E-004  -6.8887673663636795E-004   6.6196037445374778E-002
  -4.6181767112913087E-003   1.2951462384140355E-003   6.5572453064288827E-002
  -4.5332059522634627E-003   1.1782598526342558E-003   6.5274395006073405E-002
  -4.4482351932356150E-003   1.0538168167323891E-003   6.5129429501324387E-002
  -4.3632644342077699E-003   9.2181713070800531E-004   6.5137556550041859E-002
  -4.2782936751799214E-003   7.8226079456139574E-004   6.5298776152225846E-002
  -9.2471023056335949E-003   2.7802655487116912E-003   6.4409589388198782E-002
  -8.9920084325517992E-003   2.6188000894699359E-003   6.4139660925658176E-002
  -8.7369145594700191E-003   2.4771670658973247E-003   6.4056886137759006E-002
  -8.4818206863882389E-003   2.3553664779937897E-003   6.4161265024501146E-002
  -8.2267268133064571E-003   2.2533983257593537E-003   6.4452797585884750E-002
  -1.3871066757661827E-002   4.2653848590093746E-003   6.3188452095750941E-002
  -1.3411788649351199E-002   4.0593403263056022E-003   6.2974042314676626E-002
  -1.2952510541040569E-002   3.9005173150621804E-003   6.2980847329418763E-002
  -1.2493232432729940E-002   3.7889158252794363E-003   6.3208867139977004E-002
  -1.2033954324419324E-002   3.7245358569572701E-003   6.3658101746351753E-002
  -1.8490070067376040E-002   5.7505041693071135E-003   6.1909041186945346E-002
  -1.7792546602661649E-002   5.4998805631411851E-003   6.1777539173128726E-002
  -1.7095023137947262E-002   5.3238675642272165E-003   6.1901313076303338E-002
  -1.6397499673232875E-002   5.2224651725652528E-003   6.2280362896469141E-002
  -1.5699976208518478E-002   5.1956733881551309E-003   6.2914688633626314E-002
  -1.8865491003969975E-004  -6.8887673663636795E-004   6.6196037445374778E-002
  -2.0695038178278682E-004  -9.1592252547989528E-004   6.5739851550875861E-002
  -2.2524585352586696E-004  -1.2078251159790693E-003   6.5368103591721433E-002
  -2.4354132526895403E-004  -1.5645845081344346E-003   6.5080793567912035E-002
  -2.6183679701204110E-004  -1.9862007019453287E-003   6.4877921479446821E-002
  -4.2782936751799214E-003   7.8226079456139574E-004   6.5298776152225846E-002
  -4.1653100424039868E-003   6.1570820880871291E-004   6.4974990728542098E-002
  -4.0523264096280522E-003   4.0271977396640068E-004   6.4829325578551894E-002
  -3.9393427768521158E-003   1.4329549003415723E-004   6.4861780702254956E-002
  -3.8263591440761968E-003  -1.6256464298780582E-004   6.5072356099651341E-002
  -8.2267268133064571E-003   2.2533983257593537E-003   6.4452797585884750E-002
  -7.8887817376627478E-003   2.1473389430976542E-003   6.4279833585582494E-002
  -7.5508366620190507E-003   2.0132646639121551E-003   6.4378672197322295E-002
  -7.2128915863753371E-003   1.8511754882028063E-003   6.4749313421104057E-002
  -6.8749465107316304E-003   1.6610714159698281E-003   6.5391757256928307E-002
  -1.2033954324419324E-002   3.7245358569572701E-003   6.3658101746351753E-002
  -1.1377365467559075E-002   3.6789696773863734E-003   6.3654380121996604E-002
  -1.0720776610698838E-002   3.6238095538577118E-003   6.4016143448032456E-002
  -1.0064187753838614E-002   3.5590554863713713E-003   6.4743391724459004E-002
  -9.4075988969783662E-003   3.4847074749274065E-003   6.5836124951276817E-002
  -1.5699976208518478E-002   5.1956733881551309E-003   6.2914688633626314E-002
  -1.4631061232092964E-002   5.2106004116753146E-003   6.3098630337784622E-002
  -1.3562146255667457E-002   5.2343544438035322E-003   6.3741739330682584E-002
  -1.2493231279241956E-002   5.2669354845400022E-003   6.4844015612320074E-002
  -1.1424316302816442E-002   5.3083435338849849E-003   6.6405459182697468E-002
  -2.6634067761489997E-002   0.0000000000000000        2.9467974184720216E-002
  -2.7234740662820143E-002   5.8555974353447036E-004   3.4945342521727187E-002
  -2.7835413564150282E-002   1.3192849910008235E-003   4.0116358447758502E-002
  -2.8436086465480428E-002   2.2011757423990551E-003   4.4981021962814165E-002
  -2.9036759366810570E-002   3.2312319977291773E-003   4.9539333066894162E-002
  -3.3395233031693665E-002   0.0000000000000000        3.0178265037502483E-002
  -3.4237515537455271E-002   9.6060657835231756E-004   3.5267190612290583E-002
  -3.5079798043216877E-002   2.0242168854172436E-003   4.0179249389191415E-002
  -3.5922080548978483E-002   3.1908309211947780E-003   4.4914441368204987E-002
  -3.6764363054740082E-002   4.4604486856849182E-003   4.9472766549331304E-002
  -4.0735168486982658E-002   0.0000000000000000        3.1286183612712244E-002
  -4.1689574984087326E-002   1.3356534131701652E-003   3.5941504650062184E-002
  -4.2643981481191987E-002   2.7291487798336653E-003   4.0549444502613274E-002
  -4.3598387978296654E-002   4.1804860999905009E-003   4.5110003170365488E-002
  -4.4552794475401329E-002   5.6896653736406740E-003   4.9623180653318839E-002
  -4.8653874127356965E-002   0.0000000000000000        3.2791729910349482E-002
  -4.9590919002716304E-002   1.7107002479880126E-003   3.6968284635042002E-002
  -5.0527963878075635E-002   3.4340806742500845E-003   4.1226943788024065E-002
  -5.1465008753434974E-002   5.1701412787862238E-003   4.5567707369295642E-002
  -5.2402053628794298E-002   6.9188820615964184E-003   4.9990575378856782E-002
  -5.7151349952816601E-002   0.0000000000000000        3.4694903930414203E-002
  -5.7941547593342205E-002   2.0857470828058600E-003   3.8347530567230032E-002
  -5.8731745233867809E-002   4.1390125686665089E-003   4.2211747245423786E-002
  -5.9521942874393413E-002   6.1597964575819467E-003   4.6287553964995475E-002
  -6.0312140514919010E-002   8.1480987495521733E-003   5.0574950725945082E-002
  -2.9036759366810570E-002   3.2312319977291773E-003   4.9539333066894162E-002
  -2.9110730583525864E-002   4.2500464448287463E-003   5.1599687371304374E-002
  -2.9184701800241158E-002   5.0982117715352975E-003   5.3757060167711763E-002
  -2.9258673016956456E-002   5.7757279778488648E-003   5.6011451456116329E-002
  -2.9332644233671743E-002   6.2825950637693945E-003   5.8362861236518057E-002
  -3.6764363054740082E-002   4.4604486856849182E-003   4.9472766549331304E-002
  -3.6779527767144098E-002   5.6935785229113092E-003   5.1260766781507337E-002
  -3.6794692479548093E-002   6.7507287768975698E-003   5.3069361530308792E-002
  -3.6809857191952108E-002   7.6318994476436940E-003   5.4898550795735628E-002
  -3.6825021904356103E-002   8.3370905351496868E-003   5.6748334577787871E-002
  -4.4552794475401329E-002   5.6896653736406740E-003   4.9623180653318839E-002
  -4.4585576658865811E-002   7.1371106009938869E-003   5.1133496350413567E-002
  -4.4618358842330307E-002   8.4032457822598421E-003   5.2587982588761920E-002
  -4.4651141025794788E-002   9.4880709174385292E-003   5.3986639368363919E-002
  -4.4683923209259284E-002   1.0391586006529972E-002   5.5329466689219557E-002
  -5.2402053628794298E-002   6.9188820615964184E-003   4.9990575378856782E-002
  -5.2528877258691035E-002   8.5806426790764525E-003   5.1217876078023056E-002
  -5.2655700888587773E-002   1.0055762787622099E-002   5.2312923343071221E-002
  -5.2782524518484523E-002   1.1344242387233361E-002   5.3275717174001230E-002
  -5.2909348148381247E-002   1.2446081477910261E-002   5.4106257570813152E-002
  -6.0312140514919010E-002   8.1480987495521733E-003   5.0574950725945082E-002
  -6.0609429566619771E-002   1.0024174757159030E-002   5.1513905964335818E-002
  -6.0906718618320511E-002   1.1708279792984408E-002   5.2244183793236629E-002
  -6.1204007670021272E-002   1.3200413857028212E-002   5.2765784212647535E-002
  -6.1501296721722033E-002   1.4500576949290550E-002   5.3078707222568577E-002
  -2.9332644233671743E-002   6.2825950637693945E-003   5.8362861236518057E-002
  -2.8983034313339560E-002   6.6708640834665656E-003   5.9136274996954487E-002
  -2.8633424393007374E-002   6.9925860911100660E-003   5.9952994466667867E-002
  -2.8283814472675188E-002   7.2477610866998211E-003   6.0813019645658224E-002
  -2.7934204552342995E-002   7.4363890702359298E-003   6.1716350533925532E-002
  -3.6825021904356103E-002   8.3370905351496868E-003   5.6748334577787871E-002
  -3.6382523182887018E-002   8.8804580474980480E-003   5.7097700506301023E-002
  -3.5940024461417933E-002   9.2761579927712803E-003   5.7589538327810982E-002
  -3.5497525739948861E-002   9.5241903709694219E-003   5.8223848042317748E-002
  -3.5055027018479783E-002   9.6245551820923897E-003   5.9000629649821404E-002
  -4.4683923209259284E-002   1.0391586006529972E-002   5.5329466689219557E-002
  -4.4049369502933443E-002   1.1090052011529516E-002   5.5173664230787990E-002
  -4.3414815796607588E-002   1.1559729894432508E-002   5.5259499849073121E-002
  -4.2780262090281747E-002   1.1800619655238979E-002   5.5586973544074922E-002
  -4.2145708383955892E-002   1.1812721293948898E-002   5.6156085315793455E-002
  -5.2909348148381247E-002   1.2446081477910261E-002   5.4106257570813152E-002
  -5.1983573273478779E-002   1.3299645975560957E-002   5.3364166170415443E-002
  -5.1057798398576298E-002   1.3843301796093764E-002   5.2962879030454310E-002
  -5.0132023523673831E-002   1.4077048939508546E-002   5.2902396150929717E-002
  -4.9206248648771343E-002   1.4000887405805396E-002   5.3182717531841735E-002
  -6.1501296721722033E-002   1.4500576949290550E-002   5.3078707222568577E-002
  -6.0185134494523063E-002   1.5509239939592454E-002   5.1669206325183362E-002
  -5.8868972267324085E-002   1.6126873697754951E-002   5.0699675871954564E-002
  -5.7552810040125128E-002   1.6353478223778126E-002   5.0170115862882211E-002
  -5.6236647812926165E-002   1.6189053517661894E-002   5.0080526297966221E-002
  -2.7934204552342995E-002   7.4363890702359298E-003   6.1716350533925532E-002
  -2.7221600005910632E-002   7.5546101374775187E-003   6.1442551282582372E-002
  -2.6508995459478258E-002   7.5985643841838570E-003   6.1406573347159023E-002
  -2.5796390913045898E-002   7.5682518103549973E-003   6.1608416727655518E-002
  -2.5083786366613528E-002   7.4636724159909407E-003   6.2048081424071921E-002
  -3.5055027018479783E-002   9.6245551820923897E-003   5.9000629649821404E-002
  -3.4113364827683089E-002   9.6236999779792456E-003   5.8683688185617124E-002
  -3.3171702636886423E-002   9.5680723104689773E-003   5.8587040694221618E-002
  -3.2230040446089736E-002   9.4576721795615777E-003   5.8710687175634858E-002
  -3.1288378255293056E-002   9.2924995852570469E-003   5.9054627629856943E-002
  -4.2145708383955892E-002   1.1812721293948898E-002   5.6156085315793455E-002
  -4.0992515891906008E-002   1.1692789818481028E-002   5.5815495995866202E-002
  -3.9839323399856096E-002   1.1537580236754124E-002   5.5677673305636652E-002
  -3.8686130907806190E-002   1.1347092548768128E-002   5.5742617245104799E-002
  -3.7532938415756306E-002   1.1121326754523125E-002   5.6010327814270594E-002
  -4.9206248648771343E-002   1.4000887405805396E-002   5.3182717531841735E-002
  -4.7859053198579318E-002   1.3761879658982797E-002   5.2837974713329613E-002
  -4.6511857748387293E-002   1.3507088163039173E-002   5.2678471181404105E-002
  -4.5164662298195268E-002   1.3236512917974693E-002   5.2704206936065111E-002
  -4.3817466848003229E-002   1.2950153923789273E-002   5.2915181977312743E-002
  -5.6236647812926165E-002   1.6189053517661894E-002   5.0080526297966221E-002
  -5.4712976747703097E-002   1.5830969499484523E-002   4.9751124338007296E-002
  -5.3189305682480023E-002   1.5476596089324397E-002   4.9589434321523879E-002
  -5.1665634617256942E-002   1.5125933287181233E-002   4.9595456248516002E-002
  -5.0141963552033861E-002   1.4778981093055310E-002   4.9769190118983564E-002
  -2.5083786366613528E-002   7.4636724159909407E-003   6.2048081424071921E-002
  -2.4323775942626302E-002   7.3129898113807323E-003   6.1876309353535802E-002
  -2.3563765518639090E-002   7.1443676068138340E-003   6.1841996137052019E-002
  -2.2803755094651858E-002   6.9578058022899472E-003   6.1945141774620543E-002
  -2.2043744670664649E-002   6.7533043978090790E-003   6.2185746266241460E-002
  -3.1288378255293056E-002   9.2924995852570469E-003   5.9054627629856943E-002
  -3.0378612577230263E-002   9.0878364904638104E-003   5.8834109618791861E-002
  -2.9468846899167452E-002   8.8589648580904776E-003   5.8775643261825633E-002
  -2.8559081221104642E-002   8.6058846881370329E-003   5.8879228558958385E-002
  -2.7649315543041821E-002   8.3285959806034260E-003   5.9144865510189798E-002
  -3.7532938415756306E-002   1.1121326754523125E-002   5.6010327814270594E-002
  -3.6448824683571392E-002   1.0862683169546888E-002   5.5734794925053323E-002
  -3.5364710951386463E-002   1.0573562109367288E-002   5.5645906489981412E-002
  -3.4280597219201549E-002   1.0253963573984146E-002   5.5743662509054874E-002
  -3.3196483487016613E-002   9.9038875633976620E-003   5.6028062982273738E-002
  -4.3817466848003229E-002   1.2950153923789273E-002   5.2915181977312743E-002
  -4.2534412261649682E-002   1.2637529848629980E-002   5.2578365272319988E-002
  -4.1251357675296127E-002   1.2288159360643959E-002   5.2452785821519118E-002
  -3.9968303088942579E-002   1.1902042459831301E-002   5.2538443624910176E-002
  -3.8685248502589031E-002   1.1479179146191926E-002   5.2835338682493058E-002
  -5.0141963552033861E-002   1.4778981093055310E-002   4.9769190118983564E-002
  -4.8635375311465168E-002   1.4412376527713044E-002   4.9364820660592029E-002
  -4.7128787070896454E-002   1.4002756611920769E-002   4.9196281256438934E-002
  -4.5622198830327740E-002   1.3550121345678394E-002   4.9263571906524251E-002
  -4.4115610589759033E-002   1.3054470728986189E-002   4.9566692610847951E-002
  -2.2043744670664649E-002   6.7533043978090790E-003   6.2185746266241460E-002
  -2.1155326019842498E-002   6.5305259801832494E-003   6.1734726397159490E-002
  -2.0266907369020343E-002   6.2891331362243813E-003   6.1538268927582823E-002
  -1.9378488718198188E-002   6.0291258659322979E-003   6.1596373857511419E-002
  -1.8490070067376040E-002   5.7505041693071135E-003   6.1909041186945346E-002
  -2.7649315543041821E-002   8.3285959806034260E-003   5.9144865510189798E-002
  -2.6516263577607634E-002   8.0328932648531803E-003   5.8726702532023944E-002
  -2.5383211612173436E-002   7.7245710702499998E-003   5.8543243783576851E-002
  -2.4250159646739211E-002   7.4036293967939294E-003   5.8594489264848552E-002
  -2.3117107681305021E-002   7.0700682444848062E-003   5.8880438975839083E-002
  -3.3196483487016613E-002   9.9038875633976620E-003   5.6028062982273738E-002
  -3.1838656376756855E-002   9.5352605495230974E-003   5.5648751842504077E-002
  -3.0480829266497089E-002   9.1600090042756668E-003   5.5484286762666750E-002
  -2.9123002156237299E-002   8.7781329276555593E-003   5.5534667742761779E-002
  -2.7765175045977558E-002   8.3896323196626099E-003   5.5799894782789086E-002
  -3.8685248502589031E-002   1.1479179146191926E-002   5.2835338682493058E-002
  -3.7122504417290182E-002   1.1037627834192994E-002   5.2500874328599872E-002
  -3.5559760331991340E-002   1.0595446938301337E-002   5.2361397864852610E-002
  -3.3997016246692491E-002   1.0152636458517189E-002   5.2416909291251118E-002
  -3.2434272161393649E-002   9.7091963948403304E-003   5.2667408607795493E-002
  -4.4115610589759033E-002   1.3054470728986189E-002   4.9566692610847951E-002
  -4.2367807699207588E-002   1.2539995118862890E-002   4.9283069990311457E-002
  -4.0620004808656178E-002   1.2030884872326897E-002   4.9174577090134286E-002
  -3.8872201918104754E-002   1.1527139989378890E-002   4.9241213910316398E-002
  -3.7124399027553323E-002   1.1028760470018162E-002   4.9482980450858027E-002
  -1.8490070067376040E-002   5.7505041693071135E-003   6.1909041186945346E-002
  -1.7792546602661649E-002   5.4998805631411851E-003   6.1777539173128726E-002
  -1.7095023137947262E-002   5.3238675642272165E-003   6.1901313076303338E-002
  -1.6397499673232875E-002   5.2224651725652528E-003   6.2280362896469141E-002
  -1.5699976208518478E-002   5.1956733881551309E-003   6.2914688633626314E-002
  -2.3117107681305021E-002   7.0700682444848062E-003   5.8880438975839083E-002
  -2.2176930315400682E-002   6.7497070876573473E-003   5.8772100234011748E-002
  -2.1236752949496340E-002   6.4683654006460617E-003   5.8893793377573209E-002
  -2.0296575583591995E-002   6.2260431834511194E-003   5.9245518406523180E-002
  -1.9356398217687656E-002   6.0227404360724268E-003   5.9827275320861906E-002
  -2.7765175045977558E-002   8.3896323196626099E-003   5.5799894782789086E-002
  -2.6607587810485809E-002   7.9995336121735788E-003   5.5679128175515291E-002
  -2.5450000574994063E-002   7.6128632370649554E-003   5.5763149422027709E-002
  -2.4292413339502324E-002   7.2296211943370398E-003   5.6051958522326278E-002
  -2.3134826104010568E-002   6.8498074839895839E-003   5.6545555476410866E-002
  -3.2434272161393649E-002   9.7091963948403304E-003   5.2667408607795493E-002
  -3.1084519087917060E-002   9.2493601366896092E-003   5.2498622997639549E-002
  -2.9734766014440410E-002   8.7573610734839359E-003   5.2509381209667250E-002
  -2.8385012940963766E-002   8.2331992052230435E-003   5.2699683243878574E-002
  -2.7035259867487178E-002   7.6768745319068105E-003   5.3069529100273474E-002
  -3.7124399027553323E-002   1.1028760470018162E-002   4.9482980450858027E-002
  -3.5607724147694364E-002   1.0499186661205973E-002   4.9230584700384161E-002
  -3.4091049267835405E-002   9.9018589099027360E-003   4.9132488740491587E-002
  -3.2574374387976453E-002   9.2367772161088650E-003   4.9188692571179929E-002
  -3.1057699508117487E-002   8.5039415798240370E-003   4.9399196192449479E-002
  -1.5699976208518478E-002   5.1956733881551309E-003   6.2914688633626314E-002
  -1.4631061232092964E-002   5.2106004116753146E-003   6.3098630337784622E-002
  -1.3562146255667457E-002   5.2343544438035322E-003   6.3741739330682584E-002
  -1.2493231279241956E-002   5.2669354845400022E-003   6.4844015612320074E-002
  -1.1424316302816442E-002   5.3083435338849849E-003   6.6405459182697468E-002
  -1.9356398217687656E-002   6.0227404360724268E-003   5.9827275320861906E-002
  -1.7901827283306242E-002   5.8356277551787905E-003   5.9816793652963857E-002
  -1.6447256348924834E-002   5.6418757374390449E-003   6.0118456612237914E-002
  -1.4992685414543495E-002   5.4414843828537521E-003   6.0732264198684105E-002
  -1.3538114480162039E-002   5.2344536914223916E-003   6.1658216412302513E-002
  -2.3134826104010568E-002   6.8498074839895839E-003   5.6545555476410866E-002
  -2.1441621873240786E-002   6.4606550986824884E-003   5.6325184091002484E-002
  -1.9748417642470980E-002   6.0493970310749531E-003   5.6269934671198597E-002
  -1.8055213411701160E-002   5.6160332811674204E-003   5.6379807216999200E-002
  -1.6362009180931367E-002   5.1605638489597982E-003   5.6654801728404647E-002
  -2.7035259867487178E-002   7.6768745319068105E-003   5.3069529100273474E-002
  -2.5250445001896528E-002   7.0856824421859643E-003   5.2623801651900205E-002
  -2.3465630136305857E-002   6.4569183247107746E-003   5.2196173507563996E-002
  -2.1680815270715196E-002   5.7905821794811295E-003   5.1786644667264903E-002
  -1.9896000405124535E-002   5.0866740064971494E-003   5.1395215131003050E-002
  -3.1057699508117487E-002   8.5039415798240370E-003   4.9399196192449479E-002
  -2.9328296669273474E-002   7.7107097856897178E-003   4.8712646335657250E-002
  -2.7598893830429447E-002   6.8644396183464018E-003   4.7897173121334624E-002
  -2.5869490991585448E-002   5.9651310777947622E-003   4.6952776549481573E-002
  -2.4140088152741435E-002   5.0127841640346116E-003   4.5879456620098180E-002
  -5.7151349952816601E-002   0.0000000000000000        3.4694903930414203E-002
  -5.7941547593342205E-002   2.0857470828058600E-003   3.8347530567230032E-002
  -5.8731745233867809E-002   4.1390125686665089E-003   4.2211747245423786E-002
  -5.9521942874393413E-002   6.1597964575819467E-003   4.6287553964995475E-002
  -6.0312140514919010E-002   8.1480987495521733E-003   5.0574950725945082E-002
  -6.5817000545292936E-002   0.0000000000000000        3.7217664725582376E-002
  -6.6624191157225995E-002   2.9145597592835299E-003   4.0838914252417785E-002
  -6.7431381769159041E-002   5.7711716190183603E-003   4.4214587795060357E-002
  -6.8238572381092100E-002   8.5698355792044930E-003   4.7344685353510108E-002
  -6.9045762993025159E-002   1.1310551639841921E-002   5.0229206927766987E-002
  -7.4240230486717337E-002   0.0000000000000000        4.0581971348529963E-002
  -7.5521580095628607E-002   3.7433724357612006E-003   4.4146377462781466E-002
  -7.6802929704539877E-002   7.4033306693702125E-003   4.7008041567269378E-002
  -7.8084279313451160E-002   1.0979874700827039E-002   4.9166963661993683E-002
  -7.9365628922362430E-002   1.4473004530131671E-002   5.0623143746954383E-002
  -8.2421039777089825E-002   0.0000000000000000        4.4787823799256964E-002
  -8.4633714408550081E-002   4.5721851122388687E-003   4.8269920198321062E-002
  -8.6846389040010338E-002   9.0354897197220622E-003   5.0592108562050819E-002
  -8.9059063671470595E-002   1.3389913822449579E-002   5.1754388890446201E-002
  -9.1271738302930852E-002   1.7635457420421434E-002   5.1756761183507229E-002
  -9.0359428416410398E-002   0.0000000000000000        4.9835222077763378E-002
  -9.3960594095990405E-002   5.4009977887165411E-003   5.3209542459036599E-002
  -9.7561759775570397E-002   1.0667648770073920E-002   5.4966788779404703E-002
 -0.10116292545515040        1.5799952944072132E-002   5.5106961038867690E-002
 -0.10476409113473040        2.0797910310711171E-002   5.3630059237425531E-002
  -6.0312140514919010E-002   8.1480987495521733E-003   5.0574950725945082E-002
  -6.0609429566619771E-002   1.0024174757159030E-002   5.1513905964335818E-002
  -6.0906718618320511E-002   1.1708279792984408E-002   5.2244183793236629E-002
  -6.1204007670021272E-002   1.3200413857028212E-002   5.2765784212647535E-002
  -6.1501296721722033E-002   1.4500576949290550E-002   5.3078707222568577E-002
  -6.9045762993025159E-002   1.1310551639841921E-002   5.0229206927766987E-002
  -6.9315126069033284E-002   1.3754075026771893E-002   4.9454317890285253E-002
  -6.9584489145041423E-002   1.5661160965835627E-002   4.8943958213678626E-002
  -6.9853852221049562E-002   1.7031809457033153E-002   4.8698127897947148E-002
  -7.0123215297057687E-002   1.7866020500364482E-002   4.8716826943090805E-002
  -7.9365628922362430E-002   1.4473004530131671E-002   5.0623143746954383E-002
  -7.9133859252312908E-002   1.7483975296384742E-002   4.7789943957515429E-002
  -7.8902089582263399E-002   1.9614042138686890E-002   4.5694480299316630E-002
  -7.8670319912213862E-002   2.0863205057038103E-002   4.4336752772358053E-002
  -7.8438550242164326E-002   2.1231464051438373E-002   4.3716761376639629E-002
  -9.1271738302930852E-002   1.7635457420421434E-002   5.1756761183507229E-002
  -9.0065629116458629E-002   2.1213875565997607E-002   4.6520784166026376E-002
  -8.8859519929986419E-002   2.3566923311538143E-002   4.2495750050150716E-002
  -8.7653410743514196E-002   2.4694600657043063E-002   3.9681658835880290E-002
  -8.6447301557041972E-002   2.4596907602512270E-002   3.8078510523215113E-002
 -0.10476409113473040        2.0797910310711171E-002   5.3630059237425531E-002
 -0.10211043566147046        2.4943775835610461E-002   4.5646838515818050E-002
  -9.9456780188210497E-002   2.7519804484389392E-002   3.9347767466180829E-002
  -9.6803124714950547E-002   2.8525996257047982E-002   3.4732846088513854E-002
  -9.4149469241690598E-002   2.7962351153586189E-002   3.1802074382817160E-002
  -6.1501296721722033E-002   1.4500576949290550E-002   5.3078707222568577E-002
  -6.0185134494523063E-002   1.5509239939592454E-002   5.1669206325183362E-002
  -5.8868972267324085E-002   1.6126873697754951E-002   5.0699675871954564E-002
  -5.7552810040125128E-002   1.6353478223778126E-002   5.0170115862882211E-002
  -5.6236647812926165E-002   1.6189053517661894E-002   5.0080526297966221E-002
  -7.0123215297057687E-002   1.7866020500364482E-002   4.8716826943090805E-002
  -6.8409523686126961E-002   1.8321304824874148E-002   4.7265246004551759E-002
  -6.6695832075196249E-002   1.8555173159606711E-002   4.6168753389319771E-002
  -6.4982140464265509E-002   1.8567625504562282E-002   4.5427349097394931E-002
  -6.3268448853334783E-002   1.8358661859740832E-002   4.5041033128777150E-002
  -7.8438550242164326E-002   2.1231464051438373E-002   4.3716761376639629E-002
  -7.6412211368351163E-002   2.1133369710155815E-002   4.2392713639309028E-002
  -7.4385872494537972E-002   2.0983472621458513E-002   4.1338872104436222E-002
  -7.2359533620724781E-002   2.0781772785346479E-002   4.0555236772021247E-002
  -7.0333194746911604E-002   2.0528270201819701E-002   4.0041807642064019E-002
  -8.6447301557041972E-002   2.4596907602512270E-002   3.8078510523215113E-002
  -8.4193197541195627E-002   2.3945434595437475E-002   3.7051609229455260E-002
  -8.1939093525349324E-002   2.3411772083310328E-002   3.6210032017303891E-002
  -7.9684989509503007E-002   2.2995920066130656E-002   3.5553778886761075E-002
  -7.7430885493656676E-002   2.2697878543898646E-002   3.5082849837826682E-002
  -9.4149469241690598E-002   2.7962351153586189E-002   3.1802074382817160E-002
  -9.1752482204660424E-002   2.6757499480719170E-002   3.1241932774990433E-002
  -8.9355495167630278E-002   2.5840071545162067E-002   3.0782233127922883E-002
  -8.6958508130600132E-002   2.5210067346914843E-002   3.0422975441614507E-002
  -8.4561521093569972E-002   2.4867486885977508E-002   3.0164159716065259E-002
  -5.6236647812926165E-002   1.6189053517661894E-002   5.0080526297966221E-002
  -5.4712976747703097E-002   1.5830969499484523E-002   4.9751124338007296E-002
  -5.3189305682480023E-002   1.5476596089324397E-002   4.9589434321523879E-002
  -5.1665634617256942E-002   1.5125933287181233E-002   4.9595456248516002E-002
  -5.0141963552033861E-002   1.4778981093055310E-002   4.9769190118983564E-002
  -6.3268448853334783E-002   1.8358661859740832E-002   4.5041033128777150E-002
  -6.1567940397522308E-002   1.8019756650262418E-002   4.4670433497004121E-002
  -5.9867431941709792E-002   1.7642384301247295E-002   4.4485796702934392E-002
  -5.8166923485897304E-002   1.7226544812695345E-002   4.4487122746567978E-002
  -5.6466415030084788E-002   1.6772238184606630E-002   4.4674411627904920E-002
  -7.0333194746911604E-002   2.0528270201819701E-002   4.0041807642064019E-002
  -6.8437598006281880E-002   2.0208543801040223E-002   3.9587832590922946E-002
  -6.6542001265652129E-002   1.9808172513170162E-002   3.9338071271712974E-002
  -6.4646404525022419E-002   1.9327156338209348E-002   3.9292523684434241E-002
  -6.2750807784392695E-002   1.8765495276157951E-002   3.9451189829086616E-002
  -7.7430885493656676E-002   2.2697878543898646E-002   3.5082849837826682E-002
  -7.5321949573981889E-002   2.2397330951818086E-002   3.4503321619763709E-002
  -7.3213013654307074E-002   2.1973960725093056E-002   3.4146258027859672E-002
  -7.1104077734632287E-002   2.1427767863723392E-002   3.4011659062114688E-002
  -6.8995141814957486E-002   2.0758752367709327E-002   3.4099524722528557E-002
  -8.4561521093569972E-002   2.4867486885977508E-002   3.0164159716065259E-002
  -8.2220995100622266E-002   2.4586118102595908E-002   2.9416900583526584E-002
  -7.9880469107674601E-002   2.4139748937015988E-002   2.8910356971374465E-002
  -7.7539943114726895E-002   2.3528379389237436E-002   2.8644528879609339E-002
  -7.5199417121779216E-002   2.2752009459260564E-002   2.8619416308230922E-002
  -5.0141963552033861E-002   1.4778981093055310E-002   4.9769190118983564E-002
  -4.8635375311465168E-002   1.4412376527713044E-002   4.9364820660592029E-002
  -4.7128787070896454E-002   1.4002756611920769E-002   4.9196281256438934E-002
  -4.5622198830327740E-002   1.3550121345678394E-002   4.9263571906524251E-002
  -4.4115610589759033E-002   1.3054470728986189E-002   4.9566692610847951E-002
  -5.6466415030084788E-002   1.6772238184606630E-002   4.4674411627904920E-002
  -5.4728628864942112E-002   1.6286742705378693E-002   4.4272005806996140E-002
  -5.2990842699799458E-002   1.5777336663408893E-002   4.4096165780996857E-002
  -5.1253056534656782E-002   1.5244020058697358E-002   4.4146891549907114E-002
  -4.9515270369514100E-002   1.4686792891243861E-002   4.4424183113726812E-002
  -6.2750807784392695E-002   1.8765495276157951E-002   3.9451189829086616E-002
  -6.0791087954004952E-002   1.8161108883044397E-002   3.9069852433368697E-002
  -5.8831368123617202E-002   1.7551916714897156E-002   3.8905816573231361E-002
  -5.6871648293229472E-002   1.6937918771716211E-002   3.8959082248674691E-002
  -5.4911928462841708E-002   1.6319115053501615E-002   3.9229649459698590E-002
  -6.8995141814957486E-002   2.0758752367709327E-002   3.4099524722528557E-002
  -6.6822752578653583E-002   2.0035475060710073E-002   3.3758360539709646E-002
  -6.4650363342349693E-002   1.9326496766385336E-002   3.3625233633142543E-002
  -6.2477974106045796E-002   1.8631817484735094E-002   3.3700144002827039E-002
  -6.0305584869741878E-002   1.7951437215759355E-002   3.3983091648763258E-002
  -7.5199417121779216E-002   2.2752009459260564E-002   2.8619416308230922E-002
  -7.2823622738888066E-002   2.1909841238375791E-002   2.8337530126019195E-002
  -7.0447828355996889E-002   2.1101076817873619E-002   2.8254416960730236E-002
  -6.8072033973105739E-002   2.0325716197753980E-002   2.8370076812364108E-002
  -6.5696239590214589E-002   1.9583759378017040E-002   2.8684509680920844E-002
  -4.4115610589759033E-002   1.3054470728986189E-002   4.9566692610847951E-002
  -4.2367807699207588E-002   1.2539995118862890E-002   4.9283069990311457E-002
  -4.0620004808656178E-002   1.2030884872326897E-002   4.9174577090134286E-002
  -3.8872201918104754E-002   1.1527139989378890E-002   4.9241213910316398E-002
  -3.7124399027553323E-002   1.1028760470018162E-002   4.9482980450858027E-002
  -4.9515270369514100E-002   1.4686792891243861E-002   4.4424183113726812E-002
  -4.7587643545432108E-002   1.4125355482094121E-002   4.4158684114257357E-002
  -4.5660016721350165E-002   1.3579408152293679E-002   4.4077703261489673E-002
  -4.3732389897268187E-002   1.3048950901842101E-002   4.4181240555423773E-002
  -4.1804763073186237E-002   1.2533983730739995E-002   4.4469295996059532E-002
  -5.4911928462841708E-002   1.6319115053501615E-002   3.9229649459698590E-002
  -5.2795089278886778E-002   1.5710715845325601E-002   3.8992398797057778E-002
  -5.0678250094931876E-002   1.5127931432260239E-002   3.8949054707461087E-002
  -4.8561410910976939E-002   1.4570761814305645E-002   3.9099617190908639E-002
  -4.6444571727022051E-002   1.4039206991461911E-002   3.9444086247400187E-002
  -6.0305584869741878E-002   1.7951437215759355E-002   3.3983091648763258E-002
  -5.7990144899571563E-002   1.7296076208557012E-002   3.3784214038712623E-002
  -5.5674704929401318E-002   1.6676454712226937E-002   3.3788631428048527E-002
  -5.3359264959231024E-002   1.6092572726769134E-002   3.3996343816771121E-002
  -5.1043824989060765E-002   1.5544430252183730E-002   3.4407351204880199E-002
  -6.5696239590214589E-002   1.9583759378017040E-002   2.8684509680920844E-002
  -6.3172810407486513E-002   1.8881436571788368E-002   2.8534129839221961E-002
  -6.0649381224758436E-002   1.8224977992193608E-002   2.8596433423252049E-002
  -5.8125952042030402E-002   1.7614383639232518E-002   2.8871420433011177E-002
  -5.5602522859302311E-002   1.7049653512905716E-002   2.9359090868499305E-002
  -3.7124399027553323E-002   1.1028760470018162E-002   4.9482980450858027E-002
  -3.5607724147694364E-002   1.0499186661205973E-002   4.9230584700384161E-002
  -3.4091049267835405E-002   9.9018589099027360E-003   4.9132488740491587E-002
  -3.2574374387976453E-002   9.2367772161088650E-003   4.9188692571179929E-002
  -3.1057699508117487E-002   8.5039415798240370E-003   4.9399196192449479E-002
  -4.1804763073186237E-002   1.2533983730739995E-002   4.4469295996059532E-002
  -4.0156560660338070E-002   1.1990632722926331E-002   4.4164677532159441E-002
  -3.8508358247489896E-002   1.1375023962340358E-002   4.3968814343656848E-002
  -3.6860155834641702E-002   1.0687157448982298E-002   4.3881706430551587E-002
  -3.5211953421793549E-002   9.9270331828520408E-003   4.3903353792843658E-002
  -4.6444571727022051E-002   1.4039206991461911E-002   3.9444086247400187E-002
  -4.4710386296368324E-002   1.3482078784646745E-002   3.9082741259792664E-002
  -4.2976200865714631E-002   1.2848189014777876E-002   3.8784607032398645E-002
  -4.1242015435060959E-002   1.2137537681855678E-002   3.8549683565218387E-002
  -3.9507830004407274E-002   1.1350124785879712E-002   3.8377970858251814E-002
  -5.1043824989060765E-002   1.5544430252183730E-002   3.4407351204880199E-002
  -4.9269201055785208E-002   1.4973524846367131E-002   3.3984775883283476E-002
  -4.7494577122509735E-002   1.4321354067215502E-002   3.3579866806716929E-002
  -4.5719953189234212E-002   1.3587917914728919E-002   3.3192623975180205E-002
  -4.3945329255958746E-002   1.2773216388907660E-002   3.2823047388673400E-002
  -5.5602522859302311E-002   1.7049653512905716E-002   2.9359090868499305E-002
  -5.3833004938588697E-002   1.6464970908087545E-002   2.8870781402632439E-002
  -5.2063487017875068E-002   1.5794519119653017E-002   2.8354593666611638E-002
  -5.0293969097161474E-002   1.5038298147602519E-002   2.7810527660437373E-002
  -4.8524451176447880E-002   1.4196307991935331E-002   2.7238583384109061E-002
  -3.1057699508117487E-002   8.5039415798240370E-003   4.9399196192449479E-002
  -2.9328296669273474E-002   7.7107097856897178E-003   4.8712646335657250E-002
  -2.7598893830429447E-002   6.8644396183464018E-003   4.7897173121334624E-002
  -2.5869490991585448E-002   5.9651310777947622E-003   4.6952776549481573E-002
  -2.4140088152741435E-002   5.0127841640346116E-003   4.5879456620098180E-002
  -3.5211953421793549E-002   9.9270331828520408E-003   4.3903353792843658E-002
  -3.3472202586107967E-002   9.1339768925827458E-003   4.3191130287128537E-002
  -3.1732451750422414E-002   8.3473143068075184E-003   4.2628526132627076E-002
  -2.9992700914736853E-002   7.5670454255269276E-003   4.2215541329338691E-002
  -2.8252950079051292E-002   6.7931702487404877E-003   4.1952175877264408E-002
  -3.9507830004407274E-002   1.1350124785879712E-002   3.8377970858251814E-002
  -3.7479188463136255E-002   1.0557243999475691E-002   3.7699505781316506E-002
  -3.5450546921865236E-002   9.8301889952686766E-003   3.7449202764338704E-002
  -3.3421905380594273E-002   9.1689597732588952E-003   3.7627061807318486E-002
  -3.1393263839323240E-002   8.5735563334462528E-003   3.8233082910255178E-002
  -4.3945329255958746E-002   1.2773216388907660E-002   3.2823047388673400E-002
  -4.1349254300358351E-002   1.1980511106368677E-002   3.2237772818221246E-002
  -3.8753179344757985E-002   1.1313063683729814E-002   3.2359203016470175E-002
  -3.6157104389157695E-002   1.0770874120990962E-002   3.3187337983420356E-002
  -3.3561029433557335E-002   1.0353942418152129E-002   3.4722177719072142E-002
  -4.8524451176447880E-002   1.4196307991935331E-002   2.7238583384109061E-002
  -4.5082400097774228E-002   1.3403778213261719E-002   2.6805931397842431E-002
  -4.1640349019100686E-002   1.2795938372190799E-002   2.7358526889020990E-002
  -3.8198297940427089E-002   1.2372788468722907E-002   2.8896369857644724E-002
  -3.4756246861753437E-002   1.2134328502857894E-002   3.1419460303713453E-002
  -9.0359428416410398E-002   0.0000000000000000        4.9835222077763378E-002
  -9.3960594095990405E-002   5.4009977887165411E-003   5.3209542459036599E-002
  -9.7561759775570397E-002   1.0667648770073920E-002   5.4966788779404703E-002
 -0.10116292545515040        1.5799952944072132E-002   5.5106961038867690E-002
 -0.10476409113473040        2.0797910310711171E-002   5.3630059237425531E-002
 -0.10329257044319896        0.0000000000000000        5.8658702855802776E-002
 -0.10682976994689324        1.0881766514080005E-002   5.2117938794596717E-002
 -0.11036696945058749        1.9169485328954662E-002   4.7322181146067246E-002
 -0.11390416895428175        2.4863156444623967E-002   4.4271429910214363E-002
 -0.11744136845797605        2.7962779861087948E-002   4.2965685087038089E-002
 -0.12645763989597542        0.0000000000000000        7.4192802805128730E-002
 -0.12656879275020225        1.6362535239443469E-002   5.5277253409597195E-002
 -0.12667994560442905        2.7671321887835394E-002   4.1468790900323994E-002
 -0.12679109845865585        3.3926359945175802E-002   3.2767415277309052E-002
 -0.12690225131288271        3.5127649411464706E-002   2.9173126540552465E-002
 -0.15985463677473974        0.0000000000000000        9.6437521925741232E-002
 -0.15317766250591738        2.1843303964806930E-002   6.2687486304038059E-002
 -0.14650068823709508        3.6173158446716147E-002   3.7406618042174898E-002
 -0.13982371396827273        4.2989563445727678E-002   2.0594917140151783E-002
 -0.13314673969945037        4.2292518961841441E-002   1.2252383597968645E-002
 -0.20348356107949198        0.0000000000000000       0.12539286021764029     
 -0.18665637921403874        2.7324072690170394E-002   7.4348637477919283E-002
 -0.16982919734858554        4.4674995005596886E-002   3.5135662571620013E-002
 -0.15300201548313230        5.2052766946279479E-002   7.7539354987424813E-003
 -0.13617483361767907        4.9457388512218224E-002  -7.7965437407132923E-003
 -0.10476409113473040        2.0797910310711171E-002   5.3630059237425531E-002
 -0.10211043566147046        2.4943775835610461E-002   4.5646838515818050E-002
  -9.9456780188210497E-002   2.7519804484389392E-002   3.9347767466180829E-002
  -9.6803124714950547E-002   2.8525996257047982E-002   3.4732846088513854E-002
  -9.4149469241690598E-002   2.7962351153586189E-002   3.1802074382817160E-002
 -0.11744136845797605        2.7962779861087948E-002   4.2965685087038089E-002
 -0.11348916851284474        2.9438760532086803E-002   3.6701716299748076E-002
 -0.10953696856771339        3.0261503411360816E-002   3.1350686784230544E-002
 -0.10558476862258208        3.0431008498909978E-002   2.6912596540485490E-002
 -0.10163256867745075        2.9947275794734274E-002   2.3387445568512875E-002
 -0.12690225131288271        3.5127649411464706E-002   2.9173126540552465E-002
 -0.12242271729607782        3.3933745228563163E-002   2.5545008771975422E-002
 -0.11794318327927293        3.3003202338332226E-002   2.2058619874973099E-002
 -0.11346364926246801        3.2336020740772020E-002   1.8713959849545457E-002
 -0.10898411524566315        3.1932200435882380E-002   1.5511028695692505E-002
 -0.13314673969945037        4.2292518961841441E-002   1.2252383597968645E-002
 -0.12891108201116971        3.8428729925039470E-002   1.2176715932500167E-002
 -0.12467542432288901        3.5744901265303684E-002   1.1471566738408531E-002
 -0.12043976663460836        3.4241032982633986E-002   1.0136936015693737E-002
 -0.11620410894632766        3.3917125077030499E-002   8.1728237643559146E-003
 -0.13617483361767907        4.9457388512218224E-002  -7.7965437407132923E-003
 -0.13295426265812041        4.2923714621515840E-002  -3.4031622186777959E-003
 -0.12973369169856172        3.8486600192275081E-002  -4.1047262546330988E-004
 -0.12651312073900300        3.6146045224496076E-002   1.1815250389303283E-003
 -0.12329254977944434        3.5902049718178564E-002   1.3728307745031199E-003
  -9.4149469241690598E-002   2.7962351153586189E-002   3.1802074382817160E-002
  -9.1752482204660424E-002   2.6757499480719170E-002   3.1241932774990433E-002
  -8.9355495167630278E-002   2.5840071545162067E-002   3.0782233127922883E-002
  -8.6958508130600132E-002   2.5210067346914843E-002   3.0422975441614507E-002
  -8.4561521093569972E-002   2.4867486885977508E-002   3.0164159716065259E-002
 -0.10163256867745075        2.9947275794734274E-002   2.3387445568512875E-002
  -9.9130818864137535E-002   2.9167793413201363E-002   2.3137758730918074E-002
  -9.6629069050824301E-002   2.8450049468678830E-002   2.2997155485130216E-002
  -9.4127319237511081E-002   2.7794043961166623E-002   2.2965635831149286E-002
  -9.1625569424197834E-002   2.7199776890664856E-002   2.3043199768975411E-002
 -0.10898411524566315        3.1932200435882380E-002   1.5511028695692505E-002
 -0.10636896102501901        3.1578087345683514E-002   1.5346111328029998E-002
 -0.10375380680437489        3.1060027392195554E-002   1.5298919183222275E-002
 -0.10113865258373080        3.0378020575418420E-002   1.5369452261269326E-002
  -9.8523498363086631E-002   2.9532066895352149E-002   1.5557710562171208E-002
 -0.11620410894632766        3.3917125077030499E-002   8.1728237643559146E-003
 -0.11346690868730486        3.3988381278165711E-002   7.8669905663262384E-003
 -0.11072970842828206        3.3670005315712279E-002   7.6875242221991725E-003
 -0.10799250816925923        3.2961997189670175E-002   7.6344247319746440E-003
 -0.10525530791023642        3.1864356900039387E-002   7.7076920956528697E-003
 -0.12329254977944434        3.5902049718178564E-002   1.3728307745031199E-003
 -0.12042466185099504        3.6398675210647879E-002   7.0039644580682792E-004
 -0.11755677392254572        3.6279983239229069E-002   1.6297060206088565E-004
 -0.11468888599409641        3.5545973803921944E-002  -2.3944675673470694E-004
 -0.11182099806564710        3.4196646904726735E-002  -5.0685563057983885E-004
  -8.4561521093569972E-002   2.4867486885977508E-002   3.0164159716065259E-002
  -8.2220995100622266E-002   2.4586118102595908E-002   2.9416900583526584E-002
  -7.9880469107674601E-002   2.4139748937015988E-002   2.8910356971374465E-002
  -7.7539943114726895E-002   2.3528379389237436E-002   2.8644528879609339E-002
  -7.5199417121779216E-002   2.2752009459260564E-002   2.8619416308230922E-002
  -9.1625569424197834E-002   2.7199776890664856E-002   2.3043199768975411E-002
  -8.9042939277996586E-002   2.6606437750975910E-002   2.2351007182250866E-002
  -8.6460309131795407E-002   2.5953216035902178E-002   2.1902307381646509E-002
  -8.3877678985594145E-002   2.5240111745443848E-002   2.1697100367162481E-002
  -8.1295048839392953E-002   2.4467124879600816E-002   2.1735386138798732E-002
  -9.8523498363086631E-002   2.9532066895352149E-002   1.5557710562171208E-002
  -9.5695986797898466E-002   2.8626757399355766E-002   1.5025702328074639E-002
  -9.2868475232710218E-002   2.7766683134788476E-002   1.4739964145831830E-002
  -9.0040963667521956E-002   2.6951844101650205E-002   1.4700496015442639E-002
  -8.7213452102333805E-002   2.6182240299940970E-002   1.4907297936907225E-002
 -0.10525530791023642        3.1864356900039387E-002   7.7076920956528697E-003
 -0.10218013766032774        3.0647077047735668E-002   7.4409860209979795E-003
  -9.9104967410419062E-002   2.9580150233674773E-002   7.4233272639302192E-003
  -9.6029797160510341E-002   2.8663576457856520E-002   7.6547158244497648E-003
  -9.2954626910601634E-002   2.7897355720281118E-002   8.1351517025565739E-003
 -0.11182099806564710        3.4196646904726735E-002  -5.0685563057983885E-004
 -0.10849539186528451        3.2667396696115597E-002  -4.0314173897931793E-004
 -0.10516978566492186        3.1393617332560964E-002  -4.7603264057977102E-005
 -0.10184417946455920        3.0375308814062890E-002   5.5975979418376037E-004
  -9.8518573264196607E-002   2.9612471140621321E-002   1.4189474357463872E-003
  -7.5199417121779216E-002   2.2752009459260564E-002   2.8619416308230922E-002
  -7.2823622738888066E-002   2.1909841238375791E-002   2.8337530126019195E-002
  -7.0447828355996889E-002   2.1101076817873619E-002   2.8254416960730236E-002
  -6.8072033973105739E-002   2.0325716197753980E-002   2.8370076812364108E-002
  -6.5696239590214589E-002   1.9583759378017040E-002   2.8684509680920844E-002
  -8.1295048839392953E-002   2.4467124879600816E-002   2.1735386138798732E-002
  -7.8760430503698825E-002   2.3662928674089714E-002   2.1606213195355675E-002
  -7.6225812168004711E-002   2.2856196364627115E-002   2.1595915140595771E-002
  -7.3691193832310542E-002   2.2046927951213300E-002   2.1704491974518982E-002
  -7.1156575496616484E-002   2.1235123433848008E-002   2.1931943697125367E-002
  -8.7213452102333805E-002   2.6182240299940970E-002   1.4907297936907225E-002
  -8.4599907942076363E-002   2.5416016109803589E-002   1.4894898327898920E-002
  -8.1986363781818936E-002   2.4611315911380754E-002   1.4921475479334142E-002
  -7.9372819621561480E-002   2.3768139704672651E-002   1.4987029391212542E-002
  -7.6759275461304066E-002   2.2886487489679030E-002   1.5091560063534418E-002
  -9.2954626910601634E-002   2.7897355720281118E-002   8.1351517025565739E-003
  -9.0342055054020584E-002   2.7169103545517433E-002   8.2035855236490124E-003
  -8.7729483197439576E-002   2.6366435458134350E-002   8.2310979769448199E-003
  -8.5116911340858498E-002   2.5489351458132040E-002   8.2176890624448967E-003
  -8.2504339484277447E-002   2.4537851545510053E-002   8.1633587801484830E-003
  -9.8518573264196607E-002   2.9612471140621321E-002   1.4189474357463872E-003
  -9.5986871839531640E-002   2.8922190981231527E-002   1.5322747826053695E-003
  -9.3455170414866645E-002   2.8121555004887930E-002   1.5247826334287284E-003
  -9.0923468990201664E-002   2.7210563211591276E-002   1.3964709882157214E-003
  -8.8391767565536683E-002   2.6189215601341020E-002   1.1473398469670770E-003
  -6.5696239590214589E-002   1.9583759378017040E-002   2.8684509680920844E-002
  -6.3172810407486513E-002   1.8881436571788368E-002   2.8534129839221961E-002
  -6.0649381224758436E-002   1.8224977992193608E-002   2.8596433423252049E-002
  -5.8125952042030402E-002   1.7614383639232518E-002   2.8871420433011177E-002
  -5.5602522859302311E-002   1.7049653512905716E-002   2.9359090868499305E-002
  -7.1156575496616484E-002   2.1235123433848008E-002   2.1931943697125367E-002
  -6.8416519621558827E-002   2.0449958232639412E-002   2.1693982545190602E-002
  -6.5676463746501157E-002   1.9720607767695429E-002   2.1676591352186012E-002
  -6.2936407871443528E-002   1.9047072039016157E-002   2.1879770118111666E-002
  -6.0196351996385858E-002   1.8429351046601594E-002   2.2303518842967357E-002
  -7.6759275461304066E-002   2.2886487489679030E-002   1.5091560063534418E-002
  -7.3794706360715737E-002   2.2018479893490622E-002   1.4775968110994679E-002
  -7.0830137260127282E-002   2.1216237543197472E-002   1.4688832650586167E-002
  -6.7865568159538911E-002   2.0479760438799791E-002   1.4830153682309027E-002
  -6.4900999058950443E-002   1.9809048580297556E-002   1.5199931206163114E-002
  -8.2504339484277447E-002   2.4537851545510053E-002   8.1633587801484830E-003
  -7.9307370624957144E-002   2.3587001554341638E-002   7.7800865366343553E-003
  -7.6110401765636854E-002   2.2711867318699459E-002   7.6331573184525749E-003
  -7.2913432906316522E-002   2.1912448838583370E-002   7.7225711256035997E-003
  -6.9716464046996246E-002   2.1188746113993809E-002   8.0483279580869094E-003
  -8.8391767565536683E-002   2.6189215601341020E-002   1.1473398469670770E-003
  -8.4954512414283312E-002   2.5155523215192821E-002   7.0633782210915985E-004
  -8.1517257263029830E-002   2.4207497094201280E-002   5.0956535578518258E-004
  -7.8080002111776375E-002   2.3345137238366800E-002   5.5702244799480174E-004
  -7.4642746960522977E-002   2.2568443647689507E-002   8.4870909873824285E-004
  -5.5602522859302311E-002   1.7049653512905716E-002   2.9359090868499305E-002
  -5.3833004938588697E-002   1.6464970908087545E-002   2.8870781402632439E-002
  -5.2063487017875068E-002   1.5794519119653017E-002   2.8354593666611638E-002
  -5.0293969097161474E-002   1.5038298147602519E-002   2.7810527660437373E-002
  -4.8524451176447880E-002   1.4196307991935331E-002   2.7238583384109061E-002
  -6.0196351996385858E-002   1.8429351046601594E-002   2.2303518842967357E-002
  -5.8331370311454536E-002   1.7790525488078551E-002   2.1735836959941718E-002
  -5.6466388626523180E-002   1.7053676061073192E-002   2.1386960875505359E-002
  -5.4601406941591851E-002   1.6218802765585981E-002   2.1256890589658219E-002
  -5.2736425256660502E-002   1.5285905601617134E-002   2.1345626102400206E-002
  -6.4900999058950443E-002   1.9809048580297556E-002   1.5199931206163114E-002
  -6.2693869541058433E-002   1.9116080068069322E-002   1.4540622221113145E-002
  -6.0486740023166341E-002   1.8312833002493700E-002   1.4346803103395520E-002
  -5.8279610505274262E-002   1.7399307383569776E-002   1.4618473853009940E-002
  -5.6072480987382184E-002   1.6375503211298964E-002   1.5355634469956428E-002
  -6.9716464046996246E-002   2.1188746113993809E-002   8.0483279580869094E-003
  -6.6920502627400472E-002   2.0441634648060321E-002   7.2851371861467687E-003
  -6.4124541207804697E-002   1.9571989943913654E-002   7.2341203502819529E-003
  -6.1328579788208909E-002   1.8579812001553793E-002   7.8952774504923110E-003
  -5.8532618368613142E-002   1.7465100820980781E-002   9.2686084867779385E-003
  -7.4642746960522977E-002   2.2568443647689507E-002   8.4870909873824285E-004
  -7.1011269570480540E-002   2.1767189228051209E-002  -3.0618144957528237E-005
  -6.7379792180438103E-002   2.0831146885334273E-002   4.8912616165075473E-005
  -6.3748314790395610E-002   1.9760316619537172E-002   1.0873013821053185E-003
  -6.0116837400353229E-002   1.8554698430662486E-002   3.0845481528644081E-003
  -4.8524451176447880E-002   1.4196307991935331E-002   2.7238583384109061E-002
  -4.5082400097774228E-002   1.3403778213261719E-002   2.6805931397842431E-002
  -4.1640349019100686E-002   1.2795938372190799E-002   2.7358526889020990E-002
  -3.8198297940427089E-002   1.2372788468722907E-002   2.8896369857644724E-002
  -3.4756246861753437E-002   1.2134328502857894E-002   3.1419460303713453E-002
  -5.2736425256660502E-002   1.5285905601617134E-002   2.1345626102400206E-002
  -4.8775320289761878E-002   1.4383144419467142E-002   2.1494191761265657E-002
  -4.4814215322863282E-002   1.3638679069437415E-002   2.1695617719135918E-002
  -4.0853110355964742E-002   1.3052509551527321E-002   2.1949903976010807E-002
  -3.6892005389066118E-002   1.2624635865737588E-002   2.2257050531891087E-002
  -5.6072480987382184E-002   1.6375503211298964E-002   1.5355634469956428E-002
  -5.2524709310698976E-002   1.5362510625672537E-002   1.6059023668471201E-002
  -4.8976937634015769E-002   1.4481419766683636E-002   1.5882885987550256E-002
  -4.5429165957332492E-002   1.3732230634331761E-002   1.4827221427193883E-002
  -4.1881394280649395E-002   1.3114943228617060E-002   1.2892029987401965E-002
  -5.8532618368613142E-002   1.7465100820980781E-002   9.2686084867779385E-003
  -5.6330567160585786E-002   1.6341876831878058E-002   1.0500427119459067E-002
  -5.4128515952558257E-002   1.5324160463929832E-002   9.9203316942642807E-003
  -5.1926464744530734E-002   1.4411951717136131E-002   7.5283222111936559E-003
  -4.9724413536503365E-002   1.3605250591496587E-002   3.3243986702465728E-003
  -6.0116837400353229E-002   1.8554698430662486E-002   3.0845481528644081E-003
  -6.0192893839421946E-002   1.7321243038083689E-002   4.8184021142289590E-003
  -6.0268950278490607E-002   1.6166901161176500E-002   3.8079548392774554E-003
  -6.0345006717559296E-002   1.5091672799940455E-002   5.3206328009654247E-005
  -6.0421063156627985E-002   1.4095557954376225E-002  -6.4458434195746594E-003
 </DataArray>
 </PointData>
 </Piece>
 <Piece  NumberOfPoints="          1600 "  NumberOfCells="         1024 ">
 <Points>
 <DataArray  type="Float64" NumberOfComponents="3"  format="ascii" >
  0.50000000000000000        0.0000000000000000        0.0000000000000000     
  0.53125000000000000        0.0000000000000000        0.0000000000000000     
  0.56250000000000000        0.0000000000000000        0.0000000000000000     
  0.59375000000000000        0.0000000000000000        0.0000000000000000     
  0.62500000000000000        0.0000000000000000        0.0000000000000000     
  0.50000000000000000        3.1250000000000000E-002   0.0000000000000000     
  0.53125000000000000        3.1250000000000000E-002   0.0000000000000000     
  0.56250000000000000        3.1250000000000000E-002   0.0000000000000000     
  0.59375000000000000        3.1250000000000000E-002   0.0000000000000000     
  0.62500000000000000        3.1250000000000000E-002   0.0000000000000000     
  0.50000000000000000        6.2500000000000000E-002   0.0000000000000000     
  0.53125000000000000        6.2500000000000000E-002   0.0000000000000000     
  0.56250000000000000        6.2500000000000000E-002   0.0000000000000000     
  0.59375000000000000        6.2500000000000000E-002   0.0000000000000000     
  0.62500000000000000        6.2500000000000000E-002   0.0000000000000000     
  0.50000000000000000        9.3750000000000000E-002   0.0000000000000000     
  0.53125000000000000        9.3750000000000000E-002   0.0000000000000000     
  0.56250000000000000        9.3750000000000000E-002   0.0000000000000000     
  0.59375000000000000        9.3750000000000000E-002   0.0000000000000000     
  0.62500000000000000        9.3750000000000000E-002   0.0000000000000000     
  0.50000000000000000       0.12500000000000000        0.0000000000000000     
  0.53125000000000000       0.12500000000000000        0.0000000000000000     
  0.56250000000000000       0.12500000000000000        0.0000000000000000     
  0.59375000000000000       0.12500000000000000        0.0000000000000000     
  0.62500000000000000       0.12500000000000000        0.0000000000000000     
  0.62500000000000000        0.0000000000000000        0.0000000000000000     
  0.65625000000000000        0.0000000000000000        0.0000000000000000     
  0.68750000000000000        0.0000000000000000        0.0000000000000000     
  0.71875000000000000        0.0000000000000000        0.0000000000000000     
  0.75000000000000000        0.0000000000000000        0.0000000000000000     
  0.62500000000000000        3.1250000000000000E-002   0.0000000000000000     
  0.65625000000000000        3.1250000000000000E-002   0.0000000000000000     
  0.68750000000000000        3.1250000000000000E-002   0.0000000000000000     
  0.71875000000000000        3.1250000000000000E-002   0.0000000000000000     
  0.75000000000000000        3.1250000000000000E-002   0.0000000000000000     
  0.62500000000000000        6.2500000000000000E-002   0.0000000000000000     
  0.65625000000000000        6.2500000000000000E-002   0.0000000000000000     
  0.68750000000000000        6.2500000000000000E-002   0.0000000000000000     
  0.71875000000000000        6.2500000000000000E-002   0.0000000000000000     
  0.75000000000000000        6.2500000000000000E-002   0.0000000000000000     
  0.62500000000000000        9.3750000000000000E-002   0.0000000000000000     
  0.65625000000000000        9.3750000000000000E-002   0.0000000000000000     
  0.68750000000000000        9.3750000000000000E-002   0.0000000000000000     
  0.71875000000000000        9.3750000000000000E-002   0.0000000000000000     
  0.75000000000000000        9.3750000000000000E-002   0.0000000000000000     
  0.62500000000000000       0.12500000000000000        0.0000000000000000     
  0.65625000000000000       0.12500000000000000        0.0000000000000000     
  0.68750000000000000       0.12500000000000000        0.0000000000000000     
  0.71875000000000000       0.12500000000000000        0.0000000000000000     
  0.75000000000000000       0.12500000000000000        0.0000000000000000     
  0.75000000000000000        0.0000000000000000        0.0000000000000000     
  0.78125000000000000        0.0000000000000000        0.0000000000000000     
  0.81250000000000000        0.0000000000000000        0.0000000000000000     
  0.84375000000000000        0.0000000000000000        0.0000000000000000     
  0.87500000000000000        0.0000000000000000        0.0000000000000000     
  0.75000000000000000        3.1250000000000000E-002   0.0000000000000000     
  0.78125000000000000        3.1250000000000000E-002   0.0000000000000000     
  0.81250000000000000        3.1250000000000000E-002   0.0000000000000000     
  0.84375000000000000        3.1250000000000000E-002   0.0000000000000000     
  0.87500000000000000        3.1250000000000000E-002   0.0000000000000000     
  0.75000000000000000        6.2500000000000000E-002   0.0000000000000000     
  0.78125000000000000        6.2500000000000000E-002   0.0000000000000000     
  0.81250000000000000        6.2500000000000000E-002   0.0000000000000000     
  0.84375000000000000        6.2500000000000000E-002   0.0000000000000000     
  0.87500000000000000        6.2500000000000000E-002   0.0000000000000000     
  0.75000000000000000        9.3750000000000000E-002   0.0000000000000000     
  0.78125000000000000        9.3750000000000000E-002   0.0000000000000000     
  0.81250000000000000        9.3750000000000000E-002   0.0000000000000000     
  0.84375000000000000        9.3750000000000000E-002   0.0000000000000000     
  0.87500000000000000        9.3750000000000000E-002   0.0000000000000000     
  0.75000000000000000       0.12500000000000000        0.0000000000000000     
  0.78125000000000000       0.12500000000000000        0.0000000000000000     
  0.81250000000000000       0.12500000000000000        0.0000000000000000     
  0.84375000000000000       0.12500000000000000        0.0000000000000000     
  0.87500000000000000       0.12500000000000000        0.0000000000000000     
  0.87500000000000000        0.0000000000000000        0.0000000000000000     
  0.90625000000000000        0.0000000000000000        0.0000000000000000     
  0.93750000000000000        0.0000000000000000        0.0000000000000000     
  0.96875000000000000        0.0000000000000000        0.0000000000000000     
   1.0000000000000000        0.0000000000000000        0.0000000000000000     
  0.87500000000000000        3.1250000000000000E-002   0.0000000000000000     
  0.90625000000000000        3.1250000000000000E-002   0.0000000000000000     
  0.93750000000000000        3.1250000000000000E-002   0.0000000000000000     
  0.96875000000000000        3.1250000000000000E-002   0.0000000000000000     
   1.0000000000000000        3.1250000000000000E-002   0.0000000000000000     
  0.87500000000000000        6.2500000000000000E-002   0.0000000000000000     
  0.90625000000000000        6.2500000000000000E-002   0.0000000000000000     
  0.93750000000000000        6.2500000000000000E-002   0.0000000000000000     
  0.96875000000000000        6.2500000000000000E-002   0.0000000000000000     
   1.0000000000000000        6.2500000000000000E-002   0.0000000000000000     
  0.87500000000000000        9.3750000000000000E-002   0.0000000000000000     
  0.90625000000000000        9.3750000000000000E-002   0.0000000000000000     
  0.93750000000000000        9.3750000000000000E-002   0.0000000000000000     
  0.96875000000000000        9.3750000000000000E-002   0.0000000000000000     
   1.0000000000000000        9.3750000000000000E-002   0.0000000000000000     
  0.87500000000000000       0.12500000000000000        0.0000000000000000     
  0.90625000000000000       0.12500000000000000        0.0000000000000000     
  0.93750000000000000       0.12500000000000000        0.0000000000000000     
  0.96875000000000000       0.12500000000000000        0.0000000000000000     
   1.0000000000000000       0.12500000000000000        0.0000000000000000     
   1.0000000000000000        0.0000000000000000        0.0000000000000000     
   1.0312500000000000        0.0000000000000000        0.0000000000000000     
   1.0625000000000000        0.0000000000000000        0.0000000000000000     
   1.0937500000000000        0.0000000000000000        0.0000000000000000     
   1.1250000000000000        0.0000000000000000        0.0000000000000000     
   1.0000000000000000        3.1250000000000000E-002   0.0000000000000000     
   1.0312500000000000        3.1250000000000000E-002   0.0000000000000000     
   1.0625000000000000        3.1250000000000000E-002   0.0000000000000000     
   1.0937500000000000        3.1250000000000000E-002   0.0000000000000000     
   1.1250000000000000        3.1250000000000000E-002   0.0000000000000000     
   1.0000000000000000        6.2500000000000000E-002   0.0000000000000000     
   1.0312500000000000        6.2500000000000000E-002   0.0000000000000000     
   1.0625000000000000        6.2500000000000000E-002   0.0000000000000000     
   1.0937500000000000        6.2500000000000000E-002   0.0000000000000000     
   1.1250000000000000        6.2500000000000000E-002   0.0000000000000000     
   1.0000000000000000        9.3750000000000000E-002   0.0000000000000000     
   1.0312500000000000        9.3750000000000000E-002   0.0000000000000000     
   1.0625000000000000        9.3750000000000000E-002   0.0000000000000000     
   1.0937500000000000        9.3750000000000000E-002   0.0000000000000000     
   1.1250000000000000        9.3750000000000000E-002   0.0000000000000000     
   1.0000000000000000       0.12500000000000000        0.0000000000000000     
   1.0312500000000000       0.12500000000000000        0.0000000000000000     
   1.0625000000000000       0.12500000000000000        0.0000000000000000     
   1.0937500000000000       0.12500000000000000        0.0000000000000000     
   1.1250000000000000       0.12500000000000000        0.0000000000000000     
   1.1250000000000000        0.0000000000000000        0.0000000000000000     
   1.1562500000000000        0.0000000000000000        0.0000000000000000     
   1.1875000000000000        0.0000000000000000        0.0000000000000000     
   1.2187500000000000        0.0000000000000000        0.0000000000000000     
   1.2500000000000000        0.0000000000000000        0.0000000000000000     
   1.1250000000000000        3.1250000000000000E-002   0.0000000000000000     
   1.1562500000000000        3.1250000000000000E-002   0.0000000000000000     
   1.1875000000000000        3.1250000000000000E-002   0.0000000000000000     
   1.2187500000000000        3.1250000000000000E-002   0.0000000000000000     
   1.2500000000000000        3.1250000000000000E-002   0.0000000000000000     
   1.1250000000000000        6.2500000000000000E-002   0.0000000000000000     
   1.1562500000000000        6.2500000000000000E-002   0.0000000000000000     
   1.1875000000000000        6.2500000000000000E-002   0.0000000000000000     
   1.2187500000000000        6.2500000000000000E-002   0.0000000000000000     
   1.2500000000000000        6.2500000000000000E-002   0.0000000000000000     
   1.1250000000000000        9.3750000000000000E-002   0.0000000000000000     
   1.1562500000000000        9.3750000000000000E-002   0.0000000000000000     
   1.1875000000000000        9.3750000000000000E-002   0.0000000000000000     
   1.2187500000000000        9.3750000000000000E-002   0.0000000000000000     
   1.2500000000000000        9.3750000000000000E-002   0.0000000000000000     
   1.1250000000000000       0.12500000000000000        0.0000000000000000     
   1.1562500000000000       0.12500000000000000        0.0000000000000000     
   1.1875000000000000       0.12500000000000000        0.0000000000000000     
   1.2187500000000000       0.12500000000000000        0.0000000000000000     
   1.2500000000000000       0.12500000000000000        0.0000000000000000     
   1.2500000000000000        0.0000000000000000        0.0000000000000000     
   1.2812500000000000        0.0000000000000000        0.0000000000000000     
   1.3125000000000000        0.0000000000000000        0.0000000000000000     
   1.3437500000000000        0.0000000000000000        0.0000000000000000     
   1.3750000000000000        0.0000000000000000        0.0000000000000000     
   1.2500000000000000        3.1250000000000000E-002   0.0000000000000000     
   1.2812500000000000        3.1250000000000000E-002   0.0000000000000000     
   1.3125000000000000        3.1250000000000000E-002   0.0000000000000000     
   1.3437500000000000        3.1250000000000000E-002   0.0000000000000000     
   1.3750000000000000        3.1250000000000000E-002   0.0000000000000000     
   1.2500000000000000        6.2500000000000000E-002   0.0000000000000000     
   1.2812500000000000        6.2500000000000000E-002   0.0000000000000000     
   1.3125000000000000        6.2500000000000000E-002   0.0000000000000000     
   1.3437500000000000        6.2500000000000000E-002   0.0000000000000000     
   1.3750000000000000        6.2500000000000000E-002   0.0000000000000000     
   1.2500000000000000        9.3750000000000000E-002   0.0000000000000000     
   1.2812500000000000        9.3750000000000000E-002   0.0000000000000000     
   1.3125000000000000        9.3750000000000000E-002   0.0000000000000000     
   1.3437500000000000        9.3750000000000000E-002   0.0000000000000000     
   1.3750000000000000        9.3750000000000000E-002   0.0000000000000000     
   1.2500000000000000       0.12500000000000000        0.0000000000000000     
   1.2812500000000000       0.12500000000000000        0.0000000000000000     
   1.3125000000000000       0.12500000000000000        0.0000000000000000     
   1.3437500000000000       0.12500000000000000        0.0000000000000000     
   1.3750000000000000       0.12500000000000000        0.0000000000000000     
   1.3750000000000000        0.0000000000000000        0.0000000000000000     
   1.4062500000000000        0.0000000000000000        0.0000000000000000     
   1.4375000000000000        0.0000000000000000        0.0000000000000000     
   1.4687500000000000        0.0000000000000000        0.0000000000000000     
   1.5000000000000000        0.0000000000000000        0.0000000000000000     
   1.3750000000000000        3.1250000000000000E-002   0.0000000000000000     
   1.4062500000000000        3.1250000000000000E-002   0.0000000000000000     
   1.4375000000000000        3.1250000000000000E-002   0.0000000000000000     
   1.4687500000000000        3.1250000000000000E-002   0.0000000000000000     
   1.5000000000000000        3.1250000000000000E-002   0.0000000000000000     
   1.3750000000000000        6.2500000000000000E-002   0.0000000000000000     
   1.4062500000000000        6.2500000000000000E-002   0.0000000000000000     
   1.4375000000000000        6.2500000000000000E-002   0.0000000000000000     
   1.4687500000000000        6.2500000000000000E-002   0.0000000000000000     
   1.5000000000000000        6.2500000000000000E-002   0.0000000000000000     
   1.3750000000000000        9.3750000000000000E-002   0.0000000000000000     
   1.4062500000000000        9.3750000000000000E-002   0.0000000000000000     
   1.4375000000000000        9.3750000000000000E-002   0.0000000000000000     
   1.4687500000000000        9.3750000000000000E-002   0.0000000000000000     
   1.5000000000000000        9.3750000000000000E-002   0.0000000000000000     
   1.3750000000000000       0.12500000000000000        0.0000000000000000     
   1.4062500000000000       0.12500000000000000        0.0000000000000000     
   1.4375000000000000       0.12500000000000000        0.0000000000000000     
   1.4687500000000000       0.12500000000000000        0.0000000000000000     
   1.5000000000000000       0.12500000000000000        0.0000000000000000     
  0.50000000000000000       0.12500000000000000        0.0000000000000000     
  0.53125000000000000       0.12500000000000000        0.0000000000000000     
  0.56250000000000000       0.12500000000000000        0.0000000000000000     
  0.59375000000000000       0.12500000000000000        0.0000000000000000     
  0.62500000000000000       0.12500000000000000        0.0000000000000000     
  0.50000000000000000       0.15625000000000000        0.0000000000000000     
  0.53125000000000000       0.15625000000000000        0.0000000000000000     
  0.56250000000000000       0.15625000000000000        0.0000000000000000     
  0.59375000000000000       0.15625000000000000        0.0000000000000000     
  0.62500000000000000       0.15625000000000000        0.0000000000000000     
  0.50000000000000000       0.18750000000000000        0.0000000000000000     
  0.53125000000000000       0.18750000000000000        0.0000000000000000     
  0.56250000000000000       0.18750000000000000        0.0000000000000000     
  0.59375000000000000       0.18750000000000000        0.0000000000000000     
  0.62500000000000000       0.18750000000000000        0.0000000000000000     
  0.50000000000000000       0.21875000000000000        0.0000000000000000     
  0.53125000000000000       0.21875000000000000        0.0000000000000000     
  0.56250000000000000       0.21875000000000000        0.0000000000000000     
  0.59375000000000000       0.21875000000000000        0.0000000000000000     
  0.62500000000000000       0.21875000000000000        0.0000000000000000     
  0.50000000000000000       0.25000000000000000        0.0000000000000000     
  0.53125000000000000       0.25000000000000000        0.0000000000000000     
  0.56250000000000000       0.25000000000000000        0.0000000000000000     
  0.59375000000000000       0.25000000000000000        0.0000000000000000     
  0.62500000000000000       0.25000000000000000        0.0000000000000000     
  0.62500000000000000       0.12500000000000000        0.0000000000000000     
  0.65625000000000000       0.12500000000000000        0.0000000000000000     
  0.68750000000000000       0.12500000000000000        0.0000000000000000     
  0.71875000000000000       0.12500000000000000        0.0000000000000000     
  0.75000000000000000       0.12500000000000000        0.0000000000000000     
  0.62500000000000000       0.15625000000000000        0.0000000000000000     
  0.65625000000000000       0.15625000000000000        0.0000000000000000     
  0.68750000000000000       0.15625000000000000        0.0000000000000000     
  0.71875000000000000       0.15625000000000000        0.0000000000000000     
  0.75000000000000000       0.15625000000000000        0.0000000000000000     
  0.62500000000000000       0.18750000000000000        0.0000000000000000     
  0.65625000000000000       0.18750000000000000        0.0000000000000000     
  0.68750000000000000       0.18750000000000000        0.0000000000000000     
  0.71875000000000000       0.18750000000000000        0.0000000000000000     
  0.75000000000000000       0.18750000000000000        0.0000000000000000     
  0.62500000000000000       0.21875000000000000        0.0000000000000000     
  0.65625000000000000       0.21875000000000000        0.0000000000000000     
  0.68750000000000000       0.21875000000000000        0.0000000000000000     
  0.71875000000000000       0.21875000000000000        0.0000000000000000     
  0.75000000000000000       0.21875000000000000        0.0000000000000000     
  0.62500000000000000       0.25000000000000000        0.0000000000000000     
  0.65625000000000000       0.25000000000000000        0.0000000000000000     
  0.68750000000000000       0.25000000000000000        0.0000000000000000     
  0.71875000000000000       0.25000000000000000        0.0000000000000000     
  0.75000000000000000       0.25000000000000000        0.0000000000000000     
  0.75000000000000000       0.12500000000000000        0.0000000000000000     
  0.78125000000000000       0.12500000000000000        0.0000000000000000     
  0.81250000000000000       0.12500000000000000        0.0000000000000000     
  0.84375000000000000       0.12500000000000000        0.0000000000000000     
  0.87500000000000000       0.12500000000000000        0.0000000000000000     
  0.75000000000000000       0.15625000000000000        0.0000000000000000     
  0.78125000000000000       0.15625000000000000        0.0000000000000000     
  0.81250000000000000       0.15625000000000000        0.0000000000000000     
  0.84375000000000000       0.15625000000000000        0.0000000000000000     
  0.87500000000000000       0.15625000000000000        0.0000000000000000     
  0.75000000000000000       0.18750000000000000        0.0000000000000000     
  0.78125000000000000       0.18750000000000000        0.0000000000000000     
  0.81250000000000000       0.18750000000000000        0.0000000000000000     
  0.84375000000000000       0.18750000000000000        0.0000000000000000     
  0.87500000000000000       0.18750000000000000        0.0000000000000000     
  0.75000000000000000       0.21875000000000000        0.0000000000000000     
  0.78125000000000000       0.21875000000000000        0.0000000000000000     
  0.81250000000000000       0.21875000000000000        0.0000000000000000     
  0.84375000000000000       0.21875000000000000        0.0000000000000000     
  0.87500000000000000       0.21875000000000000        0.0000000000000000     
  0.75000000000000000       0.25000000000000000        0.0000000000000000     
  0.78125000000000000       0.25000000000000000        0.0000000000000000     
  0.81250000000000000       0.25000000000000000        0.0000000000000000     
  0.84375000000000000       0.25000000000000000        0.0000000000000000     
  0.87500000000000000       0.25000000000000000        0.0000000000000000     
  0.87500000000000000       0.12500000000000000        0.0000000000000000     
  0.90625000000000000       0.12500000000000000        0.0000000000000000     
  0.93750000000000000       0.12500000000000000        0.0000000000000000     
  0.96875000000000000       0.12500000000000000        0.0000000000000000     
   1.0000000000000000       0.12500000000000000        0.0000000000000000     
  0.87500000000000000       0.15625000000000000        0.0000000000000000     
  0.90625000000000000       0.15625000000000000        0.0000000000000000     
  0.93750000000000000       0.15625000000000000        0.0000000000000000     
  0.96875000000000000       0.15625000000000000        0.0000000000000000     
   1.0000000000000000       0.15625000000000000        0.0000000000000000     
  0.87500000000000000       0.18750000000000000        0.0000000000000000     
  0.90625000000000000       0.18750000000000000        0.0000000000000000     
  0.93750000000000000       0.18750000000000000        0.0000000000000000     
  0.96875000000000000       0.18750000000000000        0.0000000000000000     
   1.0000000000000000       0.18750000000000000        0.0000000000000000     
  0.87500000000000000       0.21875000000000000        0.0000000000000000     
  0.90625000000000000       0.21875000000000000        0.0000000000000000     
  0.93750000000000000       0.21875000000000000        0.0000000000000000     
  0.96875000000000000       0.21875000000000000        0.0000000000000000     
   1.0000000000000000       0.21875000000000000        0.0000000000000000     
  0.87500000000000000       0.25000000000000000        0.0000000000000000     
  0.90625000000000000       0.25000000000000000        0.0000000000000000     
  0.93750000000000000       0.25000000000000000        0.0000000000000000     
  0.96875000000000000       0.25000000000000000        0.0000000000000000     
   1.0000000000000000       0.25000000000000000        0.0000000000000000     
   1.0000000000000000       0.12500000000000000        0.0000000000000000     
   1.0312500000000000       0.12500000000000000        0.0000000000000000     
   1.0625000000000000       0.12500000000000000        0.0000000000000000     
   1.0937500000000000       0.12500000000000000        0.0000000000000000     
   1.1250000000000000       0.12500000000000000        0.0000000000000000     
   1.0000000000000000       0.15625000000000000        0.0000000000000000     
   1.0312500000000000       0.15625000000000000        0.0000000000000000     
   1.0625000000000000       0.15625000000000000        0.0000000000000000     
   1.0937500000000000       0.15625000000000000        0.0000000000000000     
   1.1250000000000000       0.15625000000000000        0.0000000000000000     
   1.0000000000000000       0.18750000000000000        0.0000000000000000     
   1.0312500000000000       0.18750000000000000        0.0000000000000000     
   1.0625000000000000       0.18750000000000000        0.0000000000000000     
   1.0937500000000000       0.18750000000000000        0.0000000000000000     
   1.1250000000000000       0.18750000000000000        0.0000000000000000     
   1.0000000000000000       0.21875000000000000        0.0000000000000000     
   1.0312500000000000       0.21875000000000000        0.0000000000000000     
   1.0625000000000000       0.21875000000000000        0.0000000000000000     
   1.0937500000000000       0.21875000000000000        0.0000000000000000     
   1.1250000000000000       0.21875000000000000        0.0000000000000000     
   1.0000000000000000       0.25000000000000000        0.0000000000000000     
   1.0312500000000000       0.25000000000000000        0.0000000000000000     
   1.0625000000000000       0.25000000000000000        0.0000000000000000     
   1.0937500000000000       0.25000000000000000        0.0000000000000000     
   1.1250000000000000       0.25000000000000000        0.0000000000000000     
   1.1250000000000000       0.12500000000000000        0.0000000000000000     
   1.1562500000000000       0.12500000000000000        0.0000000000000000     
   1.1875000000000000       0.12500000000000000        0.0000000000000000     
   1.2187500000000000       0.12500000000000000        0.0000000000000000     
   1.2500000000000000       0.12500000000000000        0.0000000000000000     
   1.1250000000000000       0.15625000000000000        0.0000000000000000     
   1.1562500000000000       0.15625000000000000        0.0000000000000000     
   1.1875000000000000       0.15625000000000000        0.0000000000000000     
   1.2187500000000000       0.15625000000000000        0.0000000000000000     
   1.2500000000000000       0.15625000000000000        0.0000000000000000     
   1.1250000000000000       0.18750000000000000        0.0000000000000000     
   1.1562500000000000       0.18750000000000000        0.0000000000000000     
   1.1875000000000000       0.18750000000000000        0.0000000000000000     
   1.2187500000000000       0.18750000000000000        0.0000000000000000     
   1.2500000000000000       0.18750000000000000        0.0000000000000000     
   1.1250000000000000       0.21875000000000000        0.0000000000000000     
   1.1562500000000000       0.21875000000000000        0.0000000000000000     
   1.1875000000000000       0.21875000000000000        0.0000000000000000     
   1.2187500000000000       0.21875000000000000        0.0000000000000000     
   1.2500000000000000       0.21875000000000000        0.0000000000000000     
   1.1250000000000000       0.25000000000000000        0.0000000000000000     
   1.1562500000000000       0.25000000000000000        0.0000000000000000     
   1.1875000000000000       0.25000000000000000        0.0000000000000000     
   1.2187500000000000       0.25000000000000000        0.0000000000000000     
   1.2500000000000000       0.25000000000000000        0.0000000000000000     
   1.2500000000000000       0.12500000000000000        0.0000000000000000     
   1.2812500000000000       0.12500000000000000        0.0000000000000000     
   1.3125000000000000       0.12500000000000000        0.0000000000000000     
   1.3437500000000000       0.12500000000000000        0.0000000000000000     
   1.3750000000000000       0.12500000000000000        0.0000000000000000     
   1.2500000000000000       0.15625000000000000        0.0000000000000000     
   1.2812500000000000       0.15625000000000000        0.0000000000000000     
   1.3125000000000000       0.15625000000000000        0.0000000000000000     
   1.3437500000000000       0.15625000000000000        0.0000000000000000     
   1.3750000000000000       0.15625000000000000        0.0000000000000000     
   1.2500000000000000       0.18750000000000000        0.0000000000000000     
   1.2812500000000000       0.18750000000000000        0.0000000000000000     
   1.3125000000000000       0.18750000000000000        0.0000000000000000     
   1.3437500000000000       0.18750000000000000        0.0000000000000000     
   1.3750000000000000       0.18750000000000000        0.0000000000000000     
   1.2500000000000000       0.21875000000000000        0.0000000000000000     
   1.2812500000000000       0.21875000000000000        0.0000000000000000     
   1.3125000000000000       0.21875000000000000        0.0000000000000000     
   1.3437500000000000       0.21875000000000000        0.0000000000000000     
   1.3750000000000000       0.21875000000000000        0.0000000000000000     
   1.2500000000000000       0.25000000000000000        0.0000000000000000     
   1.2812500000000000       0.25000000000000000        0.0000000000000000     
   1.3125000000000000       0.25000000000000000        0.0000000000000000     
   1.3437500000000000       0.25000000000000000        0.0000000000000000     
   1.3750000000000000       0.25000000000000000        0.0000000000000000     
   1.3750000000000000       0.12500000000000000        0.0000000000000000     
   1.4062500000000000       0.12500000000000000        0.0000000000000000     
   1.4375000000000000       0.12500000000000000        0.0000000000000000     
   1.4687500000000000       0.12500000000000000        0.0000000000000000     
   1.5000000000000000       0.12500000000000000        0.0000000000000000     
   1.3750000000000000       0.15625000000000000        0.0000000000000000     
   1.4062500000000000       0.15625000000000000        0.0000000000000000     
   1.4375000000000000       0.15625000000000000        0.0000000000000000     
   1.4687500000000000       0.15625000000000000        0.0000000000000000     
   1.5000000000000000       0.15625000000000000        0.0000000000000000     
   1.3750000000000000       0.18750000000000000        0.0000000000000000     
   1.4062500000000000       0.18750000000000000        0.0000000000000000     
   1.4375000000000000       0.18750000000000000        0.0000000000000000     
   1.4687500000000000       0.18750000000000000        0.0000000000000000     
   1.5000000000000000       0.18750000000000000        0.0000000000000000     
   1.3750000000000000       0.21875000000000000        0.0000000000000000     
   1.4062500000000000       0.21875000000000000        0.0000000000000000     
   1.4375000000000000       0.21875000000000000        0.0000000000000000     
   1.4687500000000000       0.21875000000000000        0.0000000000000000     
   1.5000000000000000       0.21875000000000000        0.0000000000000000     
   1.3750000000000000       0.25000000000000000        0.0000000000000000     
   1.4062500000000000       0.25000000000000000        0.0000000000000000     
   1.4375000000000000       0.25000000000000000        0.0000000000000000     
   1.4687500000000000       0.25000000000000000        0.0000000000000000     
   1.5000000000000000       0.25000000000000000        0.0000000000000000     
  0.50000000000000000       0.25000000000000000        0.0000000000000000     
  0.53125000000000000       0.25000000000000000        0.0000000000000000     
  0.56250000000000000       0.25000000000000000        0.0000000000000000     
  0.59375000000000000       0.25000000000000000        0.0000000000000000     
  0.62500000000000000       0.25000000000000000        0.0000000000000000     
  0.50000000000000000       0.28125000000000000        0.0000000000000000     
  0.53125000000000000       0.28125000000000000        0.0000000000000000     
  0.56250000000000000       0.28125000000000000        0.0000000000000000     
  0.59375000000000000       0.28125000000000000        0.0000000000000000     
  0.62500000000000000       0.28125000000000000        0.0000000000000000     
  0.50000000000000000       0.31250000000000000        0.0000000000000000     
  0.53125000000000000       0.31250000000000000        0.0000000000000000     
  0.56250000000000000       0.31250000000000000        0.0000000000000000     
  0.59375000000000000       0.31250000000000000        0.0000000000000000     
  0.62500000000000000       0.31250000000000000        0.0000000000000000     
  0.50000000000000000       0.34375000000000000        0.0000000000000000     
  0.53125000000000000       0.34375000000000000        0.0000000000000000     
  0.56250000000000000       0.34375000000000000        0.0000000000000000     
  0.59375000000000000       0.34375000000000000        0.0000000000000000     
  0.62500000000000000       0.34375000000000000        0.0000000000000000     
  0.50000000000000000       0.37500000000000000        0.0000000000000000     
  0.53125000000000000       0.37500000000000000        0.0000000000000000     
  0.56250000000000000       0.37500000000000000        0.0000000000000000     
  0.59375000000000000       0.37500000000000000        0.0000000000000000     
  0.62500000000000000       0.37500000000000000        0.0000000000000000     
  0.62500000000000000       0.25000000000000000        0.0000000000000000     
  0.65625000000000000       0.25000000000000000        0.0000000000000000     
  0.68750000000000000       0.25000000000000000        0.0000000000000000     
  0.71875000000000000       0.25000000000000000        0.0000000000000000     
  0.75000000000000000       0.25000000000000000        0.0000000000000000     
  0.62500000000000000       0.28125000000000000        0.0000000000000000     
  0.65625000000000000       0.28125000000000000        0.0000000000000000     
  0.68750000000000000       0.28125000000000000        0.0000000000000000     
  0.71875000000000000       0.28125000000000000        0.0000000000000000     
  0.75000000000000000       0.28125000000000000        0.0000000000000000     
  0.62500000000000000       0.31250000000000000        0.0000000000000000     
  0.65625000000000000       0.31250000000000000        0.0000000000000000     
  0.68750000000000000       0.31250000000000000        0.0000000000000000     
  0.71875000000000000       0.31250000000000000        0.0000000000000000     
  0.75000000000000000       0.31250000000000000        0.0000000000000000     
  0.62500000000000000       0.34375000000000000        0.0000000000000000     
  0.65625000000000000       0.34375000000000000        0.0000000000000000     
  0.68750000000000000       0.34375000000000000        0.0000000000000000     
  0.71875000000000000       0.34375000000000000        0.0000000000000000     
  0.75000000000000000       0.34375000000000000        0.0000000000000000     
  0.62500000000000000       0.37500000000000000        0.0000000000000000     
  0.65625000000000000       0.37500000000000000        0.0000000000000000     
  0.68750000000000000       0.37500000000000000        0.0000000000000000     
  0.71875000000000000       0.37500000000000000        0.0000000000000000     
  0.75000000000000000       0.37500000000000000        0.0000000000000000     
  0.75000000000000000       0.25000000000000000        0.0000000000000000     
  0.78125000000000000       0.25000000000000000        0.0000000000000000     
  0.81250000000000000       0.25000000000000000        0.0000000000000000     
  0.84375000000000000       0.25000000000000000        0.0000000000000000     
  0.87500000000000000       0.25000000000000000        0.0000000000000000     
  0.75000000000000000       0.28125000000000000        0.0000000000000000     
  0.78125000000000000       0.28125000000000000        0.0000000000000000     
  0.81250000000000000       0.28125000000000000        0.0000000000000000     
  0.84375000000000000       0.28125000000000000        0.0000000000000000     
  0.87500000000000000       0.28125000000000000        0.0000000000000000     
  0.75000000000000000       0.31250000000000000        0.0000000000000000     
  0.78125000000000000       0.31250000000000000        0.0000000000000000     
  0.81250000000000000       0.31250000000000000        0.0000000000000000     
  0.84375000000000000       0.31250000000000000        0.0000000000000000     
  0.87500000000000000       0.31250000000000000        0.0000000000000000     
  0.75000000000000000       0.34375000000000000        0.0000000000000000     
  0.78125000000000000       0.34375000000000000        0.0000000000000000     
  0.81250000000000000       0.34375000000000000        0.0000000000000000     
  0.84375000000000000       0.34375000000000000        0.0000000000000000     
  0.87500000000000000       0.34375000000000000        0.0000000000000000     
  0.75000000000000000       0.37500000000000000        0.0000000000000000     
  0.78125000000000000       0.37500000000000000        0.0000000000000000     
  0.81250000000000000       0.37500000000000000        0.0000000000000000     
  0.84375000000000000       0.37500000000000000        0.0000000000000000     
  0.87500000000000000       0.37500000000000000        0.0000000000000000     
  0.87500000000000000       0.25000000000000000        0.0000000000000000     
  0.90625000000000000       0.25000000000000000        0.0000000000000000     
  0.93750000000000000       0.25000000000000000        0.0000000000000000     
  0.96875000000000000       0.25000000000000000        0.0000000000000000     
   1.0000000000000000       0.25000000000000000        0.0000000000000000     
  0.87500000000000000       0.28125000000000000        0.0000000000000000     
  0.90625000000000000       0.28125000000000000        0.0000000000000000     
  0.93750000000000000       0.28125000000000000        0.0000000000000000     
  0.96875000000000000       0.28125000000000000        0.0000000000000000     
   1.0000000000000000       0.28125000000000000        0.0000000000000000     
  0.87500000000000000       0.31250000000000000        0.0000000000000000     
  0.90625000000000000       0.31250000000000000        0.0000000000000000     
  0.93750000000000000       0.31250000000000000        0.0000000000000000     
  0.96875000000000000       0.31250000000000000        0.0000000000000000     
   1.0000000000000000       0.31250000000000000        0.0000000000000000     
  0.87500000000000000       0.34375000000000000        0.0000000000000000     
  0.90625000000000000       0.34375000000000000        0.0000000000000000     
  0.93750000000000000       0.34375000000000000        0.0000000000000000     
  0.96875000000000000       0.34375000000000000        0.0000000000000000     
   1.0000000000000000       0.34375000000000000        0.0000000000000000     
  0.87500000000000000       0.37500000000000000        0.0000000000000000     
  0.90625000000000000       0.37500000000000000        0.0000000000000000     
  0.93750000000000000       0.37500000000000000        0.0000000000000000     
  0.96875000000000000       0.37500000000000000        0.0000000000000000     
   1.0000000000000000       0.37500000000000000        0.0000000000000000     
   1.0000000000000000       0.25000000000000000        0.0000000000000000     
   1.0312500000000000       0.25000000000000000        0.0000000000000000     
   1.0625000000000000       0.25000000000000000        0.0000000000000000     
   1.0937500000000000       0.25000000000000000        0.0000000000000000     
   1.1250000000000000       0.25000000000000000        0.0000000000000000     
   1.0000000000000000       0.28125000000000000        0.0000000000000000     
   1.0312500000000000       0.28125000000000000        0.0000000000000000     
   1.0625000000000000       0.28125000000000000        0.0000000000000000     
   1.0937500000000000       0.28125000000000000        0.0000000000000000     
   1.1250000000000000       0.28125000000000000        0.0000000000000000     
   1.0000000000000000       0.31250000000000000        0.0000000000000000     
   1.0312500000000000       0.31250000000000000        0.0000000000000000     
   1.0625000000000000       0.31250000000000000        0.0000000000000000     
   1.0937500000000000       0.31250000000000000        0.0000000000000000     
   1.1250000000000000       0.31250000000000000        0.0000000000000000     
   1.0000000000000000       0.34375000000000000        0.0000000000000000     
   1.0312500000000000       0.34375000000000000        0.0000000000000000     
   1.0625000000000000       0.34375000000000000        0.0000000000000000     
   1.0937500000000000       0.34375000000000000        0.0000000000000000     
   1.1250000000000000       0.34375000000000000        0.0000000000000000     
   1.0000000000000000       0.37500000000000000        0.0000000000000000     
   1.0312500000000000       0.37500000000000000        0.0000000000000000     
   1.0625000000000000       0.37500000000000000        0.0000000000000000     
   1.0937500000000000       0.37500000000000000        0.0000000000000000     
   1.1250000000000000       0.37500000000000000        0.0000000000000000     
   1.1250000000000000       0.25000000000000000        0.0000000000000000     
   1.1562500000000000       0.25000000000000000        0.0000000000000000     
   1.1875000000000000       0.25000000000000000        0.0000000000000000     
   1.2187500000000000       0.25000000000000000        0.0000000000000000     
   1.2500000000000000       0.25000000000000000        0.0000000000000000     
   1.1250000000000000       0.28125000000000000        0.0000000000000000     
   1.1562500000000000       0.28125000000000000        0.0000000000000000     
   1.1875000000000000       0.28125000000000000        0.0000000000000000     
   1.2187500000000000       0.28125000000000000        0.0000000000000000     
   1.2500000000000000       0.28125000000000000        0.0000000000000000     
   1.1250000000000000       0.31250000000000000        0.0000000000000000     
   1.1562500000000000       0.31250000000000000        0.0000000000000000     
   1.1875000000000000       0.31250000000000000        0.0000000000000000     
   1.2187500000000000       0.31250000000000000        0.0000000000000000     
   1.2500000000000000       0.31250000000000000        0.0000000000000000     
   1.1250000000000000       0.34375000000000000        0.0000000000000000     
   1.1562500000000000       0.34375000000000000        0.0000000000000000     
   1.1875000000000000       0.34375000000000000        0.0000000000000000     
   1.2187500000000000       0.34375000000000000        0.0000000000000000     
   1.2500000000000000       0.34375000000000000        0.0000000000000000     
   1.1250000000000000       0.37500000000000000        0.0000000000000000     
   1.1562500000000000       0.37500000000000000        0.0000000000000000     
   1.1875000000000000       0.37500000000000000        0.0000000000000000     
   1.2187500000000000       0.37500000000000000        0.0000000000000000     
   1.2500000000000000       0.37500000000000000        0.0000000000000000     
   1.2500000000000000       0.25000000000000000        0.0000000000000000     
   1.2812500000000000       0.25000000000000000        0.0000000000000000     
   1.3125000000000000       0.25000000000000000        0.0000000000000000     
   1.3437500000000000       0.25000000000000000        0.0000000000000000     
   1.3750000000000000       0.25000000000000000        0.0000000000000000     
   1.2500000000000000       0.28125000000000000        0.0000000000000000     
   1.2812500000000000       0.28125000000000000        0.0000000000000000     
   1.3125000000000000       0.28125000000000000        0.0000000000000000     
   1.3437500000000000       0.28125000000000000        0.0000000000000000     
   1.3750000000000000       0.28125000000000000        0.0000000000000000     
   1.2500000000000000       0.31250000000000000        0.0000000000000000     
   1.2812500000000000       0.31250000000000000        0.0000000000000000     
   1.3125000000000000       0.31250000000000000        0.0000000000000000     
   1.3437500000000000       0.31250000000000000        0.0000000000000000     
   1.3750000000000000       0.31250000000000000        0.0000000000000000     
   1.2500000000000000       0.34375000000000000        0.0000000000000000     
   1.2812500000000000       0.34375000000000000        0.0000000000000000     
   1.3125000000000000       0.34375000000000000        0.0000000000000000     
   1.3437500000000000       0.34375000000000000        0.0000000000000000     
   1.3750000000000000       0.34375000000000000        0.0000000000000000     
   1.2500000000000000       0.37500000000000000        0.0000000000000000     
   1.2812500000000000       0.37500000000000000        0.0000000000000000     
   1.3125000000000000       0.37500000000000000        0.0000000000000000     
   1.3437500000000000       0.37500000000000000        0.0000000000000000     
   1.3750000000000000       0.37500000000000000        0.0000000000000000     
   1.3750000000000000       0.25000000000000000        0.0000000000000000     
   1.4062500000000000       0.25000000000000000        0.0000000000000000     
   1.4375000000000000       0.25000000000000000        0.0000000000000000     
   1.4687500000000000       0.25000000000000000        0.0000000000000000     
   1.5000000000000000       0.25000000000000000        0.0000000000000000     
   1.3750000000000000       0.28125000000000000        0.0000000000000000     
   1.4062500000000000       0.28125000000000000        0.0000000000000000     
   1.4375000000000000       0.28125000000000000        0.0000000000000000     
   1.4687500000000000       0.28125000000000000        0.0000000000000000     
   1.5000000000000000       0.28125000000000000        0.0000000000000000     
   1.3750000000000000       0.31250000000000000        0.0000000000000000     
   1.4062500000000000       0.31250000000000000        0.0000000000000000     
   1.4375000000000000       0.31250000000000000        0.0000000000000000     
   1.4687500000000000       0.31250000000000000        0.0000000000000000     
   1.5000000000000000       0.31250000000000000        0.0000000000000000     
   1.3750000000000000       0.34375000000000000        0.0000000000000000     
   1.4062500000000000       0.34375000000000000        0.0000000000000000     
   1.4375000000000000       0.34375000000000000        0.0000000000000000     
   1.4687500000000000       0.34375000000000000        0.0000000000000000     
   1.5000000000000000       0.34375000000000000        0.0000000000000000     
   1.3750000000000000       0.37500000000000000        0.0000000000000000     
   1.4062500000000000       0.37500000000000000        0.0000000000000000     
   1.4375000000000000       0.37500000000000000        0.0000000000000000     
   1.4687500000000000       0.37500000000000000        0.0000000000000000     
   1.5000000000000000       0.37500000000000000        0.0000000000000000     
  0.50000000000000000       0.37500000000000000        0.0000000000000000     
  0.53125000000000000       0.37500000000000000        0.0000000000000000     
  0.56250000000000000       0.37500000000000000        0.0000000000000000     
  0.59375000000000000       0.37500000000000000        0.0000000000000000     
  0.62500000000000000       0.37500000000000000        0.0000000000000000     
  0.50000000000000000       0.40625000000000000        0.0000000000000000     
  0.53125000000000000       0.40625000000000000        0.0000000000000000     
  0.56250000000000000       0.40625000000000000        0.0000000000000000     
  0.59375000000000000       0.40625000000000000        0.0000000000000000     
  0.62500000000000000       0.40625000000000000        0.0000000000000000     
  0.50000000000000000       0.43750000000000000        0.0000000000000000     
  0.53125000000000000       0.43750000000000000        0.0000000000000000     
  0.56250000000000000       0.43750000000000000        0.0000000000000000     
  0.59375000000000000       0.43750000000000000        0.0000000000000000     
  0.62500000000000000       0.43750000000000000        0.0000000000000000     
  0.50000000000000000       0.46875000000000000        0.0000000000000000     
  0.53125000000000000       0.46875000000000000        0.0000000000000000     
  0.56250000000000000       0.46875000000000000        0.0000000000000000     
  0.59375000000000000       0.46875000000000000        0.0000000000000000     
  0.62500000000000000       0.46875000000000000        0.0000000000000000     
  0.50000000000000000       0.50000000000000000        0.0000000000000000     
  0.53125000000000000       0.50000000000000000        0.0000000000000000     
  0.56250000000000000       0.50000000000000000        0.0000000000000000     
  0.59375000000000000       0.50000000000000000        0.0000000000000000     
  0.62500000000000000       0.50000000000000000        0.0000000000000000     
  0.62500000000000000       0.37500000000000000        0.0000000000000000     
  0.65625000000000000       0.37500000000000000        0.0000000000000000     
  0.68750000000000000       0.37500000000000000        0.0000000000000000     
  0.71875000000000000       0.37500000000000000        0.0000000000000000     
  0.75000000000000000       0.37500000000000000        0.0000000000000000     
  0.62500000000000000       0.40625000000000000        0.0000000000000000     
  0.65625000000000000       0.40625000000000000        0.0000000000000000     
  0.68750000000000000       0.40625000000000000        0.0000000000000000     
  0.71875000000000000       0.40625000000000000        0.0000000000000000     
  0.75000000000000000       0.40625000000000000        0.0000000000000000     
  0.62500000000000000       0.43750000000000000        0.0000000000000000     
  0.65625000000000000       0.43750000000000000        0.0000000000000000     
  0.68750000000000000       0.43750000000000000        0.0000000000000000     
  0.71875000000000000       0.43750000000000000        0.0000000000000000     
  0.75000000000000000       0.43750000000000000        0.0000000000000000     
  0.62500000000000000       0.46875000000000000        0.0000000000000000     
  0.65625000000000000       0.46875000000000000        0.0000000000000000     
  0.68750000000000000       0.46875000000000000        0.0000000000000000     
  0.71875000000000000       0.46875000000000000        0.0000000000000000     
  0.75000000000000000       0.46875000000000000        0.0000000000000000     
  0.62500000000000000       0.50000000000000000        0.0000000000000000     
  0.65625000000000000       0.50000000000000000        0.0000000000000000     
  0.68750000000000000       0.50000000000000000        0.0000000000000000     
  0.71875000000000000       0.50000000000000000        0.0000000000000000     
  0.75000000000000000       0.50000000000000000        0.0000000000000000     
  0.75000000000000000       0.37500000000000000        0.0000000000000000     
  0.78125000000000000       0.37500000000000000        0.0000000000000000     
  0.81250000000000000       0.37500000000000000        0.0000000000000000     
  0.84375000000000000       0.37500000000000000        0.0000000000000000     
  0.87500000000000000       0.37500000000000000        0.0000000000000000     
  0.75000000000000000       0.40625000000000000        0.0000000000000000     
  0.78125000000000000       0.40625000000000000        0.0000000000000000     
  0.81250000000000000       0.40625000000000000        0.0000000000000000     
  0.84375000000000000       0.40625000000000000        0.0000000000000000     
  0.87500000000000000       0.40625000000000000        0.0000000000000000     
  0.75000000000000000       0.43750000000000000        0.0000000000000000     
  0.78125000000000000       0.43750000000000000        0.0000000000000000     
  0.81250000000000000       0.43750000000000000        0.0000000000000000     
  0.84375000000000000       0.43750000000000000        0.0000000000000000     
  0.87500000000000000       0.43750000000000000        0.0000000000000000     
  0.75000000000000000       0.46875000000000000        0.0000000000000000     
  0.78125000000000000       0.46875000000000000        0.0000000000000000     
  0.81250000000000000       0.46875000000000000        0.0000000000000000     
  0.84375000000000000       0.46875000000000000        0.0000000000000000     
  0.87500000000000000       0.46875000000000000        0.0000000000000000     
  0.75000000000000000       0.50000000000000000        0.0000000000000000     
  0.78125000000000000       0.50000000000000000        0.0000000000000000     
  0.81250000000000000       0.50000000000000000        0.0000000000000000     
  0.84375000000000000       0.50000000000000000        0.0000000000000000     
  0.87500000000000000       0.50000000000000000        0.0000000000000000     
  0.87500000000000000       0.37500000000000000        0.0000000000000000     
  0.90625000000000000       0.37500000000000000        0.0000000000000000     
  0.93750000000000000       0.37500000000000000        0.0000000000000000     
  0.96875000000000000       0.37500000000000000        0.0000000000000000     
   1.0000000000000000       0.37500000000000000        0.0000000000000000     
  0.87500000000000000       0.40625000000000000        0.0000000000000000     
  0.90625000000000000       0.40625000000000000        0.0000000000000000     
  0.93750000000000000       0.40625000000000000        0.0000000000000000     
  0.96875000000000000       0.40625000000000000        0.0000000000000000     
   1.0000000000000000       0.40625000000000000        0.0000000000000000     
  0.87500000000000000       0.43750000000000000        0.0000000000000000     
  0.90625000000000000       0.43750000000000000        0.0000000000000000     
  0.93750000000000000       0.43750000000000000        0.0000000000000000     
  0.96875000000000000       0.43750000000000000        0.0000000000000000     
   1.0000000000000000       0.43750000000000000        0.0000000000000000     
  0.87500000000000000       0.46875000000000000        0.0000000000000000     
  0.90625000000000000       0.46875000000000000        0.0000000000000000     
  0.93750000000000000       0.46875000000000000        0.0000000000000000     
  0.96875000000000000       0.46875000000000000        0.0000000000000000     
   1.0000000000000000       0.46875000000000000        0.0000000000000000     
  0.87500000000000000       0.50000000000000000        0.0000000000000000     
  0.90625000000000000       0.50000000000000000        0.0000000000000000     
  0.93750000000000000       0.50000000000000000        0.0000000000000000     
  0.96875000000000000       0.50000000000000000        0.0000000000000000     
   1.0000000000000000       0.50000000000000000        0.0000000000000000     
   1.0000000000000000       0.37500000000000000        0.0000000000000000     
   1.0312500000000000       0.37500000000000000        0.0000000000000000     
   1.0625000000000000       0.37500000000000000        0.0000000000000000     
   1.0937500000000000       0.37500000000000000        0.0000000000000000     
   1.1250000000000000       0.37500000000000000        0.0000000000000000     
   1.0000000000000000       0.40625000000000000        0.0000000000000000     
   1.0312500000000000       0.40625000000000000        0.0000000000000000     
   1.0625000000000000       0.40625000000000000        0.0000000000000000     
   1.0937500000000000       0.40625000000000000        0.0000000000000000     
   1.1250000000000000       0.40625000000000000        0.0000000000000000     
   1.0000000000000000       0.43750000000000000        0.0000000000000000     
   1.0312500000000000       0.43750000000000000        0.0000000000000000     
   1.0625000000000000       0.43750000000000000        0.0000000000000000     
   1.0937500000000000       0.43750000000000000        0.0000000000000000     
   1.1250000000000000       0.43750000000000000        0.0000000000000000     
   1.0000000000000000       0.46875000000000000        0.0000000000000000     
   1.0312500000000000       0.46875000000000000        0.0000000000000000     
   1.0625000000000000       0.46875000000000000        0.0000000000000000     
   1.0937500000000000       0.46875000000000000        0.0000000000000000     
   1.1250000000000000       0.46875000000000000        0.0000000000000000     
   1.0000000000000000       0.50000000000000000        0.0000000000000000     
   1.0312500000000000       0.50000000000000000        0.0000000000000000     
   1.0625000000000000       0.50000000000000000        0.0000000000000000     
   1.0937500000000000       0.50000000000000000        0.0000000000000000     
   1.1250000000000000       0.50000000000000000        0.0000000000000000     
   1.1250000000000000       0.37500000000000000        0.0000000000000000     
   1.1562500000000000       0.37500000000000000        0.0000000000000000     
   1.1875000000000000       0.37500000000000000        0.0000000000000000     
   1.2187500000000000       0.37500000000000000        0.0000000000000000     
   1.2500000000000000       0.37500000000000000        0.0000000000000000     
   1.1250000000000000       0.40625000000000000        0.0000000000000000     
   1.1562500000000000       0.40625000000000000        0.0000000000000000     
   1.1875000000000000       0.40625000000000000        0.0000000000000000     
   1.2187500000000000       0.40625000000000000        0.0000000000000000     
   1.2500000000000000       0.40625000000000000        0.0000000000000000     
   1.1250000000000000       0.43750000000000000        0.0000000000000000     
   1.1562500000000000       0.43750000000000000        0.0000000000000000     
   1.1875000000000000       0.43750000000000000        0.0000000000000000     
   1.2187500000000000       0.43750000000000000        0.0000000000000000     
   1.2500000000000000       0.43750000000000000        0.0000000000000000     
   1.1250000000000000       0.46875000000000000        0.0000000000000000     
   1.1562500000000000       0.46875000000000000        0.0000000000000000     
   1.1875000000000000       0.46875000000000000        0.0000000000000000     
   1.2187500000000000       0.46875000000000000        0.0000000000000000     
   1.2500000000000000       0.46875000000000000        0.0000000000000000     
   1.1250000000000000       0.50000000000000000        0.0000000000000000     
   1.1562500000000000       0.50000000000000000        0.0000000000000000     
   1.1875000000000000       0.50000000000000000        0.0000000000000000     
   1.2187500000000000       0.50000000000000000        0.0000000000000000     
   1.2500000000000000       0.50000000000000000        0.0000000000000000     
   1.2500000000000000       0.37500000000000000        0.0000000000000000     
   1.2812500000000000       0.37500000000000000        0.0000000000000000     
   1.3125000000000000       0.37500000000000000        0.0000000000000000     
   1.3437500000000000       0.37500000000000000        0.0000000000000000     
   1.3750000000000000       0.37500000000000000        0.0000000000000000     
   1.2500000000000000       0.40625000000000000        0.0000000000000000     
   1.2812500000000000       0.40625000000000000        0.0000000000000000     
   1.3125000000000000       0.40625000000000000        0.0000000000000000     
   1.3437500000000000       0.40625000000000000        0.0000000000000000     
   1.3750000000000000       0.40625000000000000        0.0000000000000000     
   1.2500000000000000       0.43750000000000000        0.0000000000000000     
   1.2812500000000000       0.43750000000000000        0.0000000000000000     
   1.3125000000000000       0.43750000000000000        0.0000000000000000     
   1.3437500000000000       0.43750000000000000        0.0000000000000000     
   1.3750000000000000       0.43750000000000000        0.0000000000000000     
   1.2500000000000000       0.46875000000000000        0.0000000000000000     
   1.2812500000000000       0.46875000000000000        0.0000000000000000     
   1.3125000000000000       0.46875000000000000        0.0000000000000000     
   1.3437500000000000       0.46875000000000000        0.0000000000000000     
   1.3750000000000000       0.46875000000000000        0.0000000000000000     
   1.2500000000000000       0.50000000000000000        0.0000000000000000     
   1.2812500000000000       0.50000000000000000        0.0000000000000000     
   1.3125000000000000       0.50000000000000000        0.0000000000000000     
   1.3437500000000000       0.50000000000000000        0.0000000000000000     
   1.3750000000000000       0.50000000000000000        0.0000000000000000     
   1.3750000000000000       0.37500000000000000        0.0000000000000000     
   1.4062500000000000       0.37500000000000000        0.0000000000000000     
   1.4375000000000000       0.37500000000000000        0.0000000000000000     
   1.4687500000000000       0.37500000000000000        0.0000000000000000     
   1.5000000000000000       0.37500000000000000        0.0000000000000000     
   1.3750000000000000       0.40625000000000000        0.0000000000000000     
   1.4062500000000000       0.40625000000000000        0.0000000000000000     
   1.4375000000000000       0.40625000000000000        0.0000000000000000     
   1.4687500000000000       0.40625000000000000        0.0000000000000000     
   1.5000000000000000       0.40625000000000000        0.0000000000000000     
   1.3750000000000000       0.43750000000000000        0.0000000000000000     
   1.4062500000000000       0.43750000000000000        0.0000000000000000     
   1.4375000000000000       0.43750000000000000        0.0000000000000000     
   1.4687500000000000       0.43750000000000000        0.0000000000000000     
   1.5000000000000000       0.43750000000000000        0.0000000000000000     
   1.3750000000000000       0.46875000000000000        0.0000000000000000     
   1.4062500000000000       0.46875000000000000        0.0000000000000000     
   1.4375000000000000       0.46875000000000000        0.0000000000000000     
   1.4687500000000000       0.46875000000000000        0.0000000000000000     
   1.5000000000000000       0.46875000000000000        0.0000000000000000     
   1.3750000000000000       0.50000000000000000        0.0000000000000000     
   1.4062500000000000       0.50000000000000000        0.0000000000000000     
   1.4375000000000000       0.50000000000000000        0.0000000000000000     
   1.4687500000000000       0.50000000000000000        0.0000000000000000     
   1.5000000000000000       0.50000000000000000        0.0000000000000000     
  0.50000000000000000       0.50000000000000000        0.0000000000000000     
  0.53125000000000000       0.50000000000000000        0.0000000000000000     
  0.56250000000000000       0.50000000000000000        0.0000000000000000     
  0.59375000000000000       0.50000000000000000        0.0000000000000000     
  0.62500000000000000       0.50000000000000000        0.0000000000000000     
  0.50000000000000000       0.53125000000000000        0.0000000000000000     
  0.53125000000000000       0.53125000000000000        0.0000000000000000     
  0.56250000000000000       0.53125000000000000        0.0000000000000000     
  0.59375000000000000       0.53125000000000000        0.0000000000000000     
  0.62500000000000000       0.53125000000000000        0.0000000000000000     
  0.50000000000000000       0.56250000000000000        0.0000000000000000     
  0.53125000000000000       0.56250000000000000        0.0000000000000000     
  0.56250000000000000       0.56250000000000000        0.0000000000000000     
  0.59375000000000000       0.56250000000000000        0.0000000000000000     
  0.62500000000000000       0.56250000000000000        0.0000000000000000     
  0.50000000000000000       0.59375000000000000        0.0000000000000000     
  0.53125000000000000       0.59375000000000000        0.0000000000000000     
  0.56250000000000000       0.59375000000000000        0.0000000000000000     
  0.59375000000000000       0.59375000000000000        0.0000000000000000     
  0.62500000000000000       0.59375000000000000        0.0000000000000000     
  0.50000000000000000       0.62500000000000000        0.0000000000000000     
  0.53125000000000000       0.62500000000000000        0.0000000000000000     
  0.56250000000000000       0.62500000000000000        0.0000000000000000     
  0.59375000000000000       0.62500000000000000        0.0000000000000000     
  0.62500000000000000       0.62500000000000000        0.0000000000000000     
  0.62500000000000000       0.50000000000000000        0.0000000000000000     
  0.65625000000000000       0.50000000000000000        0.0000000000000000     
  0.68750000000000000       0.50000000000000000        0.0000000000000000     
  0.71875000000000000       0.50000000000000000        0.0000000000000000     
  0.75000000000000000       0.50000000000000000        0.0000000000000000     
  0.62500000000000000       0.53125000000000000        0.0000000000000000     
  0.65625000000000000       0.53125000000000000        0.0000000000000000     
  0.68750000000000000       0.53125000000000000        0.0000000000000000     
  0.71875000000000000       0.53125000000000000        0.0000000000000000     
  0.75000000000000000       0.53125000000000000        0.0000000000000000     
  0.62500000000000000       0.56250000000000000        0.0000000000000000     
  0.65625000000000000       0.56250000000000000        0.0000000000000000     
  0.68750000000000000       0.56250000000000000        0.0000000000000000     
  0.71875000000000000       0.56250000000000000        0.0000000000000000     
  0.75000000000000000       0.56250000000000000        0.0000000000000000     
  0.62500000000000000       0.59375000000000000        0.0000000000000000     
  0.65625000000000000       0.59375000000000000        0.0000000000000000     
  0.68750000000000000       0.59375000000000000        0.0000000000000000     
  0.71875000000000000       0.59375000000000000        0.0000000000000000     
  0.75000000000000000       0.59375000000000000        0.0000000000000000     
  0.62500000000000000       0.62500000000000000        0.0000000000000000     
  0.65625000000000000       0.62500000000000000        0.0000000000000000     
  0.68750000000000000       0.62500000000000000        0.0000000000000000     
  0.71875000000000000       0.62500000000000000        0.0000000000000000     
  0.75000000000000000       0.62500000000000000        0.0000000000000000     
  0.75000000000000000       0.50000000000000000        0.0000000000000000     
  0.78125000000000000       0.50000000000000000        0.0000000000000000     
  0.81250000000000000       0.50000000000000000        0.0000000000000000     
  0.84375000000000000       0.50000000000000000        0.0000000000000000     
  0.87500000000000000       0.50000000000000000        0.0000000000000000     
  0.75000000000000000       0.53125000000000000        0.0000000000000000     
  0.78125000000000000       0.53125000000000000        0.0000000000000000     
  0.81250000000000000       0.53125000000000000        0.0000000000000000     
  0.84375000000000000       0.53125000000000000        0.0000000000000000     
  0.87500000000000000       0.53125000000000000        0.0000000000000000     
  0.75000000000000000       0.56250000000000000        0.0000000000000000     
  0.78125000000000000       0.56250000000000000        0.0000000000000000     
  0.81250000000000000       0.56250000000000000        0.0000000000000000     
  0.84375000000000000       0.56250000000000000        0.0000000000000000     
  0.87500000000000000       0.56250000000000000        0.0000000000000000     
  0.75000000000000000       0.59375000000000000        0.0000000000000000     
  0.78125000000000000       0.59375000000000000        0.0000000000000000     
  0.81250000000000000       0.59375000000000000        0.0000000000000000     
  0.84375000000000000       0.59375000000000000        0.0000000000000000     
  0.87500000000000000       0.59375000000000000        0.0000000000000000     
  0.75000000000000000       0.62500000000000000        0.0000000000000000     
  0.78125000000000000       0.62500000000000000        0.0000000000000000     
  0.81250000000000000       0.62500000000000000        0.0000000000000000     
  0.84375000000000000       0.62500000000000000        0.0000000000000000     
  0.87500000000000000       0.62500000000000000        0.0000000000000000     
  0.87500000000000000       0.50000000000000000        0.0000000000000000     
  0.90625000000000000       0.50000000000000000        0.0000000000000000     
  0.93750000000000000       0.50000000000000000        0.0000000000000000     
  0.96875000000000000       0.50000000000000000        0.0000000000000000     
   1.0000000000000000       0.50000000000000000        0.0000000000000000     
  0.87500000000000000       0.53125000000000000        0.0000000000000000     
  0.90625000000000000       0.53125000000000000        0.0000000000000000     
  0.93750000000000000       0.53125000000000000        0.0000000000000000     
  0.96875000000000000       0.53125000000000000        0.0000000000000000     
   1.0000000000000000       0.53125000000000000        0.0000000000000000     
  0.87500000000000000       0.56250000000000000        0.0000000000000000     
  0.90625000000000000       0.56250000000000000        0.0000000000000000     
  0.93750000000000000       0.56250000000000000        0.0000000000000000     
  0.96875000000000000       0.56250000000000000        0.0000000000000000     
   1.0000000000000000       0.56250000000000000        0.0000000000000000     
  0.87500000000000000       0.59375000000000000        0.0000000000000000     
  0.90625000000000000       0.59375000000000000        0.0000000000000000     
  0.93750000000000000       0.59375000000000000        0.0000000000000000     
  0.96875000000000000       0.59375000000000000        0.0000000000000000     
   1.0000000000000000       0.59375000000000000        0.0000000000000000     
  0.87500000000000000       0.62500000000000000        0.0000000000000000     
  0.90625000000000000       0.62500000000000000        0.0000000000000000     
  0.93750000000000000       0.62500000000000000        0.0000000000000000     
  0.96875000000000000       0.62500000000000000        0.0000000000000000     
   1.0000000000000000       0.62500000000000000        0.0000000000000000     
   1.0000000000000000       0.50000000000000000        0.0000000000000000     
   1.0312500000000000       0.50000000000000000        0.0000000000000000     
   1.0625000000000000       0.50000000000000000        0.0000000000000000     
   1.0937500000000000       0.50000000000000000        0.0000000000000000     
   1.1250000000000000       0.50000000000000000        0.0000000000000000     
   1.0000000000000000       0.53125000000000000        0.0000000000000000     
   1.0312500000000000       0.53125000000000000        0.0000000000000000     
   1.0625000000000000       0.53125000000000000        0.0000000000000000     
   1.0937500000000000       0.53125000000000000        0.0000000000000000     
   1.1250000000000000       0.53125000000000000        0.0000000000000000     
   1.0000000000000000       0.56250000000000000        0.0000000000000000     
   1.0312500000000000       0.56250000000000000        0.0000000000000000     
   1.0625000000000000       0.56250000000000000        0.0000000000000000     
   1.0937500000000000       0.56250000000000000        0.0000000000000000     
   1.1250000000000000       0.56250000000000000        0.0000000000000000     
   1.0000000000000000       0.59375000000000000        0.0000000000000000     
   1.0312500000000000       0.59375000000000000        0.0000000000000000     
   1.0625000000000000       0.59375000000000000        0.0000000000000000     
   1.0937500000000000       0.59375000000000000        0.0000000000000000     
   1.1250000000000000       0.59375000000000000        0.0000000000000000     
   1.0000000000000000       0.62500000000000000        0.0000000000000000     
   1.0312500000000000       0.62500000000000000        0.0000000000000000     
   1.0625000000000000       0.62500000000000000        0.0000000000000000     
   1.0937500000000000       0.62500000000000000        0.0000000000000000     
   1.1250000000000000       0.62500000000000000        0.0000000000000000     
   1.1250000000000000       0.50000000000000000        0.0000000000000000     
   1.1562500000000000       0.50000000000000000        0.0000000000000000     
   1.1875000000000000       0.50000000000000000        0.0000000000000000     
   1.2187500000000000       0.50000000000000000        0.0000000000000000     
   1.2500000000000000       0.50000000000000000        0.0000000000000000     
   1.1250000000000000       0.53125000000000000        0.0000000000000000     
   1.1562500000000000       0.53125000000000000        0.0000000000000000     
   1.1875000000000000       0.53125000000000000        0.0000000000000000     
   1.2187500000000000       0.53125000000000000        0.0000000000000000     
   1.2500000000000000       0.53125000000000000        0.0000000000000000     
   1.1250000000000000       0.56250000000000000        0.0000000000000000     
   1.1562500000000000       0.56250000000000000        0.0000000000000000     
   1.1875000000000000       0.56250000000000000        0.0000000000000000     
   1.2187500000000000       0.56250000000000000        0.0000000000000000     
   1.2500000000000000       0.56250000000000000        0.0000000000000000     
   1.1250000000000000       0.59375000000000000        0.0000000000000000     
   1.1562500000000000       0.59375000000000000        0.0000000000000000     
   1.1875000000000000       0.59375000000000000        0.0000000000000000     
   1.2187500000000000       0.59375000000000000        0.0000000000000000     
   1.2500000000000000       0.59375000000000000        0.0000000000000000     
   1.1250000000000000       0.62500000000000000        0.0000000000000000     
   1.1562500000000000       0.62500000000000000        0.0000000000000000     
   1.1875000000000000       0.62500000000000000        0.0000000000000000     
   1.2187500000000000       0.62500000000000000        0.0000000000000000     
   1.2500000000000000       0.62500000000000000        0.0000000000000000     
   1.2500000000000000       0.50000000000000000        0.0000000000000000     
   1.2812500000000000       0.50000000000000000        0.0000000000000000     
   1.3125000000000000       0.50000000000000000        0.0000000000000000     
   1.3437500000000000       0.50000000000000000        0.0000000000000000     
   1.3750000000000000       0.50000000000000000        0.0000000000000000     
   1.2500000000000000       0.53125000000000000        0.0000000000000000     
   1.2812500000000000       0.53125000000000000        0.0000000000000000     
   1.3125000000000000       0.53125000000000000        0.0000000000000000     
   1.3437500000000000       0.53125000000000000        0.0000000000000000     
   1.3750000000000000       0.53125000000000000        0.0000000000000000     
   1.2500000000000000       0.56250000000000000        0.0000000000000000     
   1.2812500000000000       0.56250000000000000        0.0000000000000000     
   1.3125000000000000       0.56250000000000000        0.0000000000000000     
   1.3437500000000000       0.56250000000000000        0.0000000000000000     
   1.3750000000000000       0.56250000000000000        0.0000000000000000     
   1.2500000000000000       0.59375000000000000        0.0000000000000000     
   1.2812500000000000       0.59375000000000000        0.0000000000000000     
   1.3125000000000000       0.59375000000000000        0.0000000000000000     
   1.3437500000000000       0.59375000000000000        0.0000000000000000     
   1.3750000000000000       0.59375000000000000        0.0000000000000000     
   1.2500000000000000       0.62500000000000000        0.0000000000000000     
   1.2812500000000000       0.62500000000000000        0.0000000000000000     
   1.3125000000000000       0.62500000000000000        0.0000000000000000     
   1.3437500000000000       0.62500000000000000        0.0000000000000000     
   1.3750000000000000       0.62500000000000000        0.0000000000000000     
   1.3750000000000000       0.50000000000000000        0.0000000000000000     
   1.4062500000000000       0.50000000000000000        0.0000000000000000     
   1.4375000000000000       0.50000000000000000        0.0000000000000000     
   1.4687500000000000       0.50000000000000000        0.0000000000000000     
   1.5000000000000000       0.50000000000000000        0.0000000000000000     
   1.3750000000000000       0.53125000000000000        0.0000000000000000     
   1.4062500000000000       0.53125000000000000        0.0000000000000000     
   1.4375000000000000       0.53125000000000000        0.0000000000000000     
   1.4687500000000000       0.53125000000000000        0.0000000000000000     
   1.5000000000000000       0.53125000000000000        0.0000000000000000     
   1.3750000000000000       0.56250000000000000        0.0000000000000000     
   1.4062500000000000       0.56250000000000000        0.0000000000000000     
   1.4375000000000000       0.56250000000000000        0.0000000000000000     
   1.4687500000000000       0.56250000000000000        0.0000000000000000     
   1.5000000000000000       0.56250000000000000        0.0000000000000000     
   1.3750000000000000       0.59375000000000000        0.0000000000000000     
   1.4062500000000000       0.59375000000000000        0.0000000000000000     
   1.4375000000000000       0.59375000000000000        0.0000000000000000     
   1.4687500000000000       0.59375000000000000        0.0000000000000000     
   1.5000000000000000       0.59375000000000000        0.0000000000000000     
   1.3750000000000000       0.62500000000000000        0.0000000000000000     
   1.4062500000000000       0.62500000000000000        0.0000000000000000     
   1.4375000000000000       0.62500000000000000        0.0000000000000000     
   1.4687500000000000       0.62500000000000000        0.0000000000000000     
   1.5000000000000000       0.62500000000000000        0.0000000000000000     
  0.50000000000000000       0.62500000000000000        0.0000000000000000     
  0.53125000000000000       0.62500000000000000        0.0000000000000000     
  0.56250000000000000       0.62500000000000000        0.0000000000000000     
  0.59375000000000000       0.62500000000000000        0.0000000000000000     
  0.62500000000000000       0.62500000000000000        0.0000000000000000     
  0.50000000000000000       0.65625000000000000        0.0000000000000000     
  0.53125000000000000       0.65625000000000000        0.0000000000000000     
  0.56250000000000000       0.65625000000000000        0.0000000000000000     
  0.59375000000000000       0.65625000000000000        0.0000000000000000     
  0.62500000000000000       0.65625000000000000        0.0000000000000000     
  0.50000000000000000       0.68750000000000000        0.0000000000000000     
  0.53125000000000000       0.68750000000000000        0.0000000000000000     
  0.56250000000000000       0.68750000000000000        0.0000000000000000     
  0.59375000000000000       0.68750000000000000        0.0000000000000000     
  0.62500000000000000       0.68750000000000000        0.0000000000000000     
  0.50000000000000000       0.71875000000000000        0.0000000000000000     
  0.53125000000000000       0.71875000000000000        0.0000000000000000     
  0.56250000000000000       0.71875000000000000        0.0000000000000000     
  0.59375000000000000       0.71875000000000000        0.0000000000000000     
  0.62500000000000000       0.71875000000000000        0.0000000000000000     
  0.50000000000000000       0.75000000000000000        0.0000000000000000     
  0.53125000000000000       0.75000000000000000        0.0000000000000000     
  0.56250000000000000       0.75000000000000000        0.0000000000000000     
  0.59375000000000000       0.75000000000000000        0.0000000000000000     
  0.62500000000000000       0.75000000000000000        0.0000000000000000     
  0.62500000000000000       0.62500000000000000        0.0000000000000000     
  0.65625000000000000       0.62500000000000000        0.0000000000000000     
  0.68750000000000000       0.62500000000000000        0.0000000000000000     
  0.71875000000000000       0.62500000000000000        0.0000000000000000     
  0.75000000000000000       0.62500000000000000        0.0000000000000000     
  0.62500000000000000       0.65625000000000000        0.0000000000000000     
  0.65625000000000000       0.65625000000000000        0.0000000000000000     
  0.68750000000000000       0.65625000000000000        0.0000000000000000     
  0.71875000000000000       0.65625000000000000        0.0000000000000000     
  0.75000000000000000       0.65625000000000000        0.0000000000000000     
  0.62500000000000000       0.68750000000000000        0.0000000000000000     
  0.65625000000000000       0.68750000000000000        0.0000000000000000     
  0.68750000000000000       0.68750000000000000        0.0000000000000000     
  0.71875000000000000       0.68750000000000000        0.0000000000000000     
  0.75000000000000000       0.68750000000000000        0.0000000000000000     
  0.62500000000000000       0.71875000000000000        0.0000000000000000     
  0.65625000000000000       0.71875000000000000        0.0000000000000000     
  0.68750000000000000       0.71875000000000000        0.0000000000000000     
  0.71875000000000000       0.71875000000000000        0.0000000000000000     
  0.75000000000000000       0.71875000000000000        0.0000000000000000     
  0.62500000000000000       0.75000000000000000        0.0000000000000000     
  0.65625000000000000       0.75000000000000000        0.0000000000000000     
  0.68750000000000000       0.75000000000000000        0.0000000000000000     
  0.71875000000000000       0.75000000000000000        0.0000000000000000     
  0.75000000000000000       0.75000000000000000        0.0000000000000000     
  0.75000000000000000       0.62500000000000000        0.0000000000000000     
  0.78125000000000000       0.62500000000000000        0.0000000000000000     
  0.81250000000000000       0.62500000000000000        0.0000000000000000     
  0.84375000000000000       0.62500000000000000        0.0000000000000000     
  0.87500000000000000       0.62500000000000000        0.0000000000000000     
  0.75000000000000000       0.65625000000000000        0.0000000000000000     
  0.78125000000000000       0.65625000000000000        0.0000000000000000     
  0.81250000000000000       0.65625000000000000        0.0000000000000000     
  0.84375000000000000       0.65625000000000000        0.0000000000000000     
  0.87500000000000000       0.65625000000000000        0.0000000000000000     
  0.75000000000000000       0.68750000000000000        0.0000000000000000     
  0.78125000000000000       0.68750000000000000        0.0000000000000000     
  0.81250000000000000       0.68750000000000000        0.0000000000000000     
  0.84375000000000000       0.68750000000000000        0.0000000000000000     
  0.87500000000000000       0.68750000000000000        0.0000000000000000     
  0.75000000000000000       0.71875000000000000        0.0000000000000000     
  0.78125000000000000       0.71875000000000000        0.0000000000000000     
  0.81250000000000000       0.71875000000000000        0.0000000000000000     
  0.84375000000000000       0.71875000000000000        0.0000000000000000     
  0.87500000000000000       0.71875000000000000        0.0000000000000000     
  0.75000000000000000       0.75000000000000000        0.0000000000000000     
  0.78125000000000000       0.75000000000000000        0.0000000000000000     
  0.81250000000000000       0.75000000000000000        0.0000000000000000     
  0.84375000000000000       0.75000000000000000        0.0000000000000000     
  0.87500000000000000       0.75000000000000000        0.0000000000000000     
  0.87500000000000000       0.62500000000000000        0.0000000000000000     
  0.90625000000000000       0.62500000000000000        0.0000000000000000     
  0.93750000000000000       0.62500000000000000        0.0000000000000000     
  0.96875000000000000       0.62500000000000000        0.0000000000000000     
   1.0000000000000000       0.62500000000000000        0.0000000000000000     
  0.87500000000000000       0.65625000000000000        0.0000000000000000     
  0.90625000000000000       0.65625000000000000        0.0000000000000000     
  0.93750000000000000       0.65625000000000000        0.0000000000000000     
  0.96875000000000000       0.65625000000000000        0.0000000000000000     
   1.0000000000000000       0.65625000000000000        0.0000000000000000     
  0.87500000000000000       0.68750000000000000        0.0000000000000000     
  0.90625000000000000       0.68750000000000000        0.0000000000000000     
  0.93750000000000000       0.68750000000000000        0.0000000000000000     
  0.96875000000000000       0.68750000000000000        0.0000000000000000     
   1.0000000000000000       0.68750000000000000        0.0000000000000000     
  0.87500000000000000       0.71875000000000000        0.0000000000000000     
  0.90625000000000000       0.71875000000000000        0.0000000000000000     
  0.93750000000000000       0.71875000000000000        0.0000000000000000     
  0.96875000000000000       0.71875000000000000        0.0000000000000000     
   1.0000000000000000       0.71875000000000000        0.0000000000000000     
  0.87500000000000000       0.75000000000000000        0.0000000000000000     
  0.90625000000000000       0.75000000000000000        0.0000000000000000     
  0.93750000000000000       0.75000000000000000        0.0000000000000000     
  0.96875000000000000       0.75000000000000000        0.0000000000000000     
   1.0000000000000000       0.75000000000000000        0.0000000000000000     
   1.0000000000000000       0.62500000000000000        0.0000000000000000     
   1.0312500000000000       0.62500000000000000        0.0000000000000000     
   1.0625000000000000       0.62500000000000000        0.0000000000000000     
   1.0937500000000000       0.62500000000000000        0.0000000000000000     
   1.1250000000000000       0.62500000000000000        0.0000000000000000     
   1.0000000000000000       0.65625000000000000        0.0000000000000000     
   1.0312500000000000       0.65625000000000000        0.0000000000000000     
   1.0625000000000000       0.65625000000000000        0.0000000000000000     
   1.0937500000000000       0.65625000000000000        0.0000000000000000     
   1.1250000000000000       0.65625000000000000        0.0000000000000000     
   1.0000000000000000       0.68750000000000000        0.0000000000000000     
   1.0312500000000000       0.68750000000000000        0.0000000000000000     
   1.0625000000000000       0.68750000000000000        0.0000000000000000     
   1.0937500000000000       0.68750000000000000        0.0000000000000000     
   1.1250000000000000       0.68750000000000000        0.0000000000000000     
   1.0000000000000000       0.71875000000000000        0.0000000000000000     
   1.0312500000000000       0.71875000000000000        0.0000000000000000     
   1.0625000000000000       0.71875000000000000        0.0000000000000000     
   1.0937500000000000       0.71875000000000000        0.0000000000000000     
   1.1250000000000000       0.71875000000000000        0.0000000000000000     
   1.0000000000000000       0.75000000000000000        0.0000000000000000     
   1.0312500000000000       0.75000000000000000        0.0000000000000000     
   1.0625000000000000       0.75000000000000000        0.0000000000000000     
   1.0937500000000000       0.75000000000000000        0.0000000000000000     
   1.1250000000000000       0.75000000000000000        0.0000000000000000     
   1.1250000000000000       0.62500000000000000        0.0000000000000000     
   1.1562500000000000       0.62500000000000000        0.0000000000000000     
   1.1875000000000000       0.62500000000000000        0.0000000000000000     
   1.2187500000000000       0.62500000000000000        0.0000000000000000     
   1.2500000000000000       0.62500000000000000        0.0000000000000000     
   1.1250000000000000       0.65625000000000000        0.0000000000000000     
   1.1562500000000000       0.65625000000000000        0.0000000000000000     
   1.1875000000000000       0.65625000000000000        0.0000000000000000     
   1.2187500000000000       0.65625000000000000        0.0000000000000000     
   1.2500000000000000       0.65625000000000000        0.0000000000000000     
   1.1250000000000000       0.68750000000000000        0.0000000000000000     
   1.1562500000000000       0.68750000000000000        0.0000000000000000     
   1.1875000000000000       0.68750000000000000        0.0000000000000000     
   1.2187500000000000       0.68750000000000000        0.0000000000000000     
   1.2500000000000000       0.68750000000000000        0.0000000000000000     
   1.1250000000000000       0.71875000000000000        0.0000000000000000     
   1.1562500000000000       0.71875000000000000        0.0000000000000000     
   1.1875000000000000       0.71875000000000000        0.0000000000000000     
   1.2187500000000000       0.71875000000000000        0.0000000000000000     
   1.2500000000000000       0.71875000000000000        0.0000000000000000     
   1.1250000000000000       0.75000000000000000        0.0000000000000000     
   1.1562500000000000       0.75000000000000000        0.0000000000000000     
   1.1875000000000000       0.75000000000000000        0.0000000000000000     
   1.2187500000000000       0.75000000000000000        0.0000000000000000     
   1.2500000000000000       0.75000000000000000        0.0000000000000000     
   1.2500000000000000       0.62500000000000000        0.0000000000000000     
   1.2812500000000000       0.62500000000000000        0.0000000000000000     
   1.3125000000000000       0.62500000000000000        0.0000000000000000     
   1.3437500000000000       0.62500000000000000        0.0000000000000000     
   1.3750000000000000       0.62500000000000000        0.0000000000000000     
   1.2500000000000000       0.65625000000000000        0.0000000000000000     
   1.2812500000000000       0.65625000000000000        0.0000000000000000     
   1.3125000000000000       0.65625000000000000        0.0000000000000000     
   1.3437500000000000       0.65625000000000000        0.0000000000000000     
   1.3750000000000000       0.65625000000000000        0.0000000000000000     
   1.2500000000000000       0.68750000000000000        0.0000000000000000     
   1.2812500000000000       0.68750000000000000        0.0000000000000000     
   1.3125000000000000       0.68750000000000000        0.0000000000000000     
   1.3437500000000000       0.68750000000000000        0.0000000000000000     
   1.3750000000000000       0.68750000000000000        0.0000000000000000     
   1.2500000000000000       0.71875000000000000        0.0000000000000000     
   1.2812500000000000       0.71875000000000000        0.0000000000000000     
   1.3125000000000000       0.71875000000000000        0.0000000000000000     
   1.3437500000000000       0.71875000000000000        0.0000000000000000     
   1.3750000000000000       0.71875000000000000        0.0000000000000000     
   1.2500000000000000       0.75000000000000000        0.0000000000000000     
   1.2812500000000000       0.75000000000000000        0.0000000000000000     
   1.3125000000000000       0.75000000000000000        0.0000000000000000     
   1.3437500000000000       0.75000000000000000        0.0000000000000000     
   1.3750000000000000       0.75000000000000000        0.0000000000000000     
   1.3750000000000000       0.62500000000000000        0.0000000000000000     
   1.4062500000000000       0.62500000000000000        0.0000000000000000     
   1.4375000000000000       0.62500000000000000        0.0000000000000000     
   1.4687500000000000       0.62500000000000000        0.0000000000000000     
   1.5000000000000000       0.62500000000000000        0.0000000000000000     
   1.3750000000000000       0.65625000000000000        0.0000000000000000     
   1.4062500000000000       0.65625000000000000        0.0000000000000000     
   1.4375000000000000       0.65625000000000000        0.0000000000000000     
   1.4687500000000000       0.65625000000000000        0.0000000000000000     
   1.5000000000000000       0.65625000000000000        0.0000000000000000     
   1.3750000000000000       0.68750000000000000        0.0000000000000000     
   1.4062500000000000       0.68750000000000000        0.0000000000000000     
   1.4375000000000000       0.68750000000000000        0.0000000000000000     
   1.4687500000000000       0.68750000000000000        0.0000000000000000     
   1.5000000000000000       0.68750000000000000        0.0000000000000000     
   1.3750000000000000       0.71875000000000000        0.0000000000000000     
   1.4062500000000000       0.71875000000000000        0.0000000000000000     
   1.4375000000000000       0.71875000000000000        0.0000000000000000     
   1.4687500000000000       0.71875000000000000        0.0000000000000000     
   1.5000000000000000       0.71875000000000000        0.0000000000000000     
   1.3750000000000000       0.75000000000000000        0.0000000000000000     
   1.4062500000000000       0.75000000000000000        0.0000000000000000     
   1.4375000000000000       0.75000000000000000        0.0000000000000000     
   1.4687500000000000       0.75000000000000000        0.0000000000000000     
   1.5000000000000000       0.75000000000000000        0.0000000000000000     
  0.50000000000000000       0.75000000000000000        0.0000000000000000     
  0.53125000000000000       0.75000000000000000        0.0000000000000000     
  0.56250000000000000       0.75000000000000000        0.0000000000000000     
  0.59375000000000000       0.75000000000000000        0.0000000000000000     
  0.62500000000000000       0.75000000000000000        0.0000000000000000     
  0.50000000000000000       0.78125000000000000        0.0000000000000000     
  0.53125000000000000       0.78125000000000000        0.0000000000000000     
  0.56250000000000000       0.78125000000000000        0.0000000000000000     
  0.59375000000000000       0.78125000000000000        0.0000000000000000     
  0.62500000000000000       0.78125000000000000        0.0000000000000000     
  0.50000000000000000       0.81250000000000000        0.0000000000000000     
  0.53125000000000000       0.81250000000000000        0.0000000000000000     
  0.56250000000000000       0.81250000000000000        0.0000000000000000     
  0.59375000000000000       0.81250000000000000        0.0000000000000000     
  0.62500000000000000       0.81250000000000000        0.0000000000000000     
  0.50000000000000000       0.84375000000000000        0.0000000000000000     
  0.53125000000000000       0.84375000000000000        0.0000000000000000     
  0.56250000000000000       0.84375000000000000        0.0000000000000000     
  0.59375000000000000       0.84375000000000000        0.0000000000000000     
  0.62500000000000000       0.84375000000000000        0.0000000000000000     
  0.50000000000000000       0.87500000000000000        0.0000000000000000     
  0.53125000000000000       0.87500000000000000        0.0000000000000000     
  0.56250000000000000       0.87500000000000000        0.0000000000000000     
  0.59375000000000000       0.87500000000000000        0.0000000000000000     
  0.62500000000000000       0.87500000000000000        0.0000000000000000     
  0.62500000000000000       0.75000000000000000        0.0000000000000000     
  0.65625000000000000       0.75000000000000000        0.0000000000000000     
  0.68750000000000000       0.75000000000000000        0.0000000000000000     
  0.71875000000000000       0.75000000000000000        0.0000000000000000     
  0.75000000000000000       0.75000000000000000        0.0000000000000000     
  0.62500000000000000       0.78125000000000000        0.0000000000000000     
  0.65625000000000000       0.78125000000000000        0.0000000000000000     
  0.68750000000000000       0.78125000000000000        0.0000000000000000     
  0.71875000000000000       0.78125000000000000        0.0000000000000000     
  0.75000000000000000       0.78125000000000000        0.0000000000000000     
  0.62500000000000000       0.81250000000000000        0.0000000000000000     
  0.65625000000000000       0.81250000000000000        0.0000000000000000     
  0.68750000000000000       0.81250000000000000        0.0000000000000000     
  0.71875000000000000       0.81250000000000000        0.0000000000000000     
  0.75000000000000000       0.81250000000000000        0.0000000000000000     
  0.62500000000000000       0.84375000000000000        0.0000000000000000     
  0.65625000000000000       0.84375000000000000        0.0000000000000000     
  0.68750000000000000       0.84375000000000000        0.0000000000000000     
  0.71875000000000000       0.84375000000000000        0.0000000000000000     
  0.75000000000000000       0.84375000000000000        0.0000000000000000     
  0.62500000000000000       0.87500000000000000        0.0000000000000000     
  0.65625000000000000       0.87500000000000000        0.0000000000000000     
  0.68750000000000000       0.87500000000000000        0.0000000000000000     
  0.71875000000000000       0.87500000000000000        0.0000000000000000     
  0.75000000000000000       0.87500000000000000        0.0000000000000000     
  0.75000000000000000       0.75000000000000000        0.0000000000000000     
  0.78125000000000000       0.75000000000000000        0.0000000000000000     
  0.81250000000000000       0.75000000000000000        0.0000000000000000     
  0.84375000000000000       0.75000000000000000        0.0000000000000000     
  0.87500000000000000       0.75000000000000000        0.0000000000000000     
  0.75000000000000000       0.78125000000000000        0.0000000000000000     
  0.78125000000000000       0.78125000000000000        0.0000000000000000     
  0.81250000000000000       0.78125000000000000        0.0000000000000000     
  0.84375000000000000       0.78125000000000000        0.0000000000000000     
  0.87500000000000000       0.78125000000000000        0.0000000000000000     
  0.75000000000000000       0.81250000000000000        0.0000000000000000     
  0.78125000000000000       0.81250000000000000        0.0000000000000000     
  0.81250000000000000       0.81250000000000000        0.0000000000000000     
  0.84375000000000000       0.81250000000000000        0.0000000000000000     
  0.87500000000000000       0.81250000000000000        0.0000000000000000     
  0.75000000000000000       0.84375000000000000        0.0000000000000000     
  0.78125000000000000       0.84375000000000000        0.0000000000000000     
  0.81250000000000000       0.84375000000000000        0.0000000000000000     
  0.84375000000000000       0.84375000000000000        0.0000000000000000     
  0.87500000000000000       0.84375000000000000        0.0000000000000000     
  0.75000000000000000       0.87500000000000000        0.0000000000000000     
  0.78125000000000000       0.87500000000000000        0.0000000000000000     
  0.81250000000000000       0.87500000000000000        0.0000000000000000     
  0.84375000000000000       0.87500000000000000        0.0000000000000000     
  0.87500000000000000       0.87500000000000000        0.0000000000000000     
  0.87500000000000000       0.75000000000000000        0.0000000000000000     
  0.90625000000000000       0.75000000000000000        0.0000000000000000     
  0.93750000000000000       0.75000000000000000        0.0000000000000000     
  0.96875000000000000       0.75000000000000000        0.0000000000000000     
   1.0000000000000000       0.75000000000000000        0.0000000000000000     
  0.87500000000000000       0.78125000000000000        0.0000000000000000     
  0.90625000000000000       0.78125000000000000        0.0000000000000000     
  0.93750000000000000       0.78125000000000000        0.0000000000000000     
  0.96875000000000000       0.78125000000000000        0.0000000000000000     
   1.0000000000000000       0.78125000000000000        0.0000000000000000     
  0.87500000000000000       0.81250000000000000        0.0000000000000000     
  0.90625000000000000       0.81250000000000000        0.0000000000000000     
  0.93750000000000000       0.81250000000000000        0.0000000000000000     
  0.96875000000000000       0.81250000000000000        0.0000000000000000     
   1.0000000000000000       0.81250000000000000        0.0000000000000000     
  0.87500000000000000       0.84375000000000000        0.0000000000000000     
  0.90625000000000000       0.84375000000000000        0.0000000000000000     
  0.93750000000000000       0.84375000000000000        0.0000000000000000     
  0.96875000000000000       0.84375000000000000        0.0000000000000000     
   1.0000000000000000       0.84375000000000000        0.0000000000000000     
  0.87500000000000000       0.87500000000000000        0.0000000000000000     
  0.90625000000000000       0.87500000000000000        0.0000000000000000     
  0.93750000000000000       0.87500000000000000        0.0000000000000000     
  0.96875000000000000       0.87500000000000000        0.0000000000000000     
   1.0000000000000000       0.87500000000000000        0.0000000000000000     
   1.0000000000000000       0.75000000000000000        0.0000000000000000     
   1.0312500000000000       0.75000000000000000        0.0000000000000000     
   1.0625000000000000       0.75000000000000000        0.0000000000000000     
   1.0937500000000000       0.75000000000000000        0.0000000000000000     
   1.1250000000000000       0.75000000000000000        0.0000000000000000     
   1.0000000000000000       0.78125000000000000        0.0000000000000000     
   1.0312500000000000       0.78125000000000000        0.0000000000000000     
   1.0625000000000000       0.78125000000000000        0.0000000000000000     
   1.0937500000000000       0.78125000000000000        0.0000000000000000     
   1.1250000000000000       0.78125000000000000        0.0000000000000000     
   1.0000000000000000       0.81250000000000000        0.0000000000000000     
   1.0312500000000000       0.81250000000000000        0.0000000000000000     
   1.0625000000000000       0.81250000000000000        0.0000000000000000     
   1.0937500000000000       0.81250000000000000        0.0000000000000000     
   1.1250000000000000       0.81250000000000000        0.0000000000000000     
   1.0000000000000000       0.84375000000000000        0.0000000000000000     
   1.0312500000000000       0.84375000000000000        0.0000000000000000     
   1.0625000000000000       0.84375000000000000        0.0000000000000000     
   1.0937500000000000       0.84375000000000000        0.0000000000000000     
   1.1250000000000000       0.84375000000000000        0.0000000000000000     
   1.0000000000000000       0.87500000000000000        0.0000000000000000     
   1.0312500000000000       0.87500000000000000        0.0000000000000000     
   1.0625000000000000       0.87500000000000000        0.0000000000000000     
   1.0937500000000000       0.87500000000000000        0.0000000000000000     
   1.1250000000000000       0.87500000000000000        0.0000000000000000     
   1.1250000000000000       0.75000000000000000        0.0000000000000000     
   1.1562500000000000       0.75000000000000000        0.0000000000000000     
   1.1875000000000000       0.75000000000000000        0.0000000000000000     
   1.2187500000000000       0.75000000000000000        0.0000000000000000     
   1.2500000000000000       0.75000000000000000        0.0000000000000000     
   1.1250000000000000       0.78125000000000000        0.0000000000000000     
   1.1562500000000000       0.78125000000000000        0.0000000000000000     
   1.1875000000000000       0.78125000000000000        0.0000000000000000     
   1.2187500000000000       0.78125000000000000        0.0000000000000000     
   1.2500000000000000       0.78125000000000000        0.0000000000000000     
   1.1250000000000000       0.81250000000000000        0.0000000000000000     
   1.1562500000000000       0.81250000000000000        0.0000000000000000     
   1.1875000000000000       0.81250000000000000        0.0000000000000000     
   1.2187500000000000       0.81250000000000000        0.0000000000000000     
   1.2500000000000000       0.81250000000000000        0.0000000000000000     
   1.1250000000000000       0.84375000000000000        0.0000000000000000     
   1.1562500000000000       0.84375000000000000        0.0000000000000000     
   1.1875000000000000       0.84375000000000000        0.0000000000000000     
   1.2187500000000000       0.84375000000000000        0.0000000000000000     
   1.2500000000000000       0.84375000000000000        0.0000000000000000     
   1.1250000000000000       0.87500000000000000        0.0000000000000000     
   1.1562500000000000       0.87500000000000000        0.0000000000000000     
   1.1875000000000000       0.87500000000000000        0.0000000000000000     
   1.2187500000000000       0.87500000000000000        0.0000000000000000     
   1.2500000000000000       0.87500000000000000        0.0000000000000000     
   1.2500000000000000       0.75000000000000000        0.0000000000000000     
   1.2812500000000000       0.75000000000000000        0.0000000000000000     
   1.3125000000000000       0.75000000000000000        0.0000000000000000     
   1.3437500000000000       0.75000000000000000        0.0000000000000000     
   1.3750000000000000       0.75000000000000000        0.0000000000000000     
   1.2500000000000000       0.78125000000000000        0.0000000000000000     
   1.2812500000000000       0.78125000000000000        0.0000000000000000     
   1.3125000000000000       0.78125000000000000        0.0000000000000000     
   1.3437500000000000       0.78125000000000000        0.0000000000000000     
   1.3750000000000000       0.78125000000000000        0.0000000000000000     
   1.2500000000000000       0.81250000000000000        0.0000000000000000     
   1.2812500000000000       0.81250000000000000        0.0000000000000000     
   1.3125000000000000       0.81250000000000000        0.0000000000000000     
   1.3437500000000000       0.81250000000000000        0.0000000000000000     
   1.3750000000000000       0.81250000000000000        0.0000000000000000     
   1.2500000000000000       0.84375000000000000        0.0000000000000000     
   1.2812500000000000       0.84375000000000000        0.0000000000000000     
   1.3125000000000000       0.84375000000000000        0.0000000000000000     
   1.3437500000000000       0.84375000000000000        0.0000000000000000     
   1.3750000000000000       0.84375000000000000        0.0000000000000000     
   1.2500000000000000       0.87500000000000000        0.0000000000000000     
   1.2812500000000000       0.87500000000000000        0.0000000000000000     
   1.3125000000000000       0.87500000000000000        0.0000000000000000     
   1.3437500000000000       0.87500000000000000        0.0000000000000000     
   1.3750000000000000       0.87500000000000000        0.0000000000000000     
   1.3750000000000000       0.75000000000000000        0.0000000000000000     
   1.4062500000000000       0.75000000000000000        0.0000000000000000     
   1.4375000000000000       0.75000000000000000        0.0000000000000000     
   1.4687500000000000       0.75000000000000000        0.0000000000000000     
   1.5000000000000000       0.75000000000000000        0.0000000000000000     
   1.3750000000000000       0.78125000000000000        0.0000000000000000     
   1.4062500000000000       0.78125000000000000        0.0000000000000000     
   1.4375000000000000       0.78125000000000000        0.0000000000000000     
   1.4687500000000000       0.78125000000000000        0.0000000000000000     
   1.5000000000000000       0.78125000000000000        0.0000000000000000     
   1.3750000000000000       0.81250000000000000        0.0000000000000000     
   1.4062500000000000       0.81250000000000000        0.0000000000000000     
   1.4375000000000000       0.81250000000000000        0.0000000000000000     
   1.4687500000000000       0.81250000000000000        0.0000000000000000     
   1.5000000000000000       0.81250000000000000        0.0000000000000000     
   1.3750000000000000       0.84375000000000000        0.0000000000000000     
   1.4062500000000000       0.84375000000000000        0.0000000000000000     
   1.4375000000000000       0.84375000000000000        0.0000000000000000     
   1.4687500000000000       0.84375000000000000        0.0000000000000000     
   1.5000000000000000       0.84375000000000000        0.0000000000000000     
   1.3750000000000000       0.87500000000000000        0.0000000000000000     
   1.4062500000000000       0.87500000000000000        0.0000000000000000     
   1.4375000000000000       0.87500000000000000        0.0000000000000000     
   1.4687500000000000       0.87500000000000000        0.0000000000000000     
   1.5000000000000000       0.87500000000000000        0.0000000000000000     
  0.50000000000000000       0.87500000000000000        0.0000000000000000     
  0.53125000000000000       0.87500000000000000        0.0000000000000000     
  0.56250000000000000       0.87500000000000000        0.0000000000000000     
  0.59375000000000000       0.87500000000000000        0.0000000000000000     
  0.62500000000000000       0.87500000000000000        0.0000000000000000     
  0.50000000000000000       0.90625000000000000        0.0000000000000000     
  0.53125000000000000       0.90625000000000000        0.0000000000000000     
  0.56250000000000000       0.90625000000000000        0.0000000000000000     
  0.59375000000000000       0.90625000000000000        0.0000000000000000     
  0.62500000000000000       0.90625000000000000        0.0000000000000000     
  0.50000000000000000       0.93750000000000000        0.0000000000000000     
  0.53125000000000000       0.93750000000000000        0.0000000000000000     
  0.56250000000000000       0.93750000000000000        0.0000000000000000     
  0.59375000000000000       0.93750000000000000        0.0000000000000000     
  0.62500000000000000       0.93750000000000000        0.0000000000000000     
  0.50000000000000000       0.96875000000000000        0.0000000000000000     
  0.53125000000000000       0.96875000000000000        0.0000000000000000     
  0.56250000000000000       0.96875000000000000        0.0000000000000000     
  0.59375000000000000       0.96875000000000000        0.0000000000000000     
  0.62500000000000000       0.96875000000000000        0.0000000000000000     
  0.50000000000000000        1.0000000000000000        0.0000000000000000     
  0.53125000000000000        1.0000000000000000        0.0000000000000000     
  0.56250000000000000        1.0000000000000000        0.0000000000000000     
  0.59375000000000000        1.0000000000000000        0.0000000000000000     
  0.62500000000000000        1.0000000000000000        0.0000000000000000     
  0.62500000000000000       0.87500000000000000        0.0000000000000000     
  0.65625000000000000       0.87500000000000000        0.0000000000000000     
  0.68750000000000000       0.87500000000000000        0.0000000000000000     
  0.71875000000000000       0.87500000000000000        0.0000000000000000     
  0.75000000000000000       0.87500000000000000        0.0000000000000000     
  0.62500000000000000       0.90625000000000000        0.0000000000000000     
  0.65625000000000000       0.90625000000000000        0.0000000000000000     
  0.68750000000000000       0.90625000000000000        0.0000000000000000     
  0.71875000000000000       0.90625000000000000        0.0000000000000000     
  0.75000000000000000       0.90625000000000000        0.0000000000000000     
  0.62500000000000000       0.93750000000000000        0.0000000000000000     
  0.65625000000000000       0.93750000000000000        0.0000000000000000     
  0.68750000000000000       0.93750000000000000        0.0000000000000000     
  0.71875000000000000       0.93750000000000000        0.0000000000000000     
  0.75000000000000000       0.93750000000000000        0.0000000000000000     
  0.62500000000000000       0.96875000000000000        0.0000000000000000     
  0.65625000000000000       0.96875000000000000        0.0000000000000000     
  0.68750000000000000       0.96875000000000000        0.0000000000000000     
  0.71875000000000000       0.96875000000000000        0.0000000000000000     
  0.75000000000000000       0.96875000000000000        0.0000000000000000     
  0.62500000000000000        1.0000000000000000        0.0000000000000000     
  0.65625000000000000        1.0000000000000000        0.0000000000000000     
  0.68750000000000000        1.0000000000000000        0.0000000000000000     
  0.71875000000000000        1.0000000000000000        0.0000000000000000     
  0.75000000000000000        1.0000000000000000        0.0000000000000000     
  0.75000000000000000       0.87500000000000000        0.0000000000000000     
  0.78125000000000000       0.87500000000000000        0.0000000000000000     
  0.81250000000000000       0.87500000000000000        0.0000000000000000     
  0.84375000000000000       0.87500000000000000        0.0000000000000000     
  0.87500000000000000       0.87500000000000000        0.0000000000000000     
  0.75000000000000000       0.90625000000000000        0.0000000000000000     
  0.78125000000000000       0.90625000000000000        0.0000000000000000     
  0.81250000000000000       0.90625000000000000        0.0000000000000000     
  0.84375000000000000       0.90625000000000000        0.0000000000000000     
  0.87500000000000000       0.90625000000000000        0.0000000000000000     
  0.75000000000000000       0.93750000000000000        0.0000000000000000     
  0.78125000000000000       0.93750000000000000        0.0000000000000000     
  0.81250000000000000       0.93750000000000000        0.0000000000000000     
  0.84375000000000000       0.93750000000000000        0.0000000000000000     
  0.87500000000000000       0.93750000000000000        0.0000000000000000     
  0.75000000000000000       0.96875000000000000        0.0000000000000000     
  0.78125000000000000       0.96875000000000000        0.0000000000000000     
  0.81250000000000000       0.96875000000000000        0.0000000000000000     
  0.84375000000000000       0.96875000000000000        0.0000000000000000     
  0.87500000000000000       0.96875000000000000        0.0000000000000000     
  0.75000000000000000        1.0000000000000000        0.0000000000000000     
  0.78125000000000000        1.0000000000000000        0.0000000000000000     
  0.81250000000000000        1.0000000000000000        0.0000000000000000     
  0.84375000000000000        1.0000000000000000        0.0000000000000000     
  0.87500000000000000        1.0000000000000000        0.0000000000000000     
  0.87500000000000000       0.87500000000000000        0.0000000000000000     
  0.90625000000000000       0.87500000000000000        0.0000000000000000     
  0.93750000000000000       0.87500000000000000        0.0000000000000000     
  0.96875000000000000       0.87500000000000000        0.0000000000000000     
   1.0000000000000000       0.87500000000000000        0.0000000000000000     
  0.87500000000000000       0.90625000000000000        0.0000000000000000     
  0.90625000000000000       0.90625000000000000        0.0000000000000000     
  0.93750000000000000       0.90625000000000000        0.0000000000000000     
  0.96875000000000000       0.90625000000000000        0.0000000000000000     
   1.0000000000000000       0.90625000000000000        0.0000000000000000     
  0.87500000000000000       0.93750000000000000        0.0000000000000000     
  0.90625000000000000       0.93750000000000000        0.0000000000000000     
  0.93750000000000000       0.93750000000000000        0.0000000000000000     
  0.96875000000000000       0.93750000000000000        0.0000000000000000     
   1.0000000000000000       0.93750000000000000        0.0000000000000000     
  0.87500000000000000       0.96875000000000000        0.0000000000000000     
  0.90625000000000000       0.96875000000000000        0.0000000000000000     
  0.93750000000000000       0.96875000000000000        0.0000000000000000     
  0.96875000000000000       0.96875000000000000        0.0000000000000000     
   1.0000000000000000       0.96875000000000000        0.0000000000000000     
  0.87500000000000000        1.0000000000000000        0.0000000000000000     
  0.90625000000000000        1.0000000000000000        0.0000000000000000     
  0.93750000000000000        1.0000000000000000        0.0000000000000000     
  0.96875000000000000        1.0000000000000000        0.0000000000000000     
   1.0000000000000000        1.0000000000000000        0.0000000000000000     
   1.0000000000000000       0.87500000000000000        0.0000000000000000     
   1.0312500000000000       0.87500000000000000        0.0000000000000000     
   1.0625000000000000       0.87500000000000000        0.0000000000000000     
   1.0937500000000000       0.87500000000000000        0.0000000000000000     
   1.1250000000000000       0.87500000000000000        0.0000000000000000     
   1.0000000000000000       0.90625000000000000        0.0000000000000000     
   1.0312500000000000       0.90625000000000000        0.0000000000000000     
   1.0625000000000000       0.90625000000000000        0.0000000000000000     
   1.0937500000000000       0.90625000000000000        0.0000000000000000     
   1.1250000000000000       0.90625000000000000        0.0000000000000000     
   1.0000000000000000       0.93750000000000000        0.0000000000000000     
   1.0312500000000000       0.93750000000000000        0.0000000000000000     
   1.0625000000000000       0.93750000000000000        0.0000000000000000     
   1.0937500000000000       0.93750000000000000        0.0000000000000000     
   1.1250000000000000       0.93750000000000000        0.0000000000000000     
   1.0000000000000000       0.96875000000000000        0.0000000000000000     
   1.0312500000000000       0.96875000000000000        0.0000000000000000     
   1.0625000000000000       0.96875000000000000        0.0000000000000000     
   1.0937500000000000       0.96875000000000000        0.0000000000000000     
   1.1250000000000000       0.96875000000000000        0.0000000000000000     
   1.0000000000000000        1.0000000000000000        0.0000000000000000     
   1.0312500000000000        1.0000000000000000        0.0000000000000000     
   1.0625000000000000        1.0000000000000000        0.0000000000000000     
   1.0937500000000000        1.0000000000000000        0.0000000000000000     
   1.1250000000000000        1.0000000000000000        0.0000000000000000     
   1.1250000000000000       0.87500000000000000        0.0000000000000000     
   1.1562500000000000       0.87500000000000000        0.0000000000000000     
   1.1875000000000000       0.87500000000000000        0.0000000000000000     
   1.2187500000000000       0.87500000000000000        0.0000000000000000     
   1.2500000000000000       0.87500000000000000        0.0000000000000000     
   1.1250000000000000       0.90625000000000000        0.0000000000000000     
   1.1562500000000000       0.90625000000000000        0.0000000000000000     
   1.1875000000000000       0.90625000000000000        0.0000000000000000     
   1.2187500000000000       0.90625000000000000        0.0000000000000000     
   1.2500000000000000       0.90625000000000000        0.0000000000000000     
   1.1250000000000000       0.93750000000000000        0.0000000000000000     
   1.1562500000000000       0.93750000000000000        0.0000000000000000     
   1.1875000000000000       0.93750000000000000        0.0000000000000000     
   1.2187500000000000       0.93750000000000000        0.0000000000000000     
   1.2500000000000000       0.93750000000000000        0.0000000000000000     
   1.1250000000000000       0.96875000000000000        0.0000000000000000     
   1.1562500000000000       0.96875000000000000        0.0000000000000000     
   1.1875000000000000       0.96875000000000000        0.0000000000000000     
   1.2187500000000000       0.96875000000000000        0.0000000000000000     
   1.2500000000000000       0.96875000000000000        0.0000000000000000     
   1.1250000000000000        1.0000000000000000        0.0000000000000000     
   1.1562500000000000        1.0000000000000000        0.0000000000000000     
   1.1875000000000000        1.0000000000000000        0.0000000000000000     
   1.2187500000000000        1.0000000000000000        0.0000000000000000     
   1.2500000000000000        1.0000000000000000        0.0000000000000000     
   1.2500000000000000       0.87500000000000000        0.0000000000000000     
   1.2812500000000000       0.87500000000000000        0.0000000000000000     
   1.3125000000000000       0.87500000000000000        0.0000000000000000     
   1.3437500000000000       0.87500000000000000        0.0000000000000000     
   1.3750000000000000       0.87500000000000000        0.0000000000000000     
   1.2500000000000000       0.90625000000000000        0.0000000000000000     
   1.2812500000000000       0.90625000000000000        0.0000000000000000     
   1.3125000000000000       0.90625000000000000        0.0000000000000000     
   1.3437500000000000       0.90625000000000000        0.0000000000000000     
   1.3750000000000000       0.90625000000000000        0.0000000000000000     
   1.2500000000000000       0.93750000000000000        0.0000000000000000     
   1.2812500000000000       0.93750000000000000        0.0000000000000000     
   1.3125000000000000       0.93750000000000000        0.0000000000000000     
   1.3437500000000000       0.93750000000000000        0.0000000000000000     
   1.3750000000000000       0.93750000000000000        0.0000000000000000     
   1.2500000000000000       0.96875000000000000        0.0000000000000000     
   1.2812500000000000       0.96875000000000000        0.0000000000000000     
   1.3125000000000000       0.96875000000000000        0.0000000000000000     
   1.3437500000000000       0.96875000000000000        0.0000000000000000     
   1.3750000000000000       0.96875000000000000        0.0000000000000000     
   1.2500000000000000        1.0000000000000000        0.0000000000000000     
   1.2812500000000000        1.0000000000000000        0.0000000000000000     
   1.3125000000000000        1.0000000000000000        0.0000000000000000     
   1.3437500000000000        1.0000000000000000        0.0000000000000000     
   1.3750000000000000        1.0000000000000000        0.0000000000000000     
   1.3750000000000000       0.87500000000000000        0.0000000000000000     
   1.4062500000000000       0.87500000000000000        0.0000000000000000     
   1.4375000000000000       0.87500000000000000        0.0000000000000000     
   1.4687500000000000       0.87500000000000000        0.0000000000000000     
   1.5000000000000000       0.87500000000000000        0.0000000000000000     
   1.3750000000000000       0.90625000000000000        0.0000000000000000     
   1.4062500000000000       0.90625000000000000        0.0000000000000000     
   1.4375000000000000       0.90625000000000000        0.0000000000000000     
   1.4687500000000000       0.90625000000000000        0.0000000000000000     
   1.5000000000000000       0.90625000000000000        0.0000000000000000     
   1.3750000000000000       0.93750000000000000        0.0000000000000000     
   1.4062500000000000       0.93750000000000000        0.0000000000000000     
   1.4375000000000000       0.93750000000000000        0.0000000000000000     
   1.4687500000000000       0.93750000000000000        0.0000000000000000     
   1.5000000000000000       0.93750000000000000        0.0000000000000000     
   1.3750000000000000       0.96875000000000000        0.0000000000000000     
   1.4062500000000000       0.96875000000000000        0.0000000000000000     
   1.4375000000000000       0.96875000000000000        0.0000000000000000     
   1.4687500000000000       0.96875000000000000        0.0000000000000000     
   1.5000000000000000       0.96875000000000000        0.0000000000000000     
   1.3750000000000000        1.0000000000000000        0.0000000000000000     
   1.4062500000000000        1.0000000000000000        0.0000000000000000     
   1.4375000000000000        1.0000000000000000        0.0000000000000000     
   1.4687500000000000        1.0000000000000000        0.0000000000000000     
   1.5000000000000000        1.0000000000000000        0.0000000000000000     
 </DataArray>
 </Points>
 <Cells>
 <DataArray  type="Int32"  Name="connectivity"  format="ascii">
           0           1           6           5
           1           2           7           6
           2           3           8           7
           3           4           9           8
           5           6          11          10
           6           7          12          11
           7           8          13          12
           8           9          14          13
          10          11          16          15
          11          12          17          16
          12          13          18          17
          13          14          19          18
          15          16          21          20
          16          17          22          21
          17          18          23          22
          18          19          24          23
          25          26          31          30
          26          27          32          31
          27          28          33          32
          28          29          34          33
          30          31          36          35
          31          32          37          36
          32          33          38          37
          33          34          39          38
          35          36          41          40
          36          37          42          41
          37          38          43          42
          38          39          44          43
          40          41          46          45
          41          42          47          46
          42          43          48          47
          43          44          49          48
          50          51          56          55
          51          52          57          56
          52          53          58          57
          53          54          59          58
          55          56          61          60
          56          57          62          61
          57          58          63          62
          58          59          64          63
          60          61          66          65
          61          62          67          66
          62          63          68          67
          63          64          69          68
          65          66          71          70
          66          67          72          71
          67          68          73          72
          68          69          74          73
          75          76          81          80
          76          77          82          81
          77          78          83          82
          78          79          84          83
          80          81          86          85
          81          82          87          86
          82          83          88          87
          83          84          89          88
          85          86          91          90
          86          87          92          91
          87          88          93          92
          88          89          94          93
          90          91          96          95
          91          92          97          96
          92          93          98          97
          93          94          99          98
         100         101         106         105
         101         102         107         106
         102         103         108         107
         103         104         109         108
         105         106         111         110
         106         107         112         111
         107         108         113         112
         108         109         114         113
         110         111         116         115
         111         112         117         116
         112         113         118         117
         113         114         119         118
         115         116         121         120
         116         117         122         121
         117         118         123         122
         118         119         124         123
         125         126         131         130
         126         127         132         131
         127         128         133         132
         128         129         134         133
         130         131         136         135
         131         132         137         136
         132         133         138         137
         133         134         139         138
         135         136         141         140
         136         137         142         141
         137         138         143         142
         138         139         144         143
         140         141         146         145
         141         142         147         146
         142         143         148         147
         143         144         149         148
         150         151         156         155
         151         152         157         156
         152         153         158         157
         153         154         159         158
         155         156         161         160
         156         157         162         161
         157         158         163         162
         158         159         164         163
         160         161         166         165
         161         162         167         166
         162         163         168         167
         163         164         169         168
         165         166         171         170
         166         167         172         171
         167         168         173         172
         168         169         174         173
         175         176         181         180
         176         177         182         181
         177         178         183         182
         178         179         184         183
         180         181         186         185
         181         182         187         186
         182         183         188         187
         183         184         189         188
         185         186         191         190
         186         187         192         191
         187         188         193         192
         188         189         194         193
         190         191         196         195
         191         192         197         196
         192         193         198         197
         193         194         199         198
         200         201         206         205
         201         202         207         206
         202         203         208         207
         203         204         209         208
         205         206         211         210
         206         207         212         211
         207         208         213         212
         208         209         214         213
         210         211         216         215
         211         212         217         216
         212         213         218         217
         213         214         219         218
         215         216         221         220
         216         217         222         221
         217         218         223         222
         218         219         224         223
         225         226         231         230
         226         227         232         231
         227         228         233         232
         228         229         234         233
         230         231         236         235
         231         232         237         236
         232         233         238         237
         233         234         239         238
         235         236         241         240
         236         237         242         241
         237         238         243         242
         238         239         244         243
         240         241         246         245
         241         242         247         246
         242         243         248         247
         243         244         249         248
         250         251         256         255
         251         252         257         256
         252         253         258         257
         253         254         259         258
         255         256         261         260
         256         257         262         261
         257         258         263         262
         258         259         264         263
         260         261         266         265
         261         262         267         266
         262         263         268         267
         263         264         269         268
         265         266         271         270
         266         267         272         271
         267         268         273         272
         268         269         274         273
         275         276         281         280
         276         277         282         281
         277         278         283         282
         278         279         284         283
         280         281         286         285
         281         282         287         286
         282         283         288         287
         283         284         289         288
         285         286         291         290
         286         287         292         291
         287         288         293         292
         288         289         294         293
         290         291         296         295
         291         292         297         296
         292         293         298         297
         293         294         299         298
         300         301         306         305
         301         302         307         306
         302         303         308         307
         303         304         309         308
         305         306         311         310
         306         307         312         311
         307         308         313         312
         308         309         314         313
         310         311         316         315
         311         312         317         316
         312         313         318         317
         313         314         319         318
         315         316         321         320
         316         317         322         321
         317         318         323         322
         318         319         324         323
         325         326         331         330
         326         327         332         331
         327         328         333         332
         328         329         334         333
         330         331         336         335
         331         332         337         336
         332         333         338         337
         333         334         339         338
         335         336         341         340
         336         337         342         341
         337         338         343         342
         338         339         344         343
         340         341         346         345
         341         342         347         346
         342         343         348         347
         343         344         349         348
         350         351         356         355
         351         352         357         356
         352         353         358         357
         353         354         359         358
         355         356         361         360
         356         357         362         361
         357         358         363         362
         358         359         364         363
         360         361         366         365
         361         362         367         366
         362         363         368         367
         363         364         369         368
         365         366         371         370
         366         367         372         371
         367         368         373         372
         368         369         374         373
         375         376         381         380
         376         377         382         381
         377         378         383         382
         378         379         384         383
         380         381         386         385
         381         382         387         386
         382         383         388         387
         383         384         389         388
         385         386         391         390
         386         387         392         391
         387         388         393         392
         388         389         394         393
         390         391         396         395
         391         392         397         396
         392         393         398         397
         393         394         399         398
         400         401         406         405
         401         402         407         406
         402         403         408         407
         403         404         409         408
         405         406         411         410
         406         407         412         411
         407         408         413         412
         408         409         414         413
         410         411         416         415
         411         412         417         416
         412         413         418         417
         413         414         419         418
         415         416         421         420
         416         417         422         421
         417         418         423         422
         418         419         424         423
         425         426         431         430
         426         427         432         431
         427         428         433         432
         428         429         434         433
         430         431         436         435
         431         432         437         436
         432         433         438         437
         433         434         439         438
         435         436         441         440
         436         437         442         441
         437         438         443         442
         438         439         444         443
         440         441         446         445
         441         442         447         446
         442         443         448         447
         443         444         449         448
         450         451         456         455
         451         452         457         456
         452         453         458         457
         453         454         459         458
         455         456         461         460
         456         457         462         461
         457         458         463         462
         458         459         464         463
         460         461         466         465
         461         462         467         466
         462         463         468         467
         463         464         469         468
         465         466         471         470
         466         467         472         471
         467         468         473         472
         468         469         474         473
         475         476         481         480
         476         477         482         481
         477         478         483         482
         478         479         484         483
         480         481         486         485
         481         482         487         486
         482         483         488         487
         483         484         489         488
         485         486         491         490
         486         487         492         491
         487         488         493         492
         488         489         494         493
         490         491         496         495
         491         492         497         496
         492         493         498         497
         493         494         499         498
         500         501         506         505
         501         502         507         506
         502         503         508         507
         503         504         509         508
         505         506         511         510
         506         507         512         511
         507         508         513         512
         508         509         514         513
         510         511         516         515
         511         512         517         516
         512         513         518         517
         513         514         519         518
         515         516         521         520
         516         517         522         521
         517         518         523         522
         518         519         524         523
         525         526         531         530
         526         527         532         531
         527         528         533         532
         528         529         534         533
         530         531         536         535
         531         532         537         536
         532         533         538         537
         533         534         539         538
         535         536         541         540
         536         537         542         541
         537         538         543         542
         538         539         544         543
         540         541         546         545
         541         542         547         546
         542         543         548         547
         543         544         549         548
         550         551         556         555
         551         552         557         556
         552         553         558         557
         553         554         559         558
         555         556         561         560
         556         557         562         561
         557         558         563         562
         558         559         564         563
         560         561         566         565
         561         562         567         566
         562         563         568         567
         563         564         569         568
         565         566         571         570
         566         567         572         571
         567         568         573         572
         568         569         574         573
         575         576         581         580
         576         577         582         581
         577         578         583         582
         578         579         584         583
         580         581         586         585
         581         582         587         586
         582         583         588         587
         583         584         589         588
         585         586         591         590
         586         587         592         591
         587         588         593         592
         588         589         594         593
         590         591         596         595
         591         592         597         596
         592         593         598         597
         593         594         599         598
         600         601         606         605
         601         602         607         606
         602         603         608         607
         603         604         609         608
         605         606         611         610
         606         607         612         611
         607         608         613         612
         608         609         614         613
         610         611         616         615
         611         612         617         616
         612         613         618         617
         613         614         619         618
         615         616         621         620
         616         617         622         621
         617         618         623         622
         618         619         624         623
         625         626         631         630
         626         627         632         631
         627         628         633         632
         628         629         634         633
         630         631         636         635
         631         632         637         636
         632         633         638         637
         633         634         639         638
         635         636         641         640
         636         637         642         641
         637         638         643         642
         638         639         644         643
         640         641         646         645
         641         642         647         646
         642         643         648         647
         643         644         649         648
         650         651         656         655
         651         652         657         656
         652         653         658         657
         653         654         659         658
         655         656         661         660
         656         657         662         661
         657         658         663         662
         658         659         664         663
         660         661         666         665
         661         662         667         666
         662         663         668         667
         663         664         669         668
         665         666         671         670
         666         667         672         671
         667         668         673         672
         668         669         674         673
         675         676         681         680
         676         677         682         681
         677         678         683         682
         678         679         684         683
         680         681         686         685
         681         682         687         686
         682         683         688         687
         683         684         689         688
         685         686         691         690
         686         687         692         691
         687         688         693         692
         688         689         694         693
         690         691         696         695
         691         692         697         696
         692         693         698         697
         693         694         699         698
         700         701         706         705
         701         702         707         706
         702         703         708         707
         703         704         709         708
         705         706         711         710
         706         707         712         711
         707         708         713         712
         708         709         714         713
         710         711         716         715
         711         712         717         716
         712         713         718         717
         713         714         719         718
         715         716         721         720
         716         717         722         721
         717         718         723         722
         718         719         724         723
         725         726         731         730
         726         727         732         731
         727         728         733         732
         728         729         734         733
         730         731         736         735
         731         732         737         736
         732         733         738         737
         733         734         739         738
         735         736         741         740
         736         737         742         741
         737         738         743         742
         738         739         744         743
         740         741         746         745
         741         742         747         746
         742         743         748         747
         743         744         749         748
         750         751         756         755
         751         752         757         756
         752         753         758         757
         753         754         759         758
         755         756         761         760
         756         757         762         761
         757         758         763         762
         758         759         764         763
         760         761         766         765
         761         762         767         766
         762         763         768         767
         763         764         769         768
         765         766         771         770
         766         767         772         771
         767         768         773         772
         768         769         774         773
         775         776         781         780
         776         777         782         781
         777         778         783         782
         778         779         784         783
         780         781         786         785
         781         782         787         786
         782         783         788         787
         783         784         789         788
         785         786         791         790
         786         787         792         791
         787         788         793         792
         788         789         794         793
         790         791         796         795
         791         792         797         796
         792         793         798         797
         793         794         799         798
         800         801         806         805
         801         802         807         806
         802         803         808         807
         803         804         809         808
         805         806         811         810
         806         807         812         811
         807         808         813         812
         808         809         814         813
         810         811         816         815
         811         812         817         816
         812         813         818         817
         813         814         819         818
         815         816         821         820
         816         817         822         821
         817         818         823         822
         818         819         824         823
         825         826         831         830
         826         827         832         831
         827         828         833         832
         828         829         834         833
         830         831         836         835
         831         832         837         836
         832         833         838         837
         833         834         839         838
         835         836         841         840
         836         837         842         841
         837         838         843         842
         838         839         844         843
         840         841         846         845
         841         842         847         846
         842         843         848         847
         843         844         849         848
         850         851         856         855
         851         852         857         856
         852         853         858         857
         853         854         859         858
         855         856         861         860
         856         857         862         861
         857         858         863         862
         858         859         864         863
         860         861         866         865
         861         862         867         866
         862         863         868         867
         863         864         869         868
         865         866         871         870
         866         867         872         871
         867         868         873         872
         868         869         874         873
         875         876         881         880
         876         877         882         881
         877         878         883         882
         878         879         884         883
         880         881         886         885
         881         882         887         886
         882         883         888         887
         883         884         889         888
         885         886         891         890
         886         887         892         891
         887         888         893         892
         888         889         894         893
         890         891         896         895
         891         892         897         896
         892         893         898         897
         893         894         899         898
         900         901         906         905
         901         902         907         906
         902         903         908         907
         903         904         909         908
         905         906         911         910
         906         907         912         911
         907         908         913         912
         908         909         914         913
         910         911         916         915
         911         912         917         916
         912         913         918         917
         913         914         919         918
         915         916         921         920
         916         917         922         921
         917         918         923         922
         918         919         924         923
         925         926         931         930
         926         927         932         931
         927         928         933         932
         928         929         934         933
         930         931         936         935
         931         932         937         936
         932         933         938         937
         933         934         939         938
         935         936         941         940
         936         937         942         941
         937         938         943         942
         938         939         944         943
         940         941         946         945
         941         942         947         946
         942         943         948         947
         943         944         949         948
         950         951         956         955
         951         952         957         956
         952         953         958         957
         953         954         959         958
         955         956         961         960
         956         957         962         961
         957         958         963         962
         958         959         964         963
         960         961         966         965
         961         962         967         966
         962         963         968         967
         963         964         969         968
         965         966         971         970
         966         967         972         971
         967         968         973         972
         968         969         974         973
         975         976         981         980
         976         977         982         981
         977         978         983         982
         978         979         984         983
         980         981         986         985
         981         982         987         986
         982         983         988         987
         983         984         989         988
         985         986         991         990
         986         987         992         991
         987         988         993         992
         988         989         994         993
         990         991         996         995
         991         992         997         996
         992         993         998         997
         993         994         999         998
        1000        1001        1006        1005
        1001        1002        1007        1006
        1002        1003        1008        1007
        1003        1004        1009        1008
        1005        1006        1011        1010
        1006        1007        1012        1011
        1007        1008        1013        1012
        1008        1009        1014        1013
        1010        1011        1016        1015
        1011        1012        1017        1016
        1012        1013        1018        1017
        1013        1014        1019        1018
        1015        1016        1021        1020
        1016        1017        1022        1021
        1017        1018        1023        1022
        1018        1019        1024        1023
        1025        1026        1031        1030
        1026        1027        1032        1031
        1027        1028        1033        1032
        1028        1029        1034        1033
        1030        1031        1036        1035
        1031        1032        1037        1036
        1032        1033        1038        1037
        1033        1034        1039        1038
        1035        1036        1041        1040
        1036        1037        1042        1041
        1037        1038        1043        1042
        1038        1039        1044        1043
        1040        1041        1046        1045
        1041        1042        1047        1046
        1042        1043        1048        1047
        1043        1044        1049        1048
        1050        1051        1056        1055
        1051        1052        1057        1056
        1052        1053        1058        1057
        1053        1054        1059        1058
        1055        1056        1061        1060
        1056        1057        1062        1061
        1057        1058        1063        1062
        1058        1059        1064        1063
        1060        1061        1066        1065
        1061        1062        1067        1066
        1062        1063        1068        1067
        1063        1064        1069        1068
        1065        1066        1071        1070
        1066        1067        1072        1071
        1067        1068        1073        1072
        1068        1069        1074        1073
        1075        1076        1081        1080
        1076        1077        1082        1081
        1077        1078        1083        1082
        1078        1079        1084        1083
        1080        1081        1086        1085
        1081        1082        1087        1086
        1082        1083        1088        1087
        1083        1084        1089        1088
        1085        1086        1091        1090
        1086        1087        1092        1091
        1087        1088        1093        1092
        1088        1089        1094        1093
        1090        1091        1096        1095
        1091        1092        1097        1096
        1092        1093        1098        1097
        1093        1094        1099        1098
        1100        1101        1106        1105
        1101        1102        1107        1106
        1102        1103        1108        1107
        1103        1104        1109        1108
        1105        1106        1111        1110
        1106        1107        1112        1111
        1107        1108        1113        1112
        1108        1109        1114        1113
        1110        1111        1116        1115
        1111        1112        1117        1116
        1112        1113        1118        1117
        1113        1114        1119        1118
        1115        1116        1121        1120
        1116        1117        1122        1121
        1117        1118        1123        1122
        1118        1119        1124        1123
        1125        1126        1131        1130
        1126        1127        1132        1131
        1127        1128        1133        1132
        1128        1129        1134        1133
        1130        1131        1136        1135
        1131        1132        1137        1136
        1132        1133        1138        1137
        1133        1134        1139        1138
        1135        1136        1141        1140
        1136        1137        1142        1141
        1137        1138        1143        1142
        1138        1139        1144        1143
        1140        1141        1146        1145
        1141        1142        1147        1146
        1142        1143        1148        1147
        1143        1144        1149        1148
        1150        1151        1156        1155
        1151        1152        1157        1156
        1152        1153        1158        1157
        1153        1154        1159        1158
        1155        1156        1161        1160
        1156        1157        1162        1161
        1157        1158        1163        1162
        1158        1159        1164        1163
        1160        1161        1166        1165
        1161        1162        1167        1166
        1162        1163        1168        1167
        1163        1164        1169        1168
        1165        1166        1171        1170
        1166        1167        1172        1171
        1167        1168        1173        1172
        1168        1169        1174        1173
        1175        1176        1181        1180
        1176        1177        1182        1181
        1177        1178        1183        1182
        1178        1179        1184        1183
        1180        1181        1186        1185
        1181        1182        1187        1186
        1182        1183        1188        1187
        1183        1184        1189        1188
        1185        1186        1191        1190
        1186        1187        1192        1191
        1187        1188        1193        1192
        1188        1189        1194        1193
        1190        1191        1196        1195
        1191        1192        1197        1196
        1192        1193        1198        1197
        1193        1194        1199        1198
        1200        1201        1206        1205
        1201        1202        1207        1206
        1202        1203        1208        1207
        1203        1204        1209        1208
        1205        1206        1211        1210
        1206        1207        1212        1211
        1207        1208        1213        1212
        1208        1209        1214        1213
        1210        1211        1216        1215
        1211        1212        1217        1216
        1212        1213        1218        1217
        1213        1214        1219        1218
        1215        1216        1221        1220
        1216        1217        1222        1221
        1217        1218        1223        1222
        1218        1219        1224        1223
        1225        1226        1231        1230
        1226        1227        1232        1231
        1227        1228        1233        1232
        1228        1229        1234        1233
        1230        1231        1236        1235
        1231        1232        1237        1236
        1232        1233        1238        1237
        1233        1234        1239        1238
        1235        1236        1241        1240
        1236        1237        1242        1241
        1237        1238        1243        1242
        1238        1239        1244        1243
        1240        1241        1246        1245
        1241        1242        1247        1246
        1242        1243        1248        1247
        1243        1244        1249        1248
        1250        1251        1256        1255
        1251        1252        1257        1256
        1252        1253        1258        1257
        1253        1254        1259        1258
        1255        1256        1261        1260
        1256        1257        1262        1261
        1257        1258        1263        1262
        1258        1259        1264        1263
        1260        1261        1266        1265
        1261        1262        1267        1266
        1262        1263        1268        1267
        1263        1264        1269        1268
        1265        1266        1271        1270
        1266        1267        1272        1271
        1267        1268        1273        1272
        1268        1269        1274        1273
        1275        1276        1281        1280
        1276        1277        1282        1281
        1277        1278        1283        1282
        1278        1279        1284        1283
        1280        1281        1286        1285
        1281        1282        1287        1286
        1282        1283        1288        1287
        1283        1284        1289        1288
        1285        1286        1291        1290
        1286        1287        1292        1291
        1287        1288        1293        1292
        1288        1289        1294        1293
        1290        1291        1296        1295
        1291        1292        1297        1296
        1292        1293        1298        1297
        1293        1294        1299        1298
        1300        1301        1306        1305
        1301        1302        1307        1306
        1302        1303        1308        1307
        1303        1304        1309        1308
        1305        1306        1311        1310
        1306        1307        1312        1311
        1307        1308        1313        1312
        1308        1309        1314        1313
        1310        1311        1316        1315
        1311        1312        1317        1316
        1312        1313        1318        1317
        1313        1314        1319        1318
        1315        1316        1321        1320
        1316        1317        1322        1321
        1317        1318        1323        1322
        1318        1319        1324        1323
        1325        1326        1331        1330
        1326        1327        1332        1331
        1327        1328        1333        1332
        1328        1329        1334        1333
        1330        1331        1336        1335
        1331        1332        1337        1336
        1332        1333        1338        1337
        1333        1334        1339        1338
        1335        1336        1341        1340
        1336        1337        1342        1341
        1337        1338        1343        1342
        1338        1339        1344        1343
        1340        1341        1346        1345
        1341        1342        1347        1346
        1342        1343        1348        1347
        1343        1344        1349        1348
        1350        1351        1356        1355
        1351        1352        1357        1356
        1352        1353        1358        1357
        1353        1354        1359        1358
        1355        1356        1361        1360
        1356        1357        1362        1361
        1357        1358        1363        1362
        1358        1359        1364        1363
        1360        1361        1366        1365
        1361        1362        1367        1366
        1362        1363        1368        1367
        1363        1364        1369        1368
        1365        1366        1371        1370
        1366        1367        1372        1371
        1367        1368        1373        1372
        1368        1369        1374        1373
        1375        1376        1381        1380
        1376        1377        1382        1381
        1377        1378        1383        1382
        1378        1379        1384        1383
        1380        1381        1386        1385
        1381        1382        1387        1386
        1382        1383        1388        1387
        1383        1384        1389        1388
        1385        1386        1391        1390
        1386        1387        1392        1391
        1387        1388        1393        1392
        1388        1389        1394        1393
        1390        1391        1396        1395
        1391        1392        1397        1396
        1392        1393        1398        1397
        1393        1394        1399        1398
        1400        1401        1406        1405
        1401        1402        1407        1406
        1402        1403        1408        1407
        1403        1404        1409        1408
        1405        1406        1411        1410
        1406        1407        1412        1411
        1407        1408        1413        1412
        1408        1409        1414        1413
        1410        1411        1416        1415
        1411        1412        1417        1416
        1412        1413        1418        1417
        1413        1414        1419        1418
        1415        1416        1421        1420
        1416        1417        1422        1421
        1417        1418        1423        1422
        1418        1419        1424        1423
        1425        1426        1431        1430
        1426        1427        1432        1431
        1427        1428        1433        1432
        1428        1429        1434        1433
        1430        1431        1436        1435
        1431        1432        1437        1436
        1432        1433        1438        1437
        1433        1434        1439        1438
        1435        1436        1441        1440
        1436        1437        1442        1441
        1437        1438        1443        1442
        1438        1439        1444        1443
        1440        1441        1446        1445
        1441        1442        1447        1446
        1442        1443        1448        1447
        1443        1444        1449        1448
        1450        1451        1456        1455
        1451        1452        1457        1456
        1452        1453        1458        1457
        1453        1454        1459        1458
        1455        1456        1461        1460
        1456        1457        1462        1461
        1457        1458        1463        1462
        1458        1459        1464        1463
        1460        1461        1466        1465
        1461        1462        1467        1466
        1462        1463        1468        1467
        1463        1464        1469        1468
        1465        1466        1471        1470
        1466        1467        1472        1471
        1467        1468        1473        1472
        1468        1469        1474        1473
        1475        1476        1481        1480
        1476        1477        1482        1481
        1477        1478        1483        1482
        1478        1479        1484        1483
        1480        1481        1486        1485
        1481        1482        1487        1486
        1482        1483        1488        1487
        1483        1484        1489        1488
        1485        1486        1491        1490
        1486        1487        1492        1491
        1487        1488        1493        1492
        1488        1489        1494        1493
        1490        1491        1496        1495
        1491        1492        1497        1496
        1492        1493        1498        1497
        1493        1494        1499        1498
        1500        1501        1506        1505
        1501        1502        1507        1506
        1502        1503        1508        1507
        1503        1504        1509        1508
        1505        1506        1511        1510
        1506        1507        1512        1511
        1507        1508        1513        1512
        1508        1509        1514        1513
        1510        1511        1516        1515
        1511        1512        1517        1516
        1512        1513        1518        1517
        1513        1514        1519        1518
        1515        1516        1521        1520
        1516        1517        1522        1521
        1517        1518        1523        1522
        1518        1519        1524        1523
        1525        1526        1531        1530
        1526        1527        1532        1531
        1527        1528        1533        1532
        1528        1529        1534        1533
        1530        1531        1536        1535
        1531        1532        1537        1536
        1532        1533        1538        1537
        1533        1534        1539        1538
        1535        1536        1541        1540
        1536        1537        1542        1541
        1537        1538        1543        1542
        1538        1539        1544        1543
        1540        1541        1546        1545
        1541        1542        1547        1546
        1542        1543        1548        1547
        1543        1544        1549        1548
        1550        1551        1556        1555
        1551        1552        1557        1556
        1552        1553        1558        1557
        1553        1554        1559        1558
        1555        1556        1561        1560
        1556        1557        1562        1561
        1557        1558        1563        1562
        1558        1559        1564        1563
        1560        1561        1566        1565
        1561        1562        1567        1566
        1562        1563        1568        1567
        1563        1564        1569        1568
        1565        1566        1571        1570
        1566        1567        1572        1571
        1567        1568        1573        1572
        1568        1569        1574        1573
        1575        1576        1581        1580
        1576        1577        1582        1581
        1577        1578        1583        1582
        1578        1579        1584        1583
        1580        1581        1586        1585
        1581        1582        1587        1586
        1582        1583        1588        1587
        1583        1584        1589        1588
        1585        1586        1591        1590
        1586        1587        1592        1591
        1587        1588        1593        1592
        1588        1589        1594        1593
        1590        1591        1596        1595
        1591        1592        1597        1596
        1592        1593        1598        1597
        1593        1594        1599        1598
 </DataArray>
 <DataArray  type="Int32"  Name="offsets"  format="ascii"> 
           4
           8
          12
          16
          20
          24
          28
          32
          36
          40
          44
          48
          52
          56
          60
          64
          68
          72
          76
          80
          84
          88
          92
          96
         100
         104
         108
         112
         116
         120
         124
         128
         132
         136
         140
         144
         148
         152
         156
         160
         164
         168
         172
         176
         180
         184
         188
         192
         196
         200
         204
         208
         212
         216
         220
         224
         228
         232
         236
         240
         244
         248
         252
         256
         260
         264
         268
         272
         276
         280
         284
         288
         292
         296
         300
         304
         308
         312
         316
         320
         324
         328
         332
         336
         340
         344
         348
         352
         356
         360
         364
         368
         372
         376
         380
         384
         388
         392
         396
         400
         404
         408
         412
         416
         420
         424
         428
         432
         436
         440
         444
         448
         452
         456
         460
         464
         468
         472
         476
         480
         484
         488
         492
         496
         500
         504
         508
         512
         516
         520
         524
         528
         532
         536
         540
         544
         548
         552
         556
         560
         564
         568
         572
         576
         580
         584
         588
         592
         596
         600
         604
         608
         612
         616
         620
         624
         628
         632
         636
         640
         644
         648
         652
         656
         660
         664
         668
         672
         676
         680
         684
         688
         692
         696
         700
         704
         708
         712
         716
         720
         724
         728
         732
         736
         740
         744
         748
         752
         756
         760
         764
         768
         772
         776
         780
         784
         788
         792
         796
         800
         804
         808
         812
         816
         820
         824
         828
         832
         836
         840
         844
         848
         852
         856
         860
         864
         868
         872
         876
         880
         884
         888
         892
         896
         900
         904
         908
         912
         916
         920
         924
         928
         932
         936
         940
         944
         948
         952
         956
         960
         964
         968
         972
         976
         980
         984
         988
         992
         996
        1000
        1004
        1008
        1012
        1016
        1020
        1024
        1028
        1032
        1036
        1040
        1044
        1048
        1052
        1056
        1060
        1064
        1068
        1072
        1076
        1080
        1084
        1088
        1092
        1096
        1100
        1104
        1108
        1112
        1116
        1120
        1124
        1128
        1132
        1136
        1140
        1144
        1148
        1152
        1156
        1160
        1164
        1168
        1172
        1176
        1180
        1184
        1188
        1192
        1196
        1200
        1204
        1208
        1212
        1216
        1220
        1224
        1228
        1232
        1236
        1240
        1244
        1248
        1252
        1256
        1260
        1264
        1268
        1272
        1276
        1280
        1284
        1288
        1292
        1296
        1300
        1304
        1308
        1312
        1316
        1320
        1324
        1328
        1332
        1336
        1340
        1344
        1348
        1352
        1356
        1360
        1364
        1368
        1372
        1376
        1380
        1384
        1388
        1392
        1396
        1400
        1404
        1408
        1412
        1416
        1420
        1424
        1428
        1432
        1436
        1440
        1444
        1448
        1452
        1456
        1460
        1464
        1468
        1472
        1476
        1480
        1484
        1488
        1492
        1496
        1500
        1504
        1508
        1512
        1516
        1520
        1524
        1528
        1532
        1536
        1540
        1544
        1548
        1552
        1556
        1560
        1564
        1568
        1572
        1576
        1580
        1584
        1588
        1592
        1596
        1600
        1604
        1608
        1612
        1616
        1620
        1624
        1628
        1632
        1636
        1640
        1644
        1648
        1652
        1656
        1660
        1664
        1668
        1672
        1676
        1680
        1684
        1688
        1692
        1696
        1700
        1704
        1708
        1712
        1716
        1720
        1724
        1728
        1732
        1736
        1740
        1744
        1748
        1752
        1756
        1760
        1764
        1768
        1772
        1776
        1780
        1784
        1788
        1792
        1796
        1800
        1804
        1808
        1812
        1816
        1820
        1824
        1828
        1832
        1836
        1840
        1844
        1848
        1852
        1856
        1860
        1864
        1868
        1872
        1876
        1880
        1884
        1888
        1892
        1896
        1900
        1904
        1908
        1912
        1916
        1920
        1924
        1928
        1932
        1936
        1940
        1944
        1948
        1952
        1956
        1960
        1964
        1968
        1972
        1976
        1980
        1984
        1988
        1992
        1996
        2000
        2004
        2008
        2012
        2016
        2020
        2024
        2028
        2032
        2036
        2040
        2044
        2048
        2052
        2056
        2060
        2064
        2068
        2072
        2076
        2080
        2084
        2088
        2092
        2096
        2100
        2104
        2108
        2112
        2116
        2120
        2124
        2128
        2132
        2136
        2140
        2144
        2148
        2152
        2156
        2160
        2164
        2168
        2172
        2176
        2180
        2184
        2188
        2192
        2196
        2200
        2204
        2208
        2212
        2216
        2220
        2224
        2228
        2232
        2236
        2240
        2244
        2248
        2252
        2256
        2260
        2264
        2268
        2272
        2276
        2280
        2284
        2288
        2292
        2296
        2300
        2304
        2308
        2312
        2316
        2320
        2324
        2328
        2332
        2336
        2340
        2344
        2348
        2352
        2356
        2360
        2364
        2368
        2372
        2376
        2380
        2384
        2388
        2392
        2396
        2400
        2404
        2408
        2412
        2416
        2420
        2424
        2428
        2432
        2436
        2440
        2444
        2448
        2452
        2456
        2460
        2464
        2468
        2472
        2476
        2480
        2484
        2488
        2492
        2496
        2500
        2504
        2508
        2512
        2516
        2520
        2524
        2528
        2532
        2536
        2540
        2544
        2548
        2552
        2556
        2560
        2564
        2568
        2572
        2576
        2580
        2584
        2588
        2592
        2596
        2600
        2604
        2608
        2612
        2616
        2620
        2624
        2628
        2632
        2636
        2640
        2644
        2648
        2652
        2656
        2660
        2664
        2668
        2672
        2676
        2680
        2684
        2688
        2692
        2696
        2700
        2704
        2708
        2712
        2716
        2720
        2724
        2728
        2732
        2736
        2740
        2744
        2748
        2752
        2756
        2760
        2764
        2768
        2772
        2776
        2780
        2784
        2788
        2792
        2796
        2800
        2804
        2808
        2812
        2816
        2820
        2824
        2828
        2832
        2836
        2840
        2844
        2848
        2852
        2856
        2860
        2864
        2868
        2872
        2876
        2880
        2884
        2888
        2892
        2896
        2900
        2904
        2908
        2912
        2916
        2920
        2924
        2928
        2932
        2936
        2940
        2944
        2948
        2952
        2956
        2960
        2964
        2968
        2972
        2976
        2980
        2984
        2988
        2992
        2996
        3000
        3004
        3008
        3012
        3016
        3020
        3024
        3028
        3032
        3036
        3040
        3044
        3048
        3052
        3056
        3060
        3064
        3068
        3072
        3076
        3080
        3084
        3088
        3092
        3096
        3100
        3104
        3108
        3112
        3116
        3120
        3124
        3128
        3132
        3136
        3140
        3144
        3148
        3152
        3156
        3160
        3164
        3168
        3172
        3176
        3180
        3184
        3188
        3192
        3196
        3200
        3204
        3208
        3212
        3216
        3220
        3224
        3228
        3232
        3236
        3240
        3244
        3248
        3252
        3256
        3260
        3264
        3268
        3272
        3276
        3280
        3284
        3288
        3292
        3296
        3300
        3304
        3308
        3312
        3316
        3320
        3324
        3328
        3332
        3336
        3340
        3344
        3348
        3352
        3356
        3360
        3364
        3368
        3372
        3376
        3380
        3384
        3388
        3392
        3396
        3400
        3404
        3408
        3412
        3416
        3420
        3424
        3428
        3432
        3436
        3440
        3444
        3448
        3452
        3456
        3460
        3464
        3468
        3472
        3476
        3480
        3484
        3488
        3492
        3496
        3500
        3504
        3508
        3512
        3516
        3520
        3524
        3528
        3532
        3536
        3540
        3544
        3548
        3552
        3556
        3560
        3564
        3568
        3572
        3576
        3580
        3584
        3588
        3592
        3596
        3600
        3604
        3608
        3612
        3616
        3620
        3624
        3628
        3632
        3636
        3640
        3644
        3648
        3652
        3656
        3660
        3664
        3668
        3672
        3676
        3680
        3684
        3688
        3692
        3696
        3700
        3704
        3708
        3712
        3716
        3720
        3724
        3728
        3732
        3736
        3740
        3744
        3748
        3752
        3756
        3760
        3764
        3768
        3772
        3776
        3780
        3784
        3788
        3792
        3796
        3800
        3804
        3808
        3812
        3816
        3820
        3824
        3828
        3832
        3836
        3840
        3844
        3848
        3852
        3856
        3860
        3864
        3868
        3872
        3876
        3880
        3884
        3888
        3892
        3896
        3900
        3904
        3908
        3912
        3916
        3920
        3924
        3928
        3932
        3936
        3940
        3944
        3948
        3952
        3956
        3960
        3964
        3968
        3972
        3976
        3980
        3984
        3988
        3992
        3996
        4000
        4004
        4008
        4012
        4016
        4020
        4024
        4028
        4032
        4036
        4040
        4044
        4048
        4052
        4056
        4060
        4064
        4068
        4072
        4076
        4080
        4084
        4088
        4092
        4096
 </DataArray>
 <DataArray  type="UInt8"  Name="types"  format="ascii">
 9
 9
 9
 9
 9
 9
 9
 9
 9
 9
 9
 9
 9
 9
 9
 9
 9
 9
 9
 9
 9
 9
 9
 9
 9
 9
 9
 9
 9
 9
 9
 9
 9
 9
 9
 9
 9
 9
 9
 9
 9
 9
 9
 9
 9
 9
 9
 9
 9
 9
 9
 9
 9
 9
 9
 9
 9
 9
 9
 9
 9
 9
 9
 9
 9
 9
 9
 9
 9
 9
 9
 9
 9
 9
 9
 9
 9
 9
 9
 9
 9
 9
 9
 9
 9
 9
 9
 9
 9
 9
 9
 9
 9
 9
 9
 9
 9
 9
 9
 9
 9
 9
 9
 9
 9
 9
 9
 9
 9
 9
 9
 9
 9
 9
 9
 9
 9
 9
 9
 9
 9
 9
 9
 9
 9
 9
 9
 9
 9
 9
 9
 9
 9
 9
 9
 9
 9
 9
 9
 9
 9
 9
 9
 9
 9
 9
 9
 9
 9
 9
 9
 9
 9
 9
 9
 9
 9
 9
 9
 9
 9
 9
 9
 9
 9
 9
 9
 9
 9
 9
 9
 9
 9
 9
 9
 9
 9
 9
 9
 9
 9
 9
 9
 9
 9
 9
 9
 9
 9
 9
 9
 9
 9
 9
 9
 9
 9
 9
 9
 9
 9
 9
 9
 9
 9
 9
 9
 9
 9
 9
 9
 9
 9
 9
 9
 9
 9
 9
 9
 9
 9
 9
 9
 9
 9
 9
 9
 9
 9
 9
 9
 9
 9
 9
 9
 9
 9
 9
 9
 9
 9
 9
 9
 9
 9
 9
 9
 9
 9
 9
 9
 9
 9
 9
 9
 9
 9
 9
 9
 9
 9
 9
 9
 9
 9
 9
 9
 9
 9
 9
 9
 9
 9
 9
 9
 9
 9
 9
 9
 9
 9
 9
 9
 9
 9
 9
 9
 9
 9
 9
 9
 9
 9
 9
 9
 9
 9
 9
 9
 9
 9
 9
 9
 9
 9
 9
 9
 9
 9
 9
 9
 9
 9
 9
 9
 9
 9
 9
 9
 9
 9
 9
 9
 9
 9
 9
 9
 9
 9
 9
 9
 9
 9
 9
 9
 9
 9
 9
 9
 9
 9
 9
 9
 9
 9
 9
 9
 9
 9
 9
 9
 9
 9
 9
 9
 9
 9
 9
 9
 9
 9
 9
 9
 9
 9
 9
 9
 9
 9
 9
 9
 9
 9
 9
 9
 9
 9
 9
 9
 9
 9
 9
 9
 9
 9
 9
 9
 9
 9
 9
 9
 9
 9
 9
 9
 9
 9
 9
 9
 9
 9
 9
 9
 9
 9
 9
 9
 9
 9
 9
 9
 9
 9
 9
 9
 9
 9
 9
 9
 9
 9
 9
 9
 9
 9
 9
 9
 9
 9
 9
 9
 9
 9
 9
 9
 9
 9
 9
 9
 9
 9
 9
 9
 9
 9
 9
 9
 9
 9
 9
 9
 9
 9
 9
 9
 9
 9
 9
 9
 9
 9
 9
 9
 9
 9
 9
 9
 9
 9
 9
 9
 9
 9
 9
 9
 9
 9
 9
 9
 9
 9
 9
 9
 9
 9
 9
 9
 9
 9
 9
 9
 9
 9
 9
 9
 9
 9
 9
 9
 9
 9
 9
 9
 9
 9
 9
 9
 9
 9
 9
 9
 9
 9
 9
 9
 9
 9
 9
 9
 9
 9
 9
 9
 9
 9
 9
 9
 9
 9
 9
 9
 9
 9
 9
 9
 9
 9
 9
 9
 9
 9
 9
 9
 9
 9
 9
 9
 9
 9
 9
 9
 9
 9
 9
 9
 9
 9
 9
 9
 9
 9
 9
 9
 9
 9
 9
 9
 9
 9
 9
 9
 9
 9
 9
 9
 9
 9
 9
 9
 9
 9
 9
 9
 9
 9
 9
 9
 9
 9
 9
 9
 9
 9
 9
 9
 9
 9
 9
 9
 9
 9
 9
 9
 9
 9
 9
 9
 9
 9
 9
 9
 9
 9
 9
 9
 9
 9
 9
 9
 9
 9
 9
 9
 9
 9
 9
 9
 9
 9
 9
 9
 9
 9
 9
 9
 9
 9
 9
 9
 9
 9
 9
 9
 9
 9
 9
 9
 9
 9
 9
 9
 9
 9
 9
 9
 9
 9
 9
 9
 9
 9
 9
 9
 9
 9
 9
 9
 9
 9
 9
 9
 9
 9
 9
 9
 9
 9
 9
 9
 9
 9
 9
 9
 9
 9
 9
 9
 9
 9
 9
 9
 9
 9
 9
 9
 9
 9
 9
 9
 9
 9
 9
 9
 9
 9
 9
 9
 9
 9
 9
 9
 9
 9
 9
 9
 9
 9
 9
 9
 9
 9
 9
 9
 9
 9
 9
 9
 9
 9
 9
 9
 9
 9
 9
 9
 9
 9
 9
 9
 9
 9
 9
 9
 9
 9
 9
 9
 9
 9
 9
 9
 9
 9
 9
 9
 9
 9
 9
 9
 9
 9
 9
 9
 9
 9
 9
 9
 9
 9
 9
 9
 9
 9
 9
 9
 9
 9
 9
 9
 9
 9
 9
 9
 9
 9
 9
 9
 9
 9
 9
 9
 9
 9
 9
 9
 9
 9
 9
 9
 9
 9
 9
 9
 9
 9
 9
 9
 9
 9
 9
 9
 9
 9
 9
 9
 9
 9
 9
 9
 9
 9
 9
 9
 9
 9
 9
 9
 9
 9
 9
 9
 9
 9
 9
 9
 9
 9
 9
 9
 9
 9
 9
 9
 9
 9
 9
 9
 9
 9
 9
 9
 9
 9
 9
 9
 9
 9
 9
 9
 9
 9
 9
 9
 9
 9
 9
 9
 9
 9
 9
 9
 9
 9
 9
 9
 9
 9
 9
 9
 9
 9
 9
 9
 9
 9
 9
 9
 9
 9
 9
 9
 9
 9
 9
 9
 9
 9
 9
 9
 9
 9
 9
 9
 9
 9
 9
 9
 9
 9
 9
 9
 9
 9
 9
 9
 9
 9
 9
 9
 9
 9
 9
 9
 9
 9
 9
 9
 9
 9
 9
 9
 9
 9
 9
 9
 9
 9
 9
 9
 9
 9
 9
 9
 9
 9
 9
 9
 9
 9
 9
 9
 9
 9
 9
 9
 9
 9
 9
 9
 9
 9
 9
 9
 9
 9
 9
 9
 9
 9
 9
 9
 9
 9
 9
 9
 9
 9
 9
 9
 9
 9
 9
 9
 9
 9
 9
 9
 9
 9
 9
 9
 9
 9
 9
 9
 9
 9
 9
 9
 9
 9
 9
 9
 9
 9
 9
 9
 9
 9
 9
 9
 9
 9
 9
 9
 9
 9
 9
 9
 9
 9
 9
 9
 9
 </DataArray>
 </Cells> 
 <PointData>
 <DataArray  type="Float64" Name="disp" NumberOfComponents="3" format="ascii">
   6.4929496746434140E-002   6.2774114456274593E-002   0.0000000000000000     
   6.8400336905996090E-002   6.8130988006643273E-002   0.0000000000000000     
   7.1604097911014103E-002   7.3689218424643696E-002   0.0000000000000000     
   7.4540779761488166E-002   7.9448805710275863E-002   0.0000000000000000     
   7.7210382457418250E-002   8.5409749863539774E-002   0.0000000000000000     
   6.0037759936970816E-002   6.1890945404623213E-002   0.0000000000000000     
   6.3038967447567068E-002   6.7268257680215299E-002   0.0000000000000000     
   6.5892152597038525E-002   7.2848190201310434E-002   0.0000000000000000     
   6.8597315385385119E-002   7.8630742967908590E-002   0.0000000000000000     
   7.1154455812606932E-002   8.4615915980009809E-002   0.0000000000000000     
   5.5227750356099434E-002   6.1052727192564209E-002   0.0000000000000000     
   5.7867857208258669E-002   6.6456286049043994E-002   0.0000000000000000     
   6.0435619578800184E-002   7.2060949680877909E-002   0.0000000000000000     
   6.2931037467723980E-002   7.7866718088065973E-002   0.0000000000000000     
   6.5354110875030069E-002   8.3873591270608172E-002   0.0000000000000000     
   5.0499468003819992E-002   6.0259459820097595E-002   0.0000000000000000     
   5.2887006188070858E-002   6.5695073113129332E-002   0.0000000000000000     
   5.5234498856299101E-002   7.1327496863346121E-002   0.0000000000000000     
   5.7541946008504707E-002   7.7156731070747983E-002   0.0000000000000000     
   5.9809347644687705E-002   8.3182775735334905E-002   0.0000000000000000     
   4.5852912880132504E-002   5.9511143287223366E-002   0.0000000000000000     
   4.8096414387003648E-002   6.4984618872471311E-002   0.0000000000000000     
   5.0288790429535261E-002   7.0647831748715043E-002   0.0000000000000000     
   5.2430041007727309E-002   7.6500781915954608E-002   0.0000000000000000     
   5.4520166121579811E-002   8.2543469374189965E-002   0.0000000000000000     
   7.7210382457418250E-002   8.5409749863539774E-002   0.0000000000000000     
   7.9727841725237905E-002   9.1540632413621661E-002   0.0000000000000000     
   8.2208093291380624E-002   9.7810034889707673E-002   0.0000000000000000     
   8.4651137155846379E-002  0.10421795729179785        0.0000000000000000     
   8.7056973318635211E-002  0.11076439961989218        0.0000000000000000     
   7.1154455812606932E-002   8.4615915980009809E-002   0.0000000000000000     
   7.3605394842126068E-002   9.0772351807804616E-002   0.0000000000000000     
   7.5991953437364756E-002   9.7068693021483660E-002   0.0000000000000000     
   7.8314131598322970E-002  0.10350493962104688        0.0000000000000000     
   8.0571929325000735E-002  0.11008109160649432        0.0000000000000000     
   6.5354110875030069E-002   8.3873591270608172E-002   0.0000000000000000     
   6.7701325269988913E-002   9.0052129619922025E-002   0.0000000000000000     
   6.9969166121871013E-002   9.6372893527425049E-002   0.0000000000000000     
   7.2157633430676341E-002  0.10283588299311719        0.0000000000000000     
   7.4266727196404925E-002  0.10944109801699850        0.0000000000000000     
   5.9809347644687705E-002   8.3182775735334905E-002   0.0000000000000000     
   6.2015633008826454E-002   8.9379965849973861E-002   0.0000000000000000     
   6.4139731344899392E-002   9.5722636407531814E-002   0.0000000000000000     
   6.6181642652906505E-002  0.10221078740800876        0.0000000000000000     
   6.8141366932847780E-002  0.10884441885140472        0.0000000000000000     
   5.4520166121579811E-002   8.2543469374189965E-002   0.0000000000000000     
   5.6548318058638691E-002   8.8755860497960110E-002   0.0000000000000000     
   5.8503649106449909E-002   9.5117921661803995E-002   0.0000000000000000     
   6.0386159265013443E-002  0.10162965286572159        0.0000000000000000     
   6.2195848534329301E-002  0.10829105410971293        0.0000000000000000     
   8.7056973318635211E-002  0.11076439961989218        0.0000000000000000     
   8.9391495444093139E-002  0.11745216473286402        0.0000000000000000     
   9.1620597196566178E-002  0.12428405548958674        0.0000000000000000     
   9.3744278576054343E-002  0.13126007189006034        0.0000000000000000     
   9.5762539582557621E-002  0.13838021393428479        0.0000000000000000     
   8.0571929325000735E-002  0.11008109160649432        0.0000000000000000     
   8.2748434061663406E-002  0.11679878564556669        0.0000000000000000     
   8.4826733252576350E-002  0.12365965840600462        0.0000000000000000     
   8.6806826897739567E-002  0.13066370988780815        0.0000000000000000     
   8.8688714997153056E-002  0.13781094009097730        0.0000000000000000     
   7.4266727196404925E-002  0.10944109801699850        0.0000000000000000     
   7.6290328410451261E-002  0.11618831547437805        0.0000000000000000     
   7.8222318064209900E-002  0.12307731224056488        0.0000000000000000     
   8.0062696157680815E-002  0.13010808831555903        0.0000000000000000     
   8.1811462690864034E-002  0.13728064369936044        0.0000000000000000     
   6.8141366932847780E-002  0.10884441885140472        0.0000000000000000     
   7.0017178490456716E-002  0.11562075421929814        0.0000000000000000     
   7.1807351631466829E-002  0.12253701699326754        0.0000000000000000     
   7.3511886355878117E-002  0.12959320717331285        0.0000000000000000     
   7.5130782663690568E-002  0.13678932475943417        0.0000000000000000     
   6.2195848534329301E-002  0.10829105410971293        0.0000000000000000     
   6.3928984301679773E-002  0.11509610188032694        0.0000000000000000     
   6.5581833954347149E-002  0.12203877266411253        0.0000000000000000     
   6.7154397492331430E-002  0.12911906646106971        0.0000000000000000     
   6.8646674915632616E-002  0.13633698327119853        0.0000000000000000     
   9.5762539582557621E-002  0.13838021393428479        0.0000000000000000     
   9.7679169242536890E-002  0.14562598615249103        0.0000000000000000     
   9.9497956582453070E-002  0.15297889307491000        0.0000000000000000     
  0.10121890160230614       0.16043893470154169        0.0000000000000000     
  0.10284200430209610       0.16800611103238611        0.0000000000000000     
   8.8688714997153056E-002  0.13781094009097730        0.0000000000000000     
   9.0478105008152510E-002  0.14508322087149458        0.0000000000000000     
   9.2180704388073631E-002  0.15246242408534255        0.0000000000000000     
   9.3796513136916393E-002  0.15994854973252121        0.0000000000000000     
   9.5325531254680823E-002  0.16754159781303052        0.0000000000000000     
   8.1811462690864034E-002  0.13728064369936044        0.0000000000000000     
   8.3475363823081086E-002  0.14457764504363849        0.0000000000000000     
   8.5061145713653530E-002  0.15198175900006250        0.0000000000000000     
   8.6568808362581351E-002  0.15949298556863251        0.0000000000000000     
   8.7998351769864536E-002  0.16711132474934845        0.0000000000000000     
   7.5130782663690568E-002  0.13678932475943417        0.0000000000000000     
   7.6670945687322634E-002  0.14410925866892274        0.0000000000000000     
   7.8139280559192767E-002  0.15153689781906993        0.0000000000000000     
   7.9535787279300968E-002  0.15907224220987556        0.0000000000000000     
   8.0860465847647250E-002  0.16671529184133985        0.0000000000000000     
   6.8646674915632616E-002  0.13633698327119853        0.0000000000000000     
   7.0064850600877124E-002  0.14367806174734735        0.0000000000000000     
   7.1415108924691356E-002  0.15112784054236467        0.0000000000000000     
   7.2697449887075299E-002  0.15868631965625046        0.0000000000000000     
   7.3911873488028967E-002  0.16635349908900476        0.0000000000000000     
  0.10284200430209610       0.16800611103238611        0.0000000000000000     
  0.10437570264619574       0.17567139910106222        0.0000000000000000     
  0.10582843459897782       0.18342577594118908        0.0000000000000000     
  0.10720020016044239       0.19126924155276659        0.0000000000000000     
  0.10849099933058941       0.19920179593579485        0.0000000000000000     
   9.5325531254680823E-002  0.16754159781303052        0.0000000000000000     
   9.6769799684389743E-002  0.17523285358497800        0.0000000000000000     
   9.8131359369065974E-002  0.18301360230647121        0.0000000000000000     
   9.9410210308709515E-002  0.19088384397751007        0.0000000000000000     
  0.10060635250332040       0.19884357859809462        0.0000000000000000     
   8.7998351769864536E-002  0.16711132474934845        0.0000000000000000     
   8.9347581513051708E-002  0.17482803297041052        0.0000000000000000     
   9.0614303169691462E-002  0.18263436666001887        0.0000000000000000     
   9.1798516739783786E-002  0.19053032581817353        0.0000000000000000     
   9.2900222223328680E-002  0.19851591044487449        0.0000000000000000     
   8.0860465847647250E-002  0.16671529184133985        0.0000000000000000     
   8.2109048132181686E-002  0.17445693725735967        0.0000000000000000     
   8.3277266000854305E-002  0.18228806900183206        0.0000000000000000     
   8.4365119453665163E-002  0.19020868707475694        0.0000000000000000     
   8.5372608490614232E-002  0.19821879147613441        0.0000000000000000     
   7.3911873488028967E-002  0.16635349908900476        0.0000000000000000     
   7.5054199541779623E-002  0.17411956644582555        0.0000000000000000     
   7.6120247862554530E-002  0.18197470933191073        0.0000000000000000     
   7.7110018450353687E-002  0.18991892774726035        0.0000000000000000     
   7.8023511305177082E-002  0.19795222169187440        0.0000000000000000     
  0.10849099933058941       0.19920179593579485        0.0000000000000000     
  0.10970291535573579       0.20722007993731062        0.0000000000000000     
  0.11083803148219845       0.21532073440435076        0.0000000000000000     
  0.11189634770997738       0.22350375933691521        0.0000000000000000     
  0.11287786403907255       0.23176915473500409        0.0000000000000000     
  0.10060635250332040       0.19884357859809462        0.0000000000000000     
  0.10172438265772672       0.20688719527846605        0.0000000000000000     
  0.10276889747675670       0.21500908312886557        0.0000000000000000     
  0.10373989696041022       0.22320924214929319        0.0000000000000000     
  0.10463738110868739       0.23148767233974890        0.0000000000000000     
   9.2900222223328680E-002  0.19851591044487449        0.0000000000000000     
   9.3924791257899834E-002  0.20658419787208188        0.0000000000000000     
   9.4877595481070928E-002  0.21472826543175594        0.0000000000000000     
   9.5758634892841962E-002  0.22294811312389659        0.0000000000000000     
   9.6567909493212964E-002  0.23124374094850386        0.0000000000000000     
   8.5372608490614232E-002  0.19821879147613441        0.0000000000000000     
   8.6304141156255051E-002  0.20631108771815812        0.0000000000000000     
   8.7164125495141159E-002  0.21447828131302180        0.0000000000000000     
   8.7952561507272570E-002  0.22272037226072544        0.0000000000000000     
   8.8669449192649255E-002  0.23103736056126906        0.0000000000000000     
   7.8023511305177082E-002  0.19795222169187440        0.0000000000000000     
   7.8862432352792416E-002  0.20606786481669473        0.0000000000000000     
   7.9628487518967409E-002  0.21425913077266320        0.0000000000000000     
   8.0321676803702030E-002  0.22252601955977974        0.0000000000000000     
   8.0942000206996295E-002  0.23086853117804446        0.0000000000000000     
  0.11287786403907255       0.23176915473500409        0.0000000000000000     
  0.11381163446340274       0.24013300851649999        0.0000000000000000     
  0.11472671297688673       0.24861140859928565        0.0000000000000000     
  0.11562309957952449       0.25720435498336103        0.0000000000000000     
  0.11650079427131603       0.26591184766872622        0.0000000000000000     
  0.10463738110868739       0.23148767233974890        0.0000000000000000     
  0.10546657448531954       0.23986730930973610        0.0000000000000000     
  0.10623270165403807       0.24837108866875829        0.0000000000000000     
  0.10693576261484296       0.25699901041681533        0.0000000000000000     
  0.10757575736773425       0.26575107455390728        0.0000000000000000     
   9.6567909493212964E-002  0.23124374094850386        0.0000000000000000     
   9.7296052833450095E-002  0.23964108560331121        0.0000000000000000     
   9.7933698464819488E-002  0.24816608378605190        0.0000000000000000     
   9.8480846387321200E-002  0.25681873549672596        0.0000000000000000     
   9.8937496600955188E-002  0.26559904073533341        0.0000000000000000     
   8.8669449192649255E-002  0.23103736056126906        0.0000000000000000     
   8.9300069507794372E-002  0.23945433739722524        0.0000000000000000     
   8.9829703409231021E-002  0.24799639395116657        0.0000000000000000     
   9.0258350896959189E-002  0.25666353022309307        0.0000000000000000     
   9.0586011970978861E-002  0.26545574621300461        0.0000000000000000     
   8.0942000206996295E-002  0.23086853117804446        0.0000000000000000     
   8.1478624508352415E-002  0.23930706469147828        0.0000000000000000     
   8.1920716487272630E-002  0.24786201916410228        0.0000000000000000     
   8.2268276143756924E-002  0.25653339459591651        0.0000000000000000     
   8.2521303477805313E-002  0.26532119098692092        0.0000000000000000     
  0.11650079427131603       0.26591184766872622        0.0000000000000000     
  0.11729995061697501       0.27489871960944395        0.0000000000000000     
  0.11796072218121514       0.28432980375957700        0.0000000000000000     
  0.11848310896403637       0.29420510011912537        0.0000000000000000     
  0.11886711096543875       0.30452460868808917        0.0000000000000000     
  0.10757575736773425       0.26575107455390728        0.0000000000000000     
  0.10813367284268036       0.27475968942268147        0.0000000000000000     
  0.10859049596964973       0.28415726336578506        0.0000000000000000     
  0.10894622674864241       0.29394379638321821        0.0000000000000000     
  0.10920086517965837       0.30411928847498071        0.0000000000000000     
   9.8937496600955188E-002  0.26559904073533341        0.0000000000000000     
   9.9314723166328459E-002  0.27460554019975847        0.0000000000000000     
   9.9623600144047947E-002  0.28393677458788535        0.0000000000000000     
   9.9864127534113709E-002  0.29359274389971418        0.0000000000000000     
  0.10003630533652572       0.30357344813524478        0.0000000000000000     
   9.0586011970978861E-002  0.26545574621300461        0.0000000000000000     
   9.0843101587919362E-002  0.27443627194067510        0.0000000000000000     
   9.1060034704409820E-002  0.28366833742587805        0.0000000000000000     
   9.1236811320450306E-002  0.29315194266861344        0.0000000000000000     
   9.1373431436040792E-002  0.30288708766888145        0.0000000000000000     
   8.2521303477805313E-002  0.26532119098692092        0.0000000000000000     
   8.2718808107453037E-002  0.27425188464543110        0.0000000000000000     
   8.2899799650735309E-002  0.28335195187976286        0.0000000000000000     
   8.3064278107652156E-002  0.29262139268991599        0.0000000000000000     
   8.3212243478203607E-002  0.30206020707589065        0.0000000000000000     
   4.5852912880132504E-002   5.9511143287223366E-002   0.0000000000000000     
   4.8096414387003648E-002   6.4984618872471311E-002   0.0000000000000000     
   5.0288790429535261E-002   7.0647831748715043E-002   0.0000000000000000     
   5.2430041007727309E-002   7.6500781915954608E-002   0.0000000000000000     
   5.4520166121579811E-002   8.2543469374189965E-002   0.0000000000000000     
   4.1342855433135470E-002   5.8820636594253115E-002   0.0000000000000000     
   4.3477335638180958E-002   6.4330248330900355E-002   0.0000000000000000     
   4.5535139310370613E-002   7.0022582934084990E-002   0.0000000000000000     
   4.7516266449704470E-002   7.5897640403807004E-002   0.0000000000000000     
   4.9420717056182506E-002   8.1955420740066426E-002   0.0000000000000000     
   3.7024066110927428E-002   5.8200798741498437E-002   0.0000000000000000     
   3.9011023774726657E-002   6.3737286492246886E-002   0.0000000000000000     
   4.0910190510667160E-002   6.9452379016556182E-002   0.0000000000000000     
   4.2721566318748898E-002   7.5346076314426344E-002   0.0000000000000000     
   4.4445151198971918E-002   8.1418378385857318E-002   0.0000000000000000     
   3.2896544913508373E-002   5.7651629728959333E-002   0.0000000000000000     
   3.4697478796640764E-002   6.3205733356510918E-002   0.0000000000000000     
   3.6413944030424854E-002   6.8937219996128674E-002   0.0000000000000000     
   3.8045940614860607E-002   7.4846089647812572E-002   0.0000000000000000     
   3.9593468549948024E-002   8.0932342311562613E-002   0.0000000000000000     
   2.8960291840878304E-002   5.7173129556635803E-002   0.0000000000000000     
   3.0536700703923302E-002   6.2735588923692423E-002   0.0000000000000000     
   3.2046399869643721E-002   6.8477105872802396E-002   0.0000000000000000     
   3.3489389338039563E-002   7.4397680403965702E-002   0.0000000000000000     
   3.4865669109110840E-002   8.0497312517182354E-002   0.0000000000000000     
   5.4520166121579811E-002   8.2543469374189965E-002   0.0000000000000000     
   5.6548318058638691E-002   8.8755860497960110E-002   0.0000000000000000     
   5.8503649106449909E-002   9.5117921661803995E-002   0.0000000000000000     
   6.0386159265013443E-002  0.10162965286572159        0.0000000000000000     
   6.2195848534329301E-002  0.10829105410971293        0.0000000000000000     
   4.9420717056182506E-002   8.1955420740066426E-002   0.0000000000000000     
   5.1257267639883086E-002   8.8181451701298139E-002   0.0000000000000000     
   5.3034694710884546E-002   9.4561261045936998E-002   0.0000000000000000     
   5.4752998269186906E-002  0.10109484877398307        0.0000000000000000     
   5.6412178314790139E-002  0.10778221488543627        0.0000000000000000     
   4.4445151198971918E-002   8.1418378385857318E-002   0.0000000000000000     
   4.6100368973017079E-002   8.7658377597405274E-002   0.0000000000000000     
   4.7706643462565305E-002   9.4055166315626340E-002   0.0000000000000000     
   4.9263974667616582E-002  0.10060874454052052        0.0000000000000000     
   5.0772362588170909E-002  0.10731911227208782        0.0000000000000000     
   3.9593468549948024E-002   8.0932342311562613E-002   0.0000000000000000     
   4.1077622058040705E-002   8.7186638186281543E-002   0.0000000000000000     
   4.2519495361492188E-002   9.3599637470871994E-002   0.0000000000000000     
   4.3919088460302499E-002  0.10017134016533402        0.0000000000000000     
   4.5276401354471627E-002  0.10690174626966756        0.0000000000000000     
   3.4865669109110840E-002   8.0497312517182354E-002   0.0000000000000000     
   3.6189026894953923E-002   8.6766233467926918E-002   0.0000000000000000     
   3.7473250407665193E-002   9.3194674511673972E-002   0.0000000000000000     
   3.8718339647244644E-002   9.9782635648423490E-002   0.0000000000000000     
   3.9924294613692290E-002  0.10653011687817551        0.0000000000000000     
   6.2195848534329301E-002  0.10829105410971293        0.0000000000000000     
   6.3928984301679773E-002  0.11509610188032694        0.0000000000000000     
   6.5581833954347149E-002  0.12203877266411253        0.0000000000000000     
   6.7154397492331430E-002  0.12911906646106971        0.0000000000000000     
   6.8646674915632616E-002  0.13633698327119853        0.0000000000000000     
   5.6412178314790139E-002  0.10778221488543627        0.0000000000000000     
   5.8004304647804046E-002  0.11461421308640697        0.0000000000000000     
   5.9521447068338403E-002  0.12158169708300547        0.0000000000000000     
   6.0963605576393215E-002  0.12868466687523175        0.0000000000000000     
   6.2330780171968490E-002  0.13592312246308585        0.0000000000000000     
   5.0772362588170909E-002  0.10731911227208782        0.0000000000000000     
   5.2221698332513146E-002  0.11417494246648074        0.0000000000000000     
   5.3601873008928144E-002  0.12116490807985181        0.0000000000000000     
   5.4912886617415897E-002  0.12828900911220109        0.0000000000000000     
   5.6154739157976419E-002  0.13554724556352851        0.0000000000000000     
   4.5276401354471627E-002  0.10690174626966756        0.0000000000000000     
   4.6581165355807086E-002  0.11377829002054825        0.0000000000000000     
   4.7823111776116374E-002  0.12078840565465163        0.0000000000000000     
   4.9002240615399484E-002  0.12793209317197771        0.0000000000000000     
   5.0118551873656422E-002  0.13520935257252648        0.0000000000000000     
   3.9924294613692290E-002  0.10653011687817551        0.0000000000000000     
   4.1082705717685859E-002  0.11342425574860947        0.0000000000000000     
   4.2185163369903071E-002  0.12045218980740484        0.0000000000000000     
   4.3231667570343954E-002  0.12761391905456165        0.0000000000000000     
   4.4222218319008494E-002  0.13490944349007986        0.0000000000000000     
   6.8646674915632616E-002  0.13633698327119853        0.0000000000000000     
   7.0064850600877124E-002  0.14367806174734735        0.0000000000000000     
   7.1415108924691356E-002  0.15112784054236467        0.0000000000000000     
   7.2697449887075299E-002  0.15868631965625046        0.0000000000000000     
   7.3911873488028967E-002  0.16635349908900476        0.0000000000000000     
   6.2330780171968490E-002  0.13592312246308585        0.0000000000000000     
   6.3628033158825412E-002  0.14328419436290257        0.0000000000000000     
   6.4860426840725183E-002  0.15075501309101680        0.0000000000000000     
   6.6027961217667810E-002  0.15833557864742853        0.0000000000000000     
   6.7130636289653309E-002  0.16602589103213777        0.0000000000000000     
   5.6154739157976419E-002  0.13554724556352851        0.0000000000000000     
   5.7331447956248317E-002  0.14292779659957869        0.0000000000000000     
   5.8447030337870187E-002  0.15041884138609624        0.0000000000000000     
   5.9501486302842056E-002  0.15802037992308110        0.0000000000000000     
   6.0494815851163911E-002  0.16573241221053339        0.0000000000000000     
   5.0118551873656422E-002  0.13520935257252648        0.0000000000000000     
   5.1175094993145841E-002  0.14260886845737569        0.0000000000000000     
   5.2174919416126370E-002  0.15011932542760290        0.0000000000000000     
   5.3118025142598016E-002  0.15774072348320825        0.0000000000000000     
   5.4004412172560787E-002  0.16547306262419162        0.0000000000000000     
   4.4222218319008494E-002  0.13490944349007986        0.0000000000000000     
   4.5158974269517982E-002  0.14232740993629356        0.0000000000000000     
   4.6044094075493723E-002  0.14985646521553692        0.0000000000000000     
   4.6877577736935704E-002  0.15749660932780984        0.0000000000000000     
   4.7659425253843937E-002  0.16524784227311246        0.0000000000000000     
   7.3911873488028967E-002  0.16635349908900476        0.0000000000000000     
   7.5054199541779623E-002  0.17411956644582555        0.0000000000000000     
   7.6120247862554530E-002  0.18197470933191073        0.0000000000000000     
   7.7110018450353687E-002  0.18991892774726035        0.0000000000000000     
   7.8023511305177082E-002  0.19795222169187440        0.0000000000000000     
   6.7130636289653309E-002  0.16602589103213777        0.0000000000000000     
   6.8165283366500171E-002  0.17381539222196798        0.0000000000000000     
   6.9128733758026917E-002  0.18169352419374263        0.0000000000000000     
   7.0020987464233561E-002  0.18966028694746181        0.0000000000000000     
   7.0842044485120118E-002  0.19771568048312546        0.0000000000000000     
   6.0494815851163911E-002  0.16573241221053339        0.0000000000000000     
   6.1424547230997939E-002  0.17354388627194689        0.0000000000000000     
   6.2288208690506344E-002  0.18144375013081560        0.0000000000000000     
   6.3085800229689126E-002  0.18943200378713940        0.0000000000000000     
   6.3817321848546271E-002  0.19750864724091849        0.0000000000000000     
   5.4004412172560787E-002  0.16547306262419162        0.0000000000000000     
   5.4831991135272963E-002  0.17330504859576229        0.0000000000000000     
   5.5598672659992798E-002  0.18122538714312944        0.0000000000000000     
   5.6304456746720327E-002  0.18923407826629315        0.0000000000000000     
   5.6949343395455536E-002  0.19733112196525346        0.0000000000000000     
   4.7659425253843937E-002  0.16524784227311246        0.0000000000000000     
   4.8387615079325201E-002  0.17309887919341410        0.0000000000000000     
   4.9060125666486279E-002  0.18103843523068433        0.0000000000000000     
   4.9676957015327185E-002  0.18906651038492309        0.0000000000000000     
   5.0238109125847905E-002  0.19718310465613037        0.0000000000000000     
   7.8023511305177082E-002  0.19795222169187440        0.0000000000000000     
   7.8862432352792416E-002  0.20606786481669473        0.0000000000000000     
   7.9628487518967409E-002  0.21425913077266320        0.0000000000000000     
   8.0321676803702030E-002  0.22252601955977974        0.0000000000000000     
   8.0942000206996295E-002  0.23086853117804446        0.0000000000000000     
   7.0842044485120118E-002  0.19771568048312546        0.0000000000000000     
   7.1590666574869385E-002  0.20585364714989837        0.0000000000000000     
   7.2265615487664178E-002  0.21406812929694541        0.0000000000000000     
   7.2866891223504510E-002  0.22235912692426657        0.0000000000000000     
   7.3394493782390366E-002  0.23072664003186180        0.0000000000000000     
   6.3817321848546271E-002  0.19750864724091849        0.0000000000000000     
   6.4479845549843359E-002  0.20566755269997555        0.0000000000000000     
   6.5070443336345984E-002  0.21390259237213372        0.0000000000000000     
   6.5589115208054133E-002  0.22221376625739289        0.0000000000000000     
   6.6035861164967818E-002  0.23060107435575306        0.0000000000000000     
   5.6949343395455536E-002  0.19733112196525346        0.0000000000000000     
   5.7529969277714386E-002  0.20550958146692638        0.0000000000000000     
   5.8042971065012855E-002  0.21376251999822815        0.0000000000000000     
   5.8488348757350948E-002  0.22208993755915876        0.0000000000000000     
   5.8866102354728667E-002  0.23049183414971822        0.0000000000000000     
   5.0238109125847905E-002  0.19718310465613037        0.0000000000000000     
   5.0741037758482432E-002  0.20537973345075075        0.0000000000000000     
   5.1183198673664769E-002  0.21364791217522869        0.0000000000000000     
   5.1564591871394921E-002  0.22198764082956415        0.0000000000000000     
   5.1885217351672883E-002  0.23039891941375717        0.0000000000000000     
   8.0942000206996295E-002  0.23086853117804446        0.0000000000000000     
   8.1478624508352415E-002  0.23930706469147828        0.0000000000000000     
   8.1920716487272630E-002  0.24786201916410228        0.0000000000000000     
   8.2268276143756924E-002  0.25653339459591651        0.0000000000000000     
   8.2521303477805313E-002  0.26532119098692092        0.0000000000000000     
   7.3394493782390366E-002  0.23072664003186180        0.0000000000000000     
   7.3845157469801914E-002  0.23918431285628691        0.0000000000000000     
   7.4215616591219308E-002  0.24774578963409763        0.0000000000000000     
   7.4505871146642533E-002  0.25641107036529392        0.0000000000000000     
   7.4715921136071589E-002  0.26518015504987574        0.0000000000000000     
   6.6035861164967818E-002  0.23060107435575306        0.0000000000000000     
   6.6413108026820600E-002  0.23907112726186794        0.0000000000000000     
   6.6723282613346008E-002  0.24763053557039119        0.0000000000000000     
   6.6966384924544098E-002  0.25627929928132276        0.0000000000000000     
   6.7142414960414815E-002  0.26501741839466275        0.0000000000000000     
   5.8866102354728667E-002  0.23049183414971822        0.0000000000000000     
   5.9182476179408437E-002  0.23896750790822130        0.0000000000000000     
   5.9443714553652764E-002  0.24751625697298296        0.0000000000000000     
   5.9649817477461613E-002  0.25613808134400312        0.0000000000000000     
   5.9800784950834997E-002  0.26483298102128178        0.0000000000000000     
   5.1885217351672883E-002  0.23039891941375717        0.0000000000000000     
   5.2153261927565475E-002  0.23887345479534700        0.0000000000000000     
   5.2376912412139542E-002  0.24740295384187291        0.0000000000000000     
   5.2556168805395091E-002  0.25598741655333485        0.0000000000000000     
   5.2691031107332115E-002  0.26462684292973293        0.0000000000000000     
   8.2521303477805313E-002  0.26532119098692092        0.0000000000000000     
   8.2718808107453037E-002  0.27425188464543110        0.0000000000000000     
   8.2899799650735309E-002  0.28335195187976286        0.0000000000000000     
   8.3064278107652156E-002  0.29262139268991599        0.0000000000000000     
   8.3212243478203607E-002  0.30206020707589065        0.0000000000000000     
   7.4715921136071589E-002  0.26518015504987574        0.0000000000000000     
   7.4886679592840344E-002  0.27404667903490015        0.0000000000000000     
   7.5059059550282636E-002  0.28300427766742403        0.0000000000000000     
   7.5233061008398480E-002  0.29205295094744732        0.0000000000000000     
   7.5408683967187862E-002  0.30119269887497013        0.0000000000000000     
   6.7142414960414815E-002  0.26501741839466275        0.0000000000000000     
   6.7291552911992139E-002  0.27381495582995552        0.0000000000000000     
   6.7453978970309983E-002  0.28264197450674561        0.0000000000000000     
   6.7629693135368388E-002  0.29149847442503296        0.0000000000000000     
   6.7818695407167326E-002  0.30038445558481758        0.0000000000000000     
   5.9800784950834997E-002  0.26483298102128178        0.0000000000000000     
   5.9933428064908409E-002  0.27355671503059714        0.0000000000000000     
   6.0084557910817384E-002  0.28226504239772754        0.0000000000000000     
   6.0254174488561900E-002  0.29095796312267275        0.0000000000000000     
   6.0442277798141972E-002  0.29963547720543293        0.0000000000000000     
   5.2691031107332115E-002  0.26462684292973293        0.0000000000000000     
   5.2812305051589167E-002  0.27327195663682519        0.0000000000000000     
   5.2950796371804804E-002  0.28187348134036982        0.0000000000000000     
   5.3106505067979023E-002  0.29043141704036685        0.0000000000000000     
   5.3279431140111813E-002  0.29894576373681631        0.0000000000000000     
   2.8960291840878304E-002   5.7173129556635803E-002   0.0000000000000000     
   3.0536700703923302E-002   6.2735588923692423E-002   0.0000000000000000     
   3.2046399869643721E-002   6.8477105872802396E-002   0.0000000000000000     
   3.3489389338039563E-002   7.4397680403965702E-002   0.0000000000000000     
   3.4865669109110840E-002   8.0497312517182354E-002   0.0000000000000000     
   2.5143883519354412E-002   5.6751939544235970E-002   0.0000000000000000     
   2.6487641273891367E-002   6.2319213818180258E-002   0.0000000000000000     
   2.7785956063342564E-002   6.8068337227575729E-002   0.0000000000000000     
   2.9038827887708014E-002   7.3999309772422348E-002   0.0000000000000000     
   3.0246256746987710E-002   8.0112131452720156E-002   0.0000000000000000     
   2.1375896575253892E-002   5.6374701011467951E-002   0.0000000000000000     
   2.2509252283862111E-002   6.1948968664363252E-002   0.0000000000000000     
   2.3611010646540202E-002   6.7707214641446967E-002   0.0000000000000000     
   2.4681171663288152E-002   7.3649438942719123E-002   0.0000000000000000     
   2.5719735334105969E-002   7.9775641568179720E-002   0.0000000000000000     
   1.7656331008576741E-002   5.6041413958331752E-002   0.0000000000000000     
   1.8601533733835544E-002   6.1624853462241391E-002   0.0000000000000000     
   1.9521563619236629E-002   6.7393738114416138E-002   0.0000000000000000     
   2.0416420664779989E-002   7.3348067914856013E-002   0.0000000000000000     
   2.1286104870465623E-002   7.9487842863561003E-002   0.0000000000000000     
   1.3985186819322957E-002   5.5752078384827375E-002   0.0000000000000000     
   1.4764485623811663E-002   6.1346868211814690E-002   0.0000000000000000     
   1.5517614981431848E-002   6.7127907646483229E-002   0.0000000000000000     
   1.6244574892183519E-002   7.3095196688833020E-002   0.0000000000000000     
   1.6945365356066673E-002   7.9248735338864035E-002   0.0000000000000000     
   3.4865669109110840E-002   8.0497312517182354E-002   0.0000000000000000     
   3.6189026894953923E-002   8.6766233467926918E-002   0.0000000000000000     
   3.7473250407665193E-002   9.3194674511673972E-002   0.0000000000000000     
   3.8718339647244644E-002   9.9782635648423490E-002   0.0000000000000000     
   3.9924294613692290E-002  0.10653011687817551        0.0000000000000000     
   3.0246256746987710E-002   8.0112131452720156E-002   0.0000000000000000     
   3.1412375824199694E-002   8.6395633988615939E-002   0.0000000000000000     
   3.2541318302362017E-002   9.2838649100256534E-002   0.0000000000000000     
   3.3633084181474676E-002   9.9441176787641861E-002   0.0000000000000000     
   3.4687673461537671E-002  0.10620321705077201        0.0000000000000000     
   2.5719735334105969E-002   7.9775641568179720E-002   0.0000000000000000     
   2.6725461186220940E-002   8.6073310294623173E-002   0.0000000000000000     
   2.7697108746860356E-002   9.2529932898843939E-002   0.0000000000000000     
   2.8634678016024220E-002   9.9145509380842017E-002   0.0000000000000000     
   2.9538168993712532E-002  0.10592003974061742        0.0000000000000000     
   2.1286104870465623E-002   7.9487842863561003E-002   0.0000000000000000     
   2.2128282981017655E-002   8.5799262385948580E-002   0.0000000000000000     
   2.2940621741160207E-002   9.2268525907436214E-002   0.0000000000000000     
   2.3723121150893280E-002   9.8895633428023960E-002   0.0000000000000000     
   2.4475781210216877E-002  0.10568058494771176        0.0000000000000000     
   1.6945365356066673E-002   7.9248735338864035E-002   0.0000000000000000     
   1.7620841208589845E-002   8.5573490262592186E-002   0.0000000000000000     
   1.8271857285261574E-002   9.2054428126033400E-002   0.0000000000000000     
   1.8898413586081863E-002   9.8691548929187675E-002   0.0000000000000000     
   1.9500510111050709E-002  0.10548485267205501        0.0000000000000000     
   3.9924294613692290E-002  0.10653011687817551        0.0000000000000000     
   4.1082705717685859E-002  0.11342425574860947        0.0000000000000000     
   4.2185163369903071E-002  0.12045218980740484        0.0000000000000000     
   4.3231667570343954E-002  0.12761391905456165        0.0000000000000000     
   4.4222218319008494E-002  0.13490944349007986        0.0000000000000000     
   3.4687673461537671E-002  0.10620321705077201        0.0000000000000000     
   3.5699220208962622E-002  0.11311224545684402        0.0000000000000000     
   3.6661858490161139E-002  0.12015573757305494        0.0000000000000000     
   3.7575588305133252E-002  0.12733369339940478        0.0000000000000000     
   3.8440409653878932E-002  0.13464611293589354        0.0000000000000000     
   2.9538168993712532E-002  0.10592003974061742        0.0000000000000000     
   3.0403609620450526E-002  0.11284166495143141        0.0000000000000000     
   3.1227027836763437E-002  0.11989852598654528        0.0000000000000000     
   3.2008423642651281E-002  0.12709062284595901        0.0000000000000000     
   3.2747797038114035E-002  0.13441795552967264        0.0000000000000000     
   2.4475781210216877E-002  0.10568058494771176        0.0000000000000000     
   2.5195873952149575E-002  0.11261251423237172        0.0000000000000000     
   2.5880671409709958E-002  0.11968055504787593        0.0000000000000000     
   2.6530173582898040E-002  0.12688470739422439        0.0000000000000000     
   2.7144380471713803E-002  0.13422497127141708        0.0000000000000000     
   1.9500510111050709E-002  0.10548485267205501        0.0000000000000000     
   2.0076013204059773E-002  0.11242479329966490        0.0000000000000000     
   2.0622789209000715E-002  0.11950182475704685        0.0000000000000000     
   2.1140838125873532E-002  0.12671594704420086        0.0000000000000000     
   2.1630159954678232E-002  0.13406716016112696        0.0000000000000000     
   4.4222218319008494E-002  0.13490944349007986        0.0000000000000000     
   4.5158974269517982E-002  0.14232740993629356        0.0000000000000000     
   4.6044094075493723E-002  0.14985646521553692        0.0000000000000000     
   4.6877577736935704E-002  0.15749660932780984        0.0000000000000000     
   4.7659425253843937E-002  0.16524784227311246        0.0000000000000000     
   3.8440409653878932E-002  0.13464611293589354        0.0000000000000000     
   3.9257776878198349E-002  0.14208131251940254        0.0000000000000000     
   4.0029144319891644E-002  0.14962760848681297        0.0000000000000000     
   4.0754511978958817E-002  0.15728500083812491        0.0000000000000000     
   4.1433879855399862E-002  0.16505348957333832        0.0000000000000000     
   3.2747797038114035E-002  0.13441795552967264        0.0000000000000000     
   3.3446193912020514E-002  0.14186846768977271        0.0000000000000000     
   3.4104660153239520E-002  0.14943010297834591        0.0000000000000000     
   3.4723195761771047E-002  0.15710286139539223        0.0000000000000000     
   3.5301800737615081E-002  0.16488674294091166        0.0000000000000000     
   2.7144380471713803E-002  0.13422497127141708        0.0000000000000000     
   2.7724225370984502E-002  0.14168887544740419        0.0000000000000000     
   2.8270641575537363E-002  0.14926394869013576        0.0000000000000000     
   2.8783629085372398E-002  0.15695019099961185        0.0000000000000000     
   2.9263187900489606E-002  0.16474760237583244        0.0000000000000000     
   2.1630159954678232E-002  0.13406716016112696        0.0000000000000000     
   2.2091871255090285E-002  0.14154253579229689        0.0000000000000000     
   2.2527088586785166E-002  0.14912914562218246        0.0000000000000000     
   2.2935811949762880E-002  0.15682698965078373        0.0000000000000000     
   2.3318041344023419E-002  0.16463606787810064        0.0000000000000000     
   4.7659425253843937E-002  0.16524784227311246        0.0000000000000000     
   4.8387615079325201E-002  0.17309887919341410        0.0000000000000000     
   4.9060125666486279E-002  0.18103843523068433        0.0000000000000000     
   4.9676957015327185E-002  0.18906651038492309        0.0000000000000000     
   5.0238109125847905E-002  0.19718310465613037        0.0000000000000000     
   4.1433879855399862E-002  0.16505348957333832        0.0000000000000000     
   4.2065158033823637E-002  0.17292186651693675        0.0000000000000000     
   4.2646256598838951E-002  0.18087892349340376        0.0000000000000000     
   4.3177175550445833E-002  0.18892466050273923        0.0000000000000000     
   4.3657914888644254E-002  0.19705907754494334        0.0000000000000000     
   3.5301800737615081E-002  0.16488674294091166        0.0000000000000000     
   3.5838358969437205E-002  0.17277049901836455        0.0000000000000000     
   3.6330754345902980E-002  0.18074288103121128        0.0000000000000000     
   3.6778986867012399E-002  0.18880388897945188        0.0000000000000000     
   3.7183056532765449E-002  0.19695352286308629        0.0000000000000000     
   2.9263187900489606E-002  0.16474760237583244        0.0000000000000000     
   2.9707217886165940E-002  0.17264477669769743        0.0000000000000000     
   3.0113618907678365E-002  0.18063030784410697        0.0000000000000000     
   3.0482390965026886E-002  0.18870419581506090        0.0000000000000000     
   3.0813534058211498E-002  0.19686644061055925        0.0000000000000000     
   2.3318041344023419E-002  0.16463606787810064        0.0000000000000000     
   2.3671734784009822E-002  0.17254469955493554        0.0000000000000000     
   2.3994850284165117E-002  0.18054120393209075        0.0000000000000000     
   2.4287387844489309E-002  0.18862558100956631        0.0000000000000000     
   2.4549347464982389E-002  0.19679783078736218        0.0000000000000000     
   5.0238109125847905E-002  0.19718310465613037        0.0000000000000000     
   5.0741037758482432E-002  0.20537973345075075        0.0000000000000000     
   5.1183198673664769E-002  0.21364791217522869        0.0000000000000000     
   5.1564591871394921E-002  0.22198764082956415        0.0000000000000000     
   5.1885217351672883E-002  0.23039891941375717        0.0000000000000000     
   4.3657914888644254E-002  0.19705907754494334        0.0000000000000000     
   4.4087218673929895E-002  0.20527183232791807        0.0000000000000000     
   4.4463830966798401E-002  0.21355258255956558        0.0000000000000000     
   4.4787751767249792E-002  0.22190132823988584        0.0000000000000000     
   4.5058981075284048E-002  0.23031806936887891        0.0000000000000000     
   3.7183056532765449E-002  0.19695352286308629        0.0000000000000000     
   3.7542679705839133E-002  0.20517970177489767        0.0000000000000000     
   3.7857572748910398E-002  0.21347034480766913        0.0000000000000000     
   3.8127735661979266E-002  0.22182545196140069        0.0000000000000000     
   3.8353168445045729E-002  0.23024502323609228        0.0000000000000000     
   3.0813534058211498E-002  0.19686644061055925        0.0000000000000000     
   3.1107420854210137E-002  0.20510334179168954        0.0000000000000000     
   3.1364424020000760E-002  0.21340119891953935        0.0000000000000000     
   3.1584543555583357E-002  0.22176001199410858        0.0000000000000000     
   3.1767779460957934E-002  0.23017978101539735        0.0000000000000000     
   2.4549347464982389E-002  0.19679783078736218        0.0000000000000000     
   2.4781442119042926E-002  0.20504275237829370        0.0000000000000000     
   2.4984384780069480E-002  0.21334514489517620        0.0000000000000000     
   2.5158175448062058E-002  0.22170500833800960        0.0000000000000000     
   2.5302814123020649E-002  0.23012234270679405        0.0000000000000000     
   5.1885217351672883E-002  0.23039891941375717        0.0000000000000000     
   5.2153261927565475E-002  0.23887345479534700        0.0000000000000000     
   5.2376912412139542E-002  0.24740295384187291        0.0000000000000000     
   5.2556168805395091E-002  0.25598741655333485        0.0000000000000000     
   5.2691031107332115E-002  0.26462684292973293        0.0000000000000000     
   4.5058981075284048E-002  0.23031806936887891        0.0000000000000000     
   4.5286339863642791E-002  0.23878751155689790        0.0000000000000000     
   4.5478649105067652E-002  0.24729436041429598        0.0000000000000000     
   4.5635908799558603E-002  0.25583861594107316        0.0000000000000000     
   4.5758118947115664E-002  0.26442027813722940        0.0000000000000000     
   3.8353168445045729E-002  0.23024502323609228        0.0000000000000000     
   3.8542584579991511E-002  0.23870822182652676        0.0000000000000000     
   3.8704697548698340E-002  0.24719421092748697        0.0000000000000000     
   3.8839507351166216E-002  0.25570299053897289        0.0000000000000000     
   3.8947013987395133E-002  0.26423456066098444        0.0000000000000000     
   3.1767779460957934E-002  0.23017978101539735        0.0000000000000000     
   3.1921996076611635E-002  0.23863558560423376        0.0000000000000000     
   3.2055057743031641E-002  0.24710250538144599        0.0000000000000000     
   3.2166964460217926E-002  0.25558054034703409        0.0000000000000000     
   3.2257716228170502E-002  0.26406969050099799        0.0000000000000000     
   2.5302814123020649E-002  0.23012234270679405        0.0000000000000000     
   2.5424574353503170E-002  0.23856960289001874        0.0000000000000000     
   2.5529729688067531E-002  0.24701924377617296        0.0000000000000000     
   2.5618280126713737E-002  0.25547126536525677        0.0000000000000000     
   2.5690225669441784E-002  0.26392566765727010        0.0000000000000000     
   5.2691031107332115E-002  0.26462684292973293        0.0000000000000000     
   5.2812305051589167E-002  0.27327195663682519        0.0000000000000000     
   5.2950796371804804E-002  0.28187348134036982        0.0000000000000000     
   5.3106505067979023E-002  0.29043141704036685        0.0000000000000000     
   5.3279431140111813E-002  0.29894576373681631        0.0000000000000000     
   4.5758118947115664E-002  0.26442027813722940        0.0000000000000000     
   4.5869430288195498E-002  0.27298940564884161        0.0000000000000000     
   4.5993993563254738E-002  0.28149605712198661        0.0000000000000000     
   4.6131808772293399E-002  0.28994023255666446        0.0000000000000000     
   4.6282875915311467E-002  0.29832193195287499        0.0000000000000000     
   3.8947013987395133E-002  0.26423456066098444        0.0000000000000000     
   3.9046050190888498E-002  0.27273778706684842        0.0000000000000000     
   3.9155448695149683E-002  0.28116153552989187        0.0000000000000000     
   3.9275209500178716E-002  0.28950580605011456        0.0000000000000000     
   3.9405332605975570E-002  0.29777059862751648        0.0000000000000000     
   3.2257716228170502E-002  0.26406969050099799        0.0000000000000000     
   3.2342164759668147E-002  0.27251710089084580        0.0000000000000000     
   3.2435161767489631E-002  0.28086991656408550        0.0000000000000000     
   3.2536707251634954E-002  0.28912813752071709        0.0000000000000000     
   3.2646801212104115E-002  0.29729176376074068        0.0000000000000000     
   2.5690225669441784E-002  0.26392566765727010        0.0000000000000000     
   2.5757773994534463E-002  0.27232734712083356        0.0000000000000000     
   2.5833132780274583E-002  0.28062120022456760        0.0000000000000000     
   2.5916302026662133E-002  0.28880722696847227        0.0000000000000000     
   2.6007281733697110E-002  0.29688542735254758        0.0000000000000000     
   1.3985186819322957E-002   5.5752078384827375E-002   0.0000000000000000     
   1.4764485623811663E-002   6.1346868211814690E-002   0.0000000000000000     
   1.5517614981431848E-002   6.7127907646483229E-002   0.0000000000000000     
   1.6244574892183519E-002   7.3095196688833020E-002   0.0000000000000000     
   1.6945365356066673E-002   7.9248735338864035E-002   0.0000000000000000     
   1.0378655318145068E-002   5.5526703089474688E-002   0.0000000000000000     
   1.0992559914960837E-002   6.1130787363446966E-002   0.0000000000000000     
   1.1578470222337293E-002   6.6921620430892823E-002   0.0000000000000000     
   1.2136386240274437E-002   7.2899202291812251E-002   0.0000000000000000     
   1.2666307968772265E-002   7.9063532946205231E-002   0.0000000000000000     
   6.8529278156955952E-003   5.5385296870793542E-002   0.0000000000000000     
   7.2802085684534534E-003   6.0992385367502053E-002   0.0000000000000000     
   7.6834348311643989E-003   6.6786773660889476E-002   0.0000000000000000     
   8.0626066038284334E-003   7.2768461750955804E-002   0.0000000000000000     
   8.4177238864455578E-003   7.8937449637701051E-002   0.0000000000000000     
   3.4080043119745392E-003   5.5327859728783936E-002   0.0000000000000000     
   3.6274315842895061E-003   6.0931662223979936E-002   0.0000000000000000     
   3.8325088079131627E-003   6.6723367336473174E-002   0.0000000000000000     
   4.0232359828455107E-003   7.2702975066263706E-002   0.0000000000000000     
   4.1996131090865493E-003   7.8870485413351454E-002   0.0000000000000000     
   4.3884806981898082E-005   5.5354391663445877E-002   0.0000000000000000     
   3.4228962468997159E-005   6.0948617932880617E-002   0.0000000000000000     
   2.5692152583586727E-005   6.6731401457643974E-002   0.0000000000000000     
   1.8274377325667437E-005   7.2702742237735929E-002   0.0000000000000000     
   1.1975636695237988E-005   7.8862640273156495E-002   0.0000000000000000     
   1.6945365356066673E-002   7.9248735338864035E-002   0.0000000000000000     
   1.7620841208589845E-002   8.5573490262592186E-002   0.0000000000000000     
   1.8271857285261574E-002   9.2054428126033400E-002   0.0000000000000000     
   1.8898413586081863E-002   9.8691548929187675E-002   0.0000000000000000     
   1.9500510111050709E-002  0.10548485267205501        0.0000000000000000     
   1.2666307968772265E-002   7.9063532946205231E-002   0.0000000000000000     
   1.3173039324937949E-002   8.5398676847899896E-002   0.0000000000000000     
   1.3661384225878655E-002   9.1888698450724338E-002   0.0000000000000000     
   1.4131342671594382E-002   9.8533597754678556E-002   0.0000000000000000     
   1.4582914662085132E-002  0.10533337475976258        0.0000000000000000     
   8.4177238864455578E-003   7.8937449637701051E-002   0.0000000000000000     
   8.7547807860624150E-003   8.5277505065217613E-002   0.0000000000000000     
   9.0797714097256513E-003   9.1772395777597923E-002   0.0000000000000000     
   9.3926957574352616E-003   9.8422121774842025E-002   0.0000000000000000     
   9.6935538291912510E-003  0.10522668305694986        0.0000000000000000     
   4.1996131090865493E-003   7.8870485413351454E-002   0.0000000000000000     
   4.3660655919632446E-003   8.5209974914545364E-002   0.0000000000000000     
   4.5270188368025620E-003   9.1705520106654226E-002   0.0000000000000000     
   4.6824728436045040E-003   9.8357120989678040E-002   0.0000000000000000     
   4.8324276123690689E-003  0.10516477756361688        0.0000000000000000     
   1.1975636695237988E-005   7.8862640273156495E-002   0.0000000000000000     
   6.8937426404343943E-006   8.5196086395883081E-002   0.0000000000000000     
   3.1265071093902297E-006   9.1688071437893162E-002   0.0000000000000000     
   6.7393010210667337E-007   9.8338595399186657E-002   0.0000000000000000     
  -4.6398838141796864E-007  0.10514765827976363        0.0000000000000000     
   1.9500510111050709E-002  0.10548485267205501        0.0000000000000000     
   2.0076013204059773E-002  0.11242479329966490        0.0000000000000000     
   2.0622789209000715E-002  0.11950182475704685        0.0000000000000000     
   2.1140838125873532E-002  0.12671594704420086        0.0000000000000000     
   2.1630159954678232E-002  0.13406716016112696        0.0000000000000000     
   1.4582914662085132E-002  0.10533337475976258        0.0000000000000000     
   1.5014273635042147E-002  0.11227953540323604        0.0000000000000000     
   1.5423593028156669E-002  0.11936358562235866        0.0000000000000000     
   1.5810872841428705E-002  0.12658552541713045        0.0000000000000000     
   1.6176113074858244E-002  0.13394535478755137        0.0000000000000000     
   9.6935538291912510E-003  0.10522668305694986        0.0000000000000000     
   9.9809015039577283E-003  0.11217777379301025        0.0000000000000000     
   1.0253294660698808E-002  0.11926708815211200        0.0000000000000000     
   1.0510733299414488E-002  0.12649462613425511        0.0000000000000000     
   1.0753217420104768E-002  0.13386038773943953        0.0000000000000000     
   4.8324276123690689E-003  0.10516477756361688        0.0000000000000000     
   4.9758968108065188E-003  0.11211950846898754        0.0000000000000000     
   5.1118941066271243E-003  0.11921233234630683        0.0000000000000000     
   5.2404194998308812E-003  0.12644324919557479        0.0000000000000000     
   5.3614729904177920E-003  0.13381225901679145        0.0000000000000000     
  -4.6398838141796864E-007  0.10514765827976363        0.0000000000000000     
  -7.4044441147934695E-007  0.11210473943116789        0.0000000000000000     
  -6.0863405837614792E-007  0.11919931820494321        0.0000000000000000     
  -6.8557322108805246E-008  0.12643139460108963        0.0000000000000000     
   8.7978579732441581E-007  0.13380096861960711        0.0000000000000000     
   2.1630159954678232E-002  0.13406716016112696        0.0000000000000000     
   2.2091871255090285E-002  0.14154253579229689        0.0000000000000000     
   2.2527088586785166E-002  0.14912914562218246        0.0000000000000000     
   2.2935811949762880E-002  0.15682698965078373        0.0000000000000000     
   2.3318041344023419E-002  0.16463606787810064        0.0000000000000000     
   1.6176113074858244E-002  0.13394535478755137        0.0000000000000000     
   1.6520582888381916E-002  0.14142977643584759        0.0000000000000000     
   1.6845551441936342E-002  0.14902549306424523        0.0000000000000000     
   1.7151018735521512E-002  0.15673250467274430        0.0000000000000000     
   1.7436984769137433E-002  0.16455081126134483        0.0000000000000000     
   1.0753217420104768E-002  0.13386038773943953        0.0000000000000000     
   1.0981811594903438E-002  0.14135092508945302        0.0000000000000000     
   1.1197580395944293E-002  0.14895279030608316        0.0000000000000000     
   1.1400523823227334E-002  0.15666598338933005        0.0000000000000000     
   1.1590641876752558E-002  0.16449050433919357        0.0000000000000000     
   5.3614729904177920E-003  0.13381225901679145        0.0000000000000000     
   5.4755573746548434E-003  0.14130598175311310        0.0000000000000000     
   5.5831754488090274E-003  0.14891103734769626        0.0000000000000000     
   5.6843272128803404E-003  0.15662742580054081        0.0000000000000000     
   5.7790126668687868E-003  0.16445514711164685        0.0000000000000000     
   8.7978579732441581E-007  0.13380096861960711        0.0000000000000000     
   1.8202276361358859E-006  0.14129494642682797        0.0000000000000000     
   2.3366005305411200E-006  0.14890023418908455        0.0000000000000000     
   2.4289044805373263E-006  0.15661683190637674        0.0000000000000000     
   2.0971394861257243E-006  0.16444473957870470        0.0000000000000000     
   2.3318041344023419E-002  0.16463606787810064        0.0000000000000000     
   2.3671734784009822E-002  0.17254469955493554        0.0000000000000000     
   2.3994850284165117E-002  0.18054120393209075        0.0000000000000000     
   2.4287387844489309E-002  0.18862558100956631        0.0000000000000000     
   2.4549347464982389E-002  0.19679783078736218        0.0000000000000000     
   1.7436984769137433E-002  0.16455081126134483        0.0000000000000000     
   1.7701611374533768E-002  0.17246846755942136        0.0000000000000000     
   1.7943060383460174E-002  0.18047352829634833        0.0000000000000000     
   1.8161331795916655E-002  0.18856599347212591        0.0000000000000000     
   1.8356425611903204E-002  0.19674586308675399        0.0000000000000000     
   1.1590641876752558E-002  0.16449050433919357        0.0000000000000000     
   1.1766549369302697E-002  0.17241428068049752        0.0000000000000000     
   1.1926861113660491E-002  0.18042523993806547        0.0000000000000000     
   1.2071577109825935E-002  0.18852338211189745        0.0000000000000000     
   1.2200697357799032E-002  0.19670870720199352        0.0000000000000000     
   5.7790126668687868E-003  0.16445514711164685        0.0000000000000000     
   5.8665487683166135E-003  0.17238213891816406        0.0000000000000000     
   5.9462524747660676E-003  0.18039633885724207        0.0000000000000000     
   6.0181237862171498E-003  0.18849774692888099        0.0000000000000000     
   6.0821627026698601E-003  0.19668636313308077        0.0000000000000000     
   2.0971394861257243E-006  0.16444473957870470        0.0000000000000000     
   1.6095715755113857E-006  0.17237204227242095        0.0000000000000000     
   1.2344667769016585E-006  0.18038682505387818        0.0000000000000000     
   9.7182509029678670E-007  0.18848908792307645        0.0000000000000000     
   8.2164651569321956E-007  0.19667883088001575        0.0000000000000000     
   2.4549347464982389E-002  0.19679783078736218        0.0000000000000000     
   2.4781442119042926E-002  0.20504275237829370        0.0000000000000000     
   2.4984384780069480E-002  0.21334514489517620        0.0000000000000000     
   2.5158175448062058E-002  0.22170500833800960        0.0000000000000000     
   2.5302814123020649E-002  0.23012234270679405        0.0000000000000000     
   1.8356425611903204E-002  0.19674586308675399        0.0000000000000000     
   1.8529143664198815E-002  0.20499664528350356        0.0000000000000000     
   1.8680287785582457E-002  0.21330184820564566        0.0000000000000000     
   1.8809857976054147E-002  0.22166147185318025        0.0000000000000000     
   1.8917854235613867E-002  0.23007551622610742        0.0000000000000000     
   1.2200697357799032E-002  0.19670870720199352        0.0000000000000000     
   1.2314925653539130E-002  0.20496373225611261        0.0000000000000000     
   1.2414965793005588E-002  0.21327097432201378        0.0000000000000000     
   1.2500817776198402E-002  0.22163043339969701        0.0000000000000000     
   1.2572481603117575E-002  0.23004210948916237        0.0000000000000000     
   6.0821627026698601E-003  0.19668636313308077        0.0000000000000000     
   6.1387880870638709E-003  0.20494401329612083        0.0000000000000000     
   6.1884188023388614E-003  0.21325252324428051        0.0000000000000000     
   6.2310548484948280E-003  0.22161189297755993        0.0000000000000000     
   6.2666962255317725E-003  0.23002212249595899        0.0000000000000000     
   8.2164651569321956E-007  0.19667883088001575        0.0000000000000000     
   7.3096477303967108E-007  0.20493748840352818        0.0000000000000000     
   6.4681358228312058E-007  0.21324649497244591        0.0000000000000000     
   5.6919294342183333E-007  0.22160585058676890        0.0000000000000000     
   4.9810285645754404E-007  0.23001555524649719        0.0000000000000000     
   2.5302814123020649E-002  0.23012234270679405        0.0000000000000000     
   2.5424574353503170E-002  0.23856960289001874        0.0000000000000000     
   2.5529729688067531E-002  0.24701924377617296        0.0000000000000000     
   2.5618280126713737E-002  0.25547126536525677        0.0000000000000000     
   2.5690225669441784E-002  0.26392566765727010        0.0000000000000000     
   1.8917854235613867E-002  0.23007551622610742        0.0000000000000000     
   1.9008687079300927E-002  0.23851478555261535        0.0000000000000000     
   1.9086767022154623E-002  0.24695008406089239        0.0000000000000000     
   1.9152094064174962E-002  0.25538141175093854        0.0000000000000000     
   1.9204668205361937E-002  0.26380876862275382        0.0000000000000000     
   1.2572481603117575E-002  0.23004210948916237        0.0000000000000000     
   1.2632701922639737E-002  0.23847564546075714        0.0000000000000000     
   1.2684223383641518E-002  0.24690068418482869        0.0000000000000000     
   1.2727045986122920E-002  0.25531722566137699        0.0000000000000000     
   1.2761169730083944E-002  0.26372526989040207        0.0000000000000000     
   6.2666962255317725E-003  0.23002212249595899        0.0000000000000000     
   6.2966188835195972E-003  0.23845218261444417        0.0000000000000000     
   6.3220987725282106E-003  0.24687104414798186        0.0000000000000000     
   6.3431358925576126E-003  0.25527870709657219        0.0000000000000000     
   6.3597302436078024E-003  0.26367517146021502        0.0000000000000000     
   4.9810285645754404E-007  0.23001555524649719        0.0000000000000000     
   4.3796194051102036E-007  0.23844439701367637        0.0000000000000000     
   3.9318881470346359E-007  0.24686116395035196        0.0000000000000000     
   3.6378347903606636E-007  0.25526585605652402        0.0000000000000000     
   3.4974593350915392E-007  0.26365847333219250        0.0000000000000000     
   2.5690225669441784E-002  0.26392566765727010        0.0000000000000000     
   2.5757773994534463E-002  0.27232734712083356        0.0000000000000000     
   2.5833132780274583E-002  0.28062120022456760        0.0000000000000000     
   2.5916302026662133E-002  0.28880722696847227        0.0000000000000000     
   2.6007281733697110E-002  0.29688542735254758        0.0000000000000000     
   1.9204668205361937E-002  0.26380876862275382        0.0000000000000000     
   1.9254451921404216E-002  0.27217484951729465        0.0000000000000000     
   1.9311407687990459E-002  0.28042234927551735        0.0000000000000000     
   1.9375535505120670E-002  0.28855126789742219        0.0000000000000000     
   1.9446835372794850E-002  0.29656160538300896        0.0000000000000000     
   1.2761169730083944E-002  0.26372526989040207        0.0000000000000000     
   1.2793772566194177E-002  0.27206593184071182        0.0000000000000000     
   1.2832032445123199E-002  0.28028032648111417        0.0000000000000000     
   1.2875949366871021E-002  0.28836845381160903        0.0000000000000000     
   1.2925523331437634E-002  0.29633031383219649        0.0000000000000000     
   6.3597302436078024E-003  0.26367517146021502        0.0000000000000000     
   6.3757359289043436E-003  0.27200059409108529        0.0000000000000000     
   6.3950070516728017E-003  0.28019513184135780        0.0000000000000000     
   6.4175436119131759E-003  0.28825878471103283        0.0000000000000000     
   6.4433456096254669E-003  0.29619155270011011        0.0000000000000000     
   3.4974593350915392E-007  0.26365847333219250        0.0000000000000000     
   3.4200953471803103E-007  0.27197883626841485        0.0000000000000000     
   3.3150763926125502E-007  0.28016676535624851        0.0000000000000000     
   3.1824024713638646E-007  0.28822226059569356        0.0000000000000000     
   3.0220735834814161E-007  0.29614532198674987        0.0000000000000000     
   4.3884806981898082E-005   5.5354391663445877E-002   0.0000000000000000     
   3.4228962468997159E-005   6.0948617932880617E-002   0.0000000000000000     
   2.5692152583586727E-005   6.6731401457643974E-002   0.0000000000000000     
   1.8274377325667437E-005   7.2702742237735929E-002   0.0000000000000000     
   1.1975636695237988E-005   7.8862640273156495E-002   0.0000000000000000     
  -3.3272109428799691E-003   5.5433195881499760E-002   0.0000000000000000     
  -3.5643405953858214E-003   6.1017712502455322E-002   0.0000000000000000     
  -3.7850785827061085E-003   6.6791055186880499E-002   0.0000000000000000     
  -3.9894249048408308E-003   7.2753223934775291E-002   0.0000000000000000     
  -4.1773795617899880E-003   7.8904218746139704E-002   0.0000000000000000     
  -6.7930631812087054E-003   5.5532575589665976E-002   0.0000000000000000     
  -7.2332183876526977E-003   6.1113405940955275E-002   0.0000000000000000     
  -7.6478668458377008E-003   6.6882507686661472E-002   0.0000000000000000     
  -8.0370085557637163E-003   7.2839880826784623E-002   0.0000000000000000     
  -8.4006435174307382E-003   7.8985525361324693E-002   0.0000000000000000     
  -1.0353671908004309E-002   5.5652530787944535E-002   0.0000000000000000     
  -1.0972404414331633E-002   6.1235698248380446E-002   0.0000000000000000     
  -1.1562672636811190E-002   6.7005758956986905E-002   0.0000000000000000     
  -1.2124476575442987E-002   7.2962712913763883E-002   0.0000000000000000     
  -1.2657816230227015E-002   7.9106560118711408E-002   0.0000000000000000     
  -1.4009037123266784E-002   5.5793061476335420E-002   0.0000000000000000     
  -1.4781898675422627E-002   6.1384589424730858E-002   0.0000000000000000     
  -1.5529495955626582E-002   6.7160808997856758E-002   0.0000000000000000     
  -1.6251828963878643E-002   7.3121720195713114E-002   0.0000000000000000     
  -1.6948897700178819E-002   7.9267323018299918E-002   0.0000000000000000     
   1.1975636695237988E-005   7.8862640273156495E-002   0.0000000000000000     
   6.8937426404343943E-006   8.5196086395883081E-002   0.0000000000000000     
   3.1265071093902297E-006   9.1688071437893162E-002   0.0000000000000000     
   6.7393010210667337E-007   9.8338595399186657E-002   0.0000000000000000     
  -4.6398838141796864E-007  0.10514765827976363        0.0000000000000000     
  -4.1773795617899880E-003   7.8904218746139704E-002   0.0000000000000000     
  -4.3531819212142215E-003   8.5230080133822370E-002   0.0000000000000000     
  -4.5210713507741794E-003   9.1716848610671906E-002   0.0000000000000000     
  -4.6810478504698584E-003   9.8364524176688339E-002   0.0000000000000000     
  -4.8331114203012601E-003  0.10517310683187162        0.0000000000000000     
  -8.4006435174307382E-003   7.8985525361324693E-002   0.0000000000000000     
  -8.7446085589089340E-003   8.5306196752954699E-002   0.0000000000000000     
  -9.0747405082684616E-003   9.1788650464347629E-002   0.0000000000000000     
  -9.3910393655093211E-003   9.8432886495503510E-002   0.0000000000000000     
  -9.6935051306315141E-003  0.10523890484642236        0.0000000000000000     
  -1.2657816230227015E-002   7.9106560118711408E-002   0.0000000000000000     
  -1.3167386170443695E-002   8.5424436253280042E-002   0.0000000000000000     
  -1.3657880965373454E-002   9.1903476998920333E-002   0.0000000000000000     
  -1.4129300615016277E-002   9.8543682355632253E-002   0.0000000000000000     
  -1.4581645119372180E-002  0.10534505232341582        0.0000000000000000     
  -1.6948897700178819E-002   7.9267323018299918E-002   0.0000000000000000     
  -1.7621514755818517E-002   8.5584798634798454E-002   0.0000000000000000     
  -1.8270492722089155E-002   9.2061328214389962E-002   0.0000000000000000     
  -1.8895831598990734E-002   9.8696911757074499E-002   0.0000000000000000     
  -1.9497531386523253E-002  0.10549154926285201        0.0000000000000000     
  -4.6398838141796864E-007  0.10514765827976363        0.0000000000000000     
  -7.4044441147934695E-007  0.11210473943116789        0.0000000000000000     
  -6.0863405837614792E-007  0.11919931820494321        0.0000000000000000     
  -6.8557322108805246E-008  0.12643139460108963        0.0000000000000000     
   8.7978579732441581E-007  0.13380096861960711        0.0000000000000000     
  -4.8331114203012601E-003  0.10517310683187162        0.0000000000000000     
  -4.9771064094614797E-003  0.11213052647448184        0.0000000000000000     
  -5.1128771671436063E-003  0.11922471300277901        0.0000000000000000     
  -5.2404236933476451E-003  0.12645566641676315        0.0000000000000000     
  -5.3597459880735908E-003  0.13382338671643426        0.0000000000000000     
  -9.6935051306315141E-003  0.10523890484642236        0.0000000000000000     
  -9.9812972321086831E-003  0.11219392939385997        0.0000000000000000     
  -1.0253575098414475E-002  0.11928518401457222        0.0000000000000000     
  -1.0510338729548881E-002  0.12651266870855910        0.0000000000000000     
  -1.0751588125511909E-002  0.13387638347582059        0.0000000000000000     
  -1.4581645119372180E-002  0.10534505232341582        0.0000000000000000     
  -1.5013312912353098E-002  0.11229494818930225        0.0000000000000000     
  -1.5422702427870976E-002  0.11938073124032278        0.0000000000000000     
  -1.5809813665925820E-002  0.12660240147647742        0.0000000000000000     
  -1.6174646626517634E-002  0.13395995889776613        0.0000000000000000     
  -1.9497531386523253E-002  0.10549154926285201        0.0000000000000000     
  -2.0073153450194715E-002  0.11243358286080871        0.0000000000000000     
  -2.0620259155513118E-002  0.11951135468003075        0.0000000000000000     
  -2.1138848502478467E-002  0.12672486472051817        0.0000000000000000     
  -2.1628921491090761E-002  0.13407411298227095        0.0000000000000000     
   8.7978579732441581E-007  0.13380096861960711        0.0000000000000000     
   1.8202276361358859E-006  0.14129494642682797        0.0000000000000000     
   2.3366005305411200E-006  0.14890023418908455        0.0000000000000000     
   2.4289044805373263E-006  0.15661683190637674        0.0000000000000000     
   2.0971394861257243E-006  0.16444473957870470        0.0000000000000000     
  -5.3597459880735908E-003  0.13382338671643426        0.0000000000000000     
  -5.4721107602942430E-003  0.14131514783659430        0.0000000000000000     
  -5.5787847189823960E-003  0.14891822371204527        0.0000000000000000     
  -5.6797678641380498E-003  0.15663261434278722        0.0000000000000000     
  -5.7750601957612009E-003  0.16445831972882011        0.0000000000000000     
  -1.0751588125511909E-002  0.13387638347582059        0.0000000000000000     
  -1.0978946503277857E-002  0.14136391470840878        0.0000000000000000     
  -1.1194037079821013E-002  0.14896284879837579        0.0000000000000000     
  -1.1396859855141382E-002  0.15667318574572162        0.0000000000000000     
  -1.1587414829238966E-002  0.16449492555044623        0.0000000000000000     
  -1.6174646626517634E-002  0.13395995889776613        0.0000000000000000     
  -1.6518687001314699E-002  0.14144124704227154        0.0000000000000000     
  -1.6843420481985304E-002  0.14903410944807613        0.0000000000000000     
  -1.7148847068529469E-002  0.15673854611518001        0.0000000000000000     
  -1.7434966760947166E-002  0.16455455704358307        0.0000000000000000     
  -2.1628921491090761E-002  0.13407411298227095        0.0000000000000000     
  -2.2091332254404766E-002  0.14154714483818251        0.0000000000000000     
  -2.2526934925475282E-002  0.14913200566114629        0.0000000000000000     
  -2.2935729504302296E-002  0.15682869545116235        0.0000000000000000     
  -2.3317715990885807E-002  0.16463721420823058        0.0000000000000000     
   2.0971394861257243E-006  0.16444473957870470        0.0000000000000000     
   1.6095715755113857E-006  0.17237204227242095        0.0000000000000000     
   1.2344667769016585E-006  0.18038682505387818        0.0000000000000000     
   9.7182509029678670E-007  0.18848908792307645        0.0000000000000000     
   8.2164651569321956E-007  0.19667883088001575        0.0000000000000000     
  -5.7750601957612009E-003  0.16445831972882011        0.0000000000000000     
  -5.8634897595949680E-003  0.17238358459874734        0.0000000000000000     
  -5.9438846013824620E-003  0.18039665368117219        0.0000000000000000     
  -6.0162447211236838E-003  0.18849752697609479        0.0000000000000000     
  -6.0805701188186307E-003  0.19668620448351501        0.0000000000000000     
  -1.1587414829238966E-002  0.16449492555044623        0.0000000000000000     
  -1.1763970763869192E-002  0.17241635975262232        0.0000000000000000     
  -1.1924796420787484E-002  0.18042577989232245        0.0000000000000000     
  -1.2069891799993848E-002  0.18852318596954673        0.0000000000000000     
  -1.2199256901488278E-002  0.19670857798429511        0.0000000000000000     
  -1.7434966760947166E-002  0.16455455704358307        0.0000000000000000     
  -1.7699833441247155E-002  0.17247036773404589        0.0000000000000000     
  -1.7941500991438163E-002  0.18047420368732900        0.0000000000000000     
  -1.8159969411520198E-002  0.18856606490343239        0.0000000000000000     
  -1.8355238701493248E-002  0.19674595138235609        0.0000000000000000     
  -2.3317715990885807E-002  0.16463721420823058        0.0000000000000000     
  -2.3671077791728862E-002  0.17254560854301809        0.0000000000000000     
  -2.3993998313334503E-002  0.18054192506619182        0.0000000000000000     
  -2.4286477555702724E-002  0.18862616377775174        0.0000000000000000     
  -2.4548515518833535E-002  0.19679832467769787        0.0000000000000000     
   8.2164651569321956E-007  0.19667883088001575        0.0000000000000000     
   7.3096477303967108E-007  0.20493748840352818        0.0000000000000000     
   6.4681358228312058E-007  0.21324649497244591        0.0000000000000000     
   5.6919294342183333E-007  0.22160585058676890        0.0000000000000000     
   4.9810285645754404E-007  0.23001555524649719        0.0000000000000000     
  -6.0805701188186307E-003  0.19668620448351501        0.0000000000000000     
  -6.1373733705683987E-003  0.20494414848622963        0.0000000000000000     
  -6.1871670524740706E-003  0.21325282126703515        0.0000000000000000     
  -6.2299511645356482E-003  0.22161222282593160        0.0000000000000000     
  -6.2657257067531315E-003  0.23002235316291897        0.0000000000000000     
  -1.2199256901488278E-002  0.19670857798429511        0.0000000000000000     
  -1.2313652576195469E-002  0.20496398445211991        0.0000000000000000     
  -1.2413839675040117E-002  0.21327143388857334        0.0000000000000000     
  -1.2499818198022213E-002  0.22163092629365541        0.0000000000000000     
  -1.2571588145141760E-002  0.23004246166736614        0.0000000000000000     
  -1.8355238701493248E-002  0.19674595138235609        0.0000000000000000     
  -1.8528106652108182E-002  0.20499699630119914        0.0000000000000000     
  -1.8679371054115851E-002  0.21330233283706060        0.0000000000000000     
  -1.8809031907516271E-002  0.22166196098994048        0.0000000000000000     
  -1.8917089212309428E-002  0.23007588075983873        0.0000000000000000     
  -2.4548515518833535E-002  0.19679832467769787        0.0000000000000000     
  -2.4780735598306524E-002  0.20504318403346727        0.0000000000000000     
  -2.4983761189701297E-002  0.21334551811249683        0.0000000000000000     
  -2.5157592293017825E-002  0.22170532691478670        0.0000000000000000     
  -2.5302228908256133E-002  0.23012261044033677        0.0000000000000000     
   4.9810285645754404E-007  0.23001555524649719        0.0000000000000000     
   4.3796194051102036E-007  0.23844439701367637        0.0000000000000000     
   3.9318881470346359E-007  0.24686116395035196        0.0000000000000000     
   3.6378347903606636E-007  0.25526585605652402        0.0000000000000000     
   3.4974593350915392E-007  0.26365847333219250        0.0000000000000000     
  -6.2657257067531315E-003  0.23002235316291897        0.0000000000000000     
  -6.2957601529341160E-003  0.23845227626898058        0.0000000000000000     
  -6.3213239768861911E-003  0.24687105613509958        0.0000000000000000     
  -6.3424171786093577E-003  0.25527869276127607        0.0000000000000000     
  -6.3590397581036176E-003  0.26367518614751007        0.0000000000000000     
  -1.2571588145141760E-002  0.23004246166736614        0.0000000000000000     
  -1.2631894771940873E-002  0.23847580799088347        0.0000000000000000     
  -1.2683483333961661E-002  0.24690073324538542        0.0000000000000000     
  -1.2726353831204122E-002  0.25531723743087198        0.0000000000000000     
  -1.2760506263668260E-002  0.26372532054734310        0.0000000000000000     
  -1.8917089212309428E-002  0.23007588075983873        0.0000000000000000     
  -1.9007965895079759E-002  0.23851499217938521        0.0000000000000000     
  -1.9086084882411706E-002  0.24695019528120946        0.0000000000000000     
  -1.9151446174305253E-002  0.25538149006531163        0.0000000000000000     
  -1.9204049770760422E-002  0.26380887653169177        0.0000000000000000     
  -2.5302228908256133E-002  0.23012261044033677        0.0000000000000000     
  -2.5423973522350773E-002  0.23856982883448558        0.0000000000000000     
  -2.5529128622236323E-002  0.24701944224257169        0.0000000000000000     
  -2.5617694207912756E-002  0.25547145066459515        0.0000000000000000     
  -2.5689670279380097E-002  0.26392585410055586        0.0000000000000000     
   3.4974593350915392E-007  0.26365847333219250        0.0000000000000000     
   3.4200953471803103E-007  0.27197883626841485        0.0000000000000000     
   3.3150763926125502E-007  0.28016676535624851        0.0000000000000000     
   3.1824024713638646E-007  0.28822226059569356        0.0000000000000000     
   3.0220735834814161E-007  0.29614532198674987        0.0000000000000000     
  -6.3590397581036176E-003  0.26367518614751007        0.0000000000000000     
  -6.3750620363467615E-003  0.27200065476589080        0.0000000000000000     
  -6.3943543343165776E-003  0.28019521708850775        0.0000000000000000     
  -6.4169166520130659E-003  0.28825887311536097        0.0000000000000000     
  -6.4427489894362325E-003  0.29619162284645040        0.0000000000000000     
  -1.2760506263668260E-002  0.26372532054734310        0.0000000000000000     
  -1.2793129053172151E-002  0.27206604597670336        0.0000000000000000     
  -1.2831410621533866E-002  0.28028047710085741        0.0000000000000000     
  -1.2875350968753412E-002  0.28836861391980495        0.0000000000000000     
  -1.2924950094830780E-002  0.29633045643354633        0.0000000000000000     
  -1.9204049770760422E-002  0.26380887653169177        0.0000000000000000     
  -1.9253859040941453E-002  0.27217500990085253        0.0000000000000000     
  -1.9310837354012612E-002  0.28042254539329714        0.0000000000000000     
  -1.9374984709973894E-002  0.28855148300902544        0.0000000000000000     
  -1.9446301108825299E-002  0.29656182274803761        0.0000000000000000     
  -2.5689670279380097E-002  0.26392585410055586        0.0000000000000000     
  -2.5757251999654670E-002  0.27232754653833835        0.0000000000000000     
  -2.5832634531752809E-002  0.28062142196582729        0.0000000000000000     
  -2.5915817875674509E-002  0.28880748038302262        0.0000000000000000     
  -2.6006802031419779E-002  0.29688572178992428        0.0000000000000000     
  -1.4009037123266784E-002   5.5793061476335420E-002   0.0000000000000000     
  -1.4781898675422627E-002   6.1384589424730858E-002   0.0000000000000000     
  -1.5529495955626582E-002   6.7160808997856758E-002   0.0000000000000000     
  -1.6251828963878643E-002   7.3121720195713114E-002   0.0000000000000000     
  -1.6948897700178819E-002   7.9267323018299918E-002   0.0000000000000000     
  -1.7722141236919408E-002   5.5990394069475258E-002   0.0000000000000000     
  -1.8651374828802653E-002   6.1588854199192238E-002   0.0000000000000000     
  -1.9557485830313557E-002   6.7369723488603747E-002   0.0000000000000000     
  -2.0440474241452115E-002   7.3333001937709807E-002   0.0000000000000000     
  -2.1300340062218336E-002   7.9478689546510412E-002   0.0000000000000000     
  -2.1455966658885463E-002   5.6280754982000677E-002   0.0000000000000000     
  -2.2570506532348687E-002   6.1877267300950285E-002   0.0000000000000000     
  -2.3655791288901808E-002   6.7654568108560548E-002   0.0000000000000000     
  -2.4711820928544834E-002   7.3612657404831486E-002   0.0000000000000000     
  -2.5738595451277754E-002   7.9751535189763093E-002   0.0000000000000000     
  -2.5210513389164951E-002   5.6664144213911652E-002   0.0000000000000000     
  -2.6539293786060732E-002   6.2249828730005008E-002   0.0000000000000000     
  -2.7824412331391345E-002   6.8015342857727160E-002   0.0000000000000000     
  -2.9065869025156787E-002   7.3960686597078204E-002   0.0000000000000000     
  -3.0263663867357071E-002   8.0085859948058044E-002   0.0000000000000000     
  -2.8985781427757873E-002   5.7140561765208216E-002   0.0000000000000000     
  -3.0557736589938780E-002   6.2706538486356406E-002   0.0000000000000000     
  -3.2063348957782158E-002   6.8452047736103624E-002   0.0000000000000000     
  -3.3502618531287991E-002   7.4377089514449879E-002   0.0000000000000000     
  -3.4875545310456293E-002   8.0481663821395183E-002   0.0000000000000000     
  -1.6948897700178819E-002   7.9267323018299918E-002   0.0000000000000000     
  -1.7621514755818517E-002   8.5584798634798454E-002   0.0000000000000000     
  -1.8270492722089155E-002   9.2061328214389962E-002   0.0000000000000000     
  -1.8895831598990734E-002   9.8696911757074499E-002   0.0000000000000000     
  -1.9497531386523253E-002  0.10549154926285201        0.0000000000000000     
  -2.1300340062218336E-002   7.9478689546510412E-002   0.0000000000000000     
  -2.2134774121581432E-002   8.5794011757448094E-002   0.0000000000000000     
  -2.2941467248510632E-002   9.2266194012965499E-002   0.0000000000000000     
  -2.3720419443005934E-002   9.8895236313062573E-002   0.0000000000000000     
  -2.4471630705067329E-002  0.10568113865773934        0.0000000000000000     
  -2.5738595451277754E-002   7.9751535189763093E-002   0.0000000000000000     
  -2.6734944074280488E-002   8.6058803481167248E-002   0.0000000000000000     
  -2.7699696014732940E-002   9.2522064296855805E-002   0.0000000000000000     
  -2.8632851272635117E-002   9.9141317636828763E-002   0.0000000000000000     
  -2.9534409847987018E-002  0.10591656350108615        0.0000000000000000     
  -3.0263663867357071E-002   8.0085859948058044E-002   0.0000000000000000     
  -3.1422024613915682E-002   8.6379173805955861E-002   0.0000000000000000     
  -3.2545179020756078E-002   9.2828939066060892E-002   0.0000000000000000     
  -3.3633127087878294E-002   9.9435155728373095E-002   0.0000000000000000     
  -3.4685868815282302E-002  0.10619782379289247        0.0000000000000000     
  -3.4875545310456293E-002   8.0481663821395183E-002   0.0000000000000000     
  -3.6196015740487003E-002   8.6755122731813974E-002   0.0000000000000000     
  -3.7477916266580057E-002   9.3186818320580761E-002   0.0000000000000000     
  -3.8721246888735447E-002   9.9776750587695542E-002   0.0000000000000000     
  -3.9926007606953182E-002  0.10652491953315829        0.0000000000000000     
  -1.9497531386523253E-002  0.10549154926285201        0.0000000000000000     
  -2.0073153450194715E-002  0.11243358286080871        0.0000000000000000     
  -2.0620259155513118E-002  0.11951135468003075        0.0000000000000000     
  -2.1138848502478467E-002  0.12672486472051817        0.0000000000000000     
  -2.1628921491090761E-002  0.13407411298227095        0.0000000000000000     
  -2.4471630705067329E-002  0.10568113865773934        0.0000000000000000     
  -2.5191625950656396E-002  0.11261326329730846        0.0000000000000000     
  -2.5876930095734677E-002  0.11968097248208265        0.0000000000000000     
  -2.6527543140302166E-002  0.12688426621206195        0.0000000000000000     
  -2.7143465084358880E-002  0.13422314448724626        0.0000000000000000     
  -2.9534409847987018E-002  0.10591656350108615        0.0000000000000000     
  -3.0399537518760997E-002  0.11283741938773068        0.0000000000000000     
  -3.1223400062929424E-002  0.11989350279486505        0.0000000000000000     
  -3.2005997480492286E-002  0.12708481372248931        0.0000000000000000     
  -3.2747329771449590E-002  0.13441135217060346        0.0000000000000000     
  -3.4685868815282302E-002  0.10619782379289247        0.0000000000000000     
  -3.5696888154508520E-002  0.11310605113207532        0.0000000000000000     
  -3.6659669057097360E-002  0.12014894561837795        0.0000000000000000     
  -3.7574211523048816E-002  0.12732650725180036        0.0000000000000000     
  -3.8440515552362879E-002  0.13463873603234250        0.0000000000000000     
  -3.9926007606953182E-002  0.10652491953315829        0.0000000000000000     
  -4.1083677857898966E-002  0.11341915853034243        0.0000000000000000     
  -4.2185737078238493E-002  0.12044730095262132        0.0000000000000000     
  -4.3232185267971755E-002  0.12760934679999500        0.0000000000000000     
  -4.4223022427098760E-002  0.13490529607246346        0.0000000000000000     
  -2.1628921491090761E-002  0.13407411298227095        0.0000000000000000     
  -2.2091332254404766E-002  0.14154714483818251        0.0000000000000000     
  -2.2526934925475282E-002  0.14913200566114629        0.0000000000000000     
  -2.2935729504302296E-002  0.15682869545116235        0.0000000000000000     
  -2.3317715990885807E-002  0.16463721420823058        0.0000000000000000     
  -2.7143465084358880E-002  0.13422314448724626        0.0000000000000000     
  -2.7724956686634519E-002  0.14168582139136965        0.0000000000000000     
  -2.8272278705858810E-002  0.14926051100816604        0.0000000000000000     
  -2.8785431142031741E-002  0.15694721333763548        0.0000000000000000     
  -2.9264413995153317E-002  0.16474592837977792        0.0000000000000000     
  -3.2747329771449590E-002  0.13441135217060346        0.0000000000000000     
  -3.3447634722090391E-002  0.14186148999706091        0.0000000000000000     
  -3.4107150118703751E-002  0.14942359905971517        0.0000000000000000     
  -3.4725875961289669E-002  0.15709767935856622        0.0000000000000000     
  -3.5303812249848139E-002  0.16488373089361405        0.0000000000000000     
  -3.8440515552362879E-002  0.13463873603234250        0.0000000000000000     
  -3.9259366360772367E-002  0.14207415065525633        0.0000000000000000     
  -4.0031549164010097E-002  0.14962126981579371        0.0000000000000000     
  -4.0757063962076061E-002  0.15728009351395458        0.0000000000000000     
  -4.1435910754970259E-002  0.16505062174973900        0.0000000000000000     
  -4.4223022427098760E-002  0.13490529607246346        0.0000000000000000     
  -4.5160151602680471E-002  0.14232380336595590        0.0000000000000000     
  -4.6045475841777879E-002  0.14985352327640161        0.0000000000000000     
  -4.6878995144390936E-002  0.15749445580380056        0.0000000000000000     
  -4.7660709510519698E-002  0.16524660094815277        0.0000000000000000     
  -2.3317715990885807E-002  0.16463721420823058        0.0000000000000000     
  -2.3671077791728862E-002  0.17254560854301809        0.0000000000000000     
  -2.3993998313334503E-002  0.18054192506619182        0.0000000000000000     
  -2.4286477555702724E-002  0.18862616377775174        0.0000000000000000     
  -2.4548515518833535E-002  0.19679832467769787        0.0000000000000000     
  -2.9264413995153317E-002  0.16474592837977792        0.0000000000000000     
  -2.9707629185488273E-002  0.17264455527514394        0.0000000000000000     
  -3.0113478633301327E-002  0.18063099316428405        0.0000000000000000     
  -3.0481962338592485E-002  0.18870524204719816        0.0000000000000000     
  -3.0813080301361751E-002  0.19686730192388646        0.0000000000000000     
  -3.5303812249848139E-002  0.16488373089361405        0.0000000000000000     
  -3.5839412992699354E-002  0.17276968102602833        0.0000000000000000     
  -3.6331132198163488E-002  0.18074345711697867        0.0000000000000000     
  -3.6778969866240539E-002  0.18880505916646512        0.0000000000000000     
  -3.7182925996930502E-002  0.19695448717448766        0.0000000000000000     
  -4.1435910754970259E-002  0.16505062174973900        0.0000000000000000     
  -4.2066429213362101E-002  0.17292098579567128        0.0000000000000000     
  -4.2646959007920968E-002  0.18087931692427581        0.0000000000000000     
  -4.3177500138646858E-002  0.18892561513555256        0.0000000000000000     
  -4.3658052605539781E-002  0.19705988042950157        0.0000000000000000     
  -4.7660709510519698E-002  0.16524660094815277        0.0000000000000000     
  -4.8388677847476511E-002  0.17309846958407285        0.0000000000000000     
  -4.9060959062573767E-002  0.18103857258617542        0.0000000000000000     
  -4.9677553155811460E-002  0.18906690995446052        0.0000000000000000     
  -5.0238460127189598E-002  0.19718348168892810        0.0000000000000000     
  -2.4548515518833535E-002  0.19679832467769787        0.0000000000000000     
  -2.4780735598306524E-002  0.20504318403346727        0.0000000000000000     
  -2.4983761189701297E-002  0.21334551811249683        0.0000000000000000     
  -2.5157592293017825E-002  0.22170532691478670        0.0000000000000000     
  -2.5302228908256133E-002  0.23012261044033677        0.0000000000000000     
  -3.0813080301361751E-002  0.19686730192388646        0.0000000000000000     
  -3.1107050130371294E-002  0.20510381515239801        0.0000000000000000     
  -3.1364089434383298E-002  0.21340142409078219        0.0000000000000000     
  -3.1584198213397766E-002  0.22176012873903891        0.0000000000000000     
  -3.1767376467414669E-002  0.23017992909716822        0.0000000000000000     
  -3.7182925996930502E-002  0.19695448717448766        0.0000000000000000     
  -3.7542560963883281E-002  0.20518015716146520        0.0000000000000000     
  -3.7857435140748762E-002  0.21347048514781664        0.0000000000000000     
  -3.8127548527526936E-002  0.22182547113354192        0.0000000000000000     
  -3.8352901124217832E-002  0.23024511511864115        0.0000000000000000     
  -4.3658052605539781E-002  0.19705988042950157        0.0000000000000000     
  -4.4087268098842482E-002  0.20527221006066876        0.0000000000000000     
  -4.4463798308797681E-002  0.21355270128360015        0.0000000000000000     
  -4.4787643235405385E-002  0.22190135409829576        0.0000000000000000     
  -4.5058802878665601E-002  0.23031816850475559        0.0000000000000000     
  -5.0238460127189598E-002  0.19718348168892810        0.0000000000000000     
  -5.0741171535248888E-002  0.20537997385000870        0.0000000000000000     
  -5.1183178938530055E-002  0.21364807249813281        0.0000000000000000     
  -5.1564482337033105E-002  0.22198777763330038        0.0000000000000000     
  -5.1885081730758009E-002  0.23039908925551147        0.0000000000000000     
  -2.5302228908256133E-002  0.23012261044033677        0.0000000000000000     
  -2.5423973522350773E-002  0.23856982883448558        0.0000000000000000     
  -2.5529128622236323E-002  0.24701944224257169        0.0000000000000000     
  -2.5617694207912756E-002  0.25547145066459515        0.0000000000000000     
  -2.5689670279380097E-002  0.26392585410055586        0.0000000000000000     
  -3.1767376467414669E-002  0.23017992909716822        0.0000000000000000     
  -3.1921527582331612E-002  0.23863581657005442        0.0000000000000000     
  -3.2054554944046160E-002  0.24710278256258184        0.0000000000000000     
  -3.2166458552558300E-002  0.25558082707475044        0.0000000000000000     
  -3.2257238407868039E-002  0.26406995010656031        0.0000000000000000     
  -3.8352901124217832E-002  0.23024511511864115        0.0000000000000000     
  -3.8542238003599953E-002  0.23870845399996132        0.0000000000000000     
  -3.8704304238451850E-002  0.24719452467434955        0.0000000000000000     
  -3.8839099828773531E-002  0.25570332714180571        0.0000000000000000     
  -3.8946624774564988E-002  0.26423486140232999        0.0000000000000000     
  -4.5058802878665601E-002  0.23031816850475559        0.0000000000000000     
  -4.5286104786155794E-002  0.23878774112420634        0.0000000000000000     
  -4.5478376505453416E-002  0.24729466857787480        0.0000000000000000     
  -4.5635618036558467E-002  0.25583895086576103        0.0000000000000000     
  -4.5757829379470941E-002  0.26442058798786489        0.0000000000000000     
  -5.1885081730758009E-002  0.23039908925551147        0.0000000000000000     
  -5.2153127929999141E-002  0.23887367794278944        0.0000000000000000     
  -5.2376771745050829E-002  0.24740321427315767        0.0000000000000000     
  -5.2556013175913095E-002  0.25598769824661616        0.0000000000000000     
  -5.2690852222585918E-002  0.26462712986316494        0.0000000000000000     
  -2.5689670279380097E-002  0.26392585410055586        0.0000000000000000     
  -2.5757251999654670E-002  0.27232754653833835        0.0000000000000000     
  -2.5832634531752809E-002  0.28062142196582729        0.0000000000000000     
  -2.5915817875674509E-002  0.28880748038302262        0.0000000000000000     
  -2.6006802031419779E-002  0.29688572178992428        0.0000000000000000     
  -3.2257238407868039E-002  0.26406995010656031        0.0000000000000000     
  -3.2341723642355893E-002  0.27251733286138752        0.0000000000000000     
  -3.2434743388402389E-002  0.28087015654260816        0.0000000000000000     
  -3.2536297646007531E-002  0.28912842115022230        0.0000000000000000     
  -3.2646386415171300E-002  0.29729212668422988        0.0000000000000000     
  -3.8946624774564988E-002  0.26423486140232999        0.0000000000000000     
  -3.9045689682089234E-002  0.27273804584222666        0.0000000000000000     
  -3.9155105157609303E-002  0.28116179884780029        0.0000000000000000     
  -3.9274871201125203E-002  0.28950612041905072        0.0000000000000000     
  -3.9404987812636919E-002  0.29777101055597810        0.0000000000000000     
  -4.5757829379470941E-002  0.26442058798786489        0.0000000000000000     
  -4.5869150118854701E-002  0.27298968548085595        0.0000000000000000     
  -4.5993719839373552E-002  0.28149634888140362        0.0000000000000000     
  -4.6131538541027542E-002  0.28994057818950786        0.0000000000000000     
  -4.6282606223816636E-002  0.29832237340516871        0.0000000000000000     
  -5.2690852222585918E-002  0.26462712986316494        0.0000000000000000     
  -5.2812104952652275E-002  0.27327225177727521        0.0000000000000000     
  -5.2950587433695157E-002  0.28187380664341810        0.0000000000000000     
  -5.3106299665714549E-002  0.29043179446159362        0.0000000000000000     
  -5.3279241648710465E-002  0.29894621523180182        0.0000000000000000     
  -2.8985781427757873E-002   5.7140561765208216E-002   0.0000000000000000     
  -3.0557736589938780E-002   6.2706538486356406E-002   0.0000000000000000     
  -3.2063348957782158E-002   6.8452047736103624E-002   0.0000000000000000     
  -3.3502618531287991E-002   7.4377089514449879E-002   0.0000000000000000     
  -3.4875545310456293E-002   8.0481663821395183E-002   0.0000000000000000     
  -3.2878667706551248E-002   5.7681337150647195E-002   0.0000000000000000     
  -3.4685869328795707E-002   6.3223824858991570E-002   0.0000000000000000     
  -3.6407583542734663E-002   6.8946271798108416E-002   0.0000000000000000     
  -3.8043810348368109E-002   7.4848677967997726E-002   0.0000000000000000     
  -3.9594549745696046E-002   8.0931043368659514E-002   0.0000000000000000     
  -3.6986069157432092E-002   5.8257799884985431E-002   0.0000000000000000     
  -3.8983726387444385E-002   6.3778116136897600E-002   0.0000000000000000     
  -4.0892098460909292E-002   6.9479604098160092E-002   0.0000000000000000     
  -4.2711185377826803E-002   7.5362263768772919E-002   0.0000000000000000     
  -4.4440987138196927E-002   8.1426095148736041E-002   0.0000000000000000     
  -4.1307985780400423E-002   5.8869949968222944E-002   0.0000000000000000     
  -4.3451307765884822E-002   6.4369412320074537E-002   0.0000000000000000     
  -4.5516893712306029E-002   7.0052044636258679E-002   0.0000000000000000     
  -4.7504743619664065E-002   7.5917846916775417E-002   0.0000000000000000     
  -4.9414857487958951E-002   8.1966819161624752E-002   0.0000000000000000     
  -4.5844417575456237E-002   5.9517787400359720E-002   0.0000000000000000     
  -4.8088613464116983E-002   6.4997713408522298E-002   0.0000000000000000     
  -5.0281969296924883E-002   7.0663593412404149E-002   0.0000000000000000     
  -5.2424485073879923E-002   7.6515427412005260E-002   0.0000000000000000     
  -5.4516160794982109E-002   8.2553215407325631E-002   0.0000000000000000     
  -3.4875545310456293E-002   8.0481663821395183E-002   0.0000000000000000     
  -3.6196015740487003E-002   8.6755122731813974E-002   0.0000000000000000     
  -3.7477916266580057E-002   9.3186818320580761E-002   0.0000000000000000     
  -3.8721246888735447E-002   9.9776750587695542E-002   0.0000000000000000     
  -3.9926007606953182E-002  0.10652491953315829        0.0000000000000000     
  -3.9594549745696046E-002   8.0931043368659514E-002   0.0000000000000000     
  -4.1080965273284399E-002   8.7183221182809398E-002   0.0000000000000000     
  -4.2524220469699121E-002   9.3595064593162955E-002   0.0000000000000000     
  -4.3924315334940199E-002  0.10016657359972024        0.0000000000000000     
  -4.5281249869007660E-002  0.10689774820248123        0.0000000000000000     
  -4.4440987138196927E-002   8.1426095148736041E-002   0.0000000000000000     
  -4.6100921031597783E-002   8.7660040083009941E-002   0.0000000000000000     
  -4.7710404347607538E-002   9.4053040416555031E-002   0.0000000000000000     
  -4.9269437086226171E-002  0.10060509614937133        0.0000000000000000     
  -5.0778019247453683E-002  0.10731620728145884        0.0000000000000000     
  -4.9414857487958951E-002   8.1966819161624752E-002   0.0000000000000000     
  -5.1255883015427176E-002   8.8185579432415617E-002   0.0000000000000000     
  -5.3036467900305306E-002   9.4560745790756962E-002   0.0000000000000000     
  -5.4756612142593343E-002  0.10109231823664884        0.0000000000000000     
  -5.6416315742291279E-002  0.10778029677009117        0.0000000000000000     
  -5.4516160794982109E-002   8.2553215407325631E-002   0.0000000000000000     
  -5.6545851224772570E-002   8.8759839231026427E-002   0.0000000000000000     
  -5.8502411127792441E-002   9.5118180715768788E-002   0.0000000000000000     
  -6.0385840504041728E-002  0.10162823986155269        0.0000000000000000     
  -6.2196139353520419E-002  0.10829001666837819        0.0000000000000000     
  -3.9926007606953182E-002  0.10652491953315829        0.0000000000000000     
  -4.1083677857898966E-002  0.11341915853034243        0.0000000000000000     
  -4.2185737078238493E-002  0.12044730095262132        0.0000000000000000     
  -4.3232185267971755E-002  0.12760934679999500        0.0000000000000000     
  -4.4223022427098760E-002  0.13490529607246346        0.0000000000000000     
  -4.5281249869007660E-002  0.10689774820248123        0.0000000000000000     
  -4.6585182723983189E-002  0.11377548942712891        0.0000000000000000     
  -4.7826272551948504E-002  0.12078669829934631        0.0000000000000000     
  -4.9004519352903626E-002  0.12793137481913344        0.0000000000000000     
  -5.0119923126848556E-002  0.13520951898649031        0.0000000000000000     
  -5.0778019247453683E-002  0.10731620728145884        0.0000000000000000     
  -5.2226678847812007E-002  0.11417379166703169        0.0000000000000000     
  -5.3605943903823103E-002  0.12116526716030403        0.0000000000000000     
  -5.4915814415486944E-002  0.12829063376127581        0.0000000000000000     
  -5.6156290382803571E-002  0.13554989146994711        0.0000000000000000     
  -5.6416315742291279E-002  0.10778029677009117        0.0000000000000000     
  -5.8008166229385462E-002  0.11461406525005079        0.0000000000000000     
  -5.9524751133862283E-002  0.12158300753549443        0.0000000000000000     
  -6.0966070455721728E-002  0.12868712362642215        0.0000000000000000     
  -6.2332124194963812E-002  0.13592641352283388        0.0000000000000000     
  -6.2196139353520419E-002  0.10829001666837819        0.0000000000000000     
  -6.3929644868703520E-002  0.11509631017618617        0.0000000000000000     
  -6.5582694242066031E-002  0.12203991942491757        0.0000000000000000     
  -6.7155287473607966E-002  0.12912084441457239        0.0000000000000000     
  -6.8647424563329285E-002  0.13633908514515061        0.0000000000000000     
  -4.4223022427098760E-002  0.13490529607246346        0.0000000000000000     
  -4.5160151602680471E-002  0.14232380336595590        0.0000000000000000     
  -4.6045475841777879E-002  0.14985352327640161        0.0000000000000000     
  -4.6878995144390936E-002  0.15749445580380056        0.0000000000000000     
  -4.7660709510519698E-002  0.16524660094815277        0.0000000000000000     
  -5.0119923126848556E-002  0.13520951898649031        0.0000000000000000     
  -5.1175713428840100E-002  0.14260969038972399        0.0000000000000000     
  -5.2175119813935127E-002  0.15012044861714177        0.0000000000000000     
  -5.3118142282133643E-002  0.15774179366874350        0.0000000000000000     
  -5.4004780833435614E-002  0.16547372554452927        0.0000000000000000     
  -5.6156290382803571E-002  0.13554989146994711        0.0000000000000000     
  -5.7331774820276661E-002  0.14293105398712508        0.0000000000000000     
  -5.8446670742409966E-002  0.15042213501361695        0.0000000000000000     
  -5.9500978149203472E-002  0.15802313454942274        0.0000000000000000     
  -6.0494697040657207E-002  0.16573405259454238        0.0000000000000000     
  -6.2332124194963812E-002  0.13592641352283388        0.0000000000000000     
  -6.3628335776990147E-002  0.14328789415815907        0.0000000000000000     
  -6.4860128627202362E-002  0.15075858246582721        0.0000000000000000     
  -6.6027502745600458E-002  0.15833847844583823        0.0000000000000000     
  -6.7130458132184448E-002  0.16602758209819216        0.0000000000000000     
  -6.8647424563329285E-002  0.13633908514515061        0.0000000000000000     
  -7.0065396298980551E-002  0.14368021090282607        0.0000000000000000     
  -7.1415493468312330E-002  0.15112979097377252        0.0000000000000000     
  -7.2697716071324595E-002  0.15868782535799003        0.0000000000000000     
  -7.3912064108017358E-002  0.16635431405547854        0.0000000000000000     
  -4.7660709510519698E-002  0.16524660094815277        0.0000000000000000     
  -4.8388677847476511E-002  0.17309846958407285        0.0000000000000000     
  -4.9060959062573767E-002  0.18103857258617542        0.0000000000000000     
  -4.9677553155811460E-002  0.18906690995446052        0.0000000000000000     
  -5.0238460127189598E-002  0.19718348168892810        0.0000000000000000     
  -5.4004780833435614E-002  0.16547372554452927        0.0000000000000000     
  -5.4832680961070829E-002  0.17330522678510704        0.0000000000000000     
  -5.5599488158268998E-002  0.18122527993108484        0.0000000000000000     
  -5.6305202425030162E-002  0.18923388498246263        0.0000000000000000     
  -5.6949823761354296E-002  0.19733104193924048        0.0000000000000000     
  -6.0494697040657207E-002  0.16573405259454238        0.0000000000000000     
  -6.1424960620173261E-002  0.17354435179264796        0.0000000000000000     
  -6.2288902091153793E-002  0.18144349478741134        0.0000000000000000     
  -6.3086521453598790E-002  0.18943148157883261        0.0000000000000000     
  -6.3817818707508259E-002  0.19750831216691173        0.0000000000000000     
  -6.7130458132184448E-002  0.16602758209819216        0.0000000000000000     
  -6.8165516824783848E-002  0.17381584460669552        0.0000000000000000     
  -6.9129200861228132E-002  0.18169321715515496        0.0000000000000000     
  -7.0021510241517343E-002  0.18965969974357044        0.0000000000000000     
  -7.0842444965651438E-002  0.19771529237194196        0.0000000000000000     
  -7.3912064108017358E-002  0.16635431405547854        0.0000000000000000     
  -7.5054349574902535E-002  0.17411970522724982        0.0000000000000000     
  -7.6120384468492022E-002  0.18197444703431570        0.0000000000000000     
  -7.7110168788785821E-002  0.18991853947667606        0.0000000000000000     
  -7.8023702535783918E-002  0.19795198255433105        0.0000000000000000     
  -5.0238460127189598E-002  0.19718348168892810        0.0000000000000000     
  -5.0741171535248888E-002  0.20537997385000870        0.0000000000000000     
  -5.1183178938530055E-002  0.21364807249813281        0.0000000000000000     
  -5.1564482337033105E-002  0.22198777763330038        0.0000000000000000     
  -5.1885081730758009E-002  0.23039908925551147        0.0000000000000000     
  -5.6949823761354296E-002  0.19733104193924048        0.0000000000000000     
  -5.7530140981361028E-002  0.20550968171759465        0.0000000000000000     
  -5.8042942899169954E-002  0.21376273523370151        0.0000000000000000     
  -5.8488229514781102E-002  0.22209020248756106        0.0000000000000000     
  -5.8866000828194431E-002  0.23049208347917330        0.0000000000000000     
  -6.3817818707508259E-002  0.19750831216691173        0.0000000000000000     
  -6.4480046145437397E-002  0.20566756685153617        0.0000000000000000     
  -6.5070456059941453E-002  0.21390282593259327        0.0000000000000000     
  -6.5589048451020412E-002  0.22221408941008297        0.0000000000000000     
  -6.6035823318674275E-002  0.23060135728400544        0.0000000000000000     
  -7.0842444965651438E-002  0.19771529237194196        0.0000000000000000     
  -7.1590887027478012E-002  0.20585362925183320        0.0000000000000000     
  -7.2265718420844546E-002  0.21406834459480797        0.0000000000000000     
  -7.2866939145751056E-002  0.22235943840086619        0.0000000000000000     
  -7.3394549202197526E-002  0.23072691067000789        0.0000000000000000     
  -7.8023702535783918E-002  0.19795198255433105        0.0000000000000000     
  -7.8862663627482885E-002  0.20606786891848580        0.0000000000000000     
  -7.9628729981879240E-002  0.21425929122034570        0.0000000000000000     
  -8.0321901598973039E-002  0.22252624945991062        0.0000000000000000     
  -8.0942178478764226E-002  0.23086874363718074        0.0000000000000000     
  -5.1885081730758009E-002  0.23039908925551147        0.0000000000000000     
  -5.2153127929999141E-002  0.23887367794278944        0.0000000000000000     
  -5.2376771745050829E-002  0.24740321427315767        0.0000000000000000     
  -5.2556013175913095E-002  0.25598769824661616        0.0000000000000000     
  -5.2690852222585918E-002  0.26462712986316494        0.0000000000000000     
  -5.8866000828194431E-002  0.23049208347917330        0.0000000000000000     
  -5.9182430328966001E-002  0.23896772139908756        0.0000000000000000     
  -5.9443691506651859E-002  0.24751645943785336        0.0000000000000000     
  -5.9649784361251991E-002  0.25613829759547063        0.0000000000000000     
  -5.9800708892766397E-002  0.26483323587193935        0.0000000000000000     
  -6.6035823318674275E-002  0.23060135728400544        0.0000000000000000     
  -6.6413134876892418E-002  0.23907132843647774        0.0000000000000000     
  -6.6723337339664249E-002  0.24763070174961713        0.0000000000000000     
  -6.6966430706989752E-002  0.25627947722342359        0.0000000000000000     
  -6.7142414978868942E-002  0.26501765485789713        0.0000000000000000     
  -7.3394549202197526E-002  0.23072691067000789        0.0000000000000000     
  -7.3845241573778392E-002  0.23918449905495989        0.0000000000000000     
  -7.4215709244087977E-002  0.24774594120844898        0.0000000000000000     
  -7.4505952213126378E-002  0.25641123713047509        0.0000000000000000     
  -7.4715970480893512E-002  0.26518038682103834        0.0000000000000000     
  -8.0942178478764226E-002  0.23086874363718074        0.0000000000000000     
  -8.1478750419623866E-002  0.23930723325453407        0.0000000000000000     
  -8.1920807219923092E-002  0.24786217781434886        0.0000000000000000     
  -8.2268348879661835E-002  0.25653357731662513        0.0000000000000000     
  -8.2521375398840108E-002  0.26532143176136286        0.0000000000000000     
  -5.2690852222585918E-002  0.26462712986316494        0.0000000000000000     
  -5.2812104952652275E-002  0.27327225177727521        0.0000000000000000     
  -5.2950587433695157E-002  0.28187380664341810        0.0000000000000000     
  -5.3106299665714549E-002  0.29043179446159362        0.0000000000000000     
  -5.3279241648710465E-002  0.29894621523180182        0.0000000000000000     
  -5.9800708892766397E-002  0.26483323587193935        0.0000000000000000     
  -5.9933305290284858E-002  0.27355702052181319        0.0000000000000000     
  -6.0084413742897101E-002  0.28226539779964555        0.0000000000000000     
  -6.0254034250603161E-002  0.29095836770543665        0.0000000000000000     
  -6.0442166813403017E-002  0.29963593023918622        0.0000000000000000     
  -6.7142414978868942E-002  0.26501765485789713        0.0000000000000000     
  -6.7291502238555331E-002  0.27381526750479829        0.0000000000000000     
  -6.7453904569302461E-002  0.28264234801588761        0.0000000000000000     
  -6.7629621971110304E-002  0.29149889639116516        0.0000000000000000     
  -6.7818654443978915E-002  0.30038491263063083        0.0000000000000000     
  -7.4715970480893512E-002  0.26518038682103834        0.0000000000000000     
  -7.4886695797463682E-002  0.27404699272623068        0.0000000000000000     
  -7.5059059912911202E-002  0.28300465729214436        0.0000000000000000     
  -7.5233062827236033E-002  0.29205338051877922        0.0000000000000000     
  -7.5408704540438187E-002  0.30119316240613547        0.0000000000000000     
  -8.2521375398840108E-002  0.26532143176136286        0.0000000000000000     
  -8.2718885967009964E-002  0.27425219618611030        0.0000000000000000     
  -8.2899879773723345E-002  0.28335232562841567        0.0000000000000000     
  -8.3064356818980278E-002  0.29262182008827903        0.0000000000000000     
  -8.3212317102780792E-002  0.30206067956570026        0.0000000000000000     
  -4.5844417575456237E-002   5.9517787400359720E-002   0.0000000000000000     
  -4.8088613464116983E-002   6.4997713408522298E-002   0.0000000000000000     
  -5.0281969296924883E-002   7.0663593412404149E-002   0.0000000000000000     
  -5.2424485073879923E-002   7.6515427412005260E-002   0.0000000000000000     
  -5.4516160794982109E-002   8.2553215407325631E-002   0.0000000000000000     
  -5.0517686314865959E-002   6.0225323259416610E-002   0.0000000000000000     
  -5.2898514937749275E-002   6.5680243372740588E-002   0.0000000000000000     
  -5.5240606632885811E-002   7.1325560150896167E-002   0.0000000000000000     
  -5.7543961400275540E-002   7.7161273593883320E-002   0.0000000000000000     
  -5.9808579239918488E-002   8.3187383701702075E-002   0.0000000000000000     
  -5.5250113770896059E-002   6.1016568623414473E-002   0.0000000000000000     
  -5.7883883642390041E-002   6.6434226183229014E-002   0.0000000000000000     
  -6.0446087138308735E-002   7.2049254576034366E-002   0.0000000000000000     
  -6.2936724258652113E-002   7.7861653801830508E-002   0.0000000000000000     
  -6.5355795003420175E-002   8.3871423860617467E-002   0.0000000000000000     
  -6.0041699943546523E-002   6.1891523492353287E-002   0.0000000000000000     
  -6.3044719578039296E-002   6.7259661839987578E-002   0.0000000000000000     
  -6.5898410813193642E-002   7.2834676687818747E-002   0.0000000000000000     
  -6.8602773649009616E-002   7.8616568035846809E-002   0.0000000000000000     
  -7.1157808085487176E-002   8.4605335884071778E-002   0.0000000000000000     
  -6.4892444832817350E-002   6.2850187866233073E-002   0.0000000000000000     
  -6.8381022744697026E-002   6.8156550343016237E-002   0.0000000000000000     
  -7.1597577657540615E-002   7.3681826486249297E-002   0.0000000000000000     
  -7.4542109571348089E-002   7.9426016295932225E-002   0.0000000000000000     
  -7.7214618486119477E-002   8.5389119772065036E-002   0.0000000000000000     
  -5.4516160794982109E-002   8.2553215407325631E-002   0.0000000000000000     
  -5.6545851224772570E-002   8.8759839231026427E-002   0.0000000000000000     
  -5.8502411127792441E-002   9.5118180715768788E-002   0.0000000000000000     
  -6.0385840504041728E-002  0.10162823986155269        0.0000000000000000     
  -6.2196139353520419E-002  0.10829001666837819        0.0000000000000000     
  -5.9808579239918488E-002   8.3187383701702075E-002   0.0000000000000000     
  -6.2013119004489206E-002   8.9381905870719605E-002   0.0000000000000000     
  -6.4136239546662241E-002   9.5722855497303083E-002   0.0000000000000000     
  -6.6177940866437593E-002  0.10221023258145248        0.0000000000000000     
  -6.8138222963815262E-002  0.10884403712316783        0.0000000000000000     
  -6.5355795003420175E-002   8.3871423860617467E-002   0.0000000000000000     
  -6.7699979699432367E-002   9.0050865743372413E-002   0.0000000000000000     
  -6.9965958673508050E-002   9.6372280441072461E-002   0.0000000000000000     
  -7.2153731925647252E-002  0.10283566795371767        0.0000000000000000     
  -7.4263299455849960E-002  0.10944102828130801        0.0000000000000000     
  -7.1157808085487176E-002   8.4605335884071778E-002   0.0000000000000000     
  -7.3606433309602037E-002   9.0766718848984795E-002   0.0000000000000000     
  -7.5991568508329860E-002   9.7066455547076949E-002   0.0000000000000000     
  -7.8313213681670685E-002  0.10350454597834824        0.0000000000000000     
  -8.0571368829624485E-002  0.11008099014279871        0.0000000000000000     
  -7.7214618486119477E-002   8.5389119772065036E-002   0.0000000000000000     
  -7.9732479834998191E-002   9.1529465187556780E-002   0.0000000000000000     
  -8.2213069051127671E-002   9.7805380815316534E-002   0.0000000000000000     
  -8.4656386134507891E-002  0.10421686665534424        0.0000000000000000     
  -8.7062431085138878E-002  0.11076392270763996        0.0000000000000000     
  -6.2196139353520419E-002  0.10829001666837819        0.0000000000000000     
  -6.3929644868703520E-002  0.11509631017618617        0.0000000000000000     
  -6.5582694242066031E-002  0.12203991942491757        0.0000000000000000     
  -6.7155287473607966E-002  0.12912084441457239        0.0000000000000000     
  -6.8647424563329285E-002  0.13633908514515061        0.0000000000000000     
  -6.8138222963815262E-002  0.10884403712316783        0.0000000000000000     
  -7.0014949515325609E-002  0.11562089878749263        0.0000000000000000     
  -7.1805984197498937E-002  0.12253744723947035        0.0000000000000000     
  -7.3511327010335248E-002  0.12959368247910102        0.0000000000000000     
  -7.5130977953834568E-002  0.13678960450638464        0.0000000000000000     
  -7.4263299455849960E-002  0.10944102828130801        0.0000000000000000     
  -7.6287914918811081E-002  0.11618820342602487        0.0000000000000000     
  -7.8220831969225524E-002  0.12307703539004974        0.0000000000000000     
  -8.0062050607093246E-002  0.13010752417338253        0.0000000000000000     
  -8.1811570832414277E-002  0.13727966977602327        0.0000000000000000     
  -8.0571368829624485E-002  0.11008099014279871        0.0000000000000000     
  -8.2748541079159979E-002  0.11679822409178299        0.0000000000000000     
  -8.4827237557245777E-002  0.12365868387665571        0.0000000000000000     
  -8.6807458263881920E-002  0.13066236949741694        0.0000000000000000     
  -8.8689203199068381E-002  0.13780928095406655        0.0000000000000000     
  -8.7062431085138878E-002  0.11076392270763996        0.0000000000000000     
  -8.9396827996372275E-002  0.11745096078476688        0.0000000000000000     
  -9.1625200961559738E-002  0.12428239269928829        0.0000000000000000     
  -9.3747549980701284E-002  0.13125821845120417        0.0000000000000000     
  -9.5763875053796910E-002  0.13837843804051447        0.0000000000000000     
  -6.8647424563329285E-002  0.13633908514515061        0.0000000000000000     
  -7.0065396298980551E-002  0.14368021090282607        0.0000000000000000     
  -7.1415493468312330E-002  0.15112979097377252        0.0000000000000000     
  -7.2697716071324595E-002  0.15868782535799003        0.0000000000000000     
  -7.3912064108017358E-002  0.16635431405547854        0.0000000000000000     
  -7.5130977953834568E-002  0.13678960450638464        0.0000000000000000     
  -7.6671709837972390E-002  0.14410926731231363        0.0000000000000000     
  -7.8140295472724219E-002  0.15153672488788042        0.0000000000000000     
  -7.9536734858090069E-002  0.15907197723308503        0.0000000000000000     
  -8.0861027994069912E-002  0.16671502434792743        0.0000000000000000     
  -8.1811570832414277E-002  0.13727966977602327        0.0000000000000000     
  -8.3476029845690150E-002  0.14457632647780944        0.0000000000000000     
  -8.5062064847422417E-002  0.15198034855857839        0.0000000000000000     
  -8.6569675837611035E-002  0.15949173601833019        0.0000000000000000     
  -8.7998862816256060E-002  0.16711048885706478        0.0000000000000000     
  -8.8689203199068381E-002  0.13780928095406655        0.0000000000000000     
  -9.0478356322133829E-002  0.14508138839931350        0.0000000000000000     
  -9.2180801592406866E-002  0.15246066198586644        0.0000000000000000     
  -9.3796539009887520E-002  0.15994710171372548        0.0000000000000000     
  -9.5325568574575789E-002  0.16754070758289055        0.0000000000000000     
  -9.5763875053796910E-002  0.13837843804051447        0.0000000000000000     
  -9.7678689267303415E-002  0.14562445307682576        0.0000000000000000     
  -9.9496505707677610E-002  0.15297766516974459        0.0000000000000000     
 -0.10121732437491951       0.16043807431927093        0.0000000000000000     
 -0.10284114526902913       0.16800568052540477        0.0000000000000000     
  -7.3912064108017358E-002  0.16635431405547854        0.0000000000000000     
  -7.5054349574902535E-002  0.17411970522724982        0.0000000000000000     
  -7.6120384468492022E-002  0.18197444703431570        0.0000000000000000     
  -7.7110168788785821E-002  0.18991853947667606        0.0000000000000000     
  -7.8023702535783918E-002  0.19795198255433105        0.0000000000000000     
  -8.0861027994069912E-002  0.16671502434792743        0.0000000000000000     
  -8.2109167789289589E-002  0.17445671693271747        0.0000000000000000     
  -8.3277147152374928E-002  0.18228790568776498        0.0000000000000000     
  -8.4364966083325943E-002  0.19020859061306997        0.0000000000000000     
  -8.5372624582142592E-002  0.19821877170863234        0.0000000000000000     
  -8.7998862816256060E-002  0.16711048885706478        0.0000000000000000     
  -8.9347680386705222E-002  0.17482766300150521        0.0000000000000000     
  -9.0614183152306377E-002  0.18263431437837441        0.0000000000000000     
  -9.1798371113059454E-002  0.19053044298767241        0.0000000000000000     
  -9.2900244268964524E-002  0.19851604882939919        0.0000000000000000     
  -9.5325568574575789E-002  0.16754070758289055        0.0000000000000000     
  -9.6769887367149449E-002  0.17523254343361297        0.0000000000000000     
  -9.8131492468286299E-002  0.18301367310614391        0.0000000000000000     
  -9.9410383877986383E-002  0.19088409660048344        0.0000000000000000     
 -0.10060656159624966       0.19884381391663150        0.0000000000000000     
 -0.10284114526902913       0.16800568052540477        0.0000000000000000     
 -0.10437578873062225       0.17567135822904073        0.0000000000000000     
 -0.10582907510031481       0.18342598187107351        0.0000000000000000     
 -0.10720100437810670       0.19126955145150304        0.0000000000000000     
 -0.10849157656399799       0.19920206697032936        0.0000000000000000     
  -7.8023702535783918E-002  0.19795198255433105        0.0000000000000000     
  -7.8862663627482885E-002  0.20606786891848580        0.0000000000000000     
  -7.9628729981879240E-002  0.21425929122034570        0.0000000000000000     
  -8.0321901598973039E-002  0.22252624945991062        0.0000000000000000     
  -8.0942178478764226E-002  0.23086874363718074        0.0000000000000000     
  -8.5372624582142592E-002  0.19821877170863234        0.0000000000000000     
  -8.6304377162328791E-002  0.20631113928859804        0.0000000000000000     
  -8.7164478337388454E-002  0.21447838366711283        0.0000000000000000     
  -8.7952928107321526E-002  0.22272050484417677        0.0000000000000000     
  -8.8669726472128021E-002  0.23103750281978980        0.0000000000000000     
  -9.2900244268964524E-002  0.19851604882939919        0.0000000000000000     
  -9.3925028848892658E-002  0.20658429379927395        0.0000000000000000     
  -9.4877951081715081E-002  0.21472833979301578        0.0000000000000000     
  -9.5759010967431779E-002  0.22294818681062484        0.0000000000000000     
  -9.6568208506042724E-002  0.23124383485210098        0.0000000000000000     
 -0.10060656159624966       0.19884381391663150        0.0000000000000000     
 -0.10172461868717446       0.20688733245051347        0.0000000000000000     
 -0.10276914821485914       0.21500915959805458        0.0000000000000000     
 -0.10374015017930373       0.22320929535925485        0.0000000000000000     
 -0.10463762458050821       0.23148773973411430        0.0000000000000000     
 -0.10849157656399799       0.19920206697032936        0.0000000000000000     
 -0.10970314667717414       0.20722025524231666        0.0000000000000000     
 -0.11083806973682060       0.21532084308222912        0.0000000000000000     
 -0.11189634574293744       0.22350383049006686        0.0000000000000000     
 -0.11287797469552457       0.23176921746582976        0.0000000000000000     
  -8.0942178478764226E-002  0.23086874363718074        0.0000000000000000     
  -8.1478750419623866E-002  0.23930723325453407        0.0000000000000000     
  -8.1920807219923092E-002  0.24786217781434886        0.0000000000000000     
  -8.2268348879661835E-002  0.25653357731662513        0.0000000000000000     
  -8.2521375398840108E-002  0.26532143176136286        0.0000000000000000     
  -8.8669726472128021E-002  0.23103750281978980        0.0000000000000000     
  -8.9300229745398946E-002  0.23945448620650264        0.0000000000000000     
  -8.9829794240725236E-002  0.24799656361686617        0.0000000000000000     
  -9.0258419958106864E-002  0.25666373505088030        0.0000000000000000     
  -9.0586106897543900E-002  0.26545600050854501        0.0000000000000000     
  -9.6568208506042724E-002  0.23124383485210098        0.0000000000000000     
  -9.7296247882073583E-002  0.23964121308216813        0.0000000000000000     
  -9.7933833280050106E-002  0.24816625066555018        0.0000000000000000     
  -9.8480964699972279E-002  0.25681894760224716        0.0000000000000000     
  -9.8937642141840074E-002  0.26559930389225883        0.0000000000000000     
 -0.10463762458050821       0.23148773973411430        0.0000000000000000     
 -0.10546680482964782       0.23986741388153046        0.0000000000000000     
 -0.10623292433789773       0.24837123896040086        0.0000000000000000     
 -0.10693598310525797       0.25699921497072559        0.0000000000000000     
 -0.10757598113172855       0.26575134191250449        0.0000000000000000     
 -0.11287797469552457       0.23176921746582976        0.0000000000000000     
 -0.11381190058812163       0.24013308860458968        0.0000000000000000     
 -0.11472706741426809       0.24861152850141829        0.0000000000000000     
 -0.11562347517396401       0.25720453715631580        0.0000000000000000     
 -0.11650112386720937       0.26591211456928199        0.0000000000000000     
  -8.2521375398840108E-002  0.26532143176136286        0.0000000000000000     
  -8.2718885967009964E-002  0.27425219618611030        0.0000000000000000     
  -8.2899879773723345E-002  0.28335232562841567        0.0000000000000000     
  -8.3064356818980278E-002  0.29262182008827903        0.0000000000000000     
  -8.3212317102780792E-002  0.30206067956570026        0.0000000000000000     
  -9.0586106897543900E-002  0.26545600050854501        0.0000000000000000     
  -9.0843235548099782E-002  0.27443658259635162        0.0000000000000000     
  -9.1060186398837908E-002  0.28366870392079152        0.0000000000000000     
  -9.1236959449758334E-002  0.29315236448186466        0.0000000000000000     
  -9.1373554700861032E-002  0.30288756427957103        0.0000000000000000     
  -9.8937642141840074E-002  0.26559930389225883        0.0000000000000000     
  -9.9314907341638836E-002  0.27460585666886922        0.0000000000000000     
  -9.9623802035353939E-002  0.28393714306536177        0.0000000000000000     
  -9.9864326222985383E-002  0.29359316308173655        0.0000000000000000     
 -0.10003647990453320       0.30357391671799361        0.0000000000000000     
 -0.10757598113172855       0.26575134191250449        0.0000000000000000     
 -0.10813390134762713       0.27476001840366304        0.0000000000000000     
 -0.10859072668327145       0.28415764306212654        0.0000000000000000     
 -0.10894645713866151       0.29394421588789477        0.0000000000000000     
 -0.10920109271379727       0.30411973688096783        0.0000000000000000     
 -0.11650112386720937       0.26591211456928199        0.0000000000000000     
 -0.11730021756606467       0.27489906780073314        0.0000000000000000     
 -0.11796096034259042       0.28433020391108554        0.0000000000000000     
 -0.11848335219678661       0.29420552290033919        0.0000000000000000     
 -0.11886739312865327       0.30452502476849397        0.0000000000000000     
 </DataArray>
 <DataArray  type="Float64" Name="stress" NumberOfComponents="3" format="ascii">
   7031602065.0190611        370643234.32637239        238962234.67828688     
   6479193346.9673977        238587429.90213323        777538.11340222415     
   5928463765.0516539        112128745.93093872       -133471465.86676009     
   5379413319.2718086       -8732817.5872528553       -163784777.26221094     
   4832042009.6278763       -123997260.65239835       -90162396.072945848     
   5943582807.7759056        130543069.17080259        313941384.12792569     
   5646047021.8422012        86100227.257350206        156836344.22761473     
   5348431452.8580046        41391441.842240572        71633337.407768399     
   5050736100.8233156       -3583287.0745050907        58332363.668379001     
   4752960965.7381334       -48823959.492904902        116933423.00944525     
   5130316494.6762114       -27131212.741725922        394235447.79861790     
   4996128899.4197359       -11418514.576620817        316157992.17875457     
   4860102601.9263525       -1834823.8678479195        277948910.13510197     
   4722237602.1960793        1619859.3846199512        279608201.66763610     
   4582533900.2289085       -1054464.8192391396        321135866.77637202     
   4591803125.7200127       -102379611.41120887        479844425.69038463     
   4529438979.7000065       -53968795.599772692        478742481.96683282     
   4463477212.2567005       -17550051.199334860        485475252.31521827     
   4393917823.3901014        6876621.7901229858        500042736.73554903     
   4320760813.1001997        19311223.368586302        522444935.22781181     
   4328042700.9072828       -95202126.837647915        570768317.80320990     
   4245977262.6830096       -41550615.812113762        644589813.59183669     
   4158555283.8490405       -5754240.1522262096        694212363.94813383     
   4065776764.4053674        12187000.141990662        719635968.87211823     
   3967641704.3520041        12273105.070555449        720860628.36377990     
   4832042009.6278763       -123997260.65239835       -90162396.072945848     
   4770804337.6792879       -89993543.081947565       -23256388.072789848     
   4710147795.0851450       -54052727.663329601        19086510.137479477     
   4650072381.8454313       -16174814.396620989        36866298.557876214     
   4590578097.9601688        23640196.718253851        30082977.188378584     
   4752960965.7381334       -48823959.492904902        116933423.00944525     
   4632207599.1011267       -39300402.221306324        157388524.14456683     
   4512627003.9688292       -25867606.600666523        182274699.22436836     
   4394219180.3412266       -8525572.6310603619        191591948.24885148     
   4276984128.2183290        12725699.687574148        185340271.21801907     
   4582533900.2289085       -1054464.8192391396        321135866.77637202     
   4427962506.7165298       -8301767.5025842190        335830310.22175616     
   4275155526.8591194       -9667691.3360273838        343950011.34639114     
   4124112960.6566672       -5152236.3196060658        345494970.15027678     
   3974834808.1091909        5244597.5467183590        340465186.63340706     
   4320760813.1001997        19311223.368586302        522444935.22781181     
   4158069060.5254951        3002361.0742070675        512068970.15877599     
   3997733363.7560158       -5452981.8694062233        504112446.50355548     
   3839753722.7917657       -6054805.4622542858        498575364.26215249     
   3684130137.6327524        1196890.2956724167        495457723.43455797     
   3967641704.3520041        12273105.070555449        720860628.36377990     
   3822527260.5280104       -5388016.4909529686        686104503.95562780     
   3680360514.6595154       -13223478.200805426        662762004.69585896     
   3541141466.7465162       -11233280.059009314        650833130.58447027     
   3404870116.7890096        582577.93443179131        650317881.62146032     
   4590578097.9601688        23640196.718253851        30082977.188378584     
   4387225055.7045488        20487109.636078596        17936261.027997099     
   4183415848.4774070        15813472.648858786        11346651.172891362     
   3979150476.2787509        9619285.7565739155        10314147.623060087     
   3774428939.1085773        1904548.9592354298        14838750.378507117     
   4276984128.2183290        12725699.687574148        185340271.21801907     
   4088596905.5259604        13283783.511253595        176270682.78218096     
   3899467106.4997983        11366612.888947248        172299732.88069427     
   3709594731.1398516        6974187.8206951618        173427421.51353565     
   3518979779.4461126        106508.30646944046        179653748.68072525     
   3974834808.1091909        5244597.5467183590        340465186.63340706     
   3800103497.0631204        9120879.9011366367        334138579.33280849     
   3624343198.3209772        9567203.2686717510        332452142.79561335     
   3447553911.8827763        6583567.6493434906        335405877.02182347     
   3269735637.7485199        169973.04315805435        342999782.01144344     
   3684130137.6327524        1196890.2956724167        495457723.43455797     
   3521744830.3160114        7998398.8057374954        491539950.67986959     
   3358044123.9409451        10415243.788033485        491803880.91765684     
   3193028018.5075445        8447425.2425614595        496249514.14791989     
   3026696514.0158129        2094943.1693091393        504876850.37064064     
   3404870116.7890096        582577.93443179131        650317881.62146032     
   3253520905.2846603        9916340.2250772715        648474796.82337534     
   3100569883.3597021        13910734.447029829        650354947.24682152     
   2946017051.0141435        12565760.600303411        655958332.89181292     
   2789862408.2479811        5881418.6849197149        665284953.75834048     
   3774428939.1085773        1904548.9592354298        14838750.378507117     
   3585337313.7816210       -2210020.3934133053       -654416.29162588960     
   3395983959.2888489       -7197020.2987453938       -7107455.8772549629     
   3206368875.6302619       -13056450.756800652       -4520368.3783538407     
   3016492062.8058829       -19788311.767519116        7106846.2050524959     
   3518979779.4461126        106508.30646944046        179653748.68072525     
   3352074259.2683749       -785186.71791219711        165296704.58195072     
   3185161747.3156595       -1700187.6588954926        158222027.89922369     
   3018242243.5879760       -2638494.5164332390        158429718.63256338     
   2851315748.0853128       -3600107.2905704975        165919776.78194544     
   3269735637.7485199        169973.04315805435        342999782.01144344     
   3119994052.2387004        994501.20263743401        330076054.10666198     
   2970500212.3447380        2644848.0816615820        322676933.94946641     
   2821254118.0666299        5121013.6801961660        320802421.53987700     
   2672255769.4043884        8422997.9982717037        324452516.87788439     
   3026696514.0158129        2094943.1693091393        504876850.37064064     
   2889096692.6926050        3129043.3682856560        493683632.28248733     
   2751999354.3760810        5838086.9228978157        486257262.27347273     
   2615404499.0662508        10222073.833145618        482597740.34359723     
   2479312126.7631135        16281004.099035501        482705066.49287087     
   2789862408.2479811        5881418.6849197149        665284953.75834048     
   2659382180.6300750        5618439.7790031433        656119439.10945129     
   2529659173.4096870        7879528.8648123741        648963012.87124860     
   2400693386.5868263        12664685.942376256        643815675.04372883     
   2272484820.1614833        19973911.011672497        640677425.62688994     
   3016492062.8058829       -19788311.767519116        7106846.2050524959     
   2862261644.0715928       -15704803.116235137        8925856.5131038297     
   2708373032.3723445       -10481937.681478500        8740785.7267539892     
   2554826227.7081242       -4119715.4632960558        6551633.8459991310     
   2401621230.0789495        3381863.5383716822        2358400.8708405364     
   2851315748.0853128       -3600107.2905704975        165919776.78194544     
   2693083015.5846601       -1706580.7502700090        163895394.57107690     
   2535020138.8681097        753131.73703944683        161301771.04456112     
   2377127117.9356494        3779030.1713150740        158138906.20239109     
   2219403952.7873058        7371114.5526355505        154406800.04456231     
   2672255769.4043884        8422997.9982717037        324452516.87788439     
   2514120265.3623767        9356405.0951064825        318384132.35533369     
   2355982665.8535204        10282827.302449465        313181346.29588658     
   2197842970.8778300        11202264.620348930        308844158.69953567     
   2039701180.4352973        12114717.048776746        305372569.56628120     
   2479312126.7631135        16281004.099035501        482705066.49287087     
   2325373393.4047318        17484154.419852853        472392069.86588424     
   2171260613.3285775        18107149.014754176        464379511.48073894     
   2016973786.5346482        18149987.883747816        458667391.33744526     
   1862512913.0229483        17612671.026828885        455255709.43600333     
   2272484820.1614833        19973911.011672497        640677425.62688994     
   2126842399.7117367        22676667.224010706        625919207.10269737     
   1980853981.2932820        24226096.873956323        614896266.59910929     
   1834519564.9061155        24622199.961552262        607608604.11612105     
   1687839150.5502360        23864976.486758888        604056219.65373087     
   2401621230.0789495        3381863.5383716822        2358400.8708405364     
   2255826124.5512214        8917530.0218198299       -6302114.0840660362     
   2106927312.9893312        4107509.7247503996       -11970690.843656249     
   1954924795.3933005       -11048197.352797627       -14647329.407921137     
   1799818571.7631319       -36549591.210807920       -14332029.776846606     
   2219403952.7873058        7371114.5526355505        154406800.04456231     
   2080119933.7505045        13589197.505557775        143032775.23753333     
   1938750182.9327946        12854841.188795090        133517859.58139546     
   1795294700.3341866        5168045.6023508310        125862053.07616279     
   1649753485.9546692       -9471189.2537919283        120065355.72182375     
   2039701180.4352973        12114717.048776746        305372569.56628120     
   1903691593.4767861        18044220.147408485        292472671.53591704     
   1766614248.9906113        20414531.487160683        280299053.61200726     
   1628469146.9767594        19225651.067992330        268851715.79457891     
   1489256287.4352491        14477578.889956892        258130658.08360940     
   1862512913.0229483        17612671.026828885        455255709.43600333     
   1726541103.7300589        22282597.947349906        442017574.81107682     
   1590519511.1627505        26786580.619788885        428372891.24817216     
   1454448135.3210230        31124619.044147670        414321658.74732369     
   1318326976.2048435        35296713.220373333        399863877.30850810     
   1687839150.5502360        23864976.486758888        604056219.65373087     
   1548668464.5103412        26304330.905414164        591667485.06300175     
   1410465969.4492517        31970988.586764097        577739372.48989940     
   1273231665.3669636        40864949.530788958        562271881.93440914     
   1136965552.2634945        52986213.737526834        545265013.39653170     
   1799818571.7631319       -36549591.210807920       -14332029.776846606     
   1769761860.5582454       -17110399.144582272       -8272400.5287039867     
   1747704942.5501509        28994770.244260550       -41237284.602960810     
   1733647817.7388225        101765916.95565701       -113226681.99959400     
   1727590486.1242704        201203040.98966449       -224240592.71861127     
   1649753485.9546692       -9471189.2537919283        120065355.72182375     
   1527290026.9651508       -14058988.571657181        135815888.88246319     
   1408974789.1551340       -4819383.9578346610        125053512.00441383     
   1294807772.5246389        18247624.587719321        87778225.087659732     
   1184788977.0736794        55142037.065036476        23990028.132205341     
   1489256287.4352491        14477578.889956892        258130658.08360940     
   1310133518.6144402       -3412980.4260869026        279078594.46997553     
   1131307398.9558961       -20314709.201237798        286025224.10131425     
   952777928.45962000       -36227607.435496092        278970546.97763610     
   774545107.12561512       -51151675.128860235        257914563.09893000     
   1318326976.2048435        35296713.220373333        399863877.30850810     
   1118292335.5061436        14827625.292235732        421515716.23378497     
   914702771.95244789       -17491205.485883355        441677851.68772835     
   707558285.54377127       -61659779.113946855        460350283.67032051     
   496858876.28009188       -117678095.59200791        477533012.18159211     
   1136965552.2634945        52986213.737526834        545265013.39653170     
   951766477.64026880        40662828.583281815        563127254.17391777     
   759160908.14479816        3651127.1882257164        592011394.76365256     
   559148843.77707934       -58048890.447656959        631917435.16573119     
   351730284.53711462       -144437224.32436511        682845375.38014436     
   1727590486.1242704        201203040.98966449       -224240592.71861127     
   1456927130.0463459        184654455.14401037       -96711712.866967767     
   1154129539.5360501        60991754.523807287        60036074.062912278     
   819197714.59336257       -169785060.87103403        246002768.07100835     
   452131655.21832961       -507675991.04038334        461188369.15729487     
   1184788977.0736794        55142037.065036476        23990028.132205341     
   977707019.61479294        11859872.586406112        155431887.22384641     
   732812470.63339651       -157464263.63393515        312732894.78259778     
   450105330.12951237       -452830371.59592974        495893050.80848247     
   129585598.10308766       -874238451.29965937        704912355.30148256     
   774545107.12561512       -51151675.128860235        257914563.09893000     
   621445237.96836734       -124047211.33565333        386644651.49206465     
   424854420.19848084       -341912576.25123632        537874129.74121535     
   184772653.81591374       -704747769.87574327        711602997.84638846     
  -98800061.179300368       -1212552792.2090793        907831255.80757511     
   496858876.28009188       -117678095.59200791        477533012.18159211     
   388141785.10706466       -223066796.62213922        596926579.93770838     
   230255388.23122787       -492353183.32831192        735459778.93875289     
   23199685.652582526       -925537255.71047997        893132609.18472171     
  -233025322.62882912       -1522619013.7686148        1069945070.6755905     
   351730284.53711462       -144437224.32436511        682845375.38014436     
   277796661.03085762       -285198883.27314967        786277672.56076968     
   149015374.73165333       -608786084.86508060        905489842.37519300     
  -34613574.360490203       -1115198829.1001482        1040481884.8234581     
  -273090186.24557132       -1804437115.9783409        1191253799.9055262     
   4328042700.9072828       -95202126.837647915        570768317.80320990     
   4245977262.6830096       -41550615.812113762        644589813.59183669     
   4158555283.8490405       -5754240.1522262096        694212363.94813383     
   4065776764.4053674        12187000.141990662        719635968.87211823     
   3967641704.3520041        12273105.070555449        720860628.36377990     
   4169705753.9122300       -7019037.7222623825        741287570.78843391     
   4027869007.2979293        10921617.173942327        781497499.40487945     
   3882509002.4184895        17118077.853039503        808169410.72192919     
   3733625739.2739215        11570344.315028906        821303304.73958373     
   3581219217.8642168       -5721583.4400928020        820899181.45785022     
   3914905525.3124313        52225066.911699295        903899153.83715749     
   3743757264.9735990        43592804.078217268        912636344.68341184     
   3570919028.7142091        29327288.176187754        918496446.36319959     
   3396390816.5342493        9428519.2056026459        921479458.87652326     
   3220172628.4337192       -16103502.833542585        921585382.22338355     
   3563642015.1078796        82530187.064234257        1058603066.9493693     
   3393642035.7100430        56462944.900726914        1038006349.4274334     
   3223785362.7361975        30873390.817214489        1025193470.8719528     
   3054071996.1863565        5761524.8137067556        1020164431.2829373     
   2884501936.0605116       -18872653.109816074        1022919230.6603826     
   3115915223.2985816        83896322.735347271        1205399310.1250801     
   2977523319.5072370        49532039.641459942        1157607513.6369350     
   2841108004.4844546        21756385.776122928        1128260484.2481854     
   2706669278.2302408        569361.13934433460        1117358221.9588244     
   2574207140.7445874       -14029034.268894672        1124900726.7688546     
   3967641704.3520041        12273105.070555449        720860628.36377990     
   3822527260.5280104       -5388016.4909529686        686104503.95562780     
   3680360514.6595154       -13223478.200805426        662762004.69585896     
   3541141466.7465162       -11233280.059009314        650833130.58447027     
   3404870116.7890096        582577.93443179131        650317881.62146032     
   3581219217.8642168       -5721583.4400928020        820899181.45785022     
   3465212607.8617134       -14019802.174130917        796759835.16884577     
   3351459191.6840677       -14807374.825313807        781436835.24934292     
   3239958969.3312755       -8084301.3936443329        774930181.69934356     
   3130711940.8033452        6149418.1208858490        777239874.51884818     
   3220172628.4337192       -16103502.833542585        921585382.22338355     
   3125853055.7416143       -17265057.693452954        907252559.23445308     
   3033092172.7437272       -13230980.239296198        899138803.83614206     
   2941889979.4400635       -4001270.4710712433        897244116.02845478     
   2852246475.8306165        10424071.611219168        901568495.81138730     
   2884501936.0605116       -18872653.109816074        1022919230.6603826     
   2804448604.1677208       -15123783.048914790        1017582676.1524502     
   2725259457.8385086       -8494294.4427374601        1015867910.4562556     
   2646934497.0728784        1015812.7087086439        1017774933.5717993     
   2569473721.8708339        13406538.405435443        1023303745.4990910     
   2574207140.7445874       -14029034.268894672        1124900726.7688546     
   2500999253.1400204       -7595978.2405154705        1127750185.9228354     
   2427961046.9684014       -597317.43564939499        1131624155.1096809     
   2355092522.2297249        6966948.1456991434        1136522634.3293824     
   2282393678.9239960        15096818.503538370        1142445623.5819507     
   3404870116.7890096        582577.93443179131        650317881.62146032     
   3253520905.2846603        9916340.2250772715        648474796.82337534     
   3100569883.3597021        13910734.447029829        650354947.24682152     
   2946017051.0141435        12565760.600303411        655958332.89181292     
   2789862408.2479811        5881418.6849197149        665284953.75834048     
   3130711940.8033452        6149418.1208858490        777239874.51884818     
   2988575925.5149860        12259740.362142205        772503222.79479718     
   2845336144.1522241        14690842.355381012        771874280.64213586     
   2700992596.7150555        13442724.100607157        775353048.06086195     
   2555545283.2034864        8515385.5978281498        782939525.05099285     
   2852246475.8306165        10424071.611219168        901568495.81138730     
   2720422154.9006944        13640503.245826125        894519328.89860308     
   2587992112.2425709        14837862.453077316        891962345.90706968     
   2454956347.8562384        14016149.232982516        893897546.83677793     
   2321314861.7417083        11175363.585546732        900324931.68773627     
   2569473721.8708339        13406538.405435443        1023303745.4990910     
   2449059593.4417920        14058628.876128197        1014523115.1348047     
   2328537787.6307397        14351794.740128040        1010619143.0416261     
   2207908304.4376817        14286035.997437716        1011591829.2195460     
   2087171143.8626170        13861352.648070574        1017441173.6685632     
   2282393678.9239960        15096818.503538370        1142445623.5819507     
   2174488241.1382685        13514117.253035545        1132514581.5034029     
   2066973170.3167357        13232639.216521144        1127844672.0458090     
   1959848466.4593906        14252384.393969297        1128435895.2091722     
   1853114129.5662446        16573352.785413384        1134288250.9934900     
   2789862408.2479811        5881418.6849197149        665284953.75834048     
   2659382180.6300750        5618439.7790031433        656119439.10945129     
   2529659173.4096870        7879528.8648123741        648963012.87124860     
   2400693386.5868263        12664685.942376256        643815675.04372883     
   2272484820.1614833        19973911.011672497        640677425.62688994     
   2555545283.2034864        8515385.5978281498        782939525.05099285     
   2431191691.7022533        9102965.6527572870        774826332.29617822     
   2307405691.7399940        11582517.504282475        769220565.30638802     
   2184187283.3167248        15954041.152426839        766122224.08161759     
   2061536466.4324358        22217536.597177029        765531308.62186909     
   2321314861.7417083        11175363.585546732        900324931.68773627     
   2204511727.3695307        13040648.905040979        893042827.15870214     
   2088086555.6777976        16165809.826005220        888766485.74903119     
   1972039346.6665087        20550846.348453164        887495907.45871425     
   1856370100.3356628        26195758.472380757        889231092.28776002     
   2087171143.8626170        13861352.648070574        1017441173.6685632     
   1979342287.6319025        17431489.535849690        1010768923.6970186     
   1871701765.2230842        21629405.829964638        1007600774.1991676     
   1764249576.6361756        26455101.530439258        1007936725.1750110     
   1656985721.8711708        31908576.637257099        1011776776.6245508     
   1853114129.5662446        16573352.785413384        1134288250.9934900     
   1755683372.4893763        22275487.545198917        1128004621.9111302     
   1658251320.3758650        27973305.516179621        1125723430.6568022     
   1560817973.2257221        33666806.698391140        1127444677.2305074     
   1463383331.0389500        39355991.091828048        1133168361.6322513     
   2272484820.1614833        19973911.011672497        640677425.62688994     
   2126842399.7117367        22676667.224010706        625919207.10269737     
   1980853981.2932820        24226096.873956323        614896266.59910929     
   1834519564.9061155        24622199.961552262        607608604.11612105     
   1687839150.5502360        23864976.486758888        604056219.65373087     
   2061536466.4324358        22217536.597177029        765531308.62186909     
   1925689757.7600298        25053960.404515386        752485237.22703600     
   1789626026.2732620        27166974.830631971        743208204.34917057     
   1653345271.9721336        28556579.875554502        737700209.98826349     
   1516847494.8566453        29222775.539276481        735961254.14433372     
   1856370100.3356628        26195758.472380757        889231092.28776002     
   1730415562.0016453        29194787.443008304        878047639.03569043     
   1604372976.0076120        31900324.213605165        870666984.79695141     
   1478242342.3535750        34312368.784183860        867089129.57155418     
   1352023661.0395279        36430921.154729486        867314073.35949266     
   1656985721.8711708        31908576.637257099        1011776776.6245508     
   1541019812.4365864        35099148.339506269        1002606412.5286584     
   1425094830.4963453        38426145.022896707        997272607.94246614     
   1309210776.0504494        41889566.687436283        995775362.86598027     
   1193367649.0988975        45489413.333128452        998114677.29920208     
   1463383331.0389500        39355991.091828048        1133168361.6322513     
   1357502509.0648520        42767043.094001710        1126161557.7059395     
   1251791589.7394562        46744437.258506477        1123025073.7857068     
   1146250573.0627530        51288173.585327089        1123758909.8715444     
   1040879459.0347507        56398252.074479222        1128363065.9634480     
   1687839150.5502360        23864976.486758888        604056219.65373087     
   1548668464.5103412        26304330.905414164        591667485.06300175     
   1410465969.4492517        31970988.586764097        577739372.48989940     
   1273231665.3669636        40864949.530788958        562271881.93440914     
   1136965552.2634945        52986213.737526834        545265013.39653170     
   1516847494.8566453        29222775.539276481        735961254.14433372     
   1375097003.1067805        28229468.881635308        727333665.55232489     
   1233508355.3156426        27775642.086405933        719053141.56803966     
   1092081551.4832263        27861295.153585553        711119682.19145930     
   950816591.60952318        28486428.083145380        703533287.42259359     
   1352023661.0395279        36430921.154729486        867314073.35949266     
   1213083199.5514250        33621904.212314665        861506892.57610369     
   1073498235.0019494        28664543.732010007        857933218.99051940     
   933268767.39111519        21558839.713843584        856593052.60275495     
   792394796.71891892        12304792.157784104        857486393.41280937     
   1193367649.0988975        45489413.333128452        998114677.29920208     
   1062627053.8442662        42481636.897444785        994187166.13431668     
   930435608.50818717        34637693.523612976        994379604.75735271     
   796793313.09065568        21957583.211603642        998691993.16831088     
   661700167.59167075        4441305.9614213109        1007124331.3671786     
   1040879459.0347507        56398252.074479222        1128363065.9634480     
   923728565.98531830        54808666.937061489        1125374486.2269838     
   804320475.83433557        45695091.461159170        1128392298.8685358     
   682655188.58183777        29057525.646865368        1137416503.8881059     
   558732704.22779155        4895969.4940758646        1152447101.2857013     
   1136965552.2634945        52986213.737526834        545265013.39653170     
   951766477.64026880        40662828.583281815        563127254.17391777     
   759160908.14479816        3651127.1882257164        592011394.76365256     
   559148843.77707934       -58048890.447656959        631917435.16573119     
   351730284.53711462       -144437224.32436511        682845375.38014436     
   950816591.60952318        28486428.083145380        703533287.42259359     
   791569139.28352439        10970809.359145284        721341459.95224309     
   623755884.37163568       -35097484.651169121        749288726.79890251     
   447376826.87385094       -109718453.94780570        787375087.96256280     
   262431966.79015058       -212892098.53080839        835600543.44324124     
   792394796.71891892        12304792.157784104        857486393.41280937     
   656576665.27490819       -11159750.560531110        873887972.02879286     
   511033423.53134876       -67041327.610695362        899545839.46643913     
   355765071.48822951       -155339938.99270582        934459995.72576535     
   190771609.14556566       -276055584.70655113        978630440.80675864     
   661700167.59167075        4441305.9614213109        1007124331.3671786     
   546789055.61440349       -25728851.175791591        1020766790.4035621     
   420993525.62392294       -92180401.690382868        1042782732.7662723     
   284313577.62024510       -194913345.58229810        1073172158.4553254     
   136749211.60335267       -333927682.85159570        1111935067.4707088     
   558732704.22779155        4895969.4940758646        1152447101.2857013     
   462206310.30202407       -32736492.486597776        1161977915.0765464     
   353636190.64938480       -110514706.89016077        1178999406.6983902     
   233022345.26988912       -228438673.71659273        1203511576.1512361     
   100364774.16353196       -386508392.96589589        1235514423.4350903     
   351730284.53711462       -144437224.32436511        682845375.38014436     
   277796661.03085762       -285198883.27314967        786277672.56076968     
   149015374.73165333       -608786084.86508060        905489842.37519300     
  -34613574.360490203       -1115198829.1001482        1040481884.8234581     
  -273090186.24557132       -1804437115.9783409        1191253799.9055262     
   262431966.79015058       -212892098.53080839        835600543.44324124     
   223711405.25892404       -352338241.27893198        884997202.00147986     
   140717225.83168021       -639363110.34710205        945397378.01422203     
   13449428.508444190       -1073966705.7352614        1016801071.4814998     
  -158091986.71080011       -1656149027.4434180        1099208282.4032633     
   190771609.14556566       -276055584.70655113        978630440.80675864     
   173617380.50562122       -418280229.97916496        986327846.45572102     
   122763578.86660776       -672836785.24866176        1000252414.3798804     
   38210204.228538573       -1039725250.5150204        1020404144.5792356     
  -80042743.408602655       -1518945625.7782805        1046783037.0538069     
   136749211.60335267       -333927682.85159570        1111935067.4707088     
   127514586.77095804       -483024849.37378615        1090269605.9234757     
   95154433.836432278       -709207109.56972814        1070054951.4721446     
   39668752.799782574       -1012474463.4394311        1051291104.1167127     
  -38942456.339006245       -1392826910.9829099        1033978063.8571528     
   100364774.16353196       -386508392.96589589        1235514423.4350903     
   85403024.054929227       -546572099.46282363        1196822480.4047732     
   57889790.741141528       -748474083.31037915        1154804989.2910454     
   17825074.222176433       -992214344.50852561        1109461950.0938959     
  -34791125.501988113       -1277792883.0573263        1060793362.8133179     
   3115915223.2985816        83896322.735347271        1205399310.1250801     
   2977523319.5072370        49532039.641459942        1157607513.6369350     
   2841108004.4844546        21756385.776122928        1128260484.2481854     
   2706669278.2302408        569361.13934433460        1117358221.9588244     
   2574207140.7445874       -14029034.268894672        1124900726.7688546     
   2630431554.0493751        22638062.853677869        1243681531.1309519     
   2538289019.2767272        6331256.8270072937        1214381266.4413183     
   2447703818.2787070       -4784436.6175894737        1198045562.2665520     
   2358675951.0553026       -10709017.480117559        1194674418.6066542     
   2271205417.6065192       -11442485.760579586        1204267835.4616263     
   2199719828.4398928       -22188613.936076045        1283817035.3813488     
   2138168929.5873225       -25135262.825116158        1272519171.6639512     
   2077756109.5154274       -24288315.778566837        1268705661.8769011     
   2018481368.2242119       -19647772.796422243        1272376506.0202014     
   1960344705.7136710       -11213633.878691912        1283531704.0938480     
   1823780046.4701531       -50583707.633904576        1325805822.8762670     
   1777163050.4390202       -44867519.314909220        1332021229.3048387     
   1731264878.1946268       -36755251.706796169        1340240783.0792396     
   1686085529.7369609       -26246904.809576511        1350464484.1994653     
   1641625005.0660317       -13342478.623241544        1362692332.6655245     
   1502612208.1401436       -62547218.239817262        1369647893.6157062     
   1455271381.8318243       -52865512.642370462        1392887439.3639777     
   1408230124.3162959       -42185244.402290344        1412650925.8735592     
   1361488435.5935583       -30506413.519570947        1428938353.1444492     
   1315046315.6636081       -17829019.994229734        1441749721.1766448     
   2574207140.7445874       -14029034.268894672        1124900726.7688546     
   2500999253.1400204       -7595978.2405154705        1127750185.9228354     
   2427961046.9684014       -597317.43564939499        1131624155.1096809     
   2355092522.2297249        6966948.1456991434        1136522634.3293824     
   2282393678.9239960        15096818.503538370        1142445623.5819507     
   2271205417.6065192       -11442485.760579586        1204267835.4616263     
   2201865076.0965481       -4646723.5426328182        1204782254.3273973     
   2132345536.8010271        1551712.7234870195        1207163497.1893246     
   2062646799.7199588        7152823.0377825499        1211411564.0474102     
   1992768864.8533447        12156607.400256515        1217526454.9016538     
   1960344705.7136710       -11213633.878691912        1283531704.0938480     
   1897278521.6219923       -3333182.0740716457        1281304056.9164996     
   1833684260.5262737        2787013.0504134893        1281785547.6986053     
   1769561922.4265153        7146951.4947625399        1284976176.4401608     
   1704911507.3227150        9746633.2589746714        1290875943.1411719     
   1641625005.0660317       -13342478.623241544        1362692332.6655245     
   1587239589.7163520       -3655353.8348394036        1357315593.6901436     
   1531977218.1441386        3108583.5451219082        1355490306.6375120     
   1475837890.3493888        6949333.5166310668        1357216471.5076346     
   1418821606.3321114        7866896.0797037482        1362494088.3004978     
   1315046315.6636081       -17829019.994229734        1441749721.1766448     
   1271748280.3796294       -5613238.8249285221        1432816864.6483274     
   1227224409.6546235        2516424.2076196074        1428277774.0060554     
   1181474703.4885898        6559969.1034043431        1428132449.2498286     
   1134499161.8815310        6517395.8624399900        1432380890.3796458     
   2282393678.9239960        15096818.503538370        1142445623.5819507     
   2174488241.1382685        13514117.253035545        1132514581.5034029     
   2066973170.3167357        13232639.216521144        1127844672.0458090     
   1959848466.4593906        14252384.393969297        1128435895.2091722     
   1853114129.5662446        16573352.785413384        1134288250.9934900     
   1992768864.8533447        12156607.400256515        1217526454.9016538     
   1898276349.3310559        10195739.508396864        1208649018.4791088     
   1804239771.3365459        9754663.3757933378        1204915351.1708758     
   1710659130.8698051        10833379.002423406        1206325452.9769583     
   1617534427.9308467        13431886.388328254        1212879323.8973539     
   1704911507.3227150        9746633.2589746714        1290875943.1411719     
   1623496589.7591789        7307001.4343566298        1283128611.3654723     
   1542603180.2870016        6605729.9142621756        1280407685.1974454     
   1462231278.9061778        7642818.6986814737        1282713164.6370897     
   1382380885.6167116        10418267.787623703        1290045049.6844058     
   1418821606.3321114        7866896.0797037482        1362494088.3004978     
   1350148962.4226401        4847903.0309239030        1355953360.1624920     
   1282063397.1681032        3785838.8319283724        1354321674.1255167     
   1214564910.5685062        4680703.4827279449        1357599030.1895700     
   1147653502.6238389        7532496.9832969904        1365785428.3546529     
   1134499161.8815310        6517395.8624399900        1432380890.3796458     
   1078233467.3214300        2818444.2980831861        1427123264.8701723     
   1022620421.9798429        1294990.1287735105        1426657317.9550881     
   967660025.85677898        1947033.3545388579        1430983049.6343939     
   913352278.95222950        4774573.9753527045        1440100459.9080861     
   1853114129.5662446        16573352.785413384        1134288250.9934900     
   1755683372.4893763        22275487.545198917        1128004621.9111302     
   1658251320.3758650        27973305.516179621        1125723430.6568022     
   1560817973.2257221        33666806.698391140        1127444677.2305074     
   1463383331.0389500        39355991.091828048        1133168361.6322513     
   1617534427.9308467        13431886.388328254        1212879323.8973539     
   1530780123.4881241        18649480.386425257        1206910225.2634907     
   1444036672.9879544        23903254.193029702        1205263161.7728705     
   1357304076.4303441        29193207.808170795        1207938133.4254863     
   1270582333.8152866        34519341.231813014        1214935140.2213452     
   1382380885.6167116        10418267.787623703        1290045049.6844058     
   1307216168.9944429        15425261.579927921        1284404655.3080990     
   1232074455.2939177        20508931.778048277        1283405893.3902388     
   1156955744.5151415        25669278.381996274        1287048763.9308250     
   1081860036.6581140        30906301.391768515        1295333266.9298601     
   1147653502.6238389        7532496.9832969904        1365785428.3546529     
   1084991509.0083306        12602831.125705302        1360487912.0449569     
   1022364667.2937527        17790338.271225333        1360151625.5089169     
   959772977.48011637        23095018.419878423        1364776568.7465246     
   897216439.56741595        28516871.571651459        1374362741.7577872     
   913352278.95222950        4774573.9753527045        1440100459.9080861     
   864106143.52977622        10182189.023733497        1435159995.4740613     
   814907308.98745787        15747473.672559083        1435500358.1288903     
   765755775.32526422        21470427.921804726        1441121547.8725817     
   716651542.54320455        27351051.771493703        1452023564.7051303     
   1463383331.0389500        39355991.091828048        1133168361.6322513     
   1357502509.0648520        42767043.094001710        1126161557.7059395     
   1251791589.7394562        46744437.258506477        1123025073.7857068     
   1146250573.0627530        51288173.585327089        1123758909.8715444     
   1040879459.0347507        56398252.074479222        1128363065.9634480     
   1270582333.8152866        34519341.231813014        1214935140.2213452     
   1175063937.6782959        37274213.255906582        1209665652.9885910     
   1079579347.8121703        40141772.849542201        1208648368.6963241     
   984128564.21690428        43122020.012710333        1211883287.3445458     
   888711586.89249337        46214954.745403320        1219370408.9332578     
   1081860036.6581140        30906301.391768515        1295333266.9298601     
   997795160.45655394        33332321.667252302        1291642317.2831779     
   913627994.14802277        35417374.919493765        1292585453.5114088     
   829358537.73252463        37161461.148507744        1298162675.6145470     
   744986791.21004915        38564580.354271263        1308373983.5925848     
   897216439.56741595        28516871.571651459        1374362741.7577872     
   825696177.39963150        30941368.328055620        1372091550.5897169     
   753937528.74703205        32571243.468411803        1374836328.2309701     
   681940493.60962737        33406496.992753148        1382597074.6815431     
   609705071.98742163        33447128.901084244        1395373789.9414461     
   716651542.54320455        27351051.771493703        1452023564.7051303     
   658766988.50751305        30101353.238273412        1451013352.9081950     
   600507951.60918164        31603378.496253639        1455400992.8549976     
   541874431.84822011        31857127.545467615        1465186484.5455396     
   482866429.22460711        30862600.385841161        1480369827.9798234     
   1040879459.0347507        56398252.074479222        1128363065.9634480     
   923728565.98531830        54808666.937061489        1125374486.2269838     
   804320475.83433557        45695091.461159170        1128392298.8685358     
   682655188.58183777        29057525.646865368        1137416503.8881059     
   558732704.22779155        4895969.4940758646        1152447101.2857013     
   888711586.89249337        46214954.745403320        1219370408.9332578     
   786890453.16736376        44036727.131257415        1216669647.4999111     
   682826777.72522843        34383360.460428387        1219890456.8172581     
   576520560.56608677        17254854.732905984        1229032836.8852940     
   467971801.68994153       -7348790.0512922704        1244096787.7040217     
   744986791.21004915        38564580.354271263        1308373983.5925848     
   658253069.30256653        35725006.011378884        1305978138.4109826     
   569291461.06261003        25459143.893585891        1309419042.3527484     
   478101966.49018264        7766994.0008811057        1318696695.4178724     
   384684585.58528829       -17351443.666708037        1333811097.6063612     
   609705071.98742163        33447128.901084244        1395373789.9414461     
   537816414.39093125        29873503.577459782        1393299958.9602087     
   463714525.84650791        18922441.760734096        1396978055.4750073     
   387399406.35413343        593943.45082914829        1406408079.4858375     
   308871055.91383332       -25111991.352157697        1421590030.9927065     
   482866429.22460711        30862600.385841161        1480369827.9798234     
   425580488.43245673        26482219.829492241        1478635109.1475790     
   366095972.07690942        14773254.061820090        1482567496.1840310     
   304412880.15793973       -4264296.9172628224        1492166989.0891900     
   240531212.67557740       -30630433.107654318        1507433587.8630478     
   558732704.22779155        4895969.4940758646        1152447101.2857013     
   462206310.30202407       -32736492.486597776        1161977915.0765464     
   353636190.64938480       -110514706.89016077        1178999406.6983902     
   233022345.26988912       -228438673.71659273        1203511576.1512361     
   100364774.16353196       -386508392.96589589        1235514423.4350903     
   467971801.68994153       -7348790.0512922704        1244096787.7040217     
   390433201.72751105       -41493689.549140990        1242688134.5882263     
   302712328.72092009       -109579499.19419956        1247589976.8864188     
   204809182.67015916       -211606218.98648751        1258802314.5986075     
   96723763.575236753       -347573848.92598557        1276325147.7247901     
   384684585.58528829       -17351443.666708037        1333811097.6063612     
   322761829.82333815       -49020365.610563859        1323634672.3803878     
   252518253.69991469       -108425355.42599890        1318588560.1514075     
   173953857.21502370       -195566413.11299014        1318672760.9194164     
   87068640.368662283       -310443538.67155224        1323887274.6844206     
   308871055.91383332       -25111991.352157697        1421590030.9927065     
   259192194.58949244       -55316520.670887768        1404817528.4530408     
   203053965.58637378       -107052275.58553974        1391995156.4933596     
   140456368.90447265       -180319256.09613109        1383122915.1136677     
   71399404.543811113       -275117462.20259869        1378200804.3139625     
   240531212.67557740       -30630433.107654318        1507433587.8630478     
   199724296.02597088       -60382154.730127737        1486236702.8061755     
   154319464.38028413       -105460259.67286849        1467809765.9122770     
   104316717.73851682       -165864747.93587923        1452152777.1813655     
   49716056.100678459       -241595619.51912963        1439265736.6134257     
   100364774.16353196       -386508392.96589589        1235514423.4350903     
   85403024.054929227       -546572099.46282363        1196822480.4047732     
   57889790.741141528       -748474083.31037915        1154804989.2910454     
   17825074.222176433       -992214344.50852561        1109461950.0938959     
  -34791125.501988113       -1277792883.0573263        1060793362.8133179     
   96723763.575236753       -347573848.92598557        1276325147.7247901     
   79778895.978251934       -488869118.38417852        1221978138.1131816     
   51475770.677272469       -668025246.85570073        1165100023.8157606     
   11814387.672269106       -885042234.34061944        1105690804.8325148     
  -39205253.036730289       -1139920080.8388779        1043750481.1634626     
   87068640.368662283       -310443538.67155224        1323887274.6844206     
   70410493.562167257       -432289419.60733241        1255277294.9095619     
   43587314.552839279       -588018741.21923351        1184930653.8464901     
   6599103.3406895101       -777631503.50720859        1112847351.4952035     
  -40554140.074293613       -1001127706.4712754        1039027387.8557109     
   71399404.543811113       -275117462.20259869        1378200804.3139625     
   57297816.806660041       -376833003.13233799        1296719950.7938969     
   34224422.367860258       -508454566.40090913        1214296879.3832181     
   2179221.2274195552       -669982152.00828791        1130931590.0819294     
  -38837786.614678711       -861415759.95451331        1046624082.8900286     
   49716056.100678459       -241595619.51912963        1439265736.6134257     
   40440865.711745203       -322499868.95913923        1346306105.7661955     
   23387094.122328311       -429332722.40076393        1253198700.4259589     
  -1445258.6675462425       -562094179.84391272        1159943520.5927160     
  -34056192.657883793       -720784241.28861034        1066540566.2664615     
   1502612208.1401436       -62547218.239817262        1369647893.6157062     
   1455271381.8318243       -52865512.642370462        1392887439.3639777     
   1408230124.3162959       -42185244.402290344        1412650925.8735592     
   1361488435.5935583       -30506413.519570947        1428938353.1444492     
   1315046315.6636081       -17829019.994229734        1441749721.1766448     
   1208723371.1057935        10506757.859248459        1435997815.6961131     
   1153550822.9258201        5761716.3376113176        1443928721.0067430     
   1098710642.2528021        2124566.5058237910        1452640533.4515035     
   1044202829.0867419       -404691.63610285521        1462133253.0303984     
   990027383.42763972       -1826058.0881720185        1472406879.7434204     
   863960953.69360960        68298659.844962478        1497683516.5172677     
   813119444.70719218        52775699.523800910        1490344046.5567799     
   762643101.94189823        38469959.939719379        1488042450.1032455     
   712531925.39772892        25381441.092717767        1490778727.1566672     
   662785915.07468069        13510142.982786864        1498552877.7170451     
   468324955.90359259        110828487.71732731        1554704996.0791569     
   433977247.17594302        88176436.916209176        1532133416.0140793     
   400027503.38358164        66850935.899388865        1518856675.8287811     
   366475724.52651262        46851984.666873306        1514874775.5232644     
   333321910.60473293        28179583.218654945        1520187715.0975246     
   21815377.735741980        138096241.47634208        1607062254.3817885     
   16124230.332068458        111963928.51482314        1569296829.3786507     
   10863846.577854306        87267494.384836823        1545083210.6281149     
   6034226.4730964564        64006939.086370125        1534421398.1301870     
   1635370.0177929923        42182262.619418733        1537311391.8848560     
   1315046315.6636081       -17829019.994229734        1441749721.1766448     
   1271748280.3796294       -5613238.8249285221        1432816864.6483274     
   1227224409.6546235        2516424.2076196074        1428277774.0060554     
   1181474703.4885898        6559969.1034043431        1428132449.2498286     
   1134499161.8815310        6517395.8624399900        1432380890.3796458     
   990027383.42763972       -1826058.0881720185        1472406879.7434204     
   956076340.63544440        2677112.7110359669        1461823414.8892331     
   921698787.29754400        5758581.6912291050        1455816011.5357833     
   886894723.41392076        7418348.8523455858        1454384669.6830657     
   851664148.98459113        7656414.1944400668        1457529389.3310800     
   662785915.07468069        13510142.982786864        1498552877.7170451     
   638702709.38766849        10456956.795933187        1487251350.2481952     
   614992318.05026066        8646485.1077608764        1480708179.8947623     
   591654741.06245148        8078727.9182499647        1478923366.6567552     
   568689978.42424572        8753685.2274185121        1481896910.5341678     
   333321910.60473293        28179583.218654945        1520187715.0975246     
   319627386.63630003        17726293.429757595        1509100670.7252052     
   307105001.91278023        11180134.457238480        1502954279.0829999     
   295754756.43417990        8541106.3011153340        1501748540.1708994     
   285576650.20049495        9809208.9613786191        1505483453.9889133     
   1635370.0177929923        42182262.619418733        1537311391.8848560     
  -1149627.6186692594        24485122.612481788        1527371376.3202708     
  -1963161.1148961298        13359529.739663126        1522554309.1004848     
  -805230.47089382913        8805484.0009415243        1522860190.2254987     
   2324164.3133353200        10822985.396309420        1528289019.6953075     
   1134499161.8815310        6517395.8624399900        1432380890.3796458     
   1078233467.3214300        2818444.2980831861        1427123264.8701723     
   1022620421.9798429        1294990.1287735105        1426657317.9550881     
   967660025.85677898        1947033.3545388579        1430983049.6343939     
   913352278.95222950        4774573.9753527045        1440100459.9080861     
   851664148.98459113        7656414.1944400668        1457529389.3310800     
   808691882.98037410        5468838.5056566596        1452959690.7670352     
   766078127.37346864        4476297.4745798409        1453475248.8341520     
   723822882.16387737        4678791.1012145281        1459076063.5324259     
   681926147.35159862        6076319.3855611682        1469762134.8618555     
   568689978.42424572        8753685.2274185121        1481896910.5341678     
   539849935.36668658        8329123.7314423025        1477671976.9574811     
   511074263.88523209        8119134.1558170915        1478825878.0487211     
   482362963.97989070        8123716.5005679727        1485358613.8078923     
   453716035.65065575        8342870.7656743228        1497270184.2349927     
   285576650.20049495        9809208.9613786191        1505483453.9889133     
   271707624.48036242        11399299.975426137        1501260123.4415052     
   257608831.51513800        12223500.172502294        1502709205.5988042     
   243280271.30481571        12281809.552583292        1509830700.4608016     
   228721943.84940219        11574228.115695141        1522624608.0274978     
   2324164.3133353200        10822985.396309420        1528289019.6953075     
   4264950.3214123826        14679367.237642169        1523724130.2191164     
   5681830.2631825730        16789395.524620760        1525125231.4843972     
   6574804.1386608509        17153070.257290900        1532492323.4911480     
   6943871.9478369243        15770391.435622431        1545825406.2393718     
   913352278.95222950        4774573.9753527045        1440100459.9080861     
   864106143.52977622        10182189.023733497        1435159995.4740613     
   814907308.98745787        15747473.672559083        1435500358.1288903     
   765755775.32526422        21470427.921804726        1441121547.8725817     
   716651542.54320455        27351051.771493703        1452023564.7051303     
   681926147.35159862        6076319.3855611682        1469762134.8618555     
   645579065.90761459        9727445.0421475768        1465875181.4795167     
   609261628.81033695        13477385.187753975        1467035093.9283195     
   572973836.05976582        17326139.822382897        1473241872.2082732     
   536715687.65589237        21273708.946004212        1484495516.3193729     
   453716035.65065575        8342870.7656743228        1497270184.2349927     
   429599547.44881630        10036968.809565693        1494416142.6153431     
   405495047.06025839        11771026.231061965        1496375005.5691252     
   381402534.48497653        13545043.030143946        1503146773.0963442     
   357322009.72297591        15359019.206830114        1514731445.1969893     
   228721943.84940219        11574228.115695141        1522624608.0274978     
   216167588.15338236        11110760.325988956        1520782878.8815429     
   203607563.73721972        10628396.802471735        1523520093.0513070     
   191041870.60090899        10127137.545129776        1530836250.5367935     
   178470508.74445614        9606982.5539766625        1542731351.3379972     
   6943871.9478369243        15770391.435622431        1545825406.2393718     
   5283188.0213169269        12948819.591432760        1544975390.2781143     
   3599178.8412261326        10049496.902005013        1548470356.3748660     
   1891844.4075638764        7072423.3673414933        1556310304.5296195     
   161184.72033160063        4017598.9874417982        1568495234.7423875     
   716651542.54320455        27351051.771493703        1452023564.7051303     
   658766988.50751305        30101353.238273412        1451013352.9081950     
   600507951.60918164        31603378.496253639        1455400992.8549976     
   541874431.84822011        31857127.545467615        1465186484.5455396     
   482866429.22460711        30862600.385841161        1480369827.9798234     
   536715687.65589237        21273708.946004212        1484495516.3193729     
   492606542.76009029        22579843.367532462        1483396290.5709820     
   448279092.58053792        23158293.509890273        1487828950.9661326     
   403733337.11723828        23009059.373091921        1497793497.5048244     
   358969276.37019628        22132140.957152158        1513289930.1870539     
   357322009.72297591        15359019.206830114        1514731445.1969893     
   327371229.39507169        15335873.211516038        1513725412.6725199     
   297358321.36230397        15105634.866655663        1518385300.6913939     
   267283285.62468356        14668304.172287419        1528711109.2536075     
   237146122.18220204        14023881.128381483        1544702838.3591688     
   178470508.74445614        9606982.5539766625        1542731351.3379972     
   163061048.41245374        8369442.7702181712        1542000719.2128153     
   147745637.95447966        7445402.5665510520        1547070042.0307782     
   132524277.37053928        6834861.9429978430        1557939319.7918913     
   117396966.66062760        6537820.8995400667        1574608552.4961452     
   161184.72033160063        4017598.9874417982        1568495234.7423875     
  -324000.18776584871        1680552.0436298072        1568222210.1918697     
  -558957.64294247807        177596.60955041434        1573883174.9842970     
  -543687.64519643411       -491267.31478500017        1585478129.1196737     
  -278190.19452687073       -326039.72937534965        1603007072.5979967     
   482866429.22460711        30862600.385841161        1480369827.9798234     
   425580488.43245673        26482219.829492241        1478635109.1475790     
   366095972.07690942        14773254.061820090        1482567496.1840310     
   304412880.15793973       -4264296.9172628224        1492166989.0891900     
   240531212.67557740       -30630433.107654318        1507433587.8630478     
   358969276.37019628        22132140.957152158        1513289930.1870539     
   316648232.46586227        19135152.445928246        1509957656.6355214     
   272664411.33005172        10595573.163116857        1512150492.0416565     
   227017812.96276960       -3486596.8912646323        1519868436.4054487     
   179708437.36402202       -23111357.717201933        1533111489.7269092     
   237146122.18220204        14023881.128381483        1544702838.3591688     
   209384269.70556381        12288573.024231412        1540398108.1422722     
   180495438.32939029        6796668.5882991850        1541476489.9719989     
   150479628.05367678       -2451832.1794365942        1547937983.8483512     
   119336838.87842926       -15456929.278947458        1559782589.7713234     
   117396966.66062760        6537820.8995400667        1574608552.4961452     
   103788600.15157641        5942481.5644487068        1569956463.6678095     
   89589053.074911907        3376540.3373130858        1570545489.9750631     
   74798325.430656567       -1160002.7817901075        1576375631.4178991     
   59416417.218793646       -7667147.7929225042        1587446887.9963207     
  -278190.19452687073       -326039.72937534965        1603007072.5979967     
  -138776.19611088070        96878.066542714456        1598632723.2121575     
  -54744.433370384490        335188.41020913253        1599357492.0508509     
  -26094.906288637256        388891.30167972075        1605181379.1140935     
  -52827.614878540742        257986.74091147323        1616104384.4018764     
   240531212.67557740       -30630433.107654318        1507433587.8630478     
   199724296.02597088       -60382154.730127737        1486236702.8061755     
   154319464.38028413       -105460259.67286849        1467809765.9122770     
   104316717.73851682       -165864747.93587923        1452152777.1813655     
   49716056.100678459       -241595619.51912963        1439265736.6134257     
   179708437.36402202       -23111357.717201933        1533111489.7269092     
   148457731.26570272       -45661812.711422466        1507456764.5248837     
   113764333.15596265       -79687907.743706495        1484721191.5928109     
   75628243.034777030       -125189642.81414393        1464904770.9306860     
   34049460.902172878       -182167017.92264587        1448007502.5385098     
   119336838.87842926       -15456929.278947458        1559782589.7713234     
   98068640.779873282       -30678228.410375595        1531017784.5729201     
   74512973.654541373       -53524424.297722742        1505321335.7514250     
   48669837.502428859       -83995516.941004872        1482693243.3068488     
   20539232.323540844       -122091506.34020673        1463133507.2391906     
   59416417.218793646       -7667147.7929225042        1587446887.9963207     
   48557024.568484083       -15431401.826994989        1556919762.9502800     
   36565385.876045451       -26969809.334830560        1529610198.3881323     
   23441501.141475394       -42282370.316440552        1505518194.3098629     
   9185370.3647830673       -61369084.771788687        1484643750.7154801     
  -52827.614878540742        257986.74091147323        1616104384.4018764     
  -77117.368472913528        78667.038701957907        1585162699.6569748     
  -78430.179540003650       -24062.855081894089        1557587779.5029216     
  -56766.048087314259       -50202.940466481050        1533379623.9397230     
  -12124.974110270272        246.78256205955904        1512538232.9673753     
   49716056.100678459       -241595619.51912963        1439265736.6134257     
   40440865.711745203       -322499868.95913923        1346306105.7661955     
   23387094.122328311       -429332722.40076393        1253198700.4259589     
  -1445258.6675462425       -562094179.84391272        1159943520.5927160     
  -34056192.657883793       -720784241.28861034        1066540566.2664615     
   34049460.902172878       -182167017.92264587        1448007502.5385098     
   29870662.250914335       -241997470.24155879        1347536944.4024515     
   19855606.871650368       -321282111.65382028        1246271278.1450527     
   4004294.7643911242       -420020942.15939665        1144210503.7663200     
  -17683274.070873886       -538213961.75833666        1041354621.2662337     
   20539232.323540844       -122091506.34020673        1463133507.2391906     
   19607300.757572472       -161403018.93371159        1357418067.0321946     
   14781436.936065927       -213694305.71234858        1250260185.0755212     
   6061640.8590301722       -278965366.67608672        1141659861.3691664     
  -6552087.4735509604       -357216201.82496917        1031617095.9131262     
   9185370.3647830673       -61369084.771788687        1484643750.7154801     
   9650781.2317105532       -80716515.035630435        1375949473.6554146     
   8164584.3155790493       -106569304.57633428        1265165421.2173400     
   4726779.6163676903       -138927453.39397228        1152291593.4012392     
  -662632.86591094732       -177790961.48849982        1037327990.2071315     
  -12124.974110270272        246.78256205955904        1512538232.9673753     
   1103.6733330363168        62041.452702703638        1403131164.2721190     
   5049.0101762962622        92891.754178607240        1290986986.5705073     
  -288.96358616354337        92797.686968084454        1176105699.8625641     
  -14910.247960473735        61759.251049312043        1058487304.1482470     
   21815377.735741980        138096241.47634208        1607062254.3817885     
   16124230.332068458        111963928.51482314        1569296829.3786507     
   10863846.577854306        87267494.384836823        1545083210.6281149     
   6034226.4730964564        64006939.086370125        1534421398.1301870     
   1635370.0177929923        42182262.619418733        1537311391.8848560     
  -461217539.16262650        32691307.422510475        1529818777.9387963     
  -430872514.18417144        28934733.496410280        1510305952.7110329     
  -400617959.47227001        24876592.015128225        1499797821.7472076     
  -370453875.02692401        20516882.978664562        1498294385.0473204     
  -340380260.84813118        15855606.387020826        1505795642.6113710     
  -886171452.35714614       -55289925.520163178        1457327388.1983852     
  -832782003.53560674       -40568284.972566992        1455459056.5106523     
  -780004258.89663041       -27885658.366848677        1458048307.0981920     
  -727838218.44022000       -17242045.703018457        1465095139.9610043     
  -676283882.16637516       -8637446.9810713530        1476599555.0990911     
  -1253046361.8478220       -125847457.35168529        1389588085.1605682     
  -1189604237.7222366       -96545126.892098188        1404756140.7775135     
  -1127295051.6952286       -71019256.761101484        1419834666.6810689     
  -1066118803.7667975       -49269846.958691776        1434823662.8712351     
  -1006075493.9369397       -31296897.484863937        1449723129.3480072     
  -1561842267.6346498       -178981288.07205313        1326600868.8253331     
  -1501339216.7440634       -138995792.26219159        1358197205.5116153     
  -1442490337.8680625       -104524203.16761839        1385156900.4958417     
  -1385295631.0066493       -75566520.788336575        1407479953.7780137     
  -1329755096.1598234       -52122745.124348879        1425166365.3581300     
   1635370.0177929923        42182262.619418733        1537311391.8848560     
  -1149627.6186692594        24485122.612481788        1527371376.3202708     
  -1963161.1148961298        13359529.739663126        1522554309.1004848     
  -805230.47089382913        8805484.0009415243        1522860190.2254987     
   2324164.3133353200        10822985.396309420        1528289019.6953075     
  -340380260.84813118        15855606.387020826        1505795642.6113710     
  -327727840.20681876        7387590.7266868353        1499493254.0244296     
  -314048936.77639735        2341184.3633799553        1497813056.3033013     
  -299343550.55686128        716387.29712380469        1500755049.4479842     
  -283611681.54821765        2513199.5278922319        1508319233.4584780     
  -676283882.16637516       -8637446.9810713530        1476599555.0990911     
  -649624778.90154135       -8305558.9910933375        1472832315.2468221     
  -622884174.19871509       -7701999.5411410928        1473186508.7813766     
  -596062068.05789471       -6826768.6312069595        1477662135.7027559     
  -569158460.47908485       -5679866.2613092363        1486259196.0109606     
  -1006075493.9369397       -31296897.484863937        1449723129.3480072     
  -966840443.70283151       -22594326.540838838        1447388559.9874392     
  -928468873.38185096       -16770021.973907709        1448674666.5347087     
  -890960782.97399712       -13823983.784065127        1453581448.9898136     
  -854316172.47927201       -13756211.971315026        1462108907.3527555     
  -1329755096.1598234       -52122745.124348879        1425166365.3581300     
  -1279374834.6106906       -35478711.922555029        1423161988.2462900     
  -1230803034.3258073       -24862882.934926450        1424277529.5632970     
  -1184039695.3051651       -20275258.161434412        1428512989.3091567     
  -1139084817.5487726       -21715837.602108181        1435868367.4838650     
   2324164.3133353200        10822985.396309420        1528289019.6953075     
   4264950.3214123826        14679367.237642169        1523724130.2191164     
   5681830.2631825730        16789395.524620760        1525125231.4843972     
   6574804.1386608509        17153070.257290900        1532492323.4911480     
   6943871.9478369243        15770391.435622431        1545825406.2393718     
  -283611681.54821765        2513199.5278922319        1508319233.4584780     
  -266910338.14651704        5549262.7404488176        1503156695.3391461     
  -250610153.14018014        7248131.3017944694        1503571745.6954627     
  -234711126.52920419        7609805.2119370699        1509564384.5274267     
  -219213258.31358737        6634284.4708825946        1521134611.8350420     
  -569158460.47908485       -5679866.2613092363        1486259196.0109606     
  -538806280.44325638       -3797037.9053841531        1480642214.8645837     
  -508732511.13185030       -2842245.2975332141        1480214419.9280303     
  -478937152.54486620       -2815488.4377556443        1484975811.2013023     
  -449420204.68230128       -3716767.3260441422        1494926388.6844037     
  -854316172.47927201       -13756211.971315026        1462108907.3527555     
  -811422876.56880248       -13359534.699849188        1456180688.7954290     
  -768685243.71182251       -13481734.273346871        1455053254.1821017     
  -726103273.90832269       -14122810.691780120        1458726603.5127800     
  -683676967.15830827       -15282763.955162138        1467200736.7874615     
  -1139084817.5487726       -21715837.602108181        1435868367.4838650     
  -1084760126.5231643       -23138227.642978907        1429772117.1316810     
  -1030468350.8800983       -24670335.625653446        1428088248.4576771     
  -976209490.61958122       -26312161.550158978        1430816761.4618547     
  -921983545.74160051       -28063705.416452408        1437957656.1442142     
   6943871.9478369243        15770391.435622431        1545825406.2393718     
   5283188.0213169269        12948819.591432760        1544975390.2781143     
   3599178.8412261326        10049496.902005013        1548470356.3748660     
   1891844.4075638764        7072423.3673414933        1556310304.5296195     
   161184.72033160063        4017598.9874417982        1568495234.7423875     
  -219213258.31358737        6634284.4708825946        1521134611.8350420     
  -209246501.73315257        3435599.7976650149        1519041328.5035248     
  -199250343.09248152        334921.99190483242        1521634274.1568177     
  -189224782.39157158       -2667748.9463944584        1528913448.7949176     
  -179169819.63042256       -5572413.0172292218        1540878852.4178309     
  -449420204.68230128       -3716767.3260441422        1494926388.6844037     
  -426851016.37547624       -7000067.4624639899        1491651353.1820679     
  -404199698.69460571       -10009603.018730313        1493403793.5913472     
  -381466251.63968110       -12745373.994819269        1500183709.9122446     
  -358650675.21071577       -15207380.390768617        1511991102.1447473     
  -683676967.15830827       -15282763.955162138        1467200736.7874615     
  -647530355.90565324       -18358182.188949823        1462805464.3137534     
  -611248887.96514201       -20984078.129884064        1463778914.6784666     
  -574832563.33676636       -23160451.777938485        1470121087.8815982     
  -538281382.02054095       -24887303.133157641        1481831983.9231420     
  -921983545.74160051       -28063705.416452408        1437957656.1442142     
  -871284520.32368147       -30638744.381790996        1432503661.8985815     
  -820397910.90409195       -32588503.341563612        1432759637.4181676     
  -769323717.48282790       -33912982.295752674        1438725582.7029757     
  -718061940.05990767       -34612181.244422376        1450401497.7530050     
   161184.72033160063        4017598.9874417982        1568495234.7423875     
  -324000.18776584871        1680552.0436298072        1568222210.1918697     
  -558957.64294247807        177596.60955041434        1573883174.9842970     
  -543687.64519643411       -491267.31478500017        1585478129.1196737     
  -278190.19452687073       -326039.72937534965        1603007072.5979967     
  -179169819.63042256       -5572413.0172292218        1540878852.4178309     
  -164074719.88837758       -6677634.9732244313        1540709027.7811904     
  -148819527.02815613       -7249213.2019654810        1546305780.8429806     
  -133404241.04976454       -7287147.7034719363        1557669111.6032081     
  -117828861.95320404       -6791438.4777493887        1574799020.0618677     
  -358650675.21071577       -15207380.390768617        1511991102.1447473     
  -328453609.80283999       -15224273.054208890        1511819320.6981058     
  -298186585.61154658       -15007969.772921070        1517246705.3053851     
  -267849602.63683850       -14558470.546920612        1528273255.9665878     
  -237442660.87871319       -13875775.376193002        1544898972.6817110     
  -538281382.02054095       -24887303.133157641        1481831983.9231420     
  -493460669.93117011       -23959362.199379444        1481553088.9426188     
  -448660133.39312327       -23098673.103352547        1486705948.3715067     
  -403879772.40642071       -22305235.845136762        1497290562.2098043     
  -359119586.97104424       -21579050.424676552        1513306930.4575100     
  -718061940.05990767       -34612181.244422376        1450401497.7530050     
  -659095900.27334845       -32882902.408674568        1449910332.5147276     
  -600240170.37287438       -31521323.193213016        1454683510.0413439     
  -541494750.35849488       -30527443.598064631        1464721030.3328595     
  -482859640.23020238       -29901263.623208195        1480022893.3892698     
  -278190.19452687073       -326039.72937534965        1603007072.5979967     
  -138776.19611088070        96878.066542714456        1598632723.2121575     
  -54744.433370384490        335188.41020913253        1599357492.0508509     
  -26094.906288637256        388891.30167972075        1605181379.1140935     
  -52827.614878540742        257986.74091147323        1616104384.4018764     
  -117828861.95320404       -6791438.4777493887        1574799020.0618677     
  -104068345.40088297       -5784296.9722119905        1570055351.0959682     
  -89771730.070176333       -2990159.5387205631        1570555514.2447672     
  -74939015.961088300        1590973.8227078021        1576299509.5082636     
  -59570203.073614538        7959103.1120885685        1587287336.8864686     
  -237442660.87871319       -13875775.376193002        1544898972.6817110     
  -209647573.51487651       -12160369.683709800        1540476045.3188012     
  -180724906.35861123       -6686364.6831339449        1541441663.9607594     
  -150674659.40991253        2546239.6255547330        1547795828.6075730     
  -119496832.66878411        15537443.242342249        1559538539.2592535     
  -359119586.97104424       -21579050.424676552        1513306930.4575100     
  -316876460.53809625       -19031340.067973822        1509894805.8806567     
  -272914273.29867506       -10753427.023028508        1512015941.1988244     
  -227233025.25277412        3254688.7101840228        1519670336.4120121     
  -179832716.40039682        22993007.131649680        1532857991.5202215     
  -482859640.23020238       -29901263.623208195        1480022893.3892698     
  -425755006.47055489       -26397208.125039488        1478311632.7815294     
  -366339830.89037585       -15191346.558430821        1482278345.9589674     
  -304614113.48966753        3716321.0766079128        1491923032.9215851     
  -240577854.26843879        30325794.780048311        1507245693.6693823     
  -52827.614878540742        257986.74091147323        1616104384.4018764     
  -77117.368472913528        78667.038701957907        1585162699.6569748     
  -78430.179540003650       -24062.855081894089        1557587779.5029216     
  -56766.048087314259       -50202.940466481050        1533379623.9397230     
  -12124.974110270272        246.78256205955904        1512538232.9673753     
  -59570203.073614538        7959103.1120885685        1587287336.8864686     
  -48712063.617681853        15540919.033517182        1556813626.4489522     
  -36697568.877578795        26977252.568850510        1529553219.5147693     
  -23526718.853309952        42268103.718068019        1505506116.0839138     
  -9199513.5448833257        61413472.481144838        1484672316.1563871     
  -119496832.66878411        15537443.242342249        1559538539.2592535     
  -98194724.253382668        30748856.712404825        1530855077.8610401     
  -74602882.212175384        53592715.601817235        1505231458.8786340     
  -48721306.545161091        84069019.910587743        1482667682.3120384     
  -20549997.252341703        122177769.63870871        1463163748.1612494     
  -179832716.40039682        22993007.131649680        1532857991.5202215     
  -148525099.27558887        45702480.075317554        1507287053.8932245     
  -113794370.18333292        79822326.243814856        1484622497.5945184     
  -75640529.123634398        125352545.63712060        1464864322.6240997     
  -34063576.096482642        182293138.25526780        1448012528.9819641     
  -240577854.26843879        30325794.780048311        1507245693.6693823     
  -199703188.68428558        60401789.122306436        1486109554.5455194     
  -154272032.79105052        105666084.49483943        1467726335.6624248     
  -104284386.58872049        166118680.89768839        1452096037.0200915     
  -49740250.077302486        241759578.33082986        1439218658.6185257     
  -12124.974110270272        246.78256205955904        1512538232.9673753     
   1103.6733330363168        62041.452702703638        1403131164.2721190     
   5049.0101762962622        92891.754178607240        1290986986.5705073     
  -288.96358616354337        92797.686968084454        1176105699.8625641     
  -14910.247960473735        61759.251049312043        1058487304.1482470     
  -9199513.5448833257        61413472.481144838        1484672316.1563871     
  -9654502.3926812857        80824969.239197552        1375960570.4458678     
  -8166427.0245230123        106713346.71710506        1265160450.5712221     
  -4735287.4404086471        139078604.91486901        1152271956.5324597     
   638916.35966003686        177920743.83247718        1037295088.3295758     
  -20549997.252341703        122177769.63870871        1463163748.1612494     
  -19619675.474721089        161495026.92086813        1357425064.2164412     
  -14793941.954573438        213796990.01145285        1250246740.9497464     
  -6072796.6919234395        279083658.91037893        1141628778.3611617     
   6543760.3132430464        357355033.61769384        1031571176.4506937     
  -34063576.096482642        182293138.25526780        1448012528.9819641     
  -29894415.572774753        242072214.49775612        1347524645.5838578     
  -19877495.779982805        321343821.63719296        1246245857.7060938     
  -4012816.7181309760        420107959.67349261        1144176165.3486819     
   17699621.612794757        538364628.60670769        1041315568.5115978     
  -49740250.077302486        241759578.33082986        1439218658.6185257     
  -40478722.686854795        322556531.96981633        1346259314.5481107     
  -23417088.500758231        429353841.59429824        1253157800.8402677     
   1444652.4809547067        562151507.20416808        1159914117.4950011     
   34106500.258304805        720949528.79949582        1066528264.5122923     
  -1561842267.6346498       -178981288.07205313        1326600868.8253331     
  -1501339216.7440634       -138995792.26219159        1358197205.5116153     
  -1442490337.8680625       -104524203.16761839        1385156900.4958417     
  -1385295631.0066493       -75566520.788336575        1407479953.7780137     
  -1329755096.1598234       -52122745.124348879        1425166365.3581300     
  -1830626872.0238321       -81002296.168506145        1317260885.2138078     
  -1780263276.1617467       -61108221.677883923        1325804884.5055101     
  -1731134958.5283399       -45331741.282852948        1335822426.5510175     
  -1683241919.1236155       -33672854.983429968        1347313511.3503256     
  -1636584157.9475694       -26131562.779606402        1360278138.9034321     
  -2169188382.0718770       -3956375.9626213312        1301119014.2743399     
  -2111506571.3644128        1083578.1709357500        1287099385.5883598     
  -2054641145.0997264        3402250.8285778761        1280663484.1120346     
  -1998592103.2778120        2999642.0103058815        1281811309.8453696     
  -1943359445.8986726       -124248.28387618065        1290542862.7883601     
  -2577526797.7787709        52156472.545608640        1278175256.0069373     
  -2495069102.3520603        47579607.284254313        1242080708.7601573     
  -2413008897.5822139        41677773.166679621        1219680073.1788964     
  -2331346183.4692378        34450970.192875385        1210973349.2631478     
  -2250080960.0131264        25899198.362849712        1215960537.0129106     
  -3055642119.1445265        87336249.356183767        1248429610.4115918     
  -2930950869.1246896        78379865.662084937        1190748854.0209122     
  -2806238215.9758101        69494825.731448531        1152872193.7515981     
  -2681504159.6978941        60681129.564273477        1134799629.6036582     
  -2556748700.2909350        51938777.160572648        1136531161.5770881     
  -1329755096.1598234       -52122745.124348879        1425166365.3581300     
  -1279374834.6106906       -35478711.922555029        1423161988.2462900     
  -1230803034.3258073       -24862882.934926450        1424277529.5632970     
  -1184039695.3051651       -20275258.161434412        1428512989.3091567     
  -1139084817.5487726       -21715837.602108181        1435868367.4838650     
  -1636584157.9475694       -26131562.779606402        1360278138.9034321     
  -1581284289.1059227       -19340634.217728257        1356581593.1051569     
  -1526953315.1839113       -15779355.387971699        1355823235.5584059     
  -1473591236.1815434       -15447726.290354431        1358003066.2631803     
  -1421198052.0988145       -18345746.924874663        1363121085.2194836     
  -1943359445.8986726       -124248.28387618065        1290542862.7883601     
  -1883659198.8425732       -3342193.0853168964        1286133642.3723524     
  -1824088280.3615084       -6991233.1368719339        1284480880.0305490     
  -1764646690.4554782       -11071368.438541532        1285584575.7629483     
  -1705334429.1244826       -15582598.990328908        1289444729.5695503     
  -2250080960.0131264        25899198.362849712        1215960537.0129106     
  -2186499563.8206453        12516611.474666119        1211818136.0478823     
  -2122207929.8585937        1501483.8183866739        1210250462.9797313     
  -2057206058.1269724       -7146184.6059964895        1211257517.8084593     
  -1991493948.6257772       -13426393.798469663        1214839300.5340657     
  -2556748700.2909350        51938777.160572648        1136531161.5770881     
  -2489805384.0401416        28235779.462217093        1133635074.1317408     
  -2421312263.6751690        9698795.4777957201        1133131984.4059496     
  -2351269339.1960235       -3672174.7927180529        1135021892.3997109     
  -2279676610.6027002       -11877131.349305391        1139304798.1130307     
  -1139084817.5487726       -21715837.602108181        1435868367.4838650     
  -1084760126.5231643       -23138227.642978907        1429772117.1316810     
  -1030468350.8800983       -24670335.625653446        1428088248.4576771     
  -976209490.61958122       -26312161.550158978        1430816761.4618547     
  -921983545.74160051       -28063705.416452408        1437957656.1442142     
  -1421198052.0988145       -18345746.924874663        1363121085.2194836     
  -1354706038.7770550       -18728745.788031220        1356350679.0561392     
  -1288375653.8325996       -19650505.908859670        1354287510.4014146     
  -1222206897.2654324       -21111027.287320435        1356931579.2553041     
  -1156199769.0755680       -23110309.923461914        1364282885.6178107     
  -1705334429.1244826       -15582598.990328908        1289444729.5695503     
  -1625832648.2767608       -14673473.106839776        1281850002.4345036     
  -1546621208.8010888       -14732151.796854794        1279257368.6385119     
  -1467700110.6974628       -15758635.060352206        1281666828.1815705     
  -1389069353.9658909       -17752922.897361338        1289078381.0636830     
  -1991493948.6257772       -13426393.798469663        1214839300.5340657     
  -1898139955.0222759       -10972409.599396944        1206270087.2667725     
  -1805205015.7855692       -9915273.2896410227        1202997823.1689682     
  -1712689130.9156709       -10254984.869238973        1205022508.2406533     
  -1620592300.4125693       -11991544.338172436        1212344142.4818280     
  -2279676610.6027002       -11877131.349305391        1139304798.1130307     
  -2171627959.0135932       -7625555.2656745911        1129610933.5529478     
  -2064127074.7860467       -5199870.3872388601        1125508873.9927864     
  -1957173957.9200475       -4600076.7139610052        1126998619.4325502     
  -1850768608.4156089       -5826174.2458919287        1134080169.8722398     
  -921983545.74160051       -28063705.416452408        1437957656.1442142     
  -871284520.32368147       -30638744.381790996        1432503661.8985815     
  -820397910.90409195       -32588503.341563612        1432759637.4181676     
  -769323717.48282790       -33912982.295752674        1438725582.7029757     
  -718061940.05990767       -34612181.244422376        1450401497.7530050     
  -1156199769.0755680       -23110309.923461914        1364282885.6178107     
  -1091351286.6845536       -25634033.482078195        1359162111.9633851     
  -1026457778.4543921       -28007670.910207152        1359203724.1984115     
  -961519244.38507152       -30231222.207803488        1364407722.3228936     
  -896535684.47659433       -32304687.374879539        1374774106.3368287     
  -1389069353.9658909       -17752922.897361338        1289078381.0636830     
  -1311635939.9611228       -20694688.657104433        1284124510.1441967     
  -1234300058.2797136       -23961562.161366165        1283785441.2384019     
  -1157061708.9216614       -27553543.410151184        1288061174.3462944     
  -1079920891.8869638       -31470632.403454781        1296951709.4678793     
  -1620592300.4125693       -11991544.338172436        1212344142.4818280     
  -1532138480.1533780       -15820709.906824887        1207390856.4410193     
  -1443924750.3800519       -20450177.095028996        1206504788.5381351     
  -1355951111.0925970       -25879945.902802765        1209685938.7731726     
  -1268217562.2910070       -32110016.330128968        1216934307.1461360     
  -1850768608.4156089       -5826174.2458919287        1134080169.8722398     
  -1752858907.2613173       -11012097.231240511        1128961150.8538496     
  -1655331854.7554073       -17473515.711195350        1127361766.0976124     
  -1558187450.8978806       -25210429.685760021        1129282015.6035361     
  -1461425695.6887283       -34222839.154906511        1134721899.3716209     
  -718061940.05990767       -34612181.244422376        1450401497.7530050     
  -659095900.27334845       -32882902.408674568        1449910332.5147276     
  -600240170.37287438       -31521323.193213016        1454683510.0413439     
  -541494750.35849488       -30527443.598064631        1464721030.3328595     
  -482859640.23020238       -29901263.623208195        1480022893.3892698     
  -896535684.47659433       -32304687.374879539        1374774106.3368287     
  -824801293.97269106       -32330804.502008617        1372330923.1516063     
  -753097358.63015151       -32458438.833674133        1374850296.8216429     
  -681423878.44896603       -32687590.369855464        1382332227.3469424     
  -609780853.42913425       -33018259.110554010        1394776714.7274990     
  -1079920891.8869638       -31470632.403454781        1296951709.4678793     
  -996280396.12181151       -33510819.130271018        1292649672.1812222     
  -912590500.79329181       -35386340.645854205        1293008405.8401892     
  -828851205.90140295       -37097196.950209409        1298027910.4447830     
  -745062511.44614589       -38643388.043333828        1307708185.9950042     
  -1268217562.2910070       -32110016.330128968        1216934307.1461360     
  -1173533206.7207098       -36422946.293472528        1210866579.6035647     
  -1078719596.8623126       -40305028.629808486        1209157837.0969839     
  -983776732.71582103       -43756263.339164197        1211808079.6263943     
  -888704614.28123188       -46776650.421534210        1218817307.1918004     
  -1461425695.6887283       -34222839.154906511        1134721899.3716209     
  -1356559725.7693818       -41067185.991593003        1126981645.4186459     
  -1251484646.8372138       -47214502.785540104        1123298590.5920274     
  -1146200458.8922155       -52664789.536720395        1123672734.8917677     
  -1040707161.9343921       -57418046.245150268        1128104078.3178623     
  -482859640.23020238       -29901263.623208195        1480022893.3892698     
  -425755006.47055489       -26397208.125039488        1478311632.7815294     
  -366339830.89037585       -15191346.558430821        1482278345.9589674     
  -304614113.48966753        3716321.0766079128        1491923032.9215851     
  -240577854.26843879        30325794.780048311        1507245693.6693823     
  -609780853.42913425       -33018259.110554010        1394776714.7274990     
  -537934622.89811075       -29886183.991420180        1392848049.7177827     
  -463815003.88275409       -19176147.257845566        1396666942.3729541     
  -387421996.38308400       -888148.90989267826        1406233392.6930087     
  -308755600.39908278        24977811.052500322        1421547400.6779630     
  -745062511.44614589       -38643388.043333828        1307708185.9950042     
  -658275873.05885911       -35823649.977763593        1305518771.0244110     
  -569252999.52345169       -25549794.751784354        1309146497.5984108     
  -477993890.83992332       -7821822.3654005826        1318591365.7170076     
  -384498547.00827402        17360267.181381494        1333853375.3802013     
  -888704614.28123188       -46776650.421534210        1218817307.1918004     
  -786778756.95280325       -44209606.084066629        1216323796.7014170     
  -682653817.81245708       -34312289.040201426        1219717011.6353421     
  -576329796.86019444       -17084699.289947808        1228996951.9935746     
  -467806694.09601665        7473163.1666839421        1244163617.7761142     
  -1040707161.9343921       -57418046.245150268        1128104078.3178623     
  -923443274.57994235       -55044052.310328096        1125263126.7487988     
  -804017458.74977314       -45463630.123113275        1128378484.4837458     
  -682429714.44389427       -28676779.683527380        1137450151.5227075     
  -558680041.66229331       -4683500.9915405214        1152478127.8656859     
  -240577854.26843879        30325794.780048311        1507245693.6693823     
  -199703188.68428558        60401789.122306436        1486109554.5455194     
  -154272032.79105052        105666084.49483943        1467726335.6624248     
  -104284386.58872049        166118680.89768839        1452096037.0200915     
  -49740250.077302486        241759578.33082986        1439218658.6185257     
  -308755600.39908278        24977811.052500322        1421547400.6779630     
  -259084933.96616405        55354678.666865081        1404771317.2299452     
  -202978012.16000372        107185730.85870451        1391939035.7466509     
  -140434834.98059633        180470967.62803769        1383050556.2280762     
  -71455402.427954197        275210388.97481525        1378105878.6742244     
  -384498547.00827402        17360267.181381494        1333853375.3802013     
  -322629360.51528126        49058763.831267118        1323630406.8495469     
  -252444153.58489427        108477328.60580090        1318542122.0075672     
  -173942926.21711731        195615961.50497335        1318588520.8542643     
  -87125678.411941260        310474662.52880329        1323769603.3896439     
  -467806694.09601665        7473163.1666839421        1244163617.7761142     
  -390336468.33164465        41514044.615487829        1242686823.4043255     
  -302670457.06573105        109540877.73610049        1247535594.4451694     
  -204808660.29826778        211553662.52854356        1258709930.8986499     
  -96751078.029263750        347552398.99278903        1276209832.7647610     
  -558680041.66229331       -4683500.9915405214        1152478127.8656859     
  -462206257.41525120        32720521.019538909        1161940566.8942816     
  -353656922.60250372        110376378.24963094        1178919453.0594614     
  -233032037.22406405        228284070.69869959        1203414786.3612332     
  -100331601.27992049        386443598.36678123        1235426566.7995930     
  -49740250.077302486        241759578.33082986        1439218658.6185257     
  -40478722.686854795        322556531.96981633        1346259314.5481107     
  -23417088.500758231        429353841.59429824        1253157800.8402677     
   1444652.4809547067        562151507.20416808        1159914117.4950011     
   34106500.258304805        720949528.79949582        1066528264.5122923     
  -71455402.427954197        275210388.97481525        1378105878.6742244     
  -57341738.234229386        376876810.26251405        1296653078.2572155     
  -34244507.139943719        508488454.55207545        1214258829.4073663     
  -2163709.1451131701        670045321.84345341        1130923132.1246877     
   38900655.750271976        861547412.13669133        1046645986.4091816     
  -87125678.411941260        310474662.52880329        1323769603.3896439     
  -70443531.116093874        432325455.35486817        1255204050.0817776     
  -43594356.814777702        588066338.19917071        1184897769.5456703     
  -6578155.5079893172        777697311.06170273        1112850761.7813160     
   40605072.804275393        1001218373.9424975        1039063026.7887515     
  -96751078.029263750        347552398.99278903        1276209832.7647610     
  -79784101.332465291        488902467.24684197        1221912230.0217774     
  -51466637.525264472        668087492.53556383        1165074621.2551582     
  -11798686.607681394        885107474.85890412        1105697006.4648960     
   39219751.420309246        1139962414.2169197        1043779385.6509821     
  -100331601.27992049        386443598.36678123        1235426566.7995930     
  -85363448.883319497        546607845.93849742        1196777618.0772486     
  -57861349.271403402        748551917.56126952        1154789384.5358486     
  -17825302.444176495        992275813.23506653        1109461866.1754091     
   34744691.598367095        1277779532.9599357        1060795062.9959074     
  -3055642119.1445265        87336249.356183767        1248429610.4115918     
  -2930950869.1246896        78379865.662084937        1190748854.0209122     
  -2806238215.9758101        69494825.731448531        1152872193.7515981     
  -2681504159.6978941        60681129.564273477        1134799629.6036582     
  -2556748700.2909350        51938777.160572648        1136531161.5770881     
  -3549593899.1063957        7670425.2542150021        1072515122.3047582     
  -3383675647.6705608        13611850.218393564        1048225790.7528440     
  -3217238622.5464101        21282520.810301185        1032407485.2476413     
  -3050282823.7339382        30682437.029936075        1025060205.7891545     
  -2882808251.2331538        41811598.877294540        1026183952.3773850     
  -3932851802.6893101       -38787235.934069157        897283466.07686687     
  -3758086750.0507879       -27662062.375603199        906965825.01620889     
  -3582305553.1646581       -13149741.325142145        913786139.92760873     
  -3405508212.0309391        4749727.2173051834        917744410.81106770     
  -3227694726.6496196        26036343.251739144        918840637.66658723     
  -4205415829.8932657       -52036734.208665609        722734641.72791409     
  -4054184176.2653418       -45441872.119893312        766968956.81100368     
  -3901439007.8305531       -33801960.674880505        797008157.79149604     
  -3747180324.5888824       -17116999.873608589        812852244.66939497     
  -3591408126.5403380        4613010.2839095592        814501217.44469583     
  -4367285980.7182655       -32078069.569573402        548868649.25789857     
  -4271967926.3142591       -39727579.014496565        628235186.13723135     
  -4174638986.5440927       -40674137.238907337        682073538.83930874     
  -4075299161.4077721       -34917744.242800951        710383707.36413527     
  -3973948450.9053035       -22458400.026190758        713165691.71171165     
  -2556748700.2909350        51938777.160572648        1136531161.5770881     
  -2489805384.0401416        28235779.462217093        1133635074.1317408     
  -2421312263.6751690        9698795.4777957201        1133131984.4059496     
  -2351269339.1960235       -3672174.7927180529        1135021892.3997109     
  -2279676610.6027002       -11877131.349305391        1139304798.1130307     
  -2882808251.2331538        41811598.877294540        1026183952.3773850     
  -2804250217.4709020        27445591.906852126        1018750498.4834422     
  -2725433072.0318508        13943290.525741458        1015703754.7877055     
  -2646356814.9160018        1304694.7339651585        1017043721.2901659     
  -2567021446.1233511       -10470195.468475699        1022770397.9908315     
  -3227694726.6496196        26036343.251739144        918840637.66658723     
  -3131825654.0083523        22716223.419469237        905364009.48044574     
  -3036988162.1276588        15957501.051952362        898267803.97115350     
  -2943182251.0075440        5760176.1491721869        897552021.13870895     
  -2850407920.6480036       -7875751.2888517380        903216660.98311365     
  -3591408126.5403380        4613010.2839095592        814501217.44469583     
  -3472531693.6524868        14047674.000087976        793475607.12274945     
  -3355977533.9625874        15741427.056420565        780824131.95630014     
  -3241745647.4706411        9694269.4529262781        776546791.94534588     
  -3129836034.1766472       -4093798.8104243279        780643587.08988762     
  -3973948450.9053035       -22458400.026190758        713165691.71171165     
  -3826368336.4033098        1439943.6486957073        683085291.41035604     
  -3682401187.5366397        13295068.539163828        663372738.74314201     
  -3542047004.3053026        13106974.645193338        654028033.71007073     
  -3405305786.7092910        875661.96680665016        655051176.31114352     
  -2279676610.6027002       -11877131.349305391        1139304798.1130307     
  -2171627959.0135932       -7625555.2656745911        1129610933.5529478     
  -2064127074.7860467       -5199870.3872388601        1125508873.9927864     
  -1957173957.9200475       -4600076.7139610052        1126998619.4325502     
  -1850768608.4156089       -5826174.2458919287        1134080169.8722398     
  -2567021446.1233511       -10470195.468475699        1022770397.9908315     
  -2446030145.3370423       -9361232.3794114590        1013888901.0284526     
  -2325042742.8033090       -8265263.4656034708        1010096701.4473600     
  -2204059238.5221567       -7182288.7270598412        1011393799.2475516     
  -2083079632.4935756       -6112308.1637506485        1017780194.4290298     
  -2850407920.6480036       -7875751.2888517380        903216660.98311365     
  -2717909706.7177415       -10340122.010324955        895782045.57891655     
  -2584871521.9310832       -11004589.877132297        892934219.93736386     
  -2451293366.2880211       -9869154.8892685175        894673184.05845845     
  -2317175239.7885613       -6933817.0467318296        900998937.94219768     
  -3129836034.1766472       -4093798.8104243279        780643587.08988762     
  -2987266643.1556916       -10562224.158406258        775290367.20434344     
  -2843613412.1693559       -13417849.621795297        774021429.46280360     
  -2698876341.2176490       -12660675.200607657        776836773.86526895     
  -2553055430.3005619       -8290700.8948156834        783736400.41174638     
  -3405305786.7092910        875661.96680665016        655051176.31114352     
  -3254100954.6508961       -10027538.823673844        652413865.90472305     
  -3101268413.5181441       -15505042.699633837        653358330.02367353     
  -2946808163.3110404       -15556849.661084652        657884568.66798854     
  -2790720204.0295730       -10182959.707992673        665992581.83767319     
  -1850768608.4156089       -5826174.2458919287        1134080169.8722398     
  -1752858907.2613173       -11012097.231240511        1128961150.8538496     
  -1655331854.7554073       -17473515.711195350        1127361766.0976124     
  -1558187450.8978806       -25210429.685760021        1129282015.6035361     
  -1461425695.6887283       -34222839.154906511        1134721899.3716209     
  -2083079632.4935756       -6112308.1637506485        1017780194.4290298     
  -1975934770.0070276       -9819834.6796950102        1011436214.0511776     
  -1869199471.2568941       -14892573.650337577        1008335401.2507273     
  -1762873736.2431715       -21330525.075679660        1008477756.0276823     
  -1656957564.9658508       -29133688.955717862        1011863278.3820388     
  -2317175239.7885613       -6933817.0467318296        900998937.94219768     
  -2201585120.7833419       -9399918.5373291969        893398595.26884997     
  -2086431480.6025634       -13320949.442728639        888764953.48814881     
  -1971714319.2462249       -18696909.762931585        887098012.60009885     
  -1857433636.7143266       -25527799.497931957        888397772.60469508     
  -2553055430.3005619       -8290700.8948156834        783736400.41174638     
  -2429809959.5902562       -9752348.8041473627        774848294.50686836     
  -2307027882.7924218       -12758643.088379502        768650422.80988133     
  -2184709199.9070606       -17309583.747519970        765142785.32078886     
  -2062853910.9341681       -23405170.781553984        764325382.03958726     
  -2790720204.0295730       -10182959.707992673        665992581.83767319     
  -2660609286.4277682       -10877125.480138421        655785311.76522791     
  -2530988677.8264651       -13205654.587281585        647991809.21592128     
  -2401858378.2256665       -17168547.029441357        642612074.18974924     
  -2273218387.6253629       -22765802.806588650        639646106.68672407     
  -1461425695.6887283       -34222839.154906511        1134721899.3716209     
  -1356559725.7693818       -41067185.991593003        1126981645.4186459     
  -1251484646.8372138       -47214502.785540104        1123298590.5920274     
  -1146200458.8922155       -52664789.536720395        1123672734.8917677     
  -1040707161.9343921       -57418046.245150268        1128104078.3178623     
  -1656957564.9658508       -29133688.955717862        1011863278.3820388     
  -1541214237.1103559       -34317350.901017725        1002561826.6555604     
  -1425278034.5549726       -38858097.180014729        997187139.24021018     
  -1309148957.2996936       -42755927.792694867        995739216.13599157     
  -1192827005.3445249       -46010842.739079297        998218057.34289742     
  -1857433636.7143266       -25527799.497931957        888397772.60469508     
  -1731185621.8233402       -29162577.822048783        877516183.07295740     
  -1604760966.5453923       -32208554.856294215        870430923.03712559     
  -1478159670.8804836       -34665730.600676119        867141992.49719489     
  -1351381734.8286097       -36534105.055174053        867649391.45315862     
  -2062853910.9341681       -23405170.781553984        764325382.03958726     
  -1926473879.9083405       -25602866.754699588        751844714.67084110     
  -1789933442.8084764       -27265875.814376354        743029941.98276794     
  -1653232599.6345928       -28394197.960656583        737881063.97536433     
  -1516371350.3866673       -28987833.193473876        736398080.64863622     
  -2273218387.6253629       -22765802.806588650        639646106.68672407     
  -2127079011.3653398       -23638217.698920131        625547421.44921207     
  -1980795463.3442199       -24030060.054254532        614984196.07714260     
  -1834367743.5620046       -23941329.872614026        607956430.57052267     
  -1687795852.0186853       -23372027.153948605        604464124.92934406     
  -1040707161.9343921       -57418046.245150268        1128104078.3178623     
  -923443274.57994235       -55044052.310328096        1125263126.7487988     
  -804017458.74977314       -45463630.123113275        1128378484.4837458     
  -682429714.44389427       -28676779.683527380        1137450151.5227075     
  -558680041.66229331       -4683500.9915405214        1152478127.8656859     
  -1192827005.3445249       -46010842.739079297        998218057.34289742     
  -1062162184.4649819       -42559373.873168349        994271514.19293046     
  -930105497.75677288       -34468352.245031297        994428424.08184850     
  -796656945.21990061       -21737777.854683816        998688787.00964665     
  -661816526.85435879       -4367650.7021101713        1007052602.9763221     
  -1351381734.8286097       -36534105.055174053        867649391.45315862     
  -1212609855.4672220       -33593323.771152020        861698850.30073476     
  -1073216172.9242144       -28579865.215074420        857998905.92205906     
  -933200687.19958735       -21493729.386944234        856549558.31712675     
  -792563398.29335034       -12334916.286757618        857350807.48595047     
  -1516371350.3866673       -28987833.193473876        736398080.64863622     
  -1374786287.5866616       -28145902.004300475        727545135.07220221     
  -1233349484.2520940       -27798169.033256114        719089930.00437856     
  -1092060940.3829517       -27944634.280294657        711032465.44516921     
  -950920655.97924948       -28585297.745477378        703372741.39457226     
  -1687795852.0186853       -23372027.153948605        604464124.92934406     
  -1548691480.8233070       -26217108.572614193        591810368.50733685     
  -1410505431.7404151       -32123263.699561775        577701496.32880592     
  -1273237704.7700016       -41090492.534776926        562137508.39375567     
  -1136888299.9120724       -53118795.078267694        545118404.70219052     
  -558680041.66229331       -4683500.9915405214        1152478127.8656859     
  -462206257.41525120        32720521.019538909        1161940566.8942816     
  -353656922.60250372        110376378.24963094        1178919453.0594614     
  -233032037.22406405        228284070.69869959        1203414786.3612332     
  -100331601.27992049        386443598.36678123        1235426566.7995930     
  -661816526.85435879       -4367650.7021101713        1007052602.9763221     
  -546878801.24934757        25680833.565966278        1020690096.6597466     
  -421036788.76288712        92076940.772201031        1042711606.8072495     
  -284290489.39497232        194820670.91661531        1073117133.4188362     
  -136639903.14560384        333912023.99920672        1111906676.4944980     
  -792563398.29335034       -12334916.286757618        857350807.48595047     
  -656682961.82324791        11101661.090450734        873796881.52590740     
  -511069502.15594471        66981649.124983042        899494541.35743868     
  -355723019.29143685        155305047.81686431        934443786.98054469     
  -190643513.22973239        276071857.16606867        978644618.39521885     
  -950920655.97924948       -28585297.745477378        703372741.39457226     
  -791618739.13694322       -11016996.407022357        721260921.49277341     
  -623755062.78167903        35090503.307958275        749268256.71004272     
  -447329626.91346228        109737201.39944497        787394747.04637516     
  -262342431.53230369        212923097.86739945        835640392.50177288     
  -1136888299.9120724       -53118795.078267694        545118404.70219052     
  -951686133.19043243       -40675138.926393747        563082216.56034076     
  -759093470.64009261       -3596496.6788702309        592032752.86505663     
  -559110312.26104712        58117131.664346159        631970013.61631942     
  -351736658.05330420        144465746.10322142        682893998.81415427     
  -100331601.27992049        386443598.36678123        1235426566.7995930     
  -85363448.883319497        546607845.93849742        1196777618.0772486     
  -57861349.271403402        748551917.56126952        1154789384.5358486     
  -17825302.444176495        992275813.23506653        1109461866.1754091     
   34744691.598367095        1277779532.9599357        1060795062.9959074     
  -136639903.14560384        333912023.99920672        1111906676.4944980     
  -127437501.75694263        483063847.89508486        1090251560.0503960     
  -95120754.543235630        709263491.20778668        1070041863.8828911     
  -39689661.504486024        1012510953.9372913        1051277587.9919679     
   38855777.359312892        1392806236.0836341        1033958732.3776498     
  -190643513.22973239        276071857.16606867        978644618.39521885     
  -173536276.86145633        418312433.18239164        986327132.60738599     
  -122734296.05839422        672868823.98131835        1000239772.1917901     
  -38237570.820562541        1039741029.5628158        1020382537.1484238     
   79953898.852041006        1518929049.9268806        1046755427.4773074     
  -262342431.53230369        212923097.86739945        835640392.50177288     
  -223659774.19684583        352353601.80044913        885004335.74821103     
  -140701973.81688538        639367915.88185740        945383109.46253788     
  -13469030.392424822        1073966040.1115828        1016776713.6447380     
   158039056.07653689        1656147974.4896507        1099185148.2948294     
  -351736658.05330420        144465746.10322142        682893998.81415427     
  -277807993.76312596        285187353.74923933        786283169.47288740     
  -149023787.81870550        608760766.90939283        905471875.69515061     
   34615959.779942334        1115185985.5836346        1040460117.4809405     
   273111249.03281027        1804463009.7719541        1191247894.8302565     
  -4367285980.7182655       -32078069.569573402        548868649.25789857     
  -4271967926.3142591       -39727579.014496565        628235186.13723135     
  -4174638986.5440927       -40674137.238907337        682073538.83930874     
  -4075299161.4077721       -34917744.242800951        710383707.36413527     
  -3973948450.9053035       -22458400.026190758        713165691.71171165     
  -4589812543.2232056        61886211.165597677        485075950.66210604     
  -4527788819.9818888        20715617.723864317        481833863.33777958     
  -4462151855.9337559       -8410839.6951353550        486244570.98789692     
  -4392901651.0788088       -25493161.091415882        498308073.61245716     
  -4320038205.4170303       -30531346.464958668        518024371.21145928     
  -5105138688.7197666        68010617.003276110        411297473.70746344     
  -4981606499.0648804        21759778.837621689        327316176.86025554     
  -4852858713.1625013       -7105738.5030820370        284168654.13918656     
  -4718895331.0126448       -18585935.018847227        281854905.54425627     
  -4579716352.6153088       -12680810.709682941        320374931.07546103     
  -5913264417.2079687       -13704852.056532860        327533218.39397424     
  -5633420963.5632162       -36595095.673217297        164682126.70466420     
  -5346759558.2303438       -36758833.662762880        75845788.293180063     
  -5053280201.2093201       -14196066.025150776        61024203.159537069     
  -4752982892.5001383        31093207.239623070        120217371.30371432     
  -7014189728.6877804       -183260196.01382470        233783184.72163650     
  -6483232213.4769421       -154349005.80869269       -6068287.1290022973     
  -5943854391.1372700       -97370125.174163580       -138724026.55012205     
  -5396056261.6687984       -12323554.110281229       -164184033.54170880     
  -4839837825.0715160        100790707.38297081       -82448308.103778735     
  -3973948450.9053035       -22458400.026190758        713165691.71171165     
  -3826368336.4033098        1439943.6486957073        683085291.41035604     
  -3682401187.5366397        13295068.539163828        663372738.74314201     
  -3542047004.3053026        13106974.645193338        654028033.71007073     
  -3405305786.7092910        875661.96680665016        655051176.31114352     
  -4320038205.4170303       -30531346.464958668        518024371.21145928     
  -4156855229.5806160       -7671117.0220592022        510034456.96290332     
  -3996756336.9043880        4908835.2202157974        503918460.92945218     
  -3839741527.3883505        7208510.2618627548        499676383.11110073     
  -3685810801.0325003       -772091.89712762833        497308223.50785017     
  -4579716352.6153088       -12680810.709682941        320374931.07546103     
  -4425198885.2131643        1860793.5706224442        335092532.43403566     
  -4273236618.4960642        7885062.2341029644        343190122.58867133     
  -4123829552.4640212        5391995.2807321548        344667701.53937054     
  -3976977687.1170230       -5618407.2894558907        339525269.28612471     
  -4752982892.5001383        31093207.239623070        120217371.30371432     
  -4631399303.3009567        30035675.426714897        158259517.82375222     
  -4511842032.3116760        22223749.580795765        181187723.72080186     
  -4394311079.5323133        7657429.7018146515        189001988.99487868     
  -4278806444.9628582       -13663284.210181713        181702313.64596674     
  -4839837825.0715160        100790707.38297081       -82448308.103778735     
  -4775456483.8439856        76853528.546259642       -20464586.867949914     
  -4712572578.3512163        47924897.260318518        17911264.325851426     
  -4651186108.5932264        14004813.525115013        32679245.477622006     
  -4591297074.5700073       -24906722.659301519        23839356.587374870     
  -3405305786.7092910        875661.96680665016        655051176.31114352     
  -3254100954.6508961       -10027538.823673844        652413865.90472305     
  -3101268413.5181441       -15505042.699633837        653358330.02367353     
  -2946808163.3110404       -15556849.661084652        657884568.66798854     
  -2790720204.0295730       -10182959.707992673        665992581.83767319     
  -3685810801.0325003       -772091.89712762833        497308223.50785017     
  -3523720360.8601766       -8898588.4128775597        492974793.67198378     
  -3360256040.9353862       -12445485.753734827        492792356.10421813     
  -3195417841.2581263       -11412783.919686079        496760910.80455232     
  -3029205761.8283954       -5800482.9107507467        504880457.77298605     
  -3976977687.1170230       -5618407.2894558907        339525269.28612471     
  -3802375302.4229736       -10480298.608151197        333199585.81194311     
  -3626652867.2983389       -11608688.491561890        331594112.34859878     
  -3449810381.7431178       -9003576.9396858215        334708848.89607888     
  -3271847845.7573128       -2664963.9525356293        342543795.45439357     
  -4278806444.9628582       -13663284.210181713        181702313.64596674     
  -4090065779.3392668       -14772669.409451723        173088242.32460687     
  -3900458892.6069946       -12994650.913096666        169763598.75680757     
  -3709985784.7660122       -8329228.7210566998        171728382.94257101     
  -3518646455.8163328       -776402.83335566521        178982594.88189983     
  -4591297074.5700073       -24906722.659301519        23839356.587374870     
  -4386791791.6090841       -21775700.816838980        12640763.209966253     
  -4181674116.8613501       -16603373.018328667        7300815.3288576752     
  -3975944050.3268008       -9389739.2637674809        7819512.9440328032     
  -3769601592.0054479       -134799.55320382118        14196856.055502206     
  -2790720204.0295730       -10182959.707992673        665992581.83767319     
  -2660609286.4277682       -10877125.480138421        655785311.76522791     
  -2530988677.8264651       -13205654.587281585        647991809.21592128     
  -2401858378.2256665       -17168547.029441357        642612074.18974924     
  -2273218387.6253629       -22765802.806588650        639646106.68672407     
  -3029205761.8283954       -5800482.9107507467        504880457.77298605     
  -2891058826.9657784       -7046696.1057039499        493472062.07490134     
  -2753256521.8559079       -9441675.1431550980        485958846.15187508     
  -2615798846.4987831       -12985420.023084044        482340810.00390786     
  -2478685800.8944039       -17677930.745504022        482617953.63100040     
  -3271847845.7573128       -2664963.9525356293        342543795.45439357     
  -3121432287.1998348       -3193442.6401065588        330104233.25304717     
  -2971215679.1473346       -4385089.6776041985        323041263.07868749     
  -2821198021.5998430       -6239905.0651261806        321354884.93130159     
  -2671379314.5573368       -8757888.8026067019        325045098.81089419     
  -3518646455.8163328       -776402.83335566521        178982594.88189983     
  -3351729667.1299291        682634.91671109200        165681825.29967821     
  -3184866149.7007499        1964101.8093470335        159239059.99636072     
  -3018055903.5288267        3067997.8444725275        159654298.97192562     
  -2851298928.6141386        3994323.0221464634        166927542.22639364     
  -3769601592.0054479       -134799.55320382118        14196856.055502206     
  -3581950966.7560706        4581536.5646944046        204838.21477730485     
  -3394207933.5161657        9605899.3176631927       -5447763.0951241469     
  -3206372492.2857523        14938288.705680013       -2760947.8742091930     
  -3018444643.0648260        20578704.728720665        8265283.8775151195     
  -2273218387.6253629       -22765802.806588650        639646106.68672407     
  -2127079011.3653398       -23638217.698920131        625547421.44921207     
  -1980795463.3442199       -24030060.054254532        614984196.07714260     
  -1834367743.5620046       -23941329.872614026        607956430.57052267     
  -1687795852.0186853       -23372027.153948605        604464124.92934406     
  -2478685800.8944039       -17677930.745504022        482617953.63100040     
  -2324815992.2937064       -17805334.402956486        472449425.73594564     
  -2170906117.7867899       -17799185.039663672        464519998.72176063     
  -2016956177.3736489       -17659482.655618310        458829672.58844852     
  -1862966171.0542872       -17386227.250861406        455378447.33600485     
  -2671379314.5573368       -8757888.8026067019        325045098.81089419     
  -2513482956.4290295       -9251446.0690780878        318685271.42760384     
  -2355650638.2493758       -9958469.8310450315        313268185.94060564     
  -2197882360.0183887       -10878960.088581443        308793842.34990543     
  -2040178121.7360611       -12012916.841629386        305262240.65549827     
  -2851298928.6141386        3994323.0221464634        166927542.22639364     
  -2693079903.7712989        2023447.3027255535        164254958.52418208     
  -2535029024.7319884       -507914.42845726013        161228757.73368418     
  -2377146291.4962168       -3599762.1714328527        157848939.85490119     
  -2219431704.0639911       -7252095.9262355566        154115504.88784778     
  -3018444643.0648260        20578704.728720665        8265283.8775151195     
  -2863606834.3205161        16019345.712431431        9158487.0256776158     
  -2709041277.2346139        10552481.168150067        8401714.1009875052     
  -2554747971.8071413        4178111.0957427025        5994965.1034390237     
  -2400726918.0380836       -3103764.5046904087        1938240.0330366560     
  -1687795852.0186853       -23372027.153948605        604464124.92934406     
  -1548691480.8233070       -26217108.572614193        591810368.50733685     
  -1410505431.7404151       -32123263.699561775        577701496.32880592     
  -1273237704.7700016       -41090492.534776926        562137508.39375567     
  -1136888299.9120724       -53118795.078267694        545118404.70219052     
  -1862966171.0542872       -17386227.250861406        455378447.33600485     
  -1726867296.0099325       -22292303.246387005        442060333.68764383     
  -1590684525.5648537       -26918727.906153202        428361029.81275481     
  -1454417859.7190316       -31265501.230108976        414280535.71133381     
  -1318067298.4724698       -35332623.218288302        399818851.38338351     
  -2040178121.7360611       -12012916.841629386        305262240.65549827     
  -1904016384.1856151       -18059479.816878438        292449023.54621214     
  -1766768533.7212296       -20485666.412326574        280328541.74038863     
  -1628434570.3428731       -19291476.627884746        268900795.23801631     
  -1489014494.0505824       -14476910.463640213        258165784.03911585     
  -2219431704.0639911       -7252095.9262355566        154115504.88784778     
  -2080138745.3503401       -13518638.284078598        142976438.08305162     
  -1938757456.2095225       -12824079.218028069        133604032.11170343     
  -1795287836.6415513       -5168418.7281311750        125998286.97380814     
  -1649729886.6463933        9448343.1857132912        120159202.66936363     
  -2400726918.0380836       -3103764.5046904087        1938240.0330366560     
  -2255234379.5041175       -8669778.6480011940       -6357422.7018453181     
  -2106651293.0297809       -3933966.3233958483       -11812499.073293095     
  -1954977658.6150398        11103672.469213247       -14426989.081299471     
  -1800213476.2599227        36443137.729751348       -14200892.725864282     
  -1136888299.9120724       -53118795.078267694        545118404.70219052     
  -951686133.19043243       -40675138.926393747        563082216.56034076     
  -759093470.64009261       -3596496.6788702309        592032752.86505663     
  -559110312.26104712        58117131.664346159        631970013.61631942     
  -351736658.05330420        144465746.10322142        682893998.81415427     
  -1318067298.4724698       -35332623.218288302        399818851.38338351     
  -1118108645.5985556       -14811959.150848985        421500308.16984934     
  -914603981.37763429        17528742.739968777        441682258.80021465     
  -707553305.80968595        61689482.454193920        460364703.27448338     
  -496956618.89473659        117670259.99176645        477547641.59265804     
  -1489014494.0505824       -14476910.463640213        258165784.03911585     
  -1309974299.6034145        3418278.1456616521        279079653.85858250     
  -1131232578.2909143        20318556.306059659        286007786.91930372     
  -952789330.11307561        36223924.017596364        278950183.22127640     
  -774644555.06990921        51134381.280206084        257906842.76449221     
  -1649729886.6463933        9448343.1857132912        120159202.66936363     
  -1527283095.2049768        14015572.963184655        135820253.62654200     
  -1408979261.3799233        4772944.0194451809        125009337.22232898     
  -1294818385.1712091       -18279543.645420969        87726453.456705824     
  -1184800466.5788498       -55141890.031479657        23971602.329675592     
  -1800213476.2599227        36443137.729751348       -14200892.725864282     
  -1770035032.4032793        16979925.301665664       -8277892.5262709633     
  -1747844030.6446793       -29108094.119933367       -41313090.290714093     
  -1733640470.9840817       -101820920.53485000       -113306486.01922843     
  -1727424353.4215419       -201158553.94330430       -224258079.71179810     
  -351736658.05330420        144465746.10322142        682893998.81415427     
  -277807993.76312596        285187353.74923933        786283169.47288740     
  -149023787.81870550        608760766.90939283        905471875.69515061     
   34615959.779942334        1115185985.5836346        1040460117.4809405     
   273111249.03281027        1804463009.7719541        1191247894.8302565     
  -496956618.89473659        117670259.99176645        477547641.59265804     
  -388200112.31611615        223054029.75374007        596928752.35112965     
  -230272004.12279356        492343138.23141009        735455861.12580633     
  -23172294.314741910        925537585.42483771        893128967.91668940     
   233099017.10800683        1522637371.3339334        1069948072.7237723     
  -774644555.06990921        51134381.280206084        257906842.76449221     
  -621498884.90950286        124048709.54612187        386648630.24327779     
  -424865553.17389601        341921909.72936875        537882878.19093740     
  -184744559.86307621        704753981.82996905        711609586.60749364     
   98864095.022909164        1212544925.8478379        907828755.49291468     
  -1184800466.5788498       -55141890.031479657        23971602.329675592     
  -977704311.54327369       -11828606.873591661        155442803.14932406     
  -732804434.97202849        157497081.40320879        312752926.89053601     
  -450100836.86508632        452835174.79898608        495901973.55329758     
  -129593517.22248244        874185673.31364739        704889943.13761985     
  -1727424353.4215419       -201158553.94330430       -224258079.71179810     
  -1456816392.2174511       -184577919.50546706       -96688728.930717394     
  -1154088649.5171924       -60931346.747070491        60066007.224591725     
  -819241125.32076097        169781164.33190787        246006128.75415280     
  -452273819.62818265        507559613.73136449        461131635.65793490     
 </DataArray>
 <DataArray  type="Float64" Name="VM" NumberOfComponents="1" format="ascii">
   6866286996.9776897     
   6363255307.9613647     
   5877750263.3681269     
   5391253816.7567368     
   4897708959.1977510     
   5904489996.7909536     
   5610073725.6218576     
   5329300795.8863525     
   5053538783.0159569     
   4781851144.7726612     
   5189059636.5241385     
   5031734329.3155298     
   4884801417.6647968     
   4746200951.7046480     
   4616690905.2063065     
   4717626158.1955795     
   4631496686.8519602     
   4550640586.1225395     
   4475094862.8235855     
   4405082732.6194296     
   4486689799.1532097     
   4410551033.8554363     
   4331666758.2667818     
   4246736085.7521467     
   4153619647.5214949     
   4897708959.1977510     
   4816600152.6671295     
   4737520783.0196114     
   4658618487.3455439     
   4579100230.3548393     
   4781851144.7726612     
   4659962749.5506296     
   4536614890.8658924     
   4410988613.5590487     
   4282683809.1651502     
   4616690905.2063065     
   4470126037.0668354     
   4321259533.7531595     
   4169854072.4556384     
   4015749304.7505589     
   4405082732.6194296     
   4250142020.2363377     
   4094641550.4180508     
   3938619866.8726959     
   3782174225.3740034     
   4153619647.5214949     
   4005565840.0733995     
   3861561338.3556018     
   3721604358.2729526     
   3586069894.8668132     
   4579100230.3548393     
   4377127708.7523556     
   4175577820.4446120     
   3974389714.5287242     
   3773564551.5238948     
   4282683809.1651502     
   4093373076.0154924     
   3905215842.3500729     
   3718265927.7949953     
   3532657683.2694860     
   4015749304.7505589     
   3839421214.4317493     
   3665085756.7386241     
   3492916463.5473208     
   3323185513.0456648     
   3782174225.3740034     
   3619311657.4756589     
   3459365135.2947206     
   3302622770.0662150     
   3149485247.0959888     
   3586069894.8668132     
   3437265232.8627372     
   3292336644.0984468     
   3151666134.2357788     
   3015753754.5755386     
   3773564551.5238948     
   3586443013.7878561     
   3399610472.1165781     
   3212926537.6040688     
   3026459771.6516070     
   3532657683.2694860     
   3364669889.0070324     
   3197776766.7917380     
   3032005399.9752779     
   2867554291.6649933     
   3323185513.0456648     
   3171452607.5103517     
   3021321432.1025820     
   2872942032.7519054     
   2726595266.2870479     
   3149485247.0959888     
   3011481357.7613316     
   2875205469.8132024     
   2740877973.1302667     
   2608812094.7596335     
   3015753754.5755386     
   2889443151.5465055     
   2764554950.5011973     
   2641321823.0996990     
   2520039383.9255538     
   3026459771.6516070     
   2870187908.1856484     
   2713671416.1534395     
   2556913755.8148694     
   2399935561.7724276     
   2867554291.6649933     
   2708852174.9934096     
   2549994755.2063756     
   2390980577.4533215     
   2231809386.5523334     
   2726595266.2870479     
   2569332693.6324377     
   2412629594.9569569     
   2256584263.8608546     
   2101326839.8571000     
   2608812094.7596335     
   2456923427.7715764     
   2307017592.5664926     
   2159405463.4249558     
   2014505897.9958012     
   2520039383.9255538     
   2377197444.1707606     
   2238453326.4206758     
   2104391367.2560043     
   1975788967.2479224     
   2399935561.7724276     
   2251407066.5442905     
   2104978679.6419005     
   1960636388.0215063     
   1818538319.1358089     
   2231809386.5523334     
   2088107173.6949990     
   1946143943.6843250     
   1805922305.6588066     
   1667527650.2255871     
   2101326839.8571000     
   1961284639.6011765     
   1822355819.8080244     
   1684582068.0443277     
   1548039849.1302669     
   2014505897.9958012     
   1878591888.9190118     
   1743093588.7228034     
   1608137521.1217191     
   1473897088.0195007     
   1975788967.2479224     
   1846223302.2259989     
   1716592773.8544805     
   1587201082.9410522     
   1458491176.0509875     
   1818538319.1358089     
   1778436515.1733701     
   1734860369.1871057     
   1696445001.3200998     
   1681757004.5419605     
   1667527650.2255871     
   1552295880.8424313     
   1427914113.6728950     
   1294738594.4064696     
   1158947993.2716074     
   1548039849.1302669     
   1398065638.9315364     
   1244460760.9868240     
   1084937225.6074312     
   917450631.97350991     
   1473897088.0195007     
   1329376727.4560549     
   1199259909.8794346     
   1088042138.1660397     
   1001648449.6213118     
   1458491176.0509875     
   1349128714.9997683     
   1274754602.5580881     
   1243556998.1931293     
   1262621348.9699109     
   1681757004.5419605     
   1384111740.7577205     
   1129670568.4190378     
   1010223481.2275004     
   1153160208.8222141     
   1158947993.2716074     
   1008431161.1608598     
   985193624.59618187     
   1161551234.8024056     
   1544369870.0547729     
   917450631.97350991     
   962887689.60028279     
   1144811904.1298189     
   1476538163.4369287     
   1957732924.3267980     
   1001648449.6213118     
   1164456272.7937796     
   1425306785.7928324     
   1808780579.0869241     
   2334996367.8645716     
   1262621348.9699109     
   1446524946.3821557     
   1715599058.5021052     
   2110467523.6297498     
   2663654319.6595521     
   4486689799.1532097     
   4410551033.8554363     
   4331666758.2667818     
   4246736085.7521467     
   4153619647.5214949     
   4366266649.0828295     
   4244063171.4286070     
   4119116589.7994876     
   3990051760.7692680     
   3855811259.1053824     
   4192357042.0046406     
   4043900741.5554733     
   3895960034.9594889     
   3748454310.6410251     
   3601331141.2514086     
   3971670802.2626982     
   3815855192.7143383     
   3667053449.8413820     
   3525904031.8808360     
   3393263481.9551802     
   3716653727.8999481     
   3569423091.3344097     
   3439399795.4059272     
   3327158851.3505630     
   3234046659.0188479     
   4153619647.5214949     
   4005565840.0733995     
   3861561338.3556018     
   3721604358.2729526     
   3586069894.8668132     
   3855811259.1053824     
   3736436172.6925249     
   3621333299.5996623     
   3510718251.7564764     
   3405062184.8239493     
   3601331141.2514086     
   3506357805.5251827     
   3415451029.5846081     
   3328910477.9254975     
   3247177829.5250545     
   3393263481.9551802     
   3318734409.8179960     
   3247494920.1389575     
   3179806899.8273945     
   3115987622.1160054     
   3234046659.0188479     
   3176399525.3345790     
   3120603331.2700195     
   3066782126.9495378     
   3015068480.9671340     
   3586069894.8668132     
   3437265232.8627372     
   3292336644.0984468     
   3151666134.2357788     
   3015753754.5755386     
   3405062184.8239493     
   3268850086.2822061     
   3137152040.4144893     
   3010440177.6944795     
   2889308853.7671952     
   3247177829.5250545     
   3124783084.6778817     
   3007709019.1288395     
   2896507648.9644179     
   2791852608.2824068     
   3115987622.1160054     
   3008559717.0047860     
   2907392072.4440289     
   2813089938.2963924     
   2726371972.2804251     
   3015068480.9671340     
   2923518990.0377121     
   2839243295.6869292     
   2762857096.7452888     
   2695073996.7624798     
   3015753754.5755386     
   2889443151.5465055     
   2764554950.5011973     
   2641321823.0996990     
   2520039383.9255538     
   2889308853.7671952     
   2773033066.3336039     
   2659441755.0385709     
   2548904037.6060138     
   2441871928.0328231     
   2791852608.2824068     
   2687725846.2515869     
   2587726567.0511675     
   2492344559.1948080     
   2402157977.9174161     
   2726371972.2804251     
   2636011820.0409303     
   2551279971.4189310     
   2472733783.7406888     
   2401004898.1634903     
   2695073996.7624798     
   2619350087.3007526     
   2550676950.0529618     
   2489604977.3142648     
   2436731083.5769582     
   2520039383.9255538     
   2377197444.1707606     
   2238453326.4206758     
   2104391367.2560043     
   1975788967.2479224     
   2441871928.0328231     
   2315030169.5367641     
   2193617090.1640563     
   2078402506.6709380     
   1970347863.2461557     
   2402157977.9174161     
   2292940079.3651481     
   2190441337.7172441     
   2095515793.5073647     
   2009164211.8489363     
   2401004898.1634903     
   2310312616.2656384     
   2227390605.0708299     
   2153056209.1327825     
   2088207069.5966072     
   2436731083.5769582     
   2364594103.8476319     
   2300914792.4649282     
   2246382428.9688368     
   2201707667.8930469     
   1975788967.2479224     
   1846223302.2259989     
   1716592773.8544805     
   1587201082.9410522     
   1458491176.0509875     
   1970347863.2461557     
   1854700298.1467113     
   1743320143.7302263     
   1637090457.9833798     
   1537093217.2586884     
   2009164211.8489363     
   1912719919.9590883     
   1824992329.9177232     
   1747166322.1609256     
   1680517602.7525117     
   2088207069.5966072     
   2012725309.6970208     
   1949629309.1287482     
   1900006093.5237343     
   1864893101.6510971     
   2201707667.8930469     
   2145938798.0618913     
   2105249037.9905508     
   2080426659.5089011     
   2072166410.0166261     
   1458491176.0509875     
   1349128714.9997683     
   1274754602.5580881     
   1243556998.1931293     
   1262621348.9699109     
   1537093217.2586884     
   1476149861.0711896     
   1447928274.3349726     
   1456416233.6259668     
   1504907997.0382380     
   1680517602.7525117     
   1652145651.0230005     
   1651501804.6145449     
   1680955162.4220653     
   1743105470.0828190     
   1864893101.6510971     
   1854616677.5189261     
   1867278128.8925893     
   1905081987.3078239     
   1971058389.4001045     
   2072166410.0166261     
   2068916477.2906396     
   2084819622.5853364     
   2122506842.9417033     
   2185804502.8882933     
   1262621348.9699109     
   1446524946.3821557     
   1715599058.5021052     
   2110467523.6297498     
   2663654319.6595521     
   1504907997.0382380     
   1613279657.9777374     
   1788822108.1969390     
   2066321094.9613004     
   2476040252.4268575     
   1743105470.0828190     
   1787805897.0518219     
   1884647119.5023382     
   2060555892.2904520     
   2340787529.8408294     
   1971058389.4001045     
   1969068086.6393456     
   2003638213.1105959     
   2093437533.1155062     
   2257116551.5561051     
   2185804502.8882933     
   2156354747.1123123     
   2146536135.0771260     
   2166843508.2333779     
   2228308079.6003089     
   3716653727.8999481     
   3569423091.3344097     
   3439399795.4059272     
   3327158851.3505630     
   3234046659.0188479     
   3391218957.8681288     
   3294092629.4447861     
   3210751822.3037472     
   3141729925.7815356     
   3087924266.1824126     
   3135701984.1284161     
   3079619573.5279517     
   3032650282.9779630     
   2995185745.7221837     
   2967729873.9697423     
   2948604613.3650589     
   2926243353.7870417     
   2907060056.6988678     
   2891209229.5876207     
   2878854842.8233676     
   2825516921.5086141     
   2831598396.8518157     
   2833910041.7903872     
   2832262343.4280705     
   2826488536.8400998     
   3234046659.0188479     
   3176399525.3345790     
   3120603331.2700195     
   3066782126.9495378     
   3015068480.9671340     
   3087924266.1824126     
   3035286428.7718801     
   2985853686.1786103     
   2939789646.9386940     
   2897268062.8928800     
   2967729873.9697423     
   2920825419.6854534     
   2878579129.3007989     
   2841169622.7165418     
   2808786784.2188106     
   2878854842.8233676     
   2837615488.7015524     
   2802545895.2882924     
   2773805929.3515186     
   2751567796.4530554     
   2826488536.8400998     
   2789875683.0338521     
   2760965422.8166952     
   2739865315.7459569     
   2726697982.9070725     
   3015068480.9671340     
   2923518990.0377121     
   2839243295.6869292     
   2762857096.7452888     
   2695073996.7624798     
   2897268062.8928800     
   2822534334.5958738     
   2755583343.8263531     
   2696961827.8574820     
   2647281674.7489209     
   2808786784.2188106     
   2750125229.3729568     
   2699594359.9851170     
   2657642253.0748806     
   2624753727.4222536     
   2751567796.4530554     
   2707805176.9755259     
   2672341443.8574858     
   2645511329.2287111     
   2627666286.4539881     
   2726697982.9070725     
   2696219362.7584124     
   2674038748.7323623     
   2660380257.6430082     
   2655474028.8477507     
   2695073996.7624798     
   2619350087.3007526     
   2550676950.0529618     
   2489604977.3142648     
   2436731083.5769582     
   2647281674.7489209     
   2585533641.4815392     
   2531654393.9125772     
   2486130757.1937556     
   2449472100.5989180     
   2624753727.4222536     
   2576426567.0805402     
   2536641797.7885194     
   2505791461.7432199     
   2484271495.4836359     
   2627666286.4539881     
   2591616005.0580487     
   2564643275.1793013     
   2547032944.6989236     
   2539063524.8475161     
   2655474028.8477507     
   2630026093.0257993     
   2614091239.4824533     
   2607852704.7682953     
   2611484948.7211914     
   2436731083.5769582     
   2364594103.8476319     
   2300914792.4649282     
   2246382428.9688368     
   2201707667.8930469     
   2449472100.5989180     
   2393373772.9123015     
   2346541995.9280462     
   2309526842.0850687     
   2282863316.8666325     
   2484271495.4836359     
   2443044621.7868915     
   2411626766.4834304     
   2390413223.7549543     
   2379766771.3010545     
   2539063524.8475161     
   2510993637.1272364     
   2493080582.0543218     
   2485578725.4824066     
   2488708528.9505415     
   2611484948.7211914     
   2594488294.3935018     
   2587896180.9553828     
   2591851561.5409021     
   2606471649.1281538     
   2201707667.8930469     
   2145938798.0618913     
   2105249037.9905508     
   2080426659.5089011     
   2072166410.0166261     
   2282863316.8666325     
   2242172792.6046920     
   2215480743.4338188     
   2203245572.0303006     
   2205860623.4164228     
   2379766771.3010545     
   2351126108.5839624     
   2335376189.7925520     
   2332769025.2080469     
   2343526033.1803732     
   2488708528.9505415     
   2469398061.9050756     
   2461962158.8502331     
   2466535955.0594888     
   2483252495.6656280     
   2606471649.1281538     
   2594154024.3523154     
   2592846934.0136862     
   2602627607.3851175     
   2623590884.3370934     
   2072166410.0166261     
   2068916477.2906396     
   2084819622.5853364     
   2122506842.9417033     
   2185804502.8882933     
   2205860623.4164228     
   2191616235.7686739     
   2192317435.3333979     
   2209934997.1650195     
   2247398354.9495525     
   2343526033.1803732     
   2319143448.7157507     
   2306280182.5550947     
   2306343263.5783181     
   2321425980.7015085     
   2483252495.6656280     
   2450533612.5692549     
   2426392391.7688999     
   2411774659.5769057     
   2408057949.2599092     
   2623590884.3370934     
   2585013383.4631195     
   2552372907.8967614     
   2526249913.0385785     
   2507450676.0347033     
   2185804502.8882933     
   2156354747.1123123     
   2146536135.0771260     
   2166843508.2333779     
   2228308079.6003089     
   2247398354.9495525     
   2182670574.2680130     
   2134401273.4965441     
   2112238631.4190593     
   2127089370.0409791     
   2321425980.7015085     
   2224732063.1147404     
   2141372927.6159906     
   2079705185.1774735     
   2049886628.0465109     
   2408057949.2599092     
   2282832835.0541801     
   2168098165.4102259     
   2070594034.7345221     
   1999088771.5035779     
   2507450676.0347033     
   2357181408.8569474     
   2215047479.3403544     
   2086036072.8416691     
   1977035386.1876650     
   2825516921.5086141     
   2831598396.8518157     
   2833910041.7903872     
   2832262343.4280705     
   2826488536.8400998     
   2763094641.1751928     
   2752972342.7360797     
   2745055348.0086856     
   2739394685.1542163     
   2736039374.8049397     
   2724197791.6610107     
   2698964929.3112431     
   2682643582.1974425     
   2675355026.0106287     
   2677217873.5858002     
   2725991626.1590395     
   2683308253.0965171     
   2656788595.8871856     
   2646481854.5869803     
   2652436008.6308165     
   2786481855.1930285     
   2720122827.3763070     
   2677430103.9173918     
   2658400675.0099640     
   2663023090.5803423     
   2826488536.8400998     
   2789875683.0338521     
   2760965422.8166952     
   2739865315.7459569     
   2726697982.9070725     
   2736039374.8049397     
   2705977217.3627682     
   2683738980.6647305     
   2669412349.2058926     
   2663089467.5463452     
   2677217873.5858002     
   2652757310.5605245     
   2636373064.0916362     
   2628114105.9934826     
   2628033893.5893216     
   2652436008.6308165     
   2632292647.4981461     
   2620614374.0417352     
   2617396375.6666288     
   2622649472.0772429     
   2663023090.5803423     
   2645603703.3640633     
   2637180962.7757988     
   2637687387.1460881     
   2647092625.4137678     
   2726697982.9070725     
   2696219362.7584124     
   2674038748.7323623     
   2660380257.6430082     
   2655474028.8477507     
   2663089467.5463452     
   2642511202.1457176     
   2630824478.7162690     
   2628167368.5840683     
   2634676221.1420655     
   2628033893.5893216     
   2614871749.1620426     
   2611109204.1109490     
   2616809522.8081489     
   2632032781.7196121     
   2622649472.0772429     
   2613848422.3899517     
   2614912563.0140615     
   2625854992.8459167     
   2646688024.9312005     
   2647092625.4137678     
   2639200019.3027682     
   2641635797.6891208     
   2654396888.6489615     
   2677483141.8237391     
   2655474028.8477507     
   2630026093.0257993     
   2614091239.4824533     
   2607852704.7682953     
   2611484948.7211914     
   2634676221.1420655     
   2618579244.8719282     
   2611464343.8217473     
   2613426224.1768494     
   2624553139.2332821     
   2632032781.7196121     
   2623010380.5705247     
   2622442786.6570168     
   2630368018.3903365     
   2646820896.0371280     
   2646688024.9312005     
   2642497262.6283937     
   2646270092.5346603     
   2658014997.2883420     
   2677739629.0051947     
   2677483141.8237391     
   2675999634.2770600     
   2682043830.7855473     
   2695615979.7490044     
   2716716294.3037138     
   2611484948.7211914     
   2594488294.3935018     
   2587896180.9553828     
   2591851561.5409021     
   2606471649.1281538     
   2624553139.2332821     
   2614085259.0071454     
   2613812165.1338568     
   2623813366.7415509     
   2644152653.0882807     
   2646820896.0371280     
   2641302796.3653603     
   2645872281.3711467     
   2660565332.4160433     
   2685410549.6152792     
   2677739629.0051947     
   2675554685.8786931     
   2683479332.2567759     
   2701523345.5869493     
   2729694772.5566449     
   2716716294.3037138     
   2716241185.0473976     
   2726045705.5484486     
   2746128723.0562086     
   2776489711.3780618     
   2606471649.1281538     
   2594154024.3523154     
   2592846934.0136862     
   2602627607.3851175     
   2623590884.3370934     
   2644152653.0882807     
   2633341891.8704085     
   2632748837.8884273     
   2642411957.9100170     
   2662381468.3651285     
   2685410549.6152792     
   2675798711.0848932     
   2675789105.6088066     
   2685396634.8113489     
   2704642298.1452384     
   2729694772.5566449     
   2721117512.7514372     
   2721685967.6764793     
   2731403173.3421922     
   2750274080.3182049     
   2776489711.3780618     
   2768913106.8458467     
   2770168459.8297424     
   2780255733.1348748     
   2799174918.9405160     
   2623590884.3370934     
   2585013383.4631195     
   2552372907.8967614     
   2526249913.0385785     
   2507450676.0347033     
   2662381468.3651285     
   2616902986.1591663     
   2577120326.6666412     
   2543363504.1478248     
   2516093014.8117375     
   2704642298.1452384     
   2654357465.4142327     
   2609670914.6676288     
   2570729431.3778915     
   2537738134.9966898     
   2750274080.3182049     
   2697284312.1462741     
   2649938232.5979028     
   2608272141.7140255     
   2572336570.7042747     
   2799174918.9405160     
   2745582337.3837385     
   2697821172.2450371     
   2655891416.4990773     
   2619793067.9185863     
   2507450676.0347033     
   2357181408.8569474     
   2215047479.3403544     
   2086036072.8416691     
   1977035386.1876650     
   2516093014.8117375     
   2348244260.3686423     
   2183934977.9434328     
   2026269613.0268989     
   1879821247.7564323     
   2537738134.9966898     
   2357403547.2136683     
   2176808224.7250195     
   1997426124.8776932     
   1821539824.0598223     
   2572336570.7042747     
   2384763747.8299842     
   2194134088.9562206     
   2000826731.0980310     
   1805447405.1426909     
   2619793067.9185863     
   2430294466.9806547     
   2236055054.4806714     
   2037074829.3535867     
   1833353791.3033690     
   2786481855.1930285     
   2720122827.3763070     
   2677430103.9173918     
   2658400675.0099640     
   2663023090.5803423     
   2692564692.7002697     
   2653681920.6592727     
   2630448654.1589713     
   2622959353.0219884     
   2631305495.2986808     
   2666602672.7687159     
   2648862078.1489496     
   2639156668.1511855     
   2637614006.6256042     
   2644358498.1897802     
   2687217000.5677366     
   2688800505.2453117     
   2691388053.3683004     
   2694933420.6745796     
   2699402120.6549783     
   2733396170.5409327     
   2756584551.0873260     
   2774330089.8994761     
   2786228952.2062950     
   2791944200.2324624     
   2663023090.5803423     
   2645603703.3640633     
   2637180962.7757988     
   2637687387.1460881     
   2647092625.4137678     
   2631305495.2986808     
   2618266848.4115362     
   2613369341.9018741     
   2616604417.1251235     
   2627971728.3275628     
   2644358498.1897802     
   2631423744.9061165     
   2625658399.4508247     
   2627113164.2523165     
   2635837639.7760344     
   2699402120.6549783     
   2682954857.8425517     
   2672590523.7139516     
   2668404519.2682476     
   2670501932.6802764     
   2791944200.2324624     
   2769266738.6158552     
   2751470952.8090315     
   2738668007.9066010     
   2731007785.5037880     
   2647092625.4137678     
   2639200019.3027682     
   2641635797.6891208     
   2654396888.6489615     
   2677483141.8237391     
   2627971728.3275628     
   2617478410.7514000     
   2616650229.3812485     
   2625507040.7650671     
   2644069649.5050907     
   2635837639.7760344     
   2620149778.6937199     
   2613517761.6656842     
   2616008364.0169086     
   2627686561.8179402     
   2670501932.6802764     
   2647476520.1929564     
   2632913874.0911231     
   2626941322.2357907     
   2629683116.0189700     
   2731007785.5037880     
   2699052686.3529577     
   2674950426.4016471     
   2658890921.4628897     
   2651062733.7248607     
   2677483141.8237391     
   2675999634.2770600     
   2682043830.7855473     
   2695615979.7490044     
   2716716294.3037138     
   2644069649.5050907     
   2639502692.2088580     
   2643081560.9025850     
   2654813992.1018252     
   2674706971.1098270     
   2627686561.8179402     
   2618078318.8369079     
   2617287982.2809453     
   2625351501.4399390     
   2642301783.0854936     
   2629683116.0189700     
   2612880514.6245246     
   2605606488.5787201     
   2607953899.0629892     
   2620009148.4372129     
   2651062733.7248607     
   2624801060.7224102     
   2608788940.9741158     
   2603212038.6190486     
   2608246686.3568525     
   2716716294.3037138     
   2716241185.0473976     
   2726045705.5484486     
   2746128723.0562086     
   2776489711.3780618     
   2674706971.1098270     
   2673428958.9003334     
   2682220289.5814037     
   2701088084.7116222     
   2730037618.3566380     
   2642301783.0854936     
   2638163387.6902909     
   2644007942.1234665     
   2659870920.3370247     
   2685780214.5185657     
   2620009148.4372129     
   2610987006.2775373     
   2611962813.8641982     
   2623022082.1747231     
   2644234609.6365843     
   2608246686.3568525     
   2592399587.6138024     
   2586633687.7686892     
   2591108089.0472875     
   2605957156.0566783     
   2776489711.3780618     
   2768913106.8458467     
   2770168459.8297424     
   2780255733.1348748     
   2799174918.9405160     
   2730037618.3566380     
   2721301734.9985261     
   2721715147.2468271     
   2731281392.3782353     
   2750005336.5994883     
   2685780214.5185657     
   2675957758.6870546     
   2675747562.2341709     
   2685164570.6134834     
   2704229825.0556054     
   2644234609.6365843     
   2633265895.0330210     
   2632534841.6230931     
   2642078501.4147086     
   2661947453.5944209     
   2605957156.0566783     
   2593634755.6020741     
   2592357563.7003460     
   2602198805.1483417     
   2623254050.9232631     
   2799174918.9405160     
   2745582337.3837385     
   2697821172.2450371     
   2655891416.4990773     
   2619793067.9185863     
   2750005336.5994883     
   2697105377.6288295     
   2649842191.0155234     
   2608252389.1645870     
   2572387388.9457426     
   2704229825.0556054     
   2654083434.9743214     
   2609521253.9167247     
   2570690118.7867556     
   2537795288.1213965     
   2661947453.5944209     
   2616615977.8791642     
   2576958667.6711049     
   2543304726.9868555     
   2516112383.0076609     
   2623254050.9232631     
   2584793414.1676106     
   2552239857.9203305     
   2526171596.7756591     
   2507388683.4761653     
   2619793067.9185863     
   2430294466.9806547     
   2236055054.4806714     
   2037074829.3535867     
   1833353791.3033690     
   2572387388.9457426     
   2384786926.3716264     
   2194132811.0953431     
   2000803799.4507909     
   1805404614.9392791     
   2537795288.1213965     
   2357422845.0352097     
   2176796190.2032056     
   1997390344.5742052     
   1821489574.8852971     
   2516112383.0076609     
   2348232793.3705397     
   2183902628.4498558     
   2026230467.8340712     
   1879796595.2192590     
   2507388683.4761653     
   2357112713.8382330     
   2214985489.7160921     
   2086002533.6503730     
   1977066015.1235888     
   2733396170.5409327     
   2756584551.0873260     
   2774330089.8994761     
   2786228952.2062950     
   2791944200.2324624     
   2900861915.9900427     
   2887483090.7934523     
   2876399227.3623786     
   2867667824.5596089     
   2861362246.9877000     
   3126586610.5022311     
   3070932047.8693547     
   3024706447.5085325     
   2988226088.5203419     
   2961909373.0914612     
   3417893408.4849992     
   3312799648.9073458     
   3223007331.1735902     
   3148975768.7661872     
   3091519120.2584305     
   3779837850.9216290     
   3616627218.2801051     
   3473062679.6479759     
   3349652826.3910975     
   3247701525.3436718     
   2791944200.2324624     
   2769266738.6158552     
   2751470952.8090315     
   2738668007.9066010     
   2731007785.5037880     
   2861362246.9877000     
   2826869625.2799678     
   2796875223.1779418     
   2771545257.3354797     
   2751066122.2216368     
   2961909373.0914612     
   2916214469.6533074     
   2874763937.9529753     
   2837736169.5512652     
   2805323140.3599911     
   3091519120.2584305     
   3035426519.9876347     
   2983466735.5783024     
   2935793075.5806546     
   2892575567.1768193     
   3247701525.3436718     
   3182077175.2535710     
   3120624174.6711588     
   3063441007.5913963     
   3010653876.7600231     
   2731007785.5037880     
   2699052686.3529577     
   2674950426.4016471     
   2658890921.4628897     
   2651062733.7248607     
   2751066122.2216368     
   2707262227.0715108     
   2671565967.1549139     
   2644281237.7616496     
   2625721849.9695210     
   2805323140.3599911     
   2747564154.9559751     
   2697956149.9471045     
   2656929162.4883060     
   2624945335.2090726     
   2892575567.1768193     
   2819129490.4393201     
   2753647698.6416163     
   2696680062.3818688     
   2648842153.9037800     
   3010653876.7600231     
   2920193290.8716502     
   2837291860.6612711     
   2762593994.1522031     
   2696851679.4391718     
   2651062733.7248607     
   2624801060.7224102     
   2608788940.9741158     
   2603212038.6190486     
   2608246686.3568525     
   2625721849.9695210     
   2589535467.7986779     
   2562802294.4701881     
   2545818253.6049137     
   2538871609.9325585     
   2624945335.2090726     
   2576936259.2789464     
   2537481075.8240747     
   2506985164.0082035     
   2485856985.0454764     
   2648842153.9037800     
   2587824789.1712456     
   2534318407.7661781     
   2488815271.8246999     
   2451830270.5416794     
   2696851679.4391718     
   2622402105.4642076     
   2554278383.5995951     
   2493017195.0929732     
   2439201405.5750542     
   2608246686.3568525     
   2592399587.6138024     
   2586633687.7686892     
   2591108089.0472875     
   2605957156.0566783     
   2538871609.9325585     
   2510886786.3734431     
   2492870801.5635328     
   2485087530.9259262     
   2487769130.0163651     
   2485856985.0454764     
   2444001013.8108797     
   2411927152.6377773     
   2390031764.6422563     
   2378680688.2830205     
   2451830270.5416794     
   2394651728.7767344     
   2346906616.1208324     
   2309138658.0658588     
   2281876466.0537581     
   2439201405.5750542     
   2365690935.0355654     
   2301033240.9759970     
   2245908705.0689874     
   2201015513.6974206     
   2605957156.0566783     
   2593634755.6020741     
   2592357563.7003460     
   2602198805.1483417     
   2623254050.9232631     
   2487769130.0163651     
   2468656942.1851034     
   2461429166.4372163     
   2466217664.3274722     
   2483154644.3976784     
   2378680688.2830205     
   2350354526.2311239     
   2334898526.4249067     
   2332562995.1857328     
   2343567790.7998457     
   2281876466.0537581     
   2241544748.1610889     
   2215152120.8395309     
   2203157285.4555888     
   2205952009.9851341     
   2201015513.6974206     
   2145599818.7946231     
   2105153551.6486189     
   2080466613.0162926     
   2072232190.4725420     
   2623254050.9232631     
   2584793414.1676106     
   2552239857.9203305     
   2526171596.7756591     
   2507388683.4761653     
   2483154644.3976784     
   2450444463.3293676     
   2426299247.5388741     
   2411663875.1780133     
   2407911821.5461559     
   2343567790.7998457     
   2319119795.5232487     
   2306195965.5303235     
   2306203551.4501638     
   2321235361.6315560     
   2205952009.9851341     
   2191598056.9346037     
   2192213168.2914252     
   2209769588.0101905     
   2247201397.7736959     
   2072232190.4725420     
   2068851500.0923908     
   2084668981.9839532     
   2122318659.7367618     
   2185638120.9672523     
   2507388683.4761653     
   2357112713.8382330     
   2214985489.7160921     
   2086002533.6503730     
   1977066015.1235888     
   2407911821.5461559     
   2282731388.6043911     
   2168045120.7425885     
   2070598123.8463962     
   1999166303.1585217     
   2321235361.6315560     
   2224619910.0330739     
   2141333003.6849017     
   2079731388.3298883     
   2049972775.4799066     
   2247201397.7736959     
   2182568730.4010320     
   2134378258.0771983     
   2112272512.5047300     
   2127150598.7927797     
   2185638120.9672523     
   2156283234.6319280     
   2146533414.8072338     
   2166871833.9832101     
   2228315545.3552022     
   3779837850.9216290     
   3616627218.2801051     
   3473062679.6479759     
   3349652826.3910975     
   3247701525.3436718     
   4009709296.3705001     
   3846015624.3061662     
   3690141446.4514079     
   3542739350.2554784     
   3404706589.0866365     
   4210894935.3205276     
   4060515460.3512263     
   3910370178.0177960     
   3760378755.9083862     
   3610475434.0265470     
   4363075762.0407677     
   4244875583.8150287     
   4122639764.4237323     
   3994959224.6380391     
   3860704276.8803182     
   4453974867.3314800     
   4389260945.5299768     
   4319159426.4980268     
   4240391171.2326965     
   4150823780.6120410     
   3247701525.3436718     
   3182077175.2535710     
   3120624174.6711588     
   3063441007.5913963     
   3010653876.7600231     
   3404706589.0866365     
   3324920237.2771153     
   3249791332.2361164     
   3179590001.0738139     
   3114644341.5832667     
   3610475434.0265470     
   3512697421.3794866     
   3419454579.8253784     
   3331081968.7348685     
   3248051607.9226480     
   3860704276.8803182     
   3741158284.6826558     
   3625564763.1337614     
   3514186952.5967636     
   3407534397.6516905     
   4150823780.6120410     
   4005798674.4311838     
   3863858591.1648531     
   3725043932.6813335     
   3589758528.8292398     
   3010653876.7600231     
   2920193290.8716502     
   2837291860.6612711     
   2762593994.1522031     
   2696851679.4391718     
   3114644341.5832667     
   3007351884.7746634     
   2906468822.8895459     
   2812623468.1934958     
   2726564736.7141690     
   3248051607.9226480     
   3125110077.0305424     
   3007529051.9478269     
   2895870282.4427161     
   2790820588.8320746     
   3407534397.6516905     
   3270404690.3133326     
   3137752319.6093469     
   3010041581.2420821     
   2887857749.7790799     
   3589758528.8292398     
   3439996294.7959776     
   3294032817.3978186     
   3152223601.2735000     
   3015036237.8654408     
   2696851679.4391718     
   2622402105.4642076     
   2554278383.5995951     
   2493017195.0929732     
   2439201405.5750542     
   2726564736.7141690     
   2637047769.1879358     
   2552745993.1513972     
   2474198442.3258495     
   2402017014.9341850     
   2790820588.8320746     
   2687164645.4617949     
   2587525835.6818414     
   2492382518.4604383     
   2402300355.2830791     
   2887857749.7790799     
   2771559999.7615232     
   2658115179.4196358     
   2547894807.2425709     
   2441354640.4983401     
   3015036237.8654408     
   2887937573.9796290     
   2762668070.6860003     
   2639475865.2464814     
   2518676220.4509225     
   2439201405.5750542     
   2365690935.0355654     
   2301033240.9759970     
   2245908705.0689874     
   2201015513.6974206     
   2402017014.9341850     
   2310631788.9825635     
   2227260740.7136426     
   2152722681.4258866     
   2087914786.7159708     
   2402300355.2830791     
   2292917842.4873958     
   2190332872.9828267     
   2095404959.9101524     
   2009139669.4251504     
   2441354640.4983401     
   2314831589.4761949     
   2193645718.6039095     
   2078568603.3863771     
   1970561454.6446786     
   2518676220.4509225     
   2376693555.8962474     
   2238558947.5655642     
   2104850129.3575943     
   1976331074.0462630     
   2201015513.6974206     
   2145599818.7946231     
   2105153551.6486189     
   2080466613.0162926     
   2072232190.4725420     
   2087914786.7159708     
   2012590962.0923524     
   1949586820.8951011     
   1899988196.6864898     
   1864830942.3795485     
   2009139669.4251504     
   1912691899.7382338     
   1824944864.0009232     
   1747082991.0219369     
   1680382072.2069855     
   1970561454.6446786     
   1854750845.5073872     
   1743246916.9246492     
   1636936851.9449573     
   1536907447.8128016     
   1976331074.0462630     
   1846415165.5780826     
   1716526870.0745959     
   1586978403.1458347     
   1458221074.3480575     
   2072232190.4725420     
   2068851500.0923908     
   2084668981.9839532     
   2122318659.7367618     
   2185638120.9672523     
   1864830942.3795485     
   1854509383.1528745     
   1867153021.2832685     
   1904967975.1027720     
   1970990304.6997497     
   1680382072.2069855     
   1652031779.7812357     
   1651418222.3836589     
   1680910371.7722297     
   1743108658.5613258     
   1536907447.8128016     
   1476046168.7141113     
   1447894458.3090293     
   1456436134.1558154     
   1504959520.0380664     
   1458221074.3480575     
   1349012878.0598483     
   1274760407.3729324     
   1243637456.9112730     
   1262709613.4909048     
   2185638120.9672523     
   2156283234.6319280     
   2146533414.8072338     
   2166871833.9832101     
   2228315545.3552022     
   1970990304.6997497     
   1969034494.5020816     
   2003630980.9305458     
   2093440617.5354793     
   2257102654.8373289     
   1743108658.5613258     
   1787796451.1973286     
   1884632337.8284667     
   2060539312.4092338     
   2340765806.2889891     
   1504959520.0380664     
   1613283020.7967429     
   1788797466.4634378     
   2066290010.5159347     
   2476023094.5482111     
   1262709613.4909048     
   1446533823.4959686     
   1715562749.9595833     
   2110428056.6024678     
   2663657636.1018605     
   4453974867.3314800     
   4389260945.5299768     
   4319159426.4980268     
   4240391171.2326965     
   4150823780.6120410     
   4696823525.2193756     
   4614280907.4737568     
   4536809543.2944336     
   4464434866.4243860     
   4397364372.4048386     
   5188618982.2369976     
   5024607755.2461214     
   4874224092.9623432     
   4734864313.0916233     
   4606930479.8950014     
   5933605775.9370346     
   5622452844.0156488     
   5330094379.1784258     
   5047303981.4299393     
   4773149410.5158529     
   6936208171.4212189     
   6407460774.3792114     
   5900666503.4437456     
   5397401749.7651806     
   4893096441.7455626     
   4150823780.6120410     
   4005798674.4311838     
   3863858591.1648531     
   3725043932.6813335     
   3589758528.8292398     
   4397364372.4048386     
   4245941823.0454526     
   4093349017.2862539     
   3939590745.1778378     
   3784746025.8233333     
   4606930479.8950014     
   4464021061.0791302     
   4318292080.1246510     
   4169487066.0942750     
   4017445834.7750354     
   4773149410.5158529     
   4654568409.5956526     
   4533869146.8474655     
   4410310973.5756235     
   4283568129.7962456     
   4893096441.7455626     
   4814473820.9992504     
   4736818457.4483929     
   4658548179.9535885     
   4579080688.7052622     
   3589758528.8292398     
   3439996294.7959776     
   3294032817.3978186     
   3152223601.2735000     
   3015036237.8654408     
   3784746025.8233333     
   3621381044.6887174     
   3460951957.3054285     
   3303735919.5344682     
   3150121135.2525625     
   4017445834.7750354     
   3840753004.3601108     
   3666129984.6242528     
   3493751871.8090110     
   3323896031.2659321     
   4283568129.7962456     
   4093691944.9752913     
   3905063683.2896352     
   3717745888.5173950     
   3531889848.8718901     
   4579080688.7052622     
   4375999349.3096695     
   4173416358.5884638     
   3971280601.3829694     
   3769614395.6877275     
   3015036237.8654408     
   2887937573.9796290     
   2762668070.6860003     
   2639475865.2464814     
   2518676220.4509225     
   3150121135.2525625     
   3011385463.8804998     
   2874540531.4878149     
   2739810750.8996921     
   2607515683.6275835     
   3323896031.2659321     
   3171795709.2347679     
   3021287766.2964005     
   2872525037.6414499     
   2725786390.8710051     
   3531889848.8718901     
   3364332272.0735230     
   3197765295.5240984     
   3032226694.0291834     
   2867909509.8952055     
   3769614395.6877275     
   3584243948.7185106     
   3399034160.3588762     
   3213871232.3681250     
   3028820260.7842884     
   2518676220.4509225     
   2376693555.8962474     
   2238558947.5655642     
   2104850129.3575943     
   1976331074.0462630     
   2607515683.6275835     
   2456281270.8287940     
   2306912722.9211245     
   2159717500.3885999     
   2015108898.5646718     
   2725786390.8710051     
   2568873238.6342635     
   2412496900.2591763     
   2256757731.1262784     
   2101789165.2525580     
   2867909509.8952055     
   2709072136.7107348     
   2550111560.9622860     
   2391030980.8962674     
   2231835324.7541862     
   3028820260.7842884     
   2871693831.6125350     
   2714371910.7891269     
   2556860671.9437485     
   2399178890.3031702     
   1976331074.0462630     
   1846415165.5780826     
   1716526870.0745959     
   1586978403.1458347     
   1458221074.3480575     
   2015108898.5646718     
   1878915583.8525200     
   1743175891.7109003     
   1608017669.5741034     
   1473616084.3643467     
   2101789165.2525580     
   1961580557.7943296     
   1822484446.4107480     
   1684541277.7796113     
   1547826259.9741113     
   2231835324.7541862     
   2088148963.9751291     
   1946184026.2427268     
   1805943807.1626062     
   1667513084.2588465     
   2399178890.3031702     
   2250938946.1199727     
   2104786510.9498003     
   1960712315.1737466     
   1818875225.5491178     
   1458221074.3480575     
   1349012878.0598483     
   1274760407.3729324     
   1243637456.9112730     
   1262709613.4909048     
   1473616084.3643467     
   1329214989.1094141     
   1199203573.4974122     
   1088068403.2333832     
   1001720737.3674165     
   1547826259.9741113     
   1397919370.4789016     
   1244381920.9912038     
   1084929980.5539985     
   917522588.45120156     
   1667513084.2588465     
   1552268424.1864226     
   1427883861.6325736     
   1294723095.8845627     
   1158958390.0033355     
   1818875225.5491178     
   1778643575.0154376     
   1734949550.3733447     
   1696428894.2311964     
   1681620805.8256588     
   1262709613.4909048     
   1446533823.4959686     
   1715562749.9595833     
   2110428056.6024678     
   2663657636.1018605     
   1001720737.3674165     
   1164480069.7929616     
   1425301993.8931670     
   1808767996.8924870     
   2334994877.2246833     
   917522588.45120156     
   962931238.84740591     
   1144834548.7008517     
   1476540823.2569089     
   1957708174.7836969     
   1158958390.0033355     
   1008448388.3490391     
   985223533.08699226     
   1161562848.9853733     
   1544309995.7757249     
   1681620805.8256588     
   1384027818.0485365     
   1129662268.0925269     
   1010262551.7448822     
   1153105134.3295519     
 </DataArray>
 <DataArray  type="Float64" Name="strain" NumberOfComponents="3" format="ascii">
  0.11534015157868582       -2.8980623086322432E-002   1.0355030169392432E-002
  0.10679361863327930       -2.8419509569801438E-002   3.3693318247429715E-005
   9.8247085687872882E-002  -2.7773506393075964E-002  -5.7837635208929372E-003
   8.9700552742466411E-002  -2.7042613556146594E-002  -7.0973403480291408E-003
   8.1154019797059940E-002  -2.6226831059012690E-002  -3.9070371631609868E-003
   9.8406998117077760E-002  -2.7542196219366155E-002   1.3604126645543446E-002
   9.3670282561083285E-002  -2.6795231321588509E-002   6.7962415831966383E-003
   8.8933567005088865E-002  -2.6052299900252679E-002   3.1041112876699639E-003
   8.4196851449094445E-002  -2.5313401955358326E-002   2.5277357589630900E-003
   7.9460135893100081E-002  -2.4578537486905749E-002   5.0671149970759610E-003
   8.5640930974978824E-002  -2.6103769352409822E-002   1.7083536071273442E-002
   8.3325907563212037E-002  -2.5170953073375690E-002   1.3700179661079365E-002
   8.1010884151445112E-002  -2.4331093407429227E-002   1.2044452772521086E-002
   7.8695860739678214E-002  -2.3584190354570059E-002   1.2116355405597565E-002
   7.6380837327911344E-002  -2.2930243914798532E-002   1.3915887560309453E-002
   7.7041950152389599E-002  -2.4665342485453545E-002   2.0793258446583335E-002
   7.5760493639665638E-002  -2.3546674825162914E-002   2.0745507551896088E-002
   7.4479037126941677E-002  -2.2609886914605748E-002   2.1037260933659457E-002
   7.3197580614217744E-002  -2.1854978753781791E-002   2.1668518591873791E-002
   7.1916124101493742E-002  -2.1281950342691230E-002   2.2639280526538512E-002
   7.2610055649309613E-002  -2.3226915618497213E-002   2.4733293771472431E-002
   7.0974040790444060E-002  -2.1922396576950276E-002   2.7932225255646259E-002
   6.9338025931578479E-002  -2.0888680421782310E-002   3.0082535771085800E-002
   6.7702011072712828E-002  -2.0125767152993659E-002   3.1184225317791789E-002
   6.6065996213847289E-002  -1.9633656770584096E-002   3.1237293895763796E-002
   8.1154019797059940E-002  -2.6226831059012690E-002  -3.9070371631609868E-003
   7.9963373343397870E-002  -2.5353914073095563E-002  -1.0077768164875600E-003
   7.8772726889735745E-002  -2.4451617769814554E-002   8.2708210595744402E-004
   7.7582080436073619E-002  -2.3519942149170837E-002   1.5975396041746359E-003
   7.6391433982411550E-002  -2.2558887211163281E-002   1.3035956781630720E-003
   7.9460135893100081E-002  -2.4578537486905749E-002   5.0671149970759610E-003
   7.7399961996125310E-002  -2.3816044699194072E-002   6.8201693795978957E-003
   7.5339788099150484E-002  -2.2994261796521920E-002   7.8985702997226293E-003
   7.3279614202175741E-002  -2.2113188778890472E-002   8.3023177574502310E-003
   7.1219440305200943E-002  -2.1172825646298743E-002   8.0314117527808260E-003
   7.6380837327911344E-002  -2.2930243914798532E-002   1.3915887560309453E-002
   7.3840883949455094E-002  -2.2278175325292388E-002   1.4552646776276101E-002
   7.1300930570998788E-002  -2.1536905823229383E-002   1.4904500491676950E-002
   6.8760977192542483E-002  -2.0706435408610103E-002   1.4971448706511993E-002
   6.6221023814086261E-002  -1.9786764081433983E-002   1.4753491420780973E-002
   7.1916124101493742E-002  -2.1281950342691230E-002   2.2639280526538512E-002
   6.9286139203387220E-002  -2.0740305951390689E-002   2.2189655373546960E-002
   6.6656154305280629E-002  -2.0079549849936852E-002   2.1844872681820737E-002
   6.4026169407174038E-002  -1.9299682038329734E-002   2.1604932451359943E-002
   6.1396184509067517E-002  -1.8400702516569223E-002   2.1469834682164179E-002
   6.6065996213847289E-002  -1.9633656770584096E-002   3.1237293895763796E-002
   6.3735727757921606E-002  -1.9202436577489268E-002   2.9731195171410540E-002
   6.1405459301995952E-002  -1.8622193876644336E-002   2.8719686870153888E-002
   5.9075190846070311E-002  -1.7892928668049399E-002   2.8202768991993712E-002
   5.6744922390144670E-002  -1.7014640951704518E-002   2.8180441536929945E-002
   7.6391433982411550E-002  -2.2558887211163281E-002   1.3035956781630720E-003
   7.3017982046895413E-002  -2.1594673451254764E-002   7.7723797787987436E-004
   6.9644530111379166E-002  -2.0653521364906058E-002   4.9168821749195901E-004
   6.6271078175862974E-002  -1.9735430952117522E-002   4.4694639699927041E-004
   6.2897626240346782E-002  -1.8840402212888963E-002   6.4301251640197510E-004
   7.1219440305200943E-002  -2.1172825646298743E-002   8.0314117527808260E-003
   6.8076862841209729E-002  -2.0221588135775570E-002   7.6383962538945083E-003
   6.4934285377218570E-002  -1.9307891984349873E-002   7.4663217581634189E-003
   6.1791707913227384E-002  -1.8431737192021007E-002   7.5151882655865448E-003
   5.8649130449236198E-002  -1.7593123758789408E-002   7.7849957761647604E-003
   6.6221023814086261E-002  -1.9786764081433983E-002   1.4753491420780973E-002
   6.3289453884879651E-002  -1.8848502820296653E-002   1.4479338437755035E-002
   6.0357883955672931E-002  -1.7962262603793688E-002   1.4406259521143244E-002
   5.7426314026466224E-002  -1.7128043431924825E-002   1.4534254670945684E-002
   5.4494744097259545E-002  -1.6345845304689965E-002   1.4863323887162549E-002
   6.1396184509067517E-002  -1.8400702516569223E-002   2.1469834682164179E-002
   5.8655755177904834E-002  -1.7475417504817764E-002   2.1300064529461017E-002
   5.5915325846742255E-002  -1.6616633223237504E-002   2.1311501506431796E-002
   5.3174896515579606E-002  -1.5824349671828365E-002   2.1504145613076529E-002
   5.0434467184416999E-002  -1.5098566850590578E-002   2.1877996849394427E-002
   5.6744922390144670E-002  -1.7014640951704518E-002   2.8180441536929945E-002
   5.4175766720285623E-002  -1.6102332189338681E-002   2.8100574529012934E-002
   5.1606611050426549E-002  -1.5271003842681347E-002   2.8182047714028935E-002
   4.9037455380567543E-002  -1.4520655911732329E-002   2.8424861091978559E-002
   4.6468299710708427E-002  -1.3851288396491246E-002   2.8829014662861419E-002
   6.2897626240346782E-002  -1.8840402212888963E-002   6.4301251640197510E-004
   5.9766671998327414E-002  -1.7963520242131659E-002  -2.8358039303788551E-005
   5.6635717756307880E-002  -1.7099870134756667E-002  -3.0798975468104839E-004
   5.3504763514288373E-002  -1.6249451890764655E-002  -1.9588262972866644E-004
   5.0373809272268977E-002  -1.5412265510154732E-002   3.0796333555227484E-004
   5.8649130449236198E-002  -1.7593123758789408E-002   7.7849957761647604E-003
   5.5871830254729138E-002  -1.6773457741640407E-002   7.1628571985511980E-003
   5.3094530060222134E-002  -1.5954145197559888E-002   6.8562878756330270E-003
   5.0317229865715102E-002  -1.5135186126547101E-002   6.8652878074110801E-003
   4.7539929671208070E-002  -1.4316580528602740E-002   7.1898569938843027E-003
   5.4494744097259545E-002  -1.6345845304689965E-002   1.4863323887162549E-002
   5.1994928364631821E-002  -1.5583395241149545E-002   1.4303295677955352E-002
   4.9495112632003999E-002  -1.4808420260362665E-002   1.3982667137810212E-002
   4.6995296899376184E-002  -1.4020920362329881E-002   1.3901438266728003E-002
   4.4495481166748452E-002  -1.3220895547050748E-002   1.4059609064708323E-002
   5.0434467184416999E-002  -1.5098566850590578E-002   2.1877996849394427E-002
   4.8135966328035323E-002  -1.4393332740658266E-002   2.1392957398907786E-002
   4.5837465471653530E-002  -1.3662695323165441E-002   2.1071148031850485E-002
   4.3538964615271784E-002  -1.2906654598112161E-002   2.0912568748222546E-002
   4.1240463758890053E-002  -1.2125210565498312E-002   2.0917219548024404E-002
   4.6468299710708427E-002  -1.3851288396491246E-002   2.8829014662861419E-002
   4.4294944144939563E-002  -1.3203270240166987E-002   2.8431842361409554E-002
   4.2121588579170727E-002  -1.2516970385968232E-002   2.8121730557754104E-002
   3.9948233013401890E-002  -1.1792388833894527E-002   2.7898679251894917E-002
   3.7774877447633026E-002  -1.1029525583946209E-002   2.7762688443831895E-002
   5.0373809272268977E-002  -1.5412265510154732E-002   3.0796333555227484E-004
   4.7782884750107724E-002  -1.4573054938961882E-002   3.8678711556783263E-004
   4.5191960227946470E-002  -1.3716564123219699E-002   3.7876738149267286E-004
   4.2601035705785217E-002  -1.2842793062928889E-002   2.8390413332662900E-004
   4.0010111183623964E-002  -1.1951741758088552E-002   1.0219737106975657E-004
   4.7539929671208070E-002  -1.4316580528602740E-002   7.1898569938843027E-003
   4.4893249830162352E-002  -1.3493858090427802E-002   7.1021337647466654E-003
   4.2246569989116634E-002  -1.2662548498723225E-002   6.9897434119309820E-003
   3.9599890148070915E-002  -1.1822651753489663E-002   6.8526859354369474E-003
   3.6953210307025253E-002  -1.0974167854725936E-002   6.6909613352643671E-003
   4.4495481166748452E-002  -1.3220895547050748E-002   1.4059609064708323E-002
   4.1855222397230746E-002  -1.2414661241893443E-002   1.3796645735397794E-002
   3.9214963627713095E-002  -1.1608532874226779E-002   1.3571191672821753E-002
   3.6574704858195417E-002  -1.0802510444049999E-002   1.3383246876979879E-002
   3.3934446088677739E-002  -9.9965939513635416E-003   1.3232811347872186E-002
   4.1240463758890053E-002  -1.2125210565498312E-002   2.0917219548024404E-002
   3.8668802451312934E-002  -1.1335464393359446E-002   2.0470323027521650E-002
   3.6097141143735856E-002  -1.0554517249730319E-002   2.0123112164165353E-002
   3.3525479836158729E-002  -9.7823691346107765E-003   1.9875586957955962E-002
   3.0953818528581659E-002  -9.0190200480009253E-003   1.9727747408893478E-002
   3.7774877447633026E-002  -1.1029525583946209E-002   2.7762688443831895E-002
   3.5333989992408887E-002  -1.0256267544825171E-002   2.7123165641116886E-002
   3.2893102537184915E-002  -9.5005016252338037E-003   2.6645504885961402E-002
   3.0452215081960832E-002  -8.7622278251713731E-003   2.6329706178365248E-002
   2.8011327626736804E-002  -8.0414461446385310E-003   2.6175769518328340E-002
   4.0010111183623964E-002  -1.1951741758088552E-002   1.0219737106975657E-004
   3.7552514425744588E-002  -1.1130505122392442E-002  -2.7309161030952822E-004
   3.5094917667865100E-002  -1.0466178069534149E-002  -5.1872993655843747E-004
   3.2637320909985668E-002  -9.9587605995131306E-003  -6.3471760767658258E-004
   3.0179724152106235E-002  -9.6082527123291239E-003  -6.2105462366335296E-004
   3.6953210307025253E-002  -1.0974167854725936E-002   6.6909613352643671E-003
   3.4600719574980621E-002  -1.0174113043659894E-002   6.1980869269597783E-003
   3.2248228842935933E-002  -9.4795035615173884E-003   5.7857739151938037E-003
   2.9895738110891357E-002  -8.8903394082984200E-003   5.4540222999670540E-003
   2.7543247378846780E-002  -8.4066205840032104E-003   5.2028320812790296E-003
   3.3934446088677739E-002  -9.9965939513635416E-003   1.3232811347872186E-002
   3.1637972123876063E-002  -9.2177209649271230E-003   1.2673815766556407E-002
   2.9341498159074386E-002  -8.4928290535003781E-003   1.2146292323186980E-002
   2.7045024194272696E-002  -7.8219182170839244E-003   1.1650241017765087E-002
   2.4748550229471034E-002  -7.2049884556769639E-003   1.1185661850289741E-002
   3.0953818528581659E-002  -9.0190200480009253E-003   1.9727747408893478E-002
   2.8664272072430899E-002  -8.2613288861944634E-003   1.9154094908479996E-002
   2.6374725616280230E-002  -7.5061545454839368E-003   1.8562825287420794E-002
   2.4085179160129647E-002  -6.7534970258693212E-003   1.7953938545717359E-002
   2.1795632703978857E-002  -6.0033563273513280E-003   1.7327434683368684E-002
   2.8011327626736804E-002  -8.0414461446385310E-003   2.6175769518328340E-002
   2.5679619420645283E-002  -7.3049368074614707E-003   2.5638924352730075E-002
   2.3347911214553707E-002  -6.5194800374668571E-003   2.5035372807895639E-002
   2.1016203008462117E-002  -5.6850758346550026E-003   2.4365114883824396E-002
   1.8684494802370610E-002  -4.8017241990253590E-003   2.3628150580516372E-002
   3.0179724152106235E-002  -9.6082527123291239E-003  -6.2105462366335296E-004
   2.9581583005027001E-002  -9.1339826218675979E-003  -3.5847068957717276E-004
   2.8983441857947878E-002  -8.2552785420130781E-003  -1.7869489994616350E-003
   2.8385300710868755E-002  -6.9721404727664943E-003  -4.9064895533157404E-003
   2.7787159563789521E-002  -5.2845684141269444E-003  -9.7170923511398222E-003
   2.7543247378846780E-002  -8.4066205840032104E-003   5.2028320812790296E-003
   2.5525128725610802E-002  -7.8707666110200414E-003   5.8853551849067376E-003
   2.3507010072374740E-002  -7.1251970117395813E-003   5.4189855201912662E-003
   2.1488891419138720E-002  -6.1699117861612057E-003   3.8037230871319216E-003
   1.9470772765902811E-002  -5.0049109342844567E-003   1.0395678857288981E-003
   2.4748550229471034E-002  -7.2049884556769639E-003   1.1185661850289741E-002
   2.1852623545704442E-002  -6.6075506001736506E-003   1.2093405760365605E-002
   1.8956696861937794E-002  -5.9951154814667784E-003   1.2394426377723616E-002
   1.6060770178171146E-002  -5.3676830995563682E-003   1.2088723702364232E-002
   1.3164843494404554E-002  -4.7252534544424130E-003   1.1176297734286966E-002
   2.1795632703978857E-002  -6.0033563273513280E-003   1.7327434683368684E-002
   1.8564067465307879E-002  -5.3443345893267880E-003   1.8265681036797349E-002
   1.5332502226636881E-002  -4.8650339511936286E-003   1.9139373573134895E-002
   1.2100936987965924E-002  -4.5654544129513051E-003   1.9948512292380555E-002
   8.8693717492949048E-003  -4.4455959746005913E-003   2.0693097194535659E-002
   1.8684494802370610E-002  -4.8017241990253590E-003   2.3628150580516372E-002
   1.5659460484421406E-002  -4.0811185784799808E-003   2.4402181014203106E-002
   1.2634426166472174E-002  -3.7349524209202289E-003   2.5653827106424942E-002
   9.6093918485229413E-003  -3.7632257263463462E-003   2.7383088857181687E-002
   6.5843575305737367E-003  -4.1659384947583256E-003   2.9589966266472922E-002
   2.7787159563789521E-002  -5.2845684141269444E-003  -9.7170923511398222E-003
   2.3358846558385715E-002  -4.2070613978315574E-003  -4.1908408909019368E-003
   1.8930533552981799E-002  -4.7541184556167959E-003   2.6015632093928653E-003
   1.4502220547577882E-002  -6.9257395874840477E-003   1.0660119949743696E-002
   1.0073907542174076E-002  -1.0721924793431370E-002   1.9984829330149445E-002
   1.9470772765902811E-002  -5.0049109342844567E-003   1.0395678857288981E-003
   1.6235817630647853E-002  -4.6908705549671970E-003   6.7353817797000115E-003
   1.3000862495392951E-002  -6.2884667470659017E-003   1.3551758773912570E-002
   9.7659073601381874E-003  -9.7976995105797243E-003   2.1488698868367573E-002
   6.5309522248830909E-003  -1.5218568845509761E-002   3.0546202063064243E-002
   1.3164843494404554E-002  -4.7252534544424130E-003   1.1176297734286966E-002
   1.0977656689484389E-002  -5.1746797121027255E-003   1.6754601564656135E-002
   8.7904698845641949E-003  -7.8228150385130091E-003   2.3307878955452666E-002
   6.6032830796439457E-003  -1.2669659433675290E-002   3.0836129906676835E-002
   4.4160962747237242E-003  -1.9715212897588152E-002   3.9339354418328254E-002
   8.8693717492949048E-003  -4.4455959746005913E-003   2.0693097194535659E-002
   7.5843637348951068E-003  -5.6584888692376434E-003   2.5866818463967364E-002
   6.2993557204953574E-003  -9.3571633299613377E-003   3.1869923754012625E-002
   5.0143477060954414E-003  -1.5541619356770911E-002   3.8702413064671273E-002
   3.7293396916959209E-003  -2.4211856949666100E-002   4.6364286395942256E-002
   6.5843575305737367E-003  -4.1659384947583256E-003   2.9589966266472922E-002
   6.0559387668800424E-003  -6.1422980263734495E-003   3.4072032477633352E-002
   5.5275200031862926E-003  -1.0891511621409611E-002   3.9237893169591698E-002
   4.9991012394925705E-003  -1.8413579279866685E-002   4.5087548342349848E-002
   4.4706824757988484E-003  -2.8708501001744491E-002   5.1620997995906137E-002
   7.2610055649309613E-002  -2.3226915618497213E-002   2.4733293771472431E-002
   7.0974040790444060E-002  -2.1922396576950276E-002   2.7932225255646259E-002
   6.9338025931578479E-002  -2.0888680421782310E-002   3.0082535771085800E-002
   6.7702011072712828E-002  -2.0125767152993659E-002   3.1184225317791789E-002
   6.6065996213847289E-002  -1.9633656770584096E-002   3.1237293895763796E-002
   6.9530191087148474E-002  -2.0965512731598857E-002   3.2122461400832136E-002
   6.7076542035762438E-002  -1.9957318083590608E-002   3.3864891640878109E-002
   6.4622892984376290E-002  -1.9127243714541789E-002   3.5020674464616930E-002
   6.2169243932990212E-002  -1.8475289624452457E-002   3.5589809872048628E-002
   5.9715594881604078E-002  -1.8001455813322631E-002   3.5572297863173508E-002
   6.4987300087315361E-002  -1.8704109844700501E-002   3.9168963332943493E-002
   6.2177990395835561E-002  -1.7992239590231038E-002   3.9547574936281180E-002
   5.9368680704355879E-002  -1.7365807007301247E-002   3.9801512675738650E-002
   5.6559371012876142E-002  -1.6824812095911204E-002   3.9930776551316008E-002
   5.3750061321396370E-002  -1.6369254856060972E-002   3.9935366563013289E-002
   5.8981382649810149E-002  -1.6442706957802158E-002   4.5872799567806002E-002
   5.6278385870663750E-002  -1.6027161096871433E-002   4.4980275141855444E-002
   5.3575389091517212E-002  -1.5604370300060743E-002   4.4425050404451286E-002
   5.0872392312370743E-002  -1.5174334567370003E-002   4.4207125355593950E-002
   4.8169395533224274E-002  -1.4737053898799493E-002   4.4326499995283250E-002
   5.1512438774632963E-002  -1.4181304070903789E-002   5.2233970105420136E-002
   4.9377728460246656E-002  -1.4062082603511855E-002   5.0162992257600514E-002
   4.7243018145860294E-002  -1.3842933592820225E-002   4.8891287650754706E-002
   4.5108307831473959E-002  -1.3523857038828798E-002   4.8418856284882392E-002
   4.2973597517087597E-002  -1.3104852941537848E-002   4.8745698159983697E-002
   6.6065996213847289E-002  -1.9633656770584096E-002   3.1237293895763796E-002
   6.3735727757921606E-002  -1.9202436577489268E-002   2.9731195171410540E-002
   6.1405459301995952E-002  -1.8622193876644336E-002   2.8719686870153888E-002
   5.9075190846070311E-002  -1.7892928668049399E-002   2.8202768991993712E-002
   5.6744922390144670E-002  -1.7014640951704518E-002   2.8180441536929945E-002
   5.9715594881604078E-002  -1.8001455813322631E-002   3.5572297863173508E-002
   5.7823642475232542E-002  -1.7559726408877416E-002   3.4526259523983319E-002
   5.5931690068861034E-002  -1.7004085538842237E-002   3.3862262860804862E-002
   5.4039737662489484E-002  -1.6334533203217119E-002   3.3580307873638221E-002
   5.2147785256117990E-002  -1.5551069402001960E-002   3.3680394562483423E-002
   5.3750061321396370E-002  -1.6369254856060972E-002   3.9935366563013289E-002
   5.2183876217494166E-002  -1.5917016240265619E-002   3.9314277566826303E-002
   5.0617691113591941E-002  -1.5385977201040242E-002   3.8962681499566158E-002
   4.9051506009689744E-002  -1.4776137738384836E-002   3.8880578361233042E-002
   4.7485320905787512E-002  -1.4087497852299430E-002   3.9067968151826782E-002
   4.8169395533224274E-002  -1.4737053898799493E-002   4.4326499995283250E-002
   4.6816428984706587E-002  -1.4274306071653850E-002   4.4095249299939507E-002
   4.5463462436188831E-002  -1.3767868863238168E-002   4.4020942786437742E-002
   4.4110495887671096E-002  -1.3217742273552581E-002   4.4103580454777969E-002
   4.2757529339153388E-002  -1.2623926302596913E-002   4.4343162304960611E-002
   4.2973597517087597E-002  -1.3104852941537848E-002   4.8745698159983697E-002
   4.1721300776869585E-002  -1.2631595903042026E-002   4.8869174723322861E-002
   4.0469004036651601E-002  -1.2149760525436162E-002   4.9037046721419508E-002
   3.9216707296433582E-002  -1.1659346808720304E-002   4.9249314154273235E-002
   3.7964410556215578E-002  -1.1160354752894341E-002   4.9505977021884529E-002
   5.6744922390144670E-002  -1.7014640951704518E-002   2.8180441536929945E-002
   5.4175766720285623E-002  -1.6102332189338681E-002   2.8100574529012934E-002
   5.1606611050426549E-002  -1.5271003842681347E-002   2.8182047714028935E-002
   4.9037455380567543E-002  -1.4520655911732329E-002   2.8424861091978559E-002
   4.6468299710708427E-002  -1.3851288396491246E-002   2.8829014662861419E-002
   5.2147785256117990E-002  -1.5551069402001960E-002   3.3680394562483423E-002
   4.9748300056772388E-002  -1.4738550621539226E-002   3.3475139654441211E-002
   4.7348814857426827E-002  -1.3981833348171435E-002   3.3447885494492555E-002
   4.4949329658081218E-002  -1.3280917581898491E-002   3.3598632082637352E-002
   4.2549844458735636E-002  -1.2635803322720296E-002   3.3927379418876358E-002
   4.7485320905787512E-002  -1.4087497852299430E-002   3.9067968151826782E-002
   4.5272166732115773E-002  -1.3374769053739702E-002   3.8762504252272803E-002
   4.3059012558444125E-002  -1.2692662853661565E-002   3.8651701655973023E-002
   4.0845858384772393E-002  -1.2041179252064816E-002   3.8735560362927045E-002
   3.8632704211100738E-002  -1.1420318248949429E-002   3.9014080373135238E-002
   4.2757529339153388E-002  -1.2623926302596913E-002   4.4343162304960611E-002
   4.0747366746315891E-002  -1.2010987485940157E-002   4.3962668322508204E-002
   3.8737204153478352E-002  -1.1403492359151564E-002   4.3793496198470463E-002
   3.6727041560640841E-002  -1.0801440922231115E-002   4.3835645932846994E-002
   3.4716878967803268E-002  -1.0204833175178576E-002   4.4089117525637739E-002
   3.7964410556215578E-002  -1.1160354752894341E-002   4.9505977021884529E-002
   3.6173900099372630E-002  -1.0647205918140751E-002   4.9075631865147462E-002
   3.4383389642529655E-002  -1.0114321864641659E-002   4.8873269121985058E-002
   3.2592879185686666E-002  -9.5617025923974662E-003   4.8898888792397469E-002
   3.0802368728843676E-002  -8.9893481014076682E-003   4.9152490876384569E-002
   4.6468299710708427E-002  -1.3851288396491246E-002   2.8829014662861419E-002
   4.4294944144939563E-002  -1.3203270240166987E-002   2.8431842361409554E-002
   4.2121588579170727E-002  -1.2516970385968232E-002   2.8121730557754104E-002
   3.9948233013401890E-002  -1.1792388833894527E-002   2.7898679251894917E-002
   3.7774877447633026E-002  -1.1029525583946209E-002   2.7762688443831895E-002
   4.2549844458735636E-002  -1.2635803322720296E-002   3.3927379418876358E-002
   4.0474346700107106E-002  -1.2004242364298645E-002   3.3575807732834390E-002
   3.8398848941478492E-002  -1.1343986500295264E-002   3.3332891163276812E-002
   3.6323351182849947E-002  -1.0655035730709844E-002   3.3198629710203431E-002
   3.4247853424221375E-002  -9.9373900555425609E-003   3.3173023373614330E-002
   3.8632704211100738E-002  -1.1420318248949429E-002   3.9014080373135238E-002
   3.6676658878300308E-002  -1.0805214488430304E-002   3.8698522510210429E-002
   3.4720613545499934E-002  -1.0171002614622233E-002   3.8513214382458021E-002
   3.2764568212699546E-002  -9.5176826275249916E-003   3.8458155989877618E-002
   3.0808522879899145E-002  -8.8452545271386351E-003   3.8533347332469603E-002
   3.4716878967803268E-002  -1.0204833175178576E-002   4.4089117525637739E-002
   3.2901880679519130E-002  -9.6061866125620177E-003   4.3799986693537477E-002
   3.1086882391234916E-002  -8.9980187289493453E-003   4.3662700215297265E-002
   2.9271884102950729E-002  -8.3803295243402229E-003   4.3677258090917145E-002
   2.7456885814666564E-002  -7.7531189987349036E-003   4.3843660320397201E-002
   3.0802368728843676E-002  -8.9893481014076682E-003   4.9152490876384569E-002
   2.9150012103763612E-002  -8.4071587366935652E-003   4.8880200282815645E-002
   2.7497655478683519E-002  -7.8250348432763323E-003   4.8781348661794760E-002
   2.5845298853603413E-002  -7.2429764211554247E-003   4.8855936013321985E-002
   2.4192942228523362E-002  -6.6609834703309501E-003   4.9103962337397555E-002
   3.7774877447633026E-002  -1.1029525583946209E-002   2.7762688443831895E-002
   3.5333989992408887E-002  -1.0256267544825171E-002   2.7123165641116886E-002
   3.2893102537184915E-002  -9.5005016252338037E-003   2.6645504885961402E-002
   3.0452215081960832E-002  -8.7622278251713731E-003   2.6329706178365248E-002
   2.8011327626736804E-002  -8.0414461446385310E-003   2.6175769518328340E-002
   3.4247853424221375E-002  -9.9373900555425609E-003   3.3173023373614330E-002
   3.1969559493977923E-002  -9.2108827820582273E-003   3.2607693613171562E-002
   2.9691265563734540E-002  -8.4953472175224448E-003   3.2205688855130726E-002
   2.7412971633491122E-002  -7.7907833619347590E-003   3.1967009099491420E-002
   2.5134677703247704E-002  -7.0971912152952843E-003   3.1891654346254461E-002
   3.0808522879899145E-002  -8.8452545271386351E-003   3.8533347332469603E-002
   2.8694285429479049E-002  -8.1654980192914228E-003   3.8048731024879920E-002
   2.6580047979058843E-002  -7.4901928098113080E-003   3.7728902674534562E-002
   2.4465810528638665E-002  -6.8193388986981449E-003   3.7573862281434015E-002
   2.2351573078218487E-002  -6.1529362859521486E-003   3.7583609845578014E-002
   2.7456885814666564E-002  -7.7531189987349036E-003   4.3843660320397201E-002
   2.5508167798912240E-002  -7.1201132565244935E-003   4.3446277876241862E-002
   2.3559449783157941E-002  -6.4850384021001156E-003   4.3215146344173533E-002
   2.1610731767403642E-002  -5.8478944354616418E-003   4.3150265724192477E-002
   1.9662013751649315E-002  -5.2086813566090129E-003   4.3251636016298757E-002
   2.4192942228523362E-002  -6.6609834703309501E-003   4.9103962337397555E-002
   2.2411206602277522E-002  -6.0747284937575641E-003   4.8800334167257375E-002
   2.0629470976031739E-002  -5.4798839943888400E-003   4.8664419864047292E-002
   1.8847735349785913E-002  -4.8764499722249791E-003   4.8696219427766918E-002
   1.7065999723540115E-002  -4.2644264272657662E-003   4.8895732858416086E-002
   2.8011327626736804E-002  -8.0414461446385310E-003   2.6175769518328340E-002
   2.5679619420645283E-002  -7.3049368074614707E-003   2.5638924352730075E-002
   2.3347911214553707E-002  -6.5194800374668571E-003   2.5035372807895639E-002
   2.1016203008462117E-002  -5.6850758346550026E-003   2.4365114883824396E-002
   1.8684494802370610E-002  -4.8017241990253590E-003   2.3628150580516372E-002
   2.5134677703247704E-002  -7.0971912152952843E-003   3.1891654346254461E-002
   2.2777136040704832E-002  -6.4049938675066476E-003   3.1517792173934078E-002
   2.0419594378162015E-002  -5.7046144084714479E-003   3.1158969467948383E-002
   1.8062052715619177E-002  -4.9960528381897060E-003   3.0815186228296571E-002
   1.5704511053076325E-002  -4.2793091566618591E-003   3.0486442454979057E-002
   2.2351573078218487E-002  -6.1529362859521486E-003   3.7583609845578014E-002
   2.0049943804795509E-002  -5.5050509275518800E-003   3.7331965344964496E-002
   1.7748314531372440E-002  -4.8897487794762468E-003   3.7177106156255843E-002
   1.5446685257949368E-002  -4.3070298417248500E-003   3.7119032279452714E-002
   1.3145055984526394E-002  -3.7568941142981926E-003   3.7157743714555075E-002
   1.9662013751649315E-002  -5.2086813566090129E-003   4.3251636016298757E-002
   1.7498042712917213E-002  -4.6051079875972512E-003   4.3081443865820392E-002
   1.5334071674185054E-002  -4.0748831504807195E-003   4.3089782872818616E-002
   1.3170100635452910E-002  -3.6180068452598847E-003   4.3276653037293472E-002
   1.1006129596720739E-002  -3.2344790719346650E-003   4.3642054359244405E-002
   1.7065999723540115E-002  -4.2644264272657662E-003   4.8895732858416086E-002
   1.5121432765069998E-002  -3.7051650476422338E-003   4.8766227736502632E-002
   1.3176865806599797E-002  -3.2600175214856919E-003   4.8896999617636550E-002
   1.1232298848129638E-002  -2.9289838487947667E-003   4.9288048501817922E-002
   9.2877318896594785E-003  -2.7120640295710263E-003   4.9939374389047053E-002
   1.8684494802370610E-002  -4.8017241990253590E-003   2.3628150580516372E-002
   1.5659460484421406E-002  -4.0811185784799808E-003   2.4402181014203106E-002
   1.2634426166472174E-002  -3.7349524209202289E-003   2.5653827106424942E-002
   9.6093918485229413E-003  -3.7632257263463462E-003   2.7383088857181687E-002
   6.5843575305737367E-003  -4.1659384947583256E-003   2.9589966266472922E-002
   1.5704511053076325E-002  -4.2793091566618591E-003   3.0486442454979057E-002
   1.3137964941263014E-002  -3.7749988737652007E-003   3.1258129931263867E-002
   1.0571418829449772E-002  -3.7037374993776628E-003   3.2469178161285778E-002
   8.0048727176365436E-003  -4.0655250334993495E-003   3.4119587145044386E-002
   5.4383266058232183E-003  -4.8603614761308922E-003   3.6209356882540455E-002
   1.3145055984526394E-002  -3.7568941142981926E-003   3.7157743714555075E-002
   1.0998743174051126E-002  -3.4688791690500598E-003   3.7868478787914356E-002
   8.8524303635759555E-003  -3.6725225778349996E-003   3.8980319710212361E-002
   6.7061175531006878E-003  -4.3678243406529114E-003   4.0493266481449831E-002
   4.5598047426255173E-003  -5.5547844575036809E-003   4.2407319101626206E-002
   1.1006129596720739E-002  -3.2344790719346650E-003   4.3642054359244405E-002
   9.2417951827856830E-003  -3.1627594643352103E-003   4.4233227584154357E-002
   7.4774607688506307E-003  -3.6413076562926625E-003   4.5187251753205135E-002
   5.7131263549155750E-003  -4.6701236478061941E-003   4.6504126866397433E-002
   3.9487919409805228E-003  -6.2492074388766916E-003   4.8183852923730716E-002
   9.2877318896594785E-003  -2.7120640295710263E-003   4.9939374389047053E-002
   7.8671209674667231E-003  -2.8566397596200832E-003   5.0352376319983683E-002
   6.4465100452738844E-003  -3.6100927347496037E-003   5.1089974290263573E-002
   5.0258991230811151E-003  -4.9724229549593241E-003   5.2152168299886892E-002
   3.6052882008883458E-003  -6.9436304202492583E-003   5.3538958348853916E-002
   6.5843575305737367E-003  -4.1659384947583256E-003   2.9589966266472922E-002
   6.0559387668800424E-003  -6.1422980263734495E-003   3.4072032477633352E-002
   5.5275200031862926E-003  -1.0891511621409611E-002   3.9237893169591698E-002
   4.9991012394925705E-003  -1.8413579279866685E-002   4.5087548342349848E-002
   4.4706824757988484E-003  -2.8708501001744491E-002   5.1620997995906137E-002
   5.4383266058232183E-003  -4.8603614761308922E-003   3.6209356882540455E-002
   5.4902146273767272E-003  -6.9908610476101529E-003   3.8349878753397459E-002
   5.5421026489301806E-003  -1.1359637968276770E-002   4.0967219713949621E-002
   5.5939906704837103E-003  -1.7966692238129911E-002   4.4061379764198327E-002
   5.6458786920370874E-003  -2.6812023857169631E-002   4.7632358904141414E-002
   4.5598047426255173E-003  -5.5547844575036809E-003   4.2407319101626206E-002
   4.9850241583228455E-003  -7.8394240688475225E-003   4.2740873346414576E-002
   5.4102435740201044E-003  -1.1827764315144068E-002   4.3344271289794817E-002
   5.8354629897174118E-003  -1.7519805196393033E-002   4.4217512931766872E-002
   6.2606824054146915E-003  -2.4915546712594994E-002   4.5360598272331631E-002
   3.9487919409805228E-003  -6.2492074388766916E-003   4.8183852923730716E-002
   4.5403673597182309E-003  -8.6879870900845590E-003   4.7245016256683953E-002
   5.1319427784558454E-003  -1.2295890662010964E-002   4.6369047897126266E-002
   5.7235181971935310E-003  -1.7072918154656096E-002   4.5555947845057551E-002
   6.3150936159311125E-003  -2.3019069568020134E-002   4.4805716100476622E-002
   3.6052882008883458E-003  -6.9436304202492583E-003   5.3538958348853916E-002
   4.1562442315629389E-003  -9.5365501113217066E-003   5.1862307484206838E-002
   4.7072002622375875E-003  -1.2764017008878692E-002   5.0041549535945307E-002
   5.2581562929122361E-003  -1.6626031112919645E-002   4.8076684504068823E-002
   5.8091123235868292E-003  -2.1122592423445496E-002   4.5967712388577109E-002
   5.1512438774632963E-002  -1.4181304070903789E-002   5.2233970105420136E-002
   4.9377728460246656E-002  -1.4062082603511855E-002   5.0162992257600514E-002
   4.7243018145860294E-002  -1.3842933592820225E-002   4.8891287650754706E-002
   4.5108307831473959E-002  -1.3523857038828798E-002   4.8418856284882392E-002
   4.2973597517087597E-002  -1.3104852941537848E-002   4.8745698159983697E-002
   4.3727335586554533E-002  -1.2774856722685579E-002   5.3892866349007917E-002
   4.2273160703810417E-002  -1.2585924149266847E-002   5.2623188212457123E-002
   4.0818985821066398E-002  -1.2318259701686693E-002   5.1915307698217256E-002
   3.9364810938322302E-002  -1.1971863379945141E-002   5.1769224806288344E-002
   3.7910636055578220E-002  -1.1546735184042256E-002   5.2184939536670472E-002
   3.6772940210345259E-002  -1.1368409374467398E-002   5.5632071533191788E-002
   3.5761825140580954E-002  -1.1109765695021881E-002   5.5142497438771212E-002
   3.4750710070816621E-002  -1.0793585810553251E-002   5.4977245347999047E-002
   3.3739595001052308E-002  -1.0419869721061429E-002   5.5136315260875396E-002
   3.2728479931287975E-002  -9.9886174265465533E-003   5.5619707177400085E-002
   3.0649252646005411E-002  -9.9619620262491743E-003   5.7451585657971566E-002
   2.9843721770558218E-002  -9.6336072407769216E-003   5.7720919936543005E-002
   2.9038190895111091E-002  -9.2689119194197360E-003   5.8077100600100379E-002
   2.8232660019663895E-002  -8.8678760621777458E-003   5.8520127648643491E-002
   2.7427129144216737E-002  -8.4304996690508505E-003   5.9050001082172732E-002
   2.5356272893534815E-002  -8.5555146780310065E-003   5.9351408723347265E-002
   2.4518850593742259E-002  -8.1574487865319623E-003   6.0358455705772363E-002
   2.3681428293949716E-002  -7.7442380282863182E-003   6.1214873454520896E-002
   2.2844005994157160E-002  -7.3158824032939739E-003   6.1920661969592797E-002
   2.2006583694364618E-002  -6.8723819115552032E-003   6.2475821250987940E-002
   4.2973597517087597E-002  -1.3104852941537848E-002   4.8745698159983697E-002
   4.1721300776869585E-002  -1.2631595903042026E-002   4.8869174723322861E-002
   4.0469004036651601E-002  -1.2149760525436162E-002   4.9037046721419508E-002
   3.9216707296433582E-002  -1.1659346808720304E-002   4.9249314154273235E-002
   3.7964410556215578E-002  -1.1160354752894341E-002   4.9505977021884529E-002
   3.7910636055578220E-002  -1.1546735184042256E-002   5.2184939536670472E-002
   3.6720984885988961E-002  -1.1086770772859952E-002   5.2207231020853881E-002
   3.5531333716399681E-002  -1.0635865805280351E-002   5.2310418211537396E-002
   3.4341682546810401E-002  -1.0194020281303420E-002   5.2494501108721114E-002
   3.3152031377221128E-002  -9.7612342009291142E-003   5.2759479712404994E-002
   3.2728479931287975E-002  -9.9886174265465533E-003   5.5619707177400085E-002
   3.1637974604070231E-002  -9.5419456426778237E-003   5.5523175799714983E-002
   3.0547469276852496E-002  -9.1219710851244765E-003   5.5544040400272894E-002
   2.9456963949634776E-002  -8.7286937538865340E-003   5.5682300979073632E-002
   2.8366458622417046E-002  -8.3621136489639980E-003   5.5937957536117452E-002
   2.7427129144216737E-002  -8.4304996690508505E-003   5.9050001082172732E-002
   2.6472269931113398E-002  -7.9971205124957506E-003   5.8817009059906222E-002
   2.5517410718010034E-002  -7.6080763649686613E-003   5.8737913287625523E-002
   2.4562551504906660E-002  -7.2633672264697602E-003   5.8812713765330836E-002
   2.3607692291803335E-002  -6.9629930969988263E-003   5.9041410493021571E-002
   2.2006583694364618E-002  -6.8723819115552032E-003   6.2475821250987940E-002
   2.1223870867118466E-002  -6.4522953823136220E-003   6.2088730801427516E-002
   2.0441158039872294E-002  -6.0941816448127906E-003   6.1892036873595735E-002
   1.9658445212626139E-002  -5.7980406990528754E-003   6.1885739467492568E-002
   1.8875732385379984E-002  -5.5638725450336546E-003   6.2069838583117987E-002
   3.7964410556215578E-002  -1.1160354752894341E-002   4.9505977021884529E-002
   3.6173900099372630E-002  -1.0647205918140751E-002   4.9075631865147462E-002
   3.4383389642529655E-002  -1.0114321864641659E-002   4.8873269121985058E-002
   3.2592879185686666E-002  -9.5617025923974662E-003   4.8898888792397469E-002
   3.0802368728843676E-002  -8.9893481014076682E-003   4.9152490876384569E-002
   3.3152031377221128E-002  -9.7612342009291142E-003   5.2759479712404994E-002
   3.1586960457975613E-002  -9.3214527548486636E-003   5.2374790800761378E-002
   3.0021889538730133E-002  -8.8586211337528392E-003   5.2212998550737952E-002
   2.8456818619484636E-002  -8.3727393376419705E-003   5.2274102962334860E-002
   2.6891747700239138E-002  -7.8638073665154296E-003   5.2558104035552000E-002
   2.8366458622417046E-002  -8.3621136489639980E-003   5.5937957536117452E-002
   2.7021741488814532E-002  -7.9956995915566181E-003   5.5602239825837133E-002
   2.5677024355212047E-002  -7.6029204028639705E-003   5.5484333025222633E-002
   2.4332307221609558E-002  -7.1837760828861990E-003   5.5584237134273892E-002
   2.2987590088007076E-002  -6.7382666316231632E-003   5.5901952152990916E-002
   2.3607692291803335E-002  -6.9629930969988263E-003   5.9041410493021571E-002
   2.2478243191889381E-002  -6.6699464282644685E-003   5.8757978940374656E-002
   2.1348794091975411E-002  -6.3472196719750427E-003   5.8687272545439054E-002
   2.0219344992061464E-002  -5.9948128281303989E-003   5.8829291308214696E-002
   1.9089895892147494E-002  -5.6127258967309107E-003   5.9184035228701623E-002
   1.8875732385379984E-002  -5.5638725450336546E-003   6.2069838583117987E-002
   1.7956465567200083E-002  -5.3441932649724300E-003   6.1842008144374128E-002
   1.7037198749020183E-002  -5.0915189410863232E-003   6.1821817111387151E-002
   1.6117931930840289E-002  -4.8058495733749144E-003   6.2009265484157070E-002
   1.5198665112660395E-002  -4.4871851618386027E-003   6.2404353262683732E-002
   3.0802368728843676E-002  -8.9893481014076682E-003   4.9152490876384569E-002
   2.9150012103763612E-002  -8.4071587366935652E-003   4.8880200282815645E-002
   2.7497655478683519E-002  -7.8250348432763323E-003   4.8781348661794760E-002
   2.5845298853603413E-002  -7.2429764211554247E-003   4.8855936013321985E-002
   2.4192942228523362E-002  -6.6609834703309501E-003   4.9103962337397555E-002
   2.6891747700239138E-002  -7.8638073665154296E-003   5.2558104035552000E-002
   2.5419754656203275E-002  -7.3430759443335325E-003   5.2299443094751263E-002
   2.3947761612167426E-002  -6.8217957950559432E-003   5.2228070343491056E-002
   2.2475768568131549E-002  -6.2999669186822073E-003   5.2343985781771074E-002
   2.1003775524095714E-002  -5.7775893152128832E-003   5.2647189409591622E-002
   2.2987590088007076E-002  -6.7382666316231632E-003   5.5901952152990916E-002
   2.1709809842007745E-002  -6.2789931519734166E-003   5.5657535063350957E-002
   2.0432029596008386E-002  -5.8185567468354502E-003   5.5614255380243678E-002
   1.9154249350009044E-002  -5.3569574162091026E-003   5.5772113103669085E-002
   1.7876469104009723E-002  -4.8941951600944278E-003   5.6131108233627269E-002
   1.9089895892147494E-002  -5.6127258967309107E-003   5.9184035228701623E-002
   1.8020177661176983E-002  -5.2149103596132312E-003   5.8954476188614796E-002
   1.6950459430206420E-002  -4.8153176986150091E-003   5.8939903772053062E-002
   1.5880741199235882E-002  -4.4139479137359416E-003   5.9140317979016067E-002
   1.4811022968265343E-002  -4.0108010049762222E-003   5.9555718809504117E-002
   1.5198665112660395E-002  -4.4871851618386027E-003   6.2404353262683732E-002
   1.4350858113710938E-002  -4.1508275672533235E-003   6.2190266470542654E-002
   1.3503051114761501E-002  -3.8120786503946374E-003   6.2205015518918577E-002
   1.2655244115812047E-002  -3.4709384112629089E-003   6.2448600407811874E-002
   1.1807437116862607E-002  -3.1274068498577945E-003   6.2921021137222310E-002
   2.4192942228523362E-002  -6.6609834703309501E-003   4.9103962337397555E-002
   2.2411206602277522E-002  -6.0747284937575641E-003   4.8800334167257375E-002
   2.0629470976031739E-002  -5.4798839943888400E-003   4.8664419864047292E-002
   1.8847735349785913E-002  -4.8764499722249791E-003   4.8696219427766918E-002
   1.7065999723540115E-002  -4.2644264272657662E-003   4.8895732858416086E-002
   2.1003775524095714E-002  -5.7775893152128832E-003   5.2647189409591622E-002
   1.9398027895025399E-002  -5.2540828007930362E-003   5.2418844962838940E-002
   1.7792280265955127E-002  -4.7288671915684810E-003   5.2374762643507378E-002
   1.6186532636884854E-002  -4.2019424875393493E-003   5.2514942451596991E-002
   1.4580785007814540E-002  -3.6733086887057453E-003   5.2839384387107835E-002
   1.7876469104009723E-002  -4.8941951600944278E-003   5.6131108233627269E-002
   1.6463257732606304E-002  -4.4334371078285639E-003   5.5971167082271039E-002
   1.5050046361202912E-002  -3.9778503887485522E-003   5.6012036318827715E-002
   1.3636834989799538E-002  -3.5274350028541603E-003   5.6253715943297040E-002
   1.2223623618396129E-002  -3.0821909501457245E-003   5.6696205955678675E-002
   1.4811022968265343E-002  -4.0108010049762222E-003   5.9555718809504117E-002
   1.3606896115020247E-002  -3.6127914148638973E-003   5.9457300525554403E-002
   1.2402769261775142E-002  -3.2268335859282973E-003   5.9576240890008708E-002
   1.1198642408530024E-002  -2.8529275181689174E-003   5.9912539902866865E-002
   9.9945155552849385E-003  -2.4910732115857037E-003   6.0466197564129326E-002
   1.1807437116862607E-002  -3.1274068498577945E-003   6.2921021137222310E-002
   1.0828943042267183E-002  -2.7921457218996748E-003   6.2877245292688455E-002
   9.8504489676717599E-003  -2.4758167831083477E-003   6.3067376357049898E-002
   8.8719548930763295E-003  -2.1784200334833068E-003   6.3491414330306722E-002
   7.8934608184809130E-003  -1.8999554730256829E-003   6.4149359212459012E-002
   1.7065999723540115E-002  -4.2644264272657662E-003   4.8895732858416086E-002
   1.5121432765069998E-002  -3.7051650476422338E-003   4.8766227736502632E-002
   1.3176865806599797E-002  -3.2600175214856919E-003   4.8896999617636550E-002
   1.1232298848129638E-002  -2.9289838487947667E-003   4.9288048501817922E-002
   9.2877318896594785E-003  -2.7120640295710263E-003   4.9939374389047053E-002
   1.4580785007814540E-002  -3.6733086887057453E-003   5.2839384387107835E-002
   1.2894657250466443E-002  -3.2005068136491954E-003   5.2722351391662814E-002
   1.1208529493118333E-002  -2.8410778809523363E-003   5.2861919795414519E-002
   9.5224017357702501E-003  -2.5950218906153344E-003   5.3258089598362743E-002
   7.8362739784221536E-003  -2.4623388426379123E-003   5.3910860800507610E-002
   1.2223623618396129E-002  -3.0821909501457245E-003   5.6696205955678675E-002
   1.0792259458319214E-002  -2.6958485796565179E-003   5.6592385997809247E-002
   9.3608952982422375E-003  -2.4221382404199521E-003   5.6741491835285762E-002
   7.9295311381653057E-003  -2.2610599324362282E-003   5.7143523468107804E-002
   6.4981669780883461E-003  -2.2126136557049092E-003   5.7798480896275650E-002
   9.9945155552849385E-003  -2.4910732115857037E-003   6.0466197564129326E-002
   8.8142393886282214E-003  -2.1911903456636600E-003   6.0376331554942375E-002
   7.6339632219714609E-003  -2.0031985998869711E-003   6.0535715737250313E-002
   6.4536870553147446E-003  -1.9270979742568480E-003   6.0944350111052953E-002
   5.2734108886580110E-003  -1.9628884687717951E-003   6.1602234676350620E-002
   7.8934608184809130E-003  -1.8999554730256829E-003   6.4149359212459012E-002
   6.9605970413934848E-003  -1.6865321116707466E-003   6.4074188063061754E-002
   6.0277332643060566E-003  -1.5842589593542122E-003   6.4244591501308013E-002
   5.0948694872186423E-003  -1.5931360160774122E-003   6.4660569527198231E-002
   4.1620057101312280E-003  -1.7131632818387921E-003   6.5322122140732075E-002
   9.2877318896594785E-003  -2.7120640295710263E-003   4.9939374389047053E-002
   7.8671209674667231E-003  -2.8566397596200832E-003   5.0352376319983683E-002
   6.4465100452738844E-003  -3.6100927347496037E-003   5.1089974290263573E-002
   5.0258991230811151E-003  -4.9724229549593241E-003   5.2152168299886892E-002
   3.6052882008883458E-003  -6.9436304202492583E-003   5.3538958348853916E-002
   7.8362739784221536E-003  -2.4623388426379123E-003   5.3910860800507610E-002
   6.7146884765375559E-003  -2.6437275011232386E-003   5.3849819165489810E-002
   5.5931029746529998E-003  -3.3398866301745933E-003   5.4062232331744814E-002
   4.4715174727684229E-003  -4.5508162297922539E-003   5.4548100299272997E-002
   3.3499319708838737E-003  -6.2765162999759427E-003   5.5307423068074235E-002
   6.4981669780883461E-003  -2.2126136557049092E-003   5.7798480896275650E-002
   5.6244656584417893E-003  -2.4308152426260887E-003   5.7357502469816801E-002
   4.7507643387952395E-003  -3.0696805255995552E-003   5.7138837606560994E-002
   3.8770630191486792E-003  -4.1292095046249547E-003   5.7142486306508047E-002
   3.0033616995021328E-003  -5.6094021797025162E-003   5.7368448569658226E-002
   5.2734108886580110E-003  -1.9628884687717951E-003   6.1602234676350620E-002
   4.5964525131793124E-003  -2.2179029841289249E-003   6.0875426232965102E-002
   3.9194941377005948E-003  -2.7994744210241979E-003   6.0319790114712245E-002
   3.2425357622218659E-003  -3.7076027794578810E-003   5.9935326321592264E-002
   2.5655773867431786E-003  -4.9422880594290342E-003   5.9722034853605041E-002
   4.1620057101312280E-003  -1.7131632818387921E-003   6.5322122140732075E-002
   3.6306490407501529E-003  -2.0049907256319832E-003   6.4403590454934267E-002
   3.0992923713690779E-003  -2.5292683164492291E-003   6.3605089856198671E-002
   2.5679357019880097E-003  -3.2859960542905714E-003   6.2926620344525841E-002
   2.0365790326069555E-003  -4.2751739391555521E-003   6.2368181919915111E-002
   3.6052882008883458E-003  -6.9436304202492583E-003   5.3538958348853916E-002
   4.1562442315629389E-003  -9.5365501113217066E-003   5.1862307484206838E-002
   4.7072002622375875E-003  -1.2764017008878692E-002   5.0041549535945307E-002
   5.2581562929122361E-003  -1.6626031112919645E-002   4.8076684504068823E-002
   5.8091123235868292E-003  -2.1122592423445496E-002   4.5967712388577109E-002
   3.3499319708838737E-003  -6.2765162999759427E-003   5.5307423068074235E-002
   3.7739938582250915E-003  -8.5467131196275692E-003   5.2952385984904538E-002
   4.1980557455663786E-003  -1.1391132967648043E-002   5.0487667698682959E-002
   4.6221176329075825E-003  -1.4809775844038336E-002   4.7913268209408971E-002
   5.0461795202488835E-003  -1.8802641748797644E-002   4.5229187517083380E-002
   3.0033616995021328E-003  -5.6094021797025162E-003   5.7368448569658226E-002
   3.3349553240727831E-003  -7.5568761279330432E-003   5.4395349446081015E-002
   3.6665489486434888E-003  -1.0018248926418089E-002   5.1346995000014578E-002
   3.9981425732142015E-003  -1.2993520575156924E-002   4.8223385231458818E-002
   4.3297361977848170E-003  -1.6482691074149791E-002   4.5024520140414137E-002
   2.5655773867431786E-003  -4.9422880594290342E-003   5.9722034853605041E-002
   2.8391286291060240E-003  -6.5670391362389335E-003   5.6191197867735534E-002
   3.1126798714688833E-003  -8.6453648851877868E-003   5.2619531439939450E-002
   3.3862311138317652E-003  -1.1177265306275230E-002   4.9007035570216947E-002
   3.6597823561945880E-003  -1.4162740399501828E-002   4.5353710258567909E-002
   2.0365790326069555E-003  -4.2751739391555521E-003   6.2368181919915111E-002
   2.2865137733247831E-003  -5.5772021445443798E-003   5.8339931249868471E-002
   2.5364485140426246E-003  -7.2724808439577071E-003   5.4305277018458220E-002
   2.7863832547604592E-003  -9.3610100373941463E-003   5.0264219225684359E-002
   3.0363179954783215E-003  -1.1842789724854086E-002   4.6216757871546665E-002
   2.5356272893534815E-002  -8.5555146780310065E-003   5.9351408723347265E-002
   2.4518850593742259E-002  -8.1574487865319623E-003   6.0358455705772363E-002
   2.3681428293949716E-002  -7.7442380282863182E-003   6.1214873454520896E-002
   2.2844005994157160E-002  -7.3158824032939739E-003   6.1920661969592797E-002
   2.2006583694364618E-002  -6.8723819115552032E-003   6.2475821250987940E-002
   2.0092855729133649E-002  -5.8685042245414931E-003   6.2226572013498238E-002
   1.9197038467075614E-002  -5.6717255090022456E-003   6.2570244576958867E-002
   1.8301221205017586E-002  -5.4581437695002816E-003   6.2947756449565156E-002
   1.7405403942959547E-002  -5.2277590060354241E-003   6.3359107631317260E-002
   1.6509586680901522E-002  -4.9805712186077322E-003   6.3804298122214886E-002
   1.4057855929002015E-002  -3.1814937710520075E-003   6.4899619049081606E-002
   1.3288112247500865E-002  -3.1860022314726122E-003   6.4581575350793799E-002
   1.2518368565999707E-002  -3.1720495107141686E-003   6.4481839504473976E-002
   1.1748624884498560E-002  -3.1396356087766818E-003   6.4600411510122246E-002
   1.0978881202997410E-002  -3.0887605256602890E-003   6.4937291367738625E-002
   7.2512734931399064E-003  -4.9448331756250796E-004   6.7370549830096799E-002
   6.7920719350180042E-003  -7.0027895394289552E-004   6.6392448027276771E-002
   6.3328703768960829E-003  -8.8595525192809374E-004   6.5817122619247187E-002
   5.8736688187741772E-003  -1.0515122115180081E-003   6.5644573606008130E-002
   5.4144672606522741E-003  -1.1969498327127487E-003   6.5874800987559406E-002
  -3.2689157845267741E-004   2.1925271359269916E-003   6.9639364356544164E-002
  -2.9108247037297474E-004   1.7854443235867101E-003   6.8002862606408199E-002
  -2.5527336229327902E-004   1.4001390068580088E-003   6.6953605793884985E-002
  -2.1946425421357635E-004   1.0366111857406865E-003   6.6491593918974773E-002
  -1.8365514613387715E-004   6.9486086023468063E-004   6.6616826981677091E-002
   2.2006583694364618E-002  -6.8723819115552032E-003   6.2475821250987940E-002
   2.1223870867118466E-002  -6.4522953823136220E-003   6.2088730801427516E-002
   2.0441158039872294E-002  -6.0941816448127906E-003   6.1892036873595735E-002
   1.9658445212626139E-002  -5.7980406990528754E-003   6.1885739467492568E-002
   1.8875732385379984E-002  -5.5638725450336546E-003   6.2069838583117987E-002
   1.6509586680901522E-002  -4.9805712186077322E-003   6.3804298122214886E-002
   1.5921220113702228E-002  -4.7357631579932891E-003   6.3345681311866769E-002
   1.5332853546502920E-002  -4.5125175749672342E-003   6.3085360499883947E-002
   1.4744486979303618E-002  -4.3108344695305112E-003   6.3023335686266183E-002
   1.4156120412104317E-002  -4.1307138416822875E-003   6.3159606871013463E-002
   1.0978881202997410E-002  -3.0887605256602890E-003   6.4937291367738625E-002
   1.0592760372481476E-002  -3.0192309336727896E-003   6.4447558510755121E-002
   1.0206639541965540E-002  -2.9308535051219553E-003   6.4164021128773036E-002
   9.8205187114496079E-003  -2.8236282400080914E-003   6.4086679221792731E-002
   9.4343978809336704E-003  -2.6975551383309204E-003   6.4215532789813942E-002
   5.4144672606522741E-003  -1.1969498327127487E-003   6.5874800987559406E-002
   5.2384916434562124E-003  -1.3026987093522069E-003   6.5394362398092223E-002
   5.0625160262601446E-003  -1.3491894352765932E-003   6.5128018760263334E-002
   4.8865404090640881E-003  -1.3364220104856439E-003   6.5075770074072309E-002
   4.7105647918680230E-003  -1.2643964349794978E-003   6.5237616339519577E-002
  -1.8365514613387715E-004   6.9486086023468063E-004   6.6616826981677091E-002
  -1.4158607337356327E-004   4.1383351496804277E-004   6.6186092973878397E-002
  -9.9517000613251125E-005   2.3247463456886608E-004   6.5977353394354343E-002
  -5.7447927852938112E-005   1.5078421903682790E-004   6.5990608243104945E-002
  -1.5378855092625099E-005   1.6876226837181374E-004   6.6225857520129994E-002
   1.8875732385379984E-002  -5.5638725450336546E-003   6.2069838583117987E-002
   1.7956465567200083E-002  -5.3441932649724300E-003   6.1842008144374128E-002
   1.7037198749020183E-002  -5.0915189410863232E-003   6.1821817111387151E-002
   1.6117931930840289E-002  -4.8058495733749144E-003   6.2009265484157070E-002
   1.5198665112660395E-002  -4.4871851618386027E-003   6.2404353262683732E-002
   1.4156120412104317E-002  -4.1307138416822875E-003   6.3159606871013463E-002
   1.3450853857144618E-002  -3.9523121064742595E-003   6.2961586599904862E-002
   1.2745587302184912E-002  -3.7557856789576793E-003   6.2983927449479921E-002
   1.2040320747225216E-002  -3.5411345591324778E-003   6.3226629419738459E-002
   1.1335054192265506E-002  -3.3083587469986409E-003   6.3689692510680407E-002
   9.4343978809336704E-003  -2.6975551383309204E-003   6.4215532789813942E-002
   8.9558533041208983E-003  -2.5604309479760612E-003   6.4032452334824186E-002
   8.4773087273081159E-003  -2.4200524168292090E-003   6.4082454715444576E-002
   7.9987641504953386E-003  -2.2764195448899873E-003   6.4365539931675333E-002
   7.5202195736825579E-003  -2.1295323321587067E-003   6.4881707983516348E-002
   4.7105647918680230E-003  -1.2643964349794978E-003   6.5237616339519577E-002
   4.4714639081289099E-003  -1.1685497894780433E-003   6.5054605349131892E-002
   4.2323630243897891E-003  -1.0843191547006518E-003   6.5117398909281518E-002
   3.9932621406506786E-003  -1.0117045306476903E-003   6.5425997019968068E-002
   3.7541612569115613E-003  -9.5070591731875875E-004   6.5980399681191571E-002
  -1.5378855092625099E-005   1.6876226837181374E-004   6.6225857520129994E-002
  -2.3143308313378075E-006   2.2333136902030759E-004   6.6028045642828381E-002
   1.0750193429939076E-005   2.5141410742776649E-004   6.6088760030990540E-002
   2.3814717691226367E-005   2.5301048359487738E-004   6.6408000684616414E-002
   3.6879241952503250E-005   2.2812049752118924E-004   6.6985767603706114E-002
   1.5198665112660395E-002  -4.4871851618386027E-003   6.2404353262683732E-002
   1.4350858113710938E-002  -4.1508275672533235E-003   6.2190266470542654E-002
   1.3503051114761501E-002  -3.8120786503946374E-003   6.2205015518918577E-002
   1.2655244115812047E-002  -3.4709384112629089E-003   6.2448600407811874E-002
   1.1807437116862607E-002  -3.1274068498577945E-003   6.2921021137222310E-002
   1.1335054192265506E-002  -3.3083587469986409E-003   6.3689692510680407E-002
   1.0711013873249506E-002  -3.0657712455022801E-003   6.3521257864112390E-002
   1.0086973554233512E-002  -2.8216850575891184E-003   6.3571520736893844E-002
   9.4629332352175154E-003  -2.5761001832591141E-003   6.3840481129025170E-002
   8.8388929162015184E-003  -2.3290166225127251E-003   6.4328139040506160E-002
   7.5202195736825579E-003  -2.1295323321587067E-003   6.4881707983516348E-002
   7.1098076134324430E-003  -1.9807149237513200E-003   6.4758032846664870E-002
   6.6993956531823298E-003  -1.8312914647835923E-003   6.4842916907995429E-002
   6.2889836929322226E-003  -1.6812619552558170E-003   6.5136360167508248E-002
   5.8785717326821155E-003  -1.5306263951677113E-003   6.5638362625202867E-002
   3.7541612569115613E-003  -9.5070591731875875E-004   6.5980399681191571E-002
   3.5472393342597611E-003  -8.9565860200042924E-004   6.5900591418200191E-002
   3.3403174116079701E-003  -8.4089787197823632E-004   6.6019204032223305E-002
   3.1333954889561678E-003  -7.8642372725238208E-004   6.6336237523261052E-002
   2.9264735663043859E-003  -7.3223616782266965E-004   6.6851691891313209E-002
   3.6879241952503250E-005   2.2812049752118924E-004   6.6985767603706114E-002
   2.3309035731451655E-005   1.8939771975062802E-004   6.6948933578718284E-002
   9.7388295104104683E-006   1.4949572082728624E-004   6.7100382109577528E-002
  -3.8313767106428614E-006   1.0841450075120551E-004   6.7440113196283513E-002
  -1.7401582931682313E-005   6.6154059522371966E-005   6.7968126838836795E-002
   1.1807437116862607E-002  -3.1274068498577945E-003   6.2921021137222310E-002
   1.0828943042267183E-002  -2.7921457218996748E-003   6.2877245292688455E-002
   9.8504489676717599E-003  -2.4758167831083477E-003   6.3067376357049898E-002
   8.8719548930763295E-003  -2.1784200334833068E-003   6.3491414330306722E-002
   7.8934608184809130E-003  -1.8999554730256829E-003   6.4149359212459012E-002
   8.8388929162015184E-003  -2.3290166225127251E-003   6.4328139040506160E-002
   8.0972098291638428E-003  -2.0867019910082441E-003   6.4280505924742548E-002
   7.3555267421261811E-003  -1.8554239044045184E-003   6.4472587875199078E-002
   6.6138436550885124E-003  -1.6351823627013262E-003   6.4904384891875722E-002
   5.8721605680508437E-003  -1.4259773658984454E-003   6.5575896974772341E-002
   5.8785717326821155E-003  -1.5306263951677113E-003   6.5638362625202867E-002
   5.3795077905269481E-003  -1.3812582601167578E-003   6.5594767882475868E-002
   4.8804438483717877E-003  -1.2350310257005920E-003   6.5796696363293730E-002
   4.3813799062166221E-003  -1.0919446919186275E-003   6.6244148067656328E-002
   3.8823159640614599E-003  -9.5199925877131886E-004   6.6937122995563980E-002
   2.9264735663043859E-003  -7.3223616782266965E-004   6.6851691891313209E-002
   2.6758369263564716E-003  -6.7581452922529928E-004   6.6820031165888666E-002
   2.4252002864085728E-003  -6.1463814699654756E-004   6.7039701821333716E-002
   2.1745636464606658E-003  -5.4870702113606583E-004   6.7510703857648624E-002
   1.9239270065127597E-003  -4.7802115164413683E-004   6.8233037274832958E-002
  -1.7401582931682313E-005   6.6154059522371966E-005   6.7968126838836795E-002
  -1.3802763347579849E-005   2.9629201665992699E-005   6.7956295774981024E-002
  -1.0203943763460038E-005   5.7547317072192961E-006   6.8201604249319536E-002
  -6.6051241793489007E-006  -5.4693503537678323E-006   6.8704052261852527E-002
  -3.0063045952377632E-006  -4.0430445169548079E-006   6.9463639812579858E-002
   7.8934608184809130E-003  -1.8999554730256829E-003   6.4149359212459012E-002
   6.9605970413934848E-003  -1.6865321116707466E-003   6.4074188063061754E-002
   6.0277332643060566E-003  -1.5842589593542122E-003   6.4244591501308013E-002
   5.0948694872186423E-003  -1.5931360160774122E-003   6.4660569527198231E-002
   4.1620057101312280E-003  -1.7131632818387921E-003   6.5322122140732075E-002
   5.8721605680508437E-003  -1.4259773658984454E-003   6.5575896974772341E-002
   5.1817947788680638E-003  -1.2643219548971740E-003   6.5431498454205927E-002
   4.4914289896852769E-003  -1.1867291705983107E-003   6.5526521321805115E-002
   3.8010632005024830E-003  -1.1931990130015918E-003   6.5860965577569444E-002
   3.1106974113197100E-003  -1.2837314821068091E-003   6.6434831221499402E-002
   3.8823159640614599E-003  -9.5199925877131886E-004   6.6937122995563980E-002
   3.4282949633049065E-003  -8.4211179812396231E-004   6.6750584686165126E-002
   2.9742739625483426E-003  -7.8919938184196514E-004   6.6797314565453292E-002
   2.5202529617917961E-003  -7.9326200992566043E-004   6.7077312633428560E-002
   2.0662319610352253E-003  -8.5429968237460407E-004   6.7590578890090680E-002
   1.9239270065127597E-003  -4.7802115164413683E-004   6.8233037274832958E-002
   1.7000975947040302E-003  -4.1990164135040364E-004   6.8031446758938408E-002
   1.4762681828952998E-003  -3.9166959308600813E-004   6.8056971232252739E-002
   1.2524387710865599E-003  -3.9332500684978455E-004   6.8309610694775633E-002
   1.0286093592778399E-003  -4.2486788264267661E-004   6.8789365146507228E-002
  -3.0063045952377632E-006  -4.0430445169548079E-006   6.9463639812579858E-002
  -2.7973269345615837E-006   2.3085154229329774E-006   6.9274084672526826E-002
  -2.5883492738854041E-006   5.8601956703374647E-006   6.9305491322203538E-002
  -2.3793716132092246E-006   6.6119962261051990E-006   6.9557859761610719E-002
  -2.1703939525330451E-006   4.5639170895839243E-006   7.0031189990747977E-002
   4.1620057101312280E-003  -1.7131632818387921E-003   6.5322122140732075E-002
   3.6306490407501529E-003  -2.0049907256319832E-003   6.4403590454934267E-002
   3.0992923713690779E-003  -2.5292683164492291E-003   6.3605089856198671E-002
   2.5679357019880097E-003  -3.2859960542905714E-003   6.2926620344525841E-002
   2.0365790326069555E-003  -4.2751739391555521E-003   6.2368181919915111E-002
   3.1106974113197100E-003  -1.2837314821068091E-003   6.6434831221499402E-002
   2.7026045846521574E-003  -1.5033188681855547E-003   6.5323126462744963E-002
   2.2945117579845770E-003  -1.8969534615082551E-003   6.4337918302355135E-002
   1.8864189313170035E-003  -2.4646352620762840E-003   6.3479206740329724E-002
   1.4783261046494439E-003  -3.2063642698882955E-003   6.2746991776668759E-002
   2.0662319610352253E-003  -8.5429968237460407E-004   6.7590578890090680E-002
   1.7878684883830993E-003  -1.0016470107389597E-003   6.6344103998159876E-002
   1.5095050157309699E-003  -1.2646386065680859E-003   6.5230591215895084E-002
   1.2311415430788387E-003  -1.6432744698622256E-003   6.4250040543296777E-002
   9.5277807042671442E-004  -2.1375546006211499E-003   6.3402451980364927E-002
   1.0286093592778399E-003  -4.2486788264267661E-004   6.8789365146507228E-002
   8.8644075194304305E-004  -4.9997515329233688E-004   6.7466523061178799E-002
   7.4427214460824360E-004  -6.3232375162740329E-004   6.6283108596819074E-002
   6.0210353727345933E-004  -8.2191367764805276E-004   6.5239121753427387E-002
   4.5993492993866118E-004  -1.0687449313537267E-003   6.4334562531004141E-002
  -2.1703939525330451E-006   4.5639170895839243E-006   7.0031189990747977E-002
  -1.6786246680583483E-006   1.6967041540638661E-006   6.8690383651802245E-002
  -1.1868553835905904E-006  -8.8966869982165520E-009   6.7495470445126604E-002
  -6.9508609912283248E-007  -5.5288543400477952E-007   6.6446450370721333E-002
  -2.0331681464813567E-007   6.4737913252344015E-008   6.5543323428586264E-002
   2.0365790326069555E-003  -4.2751739391555521E-003   6.2368181919915111E-002
   2.2865137733247831E-003  -5.5772021445443798E-003   5.8339931249868471E-002
   2.5364485140426246E-003  -7.2724808439577071E-003   5.4305277018458220E-002
   2.7863832547604592E-003  -9.3610100373941463E-003   5.0264219225684359E-002
   3.0363179954783215E-003  -1.1842789724854086E-002   4.6216757871546665E-002
   1.4783261046494439E-003  -3.2063642698882955E-003   6.2746991776668759E-002
   1.7078317220563660E-003  -4.1826444819472175E-003   5.8393267590772902E-002
   1.9373373394632742E-003  -5.4539798952552565E-003   5.4005088719618954E-002
   2.1668429568701686E-003  -7.0203705098118990E-003   4.9582455163207195E-002
   2.3963485742771184E-003  -8.8818163256179083E-003   4.5125366921536791E-002
   9.5277807042671442E-004  -2.1375546006211499E-003   6.3402451980364927E-002
   1.1338034406280992E-003  -2.7880868193497221E-003   5.8821449571395096E-002
   1.3148288108295082E-003  -3.6354789465528059E-003   5.4177941353272585E-002
   1.4958541810309364E-003  -4.6797309822299293E-003   4.9471927325997214E-002
   1.6768795512323298E-003  -5.9208429263817308E-003   4.4703407489568803E-002
   4.5993492993866118E-004  -1.0687449313537267E-003   6.4334562531004141E-002
   5.6442892903999474E-004  -1.3935291567523933E-003   5.9624477191734637E-002
   6.6892292814132222E-004  -1.8169779978501333E-003   5.4823834919418071E-002
   7.7341692724265622E-004  -2.3390914546480429E-003   4.9932635714053694E-002
   8.7791092634398327E-004  -2.9598695271454423E-003   4.4950879575642366E-002
  -2.0331681464813567E-007   6.4737913252344015E-008   6.5543323428586264E-002
  -2.9181270796291292E-007   1.0285058450465456E-006   6.0802350451791831E-002
  -3.8030860128809851E-007   1.5229508520953061E-006   5.5942769418055316E-002
  -4.6880449460981466E-007   1.5480729340655586E-006   5.0964580327377773E-002
  -5.5730038792112246E-007   1.1038720906242361E-006   4.5867783179757371E-002
  -3.2689157845267741E-004   2.1925271359269916E-003   6.9639364356544164E-002
  -2.9108247037297474E-004   1.7854443235867101E-003   6.8002862606408199E-002
  -2.5527336229327902E-004   1.4001390068580088E-003   6.6953605793884985E-002
  -2.1946425421357635E-004   1.0366111857406865E-003   6.6491593918974773E-002
  -1.8365514613387715E-004   6.9486086023468063E-004   6.6616826981677091E-002
  -7.8504155231563268E-003   2.8509428195216402E-003   6.6292147044014510E-002
  -7.3258822372182422E-003   2.6366081291943622E-003   6.5446591284144762E-002
  -6.8013489512801419E-003   2.4176996642801540E-003   6.4991238942379001E-002
  -6.2768156653420564E-003   2.1942174247790297E-003   6.4926090018717214E-002
  -5.7522823794039571E-003   1.9661614106910030E-003   6.5251144513159415E-002
  -1.4493074578351620E-002   3.5093585031163443E-003   6.3150853488596698E-002
  -1.3676858634063946E-002   3.4877719348019171E-003   6.3069892448794934E-002
  -1.2860642689776264E-002   3.4352603217023409E-003   6.3182093307588325E-002
  -1.2044426745488576E-002   3.3518236638174596E-003   6.3487456064976855E-002
  -1.1228210801200896E-002   3.2374619611473532E-003   6.3985980720960609E-002
  -2.0254868744038604E-002   4.1677741867110207E-003   6.0215483690291290E-002
  -1.9344011660910123E-002   4.3389357404095483E-003   6.0872766100358924E-002
  -1.8433154577781635E-002   4.4528209791244514E-003   6.1526168889512983E-002
  -1.7522297494653165E-002   4.5094299028557907E-003   6.2175692057753522E-002
  -1.6611440411524677E-002   4.5087625116036339E-003   6.2821335605080311E-002
  -2.5135798020217232E-002   4.8261898703056971E-003   5.7486037649097765E-002
  -2.4327341317756768E-002   5.1900995460171240E-003   5.8855212238836663E-002
  -2.3518884615296283E-002   5.4703816365466729E-003   6.0023465688153144E-002
  -2.2710427912835802E-002   5.6670361418943022E-003   6.0990797997047264E-002
  -2.1901971210375314E-002   5.7800630620599702E-003   6.1757209165518967E-002
  -1.8365514613387715E-004   6.9486086023468063E-004   6.6616826981677091E-002
  -1.4158607337356327E-004   4.1383351496804277E-004   6.6186092973878397E-002
  -9.9517000613251125E-005   2.3247463456886608E-004   6.5977353394354343E-002
  -5.7447927852938112E-005   1.5078421903682790E-004   6.5990608243104945E-002
  -1.5378855092625099E-005   1.6876226837181374E-004   6.6225857520129994E-002
  -5.7522823794039571E-003   1.9661614106910030E-003   6.5251144513159415E-002
  -5.4990686237470802E-003   1.7617657131455411E-003   6.4978041007725279E-002
  -5.2458548680901895E-003   1.6092644232716530E-003   6.4905232439809724E-002
  -4.9926411124333065E-003   1.5086575410697030E-003   6.5032718809412651E-002
  -4.7394273567764218E-003   1.4599450665392921E-003   6.5360500116534048E-002
  -1.1228210801200896E-002   3.2374619611473532E-003   6.3985980720960609E-002
  -1.0785551853403555E-002   3.1096979113228174E-003   6.3822733660695630E-002
  -1.0342892905606214E-002   2.9860542119745578E-003   6.3838082047192990E-002
  -9.9002339578088770E-003   2.8665308631026908E-003   6.4032025880452759E-002
  -9.4575750100115343E-003   2.7511278647069370E-003   6.4404565160474964E-002
  -1.6611440411524677E-002   4.5087625116036339E-003   6.2821335605080311E-002
  -1.6001035762342998E-002   4.4576301095001769E-003   6.2720170932789032E-002
  -1.5390631113161310E-002   4.3628440006774592E-003   6.2775902216504045E-002
  -1.4780226463979628E-002   4.2244041851355668E-003   6.2988529456225253E-002
  -1.4169821814797959E-002   4.0423106628744432E-003   6.3358052651952740E-002
  -2.1901971210375314E-002   5.7800630620599702E-003   6.1757209165518967E-002
  -2.1145520350565404E-002   5.8055623076775364E-003   6.1670352824005903E-002
  -2.0389069490755491E-002   5.7396337893802635E-003   6.1718692947742876E-002
  -1.9632618630945578E-002   5.5822775071685850E-003   6.1902229536730122E-002
  -1.8876167771135668E-002   5.3334934610420603E-003   6.2220962590967488E-002
  -1.5378855092625099E-005   1.6876226837181374E-004   6.6225857520129994E-002
  -2.3143308313378075E-006   2.2333136902030759E-004   6.6028045642828381E-002
   1.0750193429939076E-005   2.5141410742776649E-004   6.6088760030990540E-002
   2.3814717691226367E-005   2.5301048359487738E-004   6.6408000684616414E-002
   3.6879241952503250E-005   2.2812049752118924E-004   6.6985767603706114E-002
  -4.7394273567764218E-003   1.4599450665392921E-003   6.5360500116534048E-002
  -4.4762519494775284E-003   1.4270394030733990E-003   6.5136790131363004E-002
  -4.2130765421786419E-003   1.3738529540641420E-003   6.5154775646803387E-002
  -3.9499011348797554E-003   1.3003857195116389E-003   6.5414456662855155E-002
  -3.6867257275808689E-003   1.2066376994159800E-003   6.5915833179518490E-002
  -9.4575750100115343E-003   2.7511278647069370E-003   6.4404565160474964E-002
  -8.9611194845273523E-003   2.6307474371265460E-003   6.4161162644131964E-002
  -8.4646639590431720E-003   2.4962918007003648E-003   6.4142624863547978E-002
  -7.9682084335589917E-003   2.3477609554284039E-003   6.4348951818723105E-002
  -7.4717529080748010E-003   2.1851549013107707E-003   6.4780143509657495E-002
  -1.4169821814797959E-002   4.0423106628744432E-003   6.3358052651952740E-002
  -1.3456916935980796E-002   3.8344554711798595E-003   6.3101163181135261E-002
  -1.2744012057163639E-002   3.6187306473366640E-003   6.3052307681224412E-002
  -1.2031107178346477E-002   3.3951361913452782E-003   6.3211486152220470E-002
  -1.1318202299529328E-002   3.1636721032055060E-003   6.3578698594123337E-002
  -1.8876167771135668E-002   5.3334934610420603E-003   6.2220962590967488E-002
  -1.7963644303837845E-002   5.0381635052328400E-003   6.1956791742372841E-002
  -1.7051120836540042E-002   4.7411694939729354E-003   6.1883824099832674E-002
  -1.6138597369242225E-002   4.4425114272619234E-003   6.2002059663347042E-002
  -1.5226073901944415E-002   4.1421893051004632E-003   6.2311498432915946E-002
   3.6879241952503250E-005   2.2812049752118924E-004   6.6985767603706114E-002
   2.3309035731451655E-005   1.8939771975062802E-004   6.6948933578718284E-002
   9.7388295104104683E-006   1.4949572082728624E-004   6.7100382109577528E-002
  -3.8313767106428614E-006   1.0841450075120551E-004   6.7440113196283513E-002
  -1.7401582931682313E-005   6.6154059522371966E-005   6.7968126838836795E-002
  -3.6867257275808689E-003   1.2066376994159800E-003   6.5915833179518490E-002
  -3.5046196945408680E-003   1.1034925052935129E-003   6.5825124235152743E-002
  -3.3225136615008827E-003   1.0018337486608214E-003   6.5937485213462099E-002
  -3.1404076284608879E-003   9.0166142951795050E-004   6.6252916114446433E-002
  -2.9583015954208966E-003   8.0297554786495917E-004   6.6771416938106010E-002
  -7.4717529080748010E-003   2.1851549013107707E-003   6.4780143509657495E-002
  -7.0791832689456177E-003   2.0175872908363146E-003   6.4638225304556277E-002
  -6.6866136298164439E-003   1.8541717764941901E-003   6.4714164388958384E-002
  -6.2940439906872554E-003   1.6949083582847510E-003   6.5007960762863928E-002
  -5.9014743515580868E-003   1.5397970362074354E-003   6.5519614426272382E-002
  -1.1318202299529328E-002   3.1636721032055060E-003   6.3578698594123337E-002
  -1.0700381687482805E-002   2.9316820763791024E-003   6.3388236786929314E-002
  -1.0082561075436279E-002   2.7065098043276420E-003   6.3430419636066881E-002
  -9.4647404633897477E-003   2.4881552870515238E-003   6.3705247141535928E-002
  -8.8469198513432285E-003   2.2766185245500781E-003   6.4212719303336149E-002
  -1.5226073901944415E-002   4.1421893051004632E-003   6.2311498432915946E-002
  -1.4368214950152402E-002   3.8457768619218902E-003   6.2075158682271869E-002
  -1.3510355998360382E-002   3.5588478321610661E-003   6.2086250954787259E-002
  -1.2652497046568369E-002   3.2814022158182618E-003   6.2344775250462281E-002
  -1.1794638094776350E-002   3.0134400128924987E-003   6.2850731569296880E-002
  -1.7401582931682313E-005   6.6154059522371966E-005   6.7968126838836795E-002
  -1.3802763347579849E-005   2.9629201665992699E-005   6.7956295774981024E-002
  -1.0203943763460038E-005   5.7547317072192961E-006   6.8201604249319536E-002
  -6.6051241793489007E-006  -5.4693503537678323E-006   6.8704052261852527E-002
  -3.0063045952377632E-006  -4.0430445169548079E-006   6.9463639812579858E-002
  -2.9583015954208966E-003   8.0297554786495917E-004   6.6771416938106010E-002
  -2.7011904899401709E-003   7.0907968322148074E-004   6.6764057870518256E-002
  -2.4440793844594418E-003   6.2327741510802281E-004   6.7006583836529160E-002
  -2.1869682789787161E-003   5.4556874352429049E-004   6.7498994836139012E-002
  -1.9298571734979869E-003   4.7595366847019704E-004   6.8241290869347604E-002
  -5.9014743515580868E-003   1.5397970362074354E-003   6.5519614426272382E-002
  -5.3981054647762889E-003   1.3885301647773851E-003   6.5512170563584590E-002
  -4.8947365779945040E-003   1.2408000985090484E-003   6.5747357229900022E-002
  -4.3913676912127053E-003   1.0966068374021823E-003   6.6225174425218802E-002
  -3.8879988044309213E-003   9.5595038145701583E-004   6.6945622149540807E-002
  -8.8469198513432285E-003   2.2766185245500781E-003   6.4212719303336149E-002
  -8.1045476878559373E-003   2.0679806463328593E-003   6.4200633854180150E-002
  -7.3621755243686252E-003   1.8583227819097409E-003   6.4423924429431956E-002
  -6.6198033608813279E-003   1.6476449312798243E-003   6.4882591029091524E-002
  -5.8774311973940219E-003   1.4359470944439456E-003   6.5576633653158772E-002
  -1.1794638094776350E-002   3.0134400128924987E-003   6.2850731569296880E-002
  -1.0820517159179102E-002   2.7474311278888330E-003   6.2829447742304867E-002
  -9.8463962235818409E-003   2.4758454653108219E-003   6.3036285435124906E-002
  -8.8722752879845899E-003   2.1986830251580630E-003   6.3471244647757247E-002
  -7.8981543523873321E-003   1.9159438074308754E-003   6.4134325380201695E-002
  -3.0063045952377632E-006  -4.0430445169548079E-006   6.9463639812579858E-002
  -2.7973269345615837E-006   2.3085154229329774E-006   6.9274084672526826E-002
  -2.5883492738854041E-006   5.8601956703374647E-006   6.9305491322203538E-002
  -2.3793716132092246E-006   6.6119962261051990E-006   6.9557859761610719E-002
  -2.1703939525330451E-006   4.5639170895839243E-006   7.0031189990747977E-002
  -1.9298571734979869E-003   4.7595366847019704E-004   6.8241290869347604E-002
  -1.7055509384869896E-003   4.2393677746754843E-004   6.8035731880825290E-002
  -1.4812447034760028E-003   3.9902265803887227E-004   6.8057405617273248E-002
  -1.2569384684650107E-003   4.0121131018390488E-004   6.8306312078691422E-002
  -1.0326322334540186E-003   4.3050273390288218E-004   6.8782451265080313E-002
  -3.8879988044309213E-003   9.5595038145701583E-004   6.6945622149540807E-002
  -3.4333243768293930E-003   8.4556503951255246E-004   6.6753961963814723E-002
  -2.9786499492278507E-003   7.9218512040749034E-004   6.6795805438299577E-002
  -2.5239755216263163E-003   7.9581062414214171E-004   6.7071152572994827E-002
  -2.0693010940247801E-003   8.5644155071629147E-004   6.7580003367900987E-002
  -5.8774311973940219E-003   1.4359470944439456E-003   6.5576633653158772E-002
  -5.1861176419617351E-003   1.2671933015575843E-003   6.5428774921495125E-002
  -4.4948040865294414E-003   1.1853475827762333E-003   6.5520690785282387E-002
  -3.8034905310971555E-003   1.1904099381002710E-003   6.5852381244520530E-002
  -3.1121769756648618E-003   1.2823803675294787E-003   6.6423846299209596E-002
  -7.8981543523873321E-003   1.9159438074308754E-003   6.4134325380201695E-002
  -6.9639307338840509E-003   1.6888215636021164E-003   6.4060170753866275E-002
  -6.0297071153807766E-003   1.5785100451446987E-003   6.4232061658221928E-002
  -5.0954834968774988E-003   1.5850092520584697E-003   6.4649998093268685E-002
  -4.1612598783742211E-003   1.7083191843429990E-003   6.5313980059006571E-002
  -2.1703939525330451E-006   4.5639170895839243E-006   7.0031189990747977E-002
  -1.6786246680583483E-006   1.6967041540638661E-006   6.8690383651802245E-002
  -1.1868553835905904E-006  -8.8966869982165520E-009   6.7495470445126604E-002
  -6.9508609912283248E-007  -5.5288543400477952E-007   6.6446450370721333E-002
  -2.0331681464813567E-007   6.4737913252344015E-008   6.5543323428586264E-002
  -1.0326322334540186E-003   4.3050273390288218E-004   6.8782451265080313E-002
  -8.8957232212895018E-004   5.0257563531369565E-004   6.7461923812787927E-002
  -7.4651241080389910E-004   6.3310872053540246E-004   6.6280639512306672E-002
  -6.0345249947883935E-004   8.2210198956768343E-004   6.5238598363636269E-002
  -4.6039258815377959E-004   1.0695554424101639E-003   6.4335800366776774E-002
  -2.0693010940247801E-003   8.5644155071629147E-004   6.7580003367900987E-002
  -1.7903230211184021E-003   1.0034545664736605E-003   6.6337053373978411E-002
  -1.5113449482120093E-003   1.2662263377578309E-003   6.5226696551407476E-002
  -1.2323668753056235E-003   1.6447568645689345E-003   6.4248932900188335E-002
  -9.5338880239923852E-004   2.1390461469068534E-003   6.3403762420320808E-002
  -3.1121769756648618E-003   1.2823803675294787E-003   6.6423846299209596E-002
  -2.7039307216364019E-003   1.5043334976332368E-003   6.5315772335373057E-002
  -2.2956844676079559E-003   1.8993439549802454E-003   6.4333641562429128E-002
  -1.8874382135795095E-003   2.4674117395701821E-003   6.3477453980377657E-002
  -1.4791919595510497E-003   3.2085368514035428E-003   6.2747209589218450E-002
  -4.1612598783742211E-003   1.7083191843429990E-003   6.5313980059006571E-002
  -3.6303954236829583E-003   2.0052124287932016E-003   6.4398080696972504E-002
  -3.0995309689917060E-003   2.5324615722025767E-003   6.3601474545371739E-002
  -2.5686665143004501E-003   3.2900666145717419E-003   6.2924161604203971E-002
  -2.0378020596091909E-003   4.2780275559003433E-003   6.2366141873469449E-002
  -2.0331681464813567E-007   6.4737913252344015E-008   6.5543323428586264E-002
  -2.9181270796291292E-007   1.0285058450465456E-006   6.0802350451791831E-002
  -3.8030860128809851E-007   1.5229508520953061E-006   5.5942769418055316E-002
  -4.6880449460981466E-007   1.5480729340655586E-006   5.0964580327377773E-002
  -5.5730038792112246E-007   1.1038720906242361E-006   4.5867783179757371E-002
  -4.6039258815377959E-004   1.0695554424101639E-003   6.4335800366776774E-002
  -5.6503321940734250E-004   1.3953553326166990E-003   5.9624958052654276E-002
  -6.6967385066090887E-004   1.8193879137410329E-003   5.4823619524752953E-002
  -7.7431448191448912E-004   2.3416531857831935E-003   4.9931784783073252E-002
  -8.7895511316805203E-004   2.9621511487429864E-003   4.4949453827614949E-002
  -9.5338880239923852E-004   2.1390461469068534E-003   6.3403762420320808E-002
  -1.1344697258496919E-003   2.7896821593880738E-003   5.8821752782712455E-002
  -1.3155506493001548E-003   3.6372528766304146E-003   5.4177358774489009E-002
  -1.4966315727506186E-003   4.6817582986325990E-003   4.9470580395650346E-002
  -1.6777124962010850E-003   5.9231984253953485E-003   4.4701417646196728E-002
  -1.4791919595510497E-003   3.2085368514035428E-003   6.2747209589218450E-002
  -1.7086013320350268E-003   4.1840089861598095E-003   5.8392734641967176E-002
  -1.9380107045190115E-003   5.4551178395197963E-003   5.4003987167264067E-002
  -2.1674200770029793E-003   7.0218634114821987E-003   4.9580967165109555E-002
  -2.3968294494869594E-003   8.8842457020478216E-003   4.5123674635502570E-002
  -2.0378020596091909E-003   4.2780275559003433E-003   6.2366141873469449E-002
  -2.2874280379633280E-003   5.5783358129312122E-003   5.8337903630418131E-002
  -2.5370540163174617E-003   7.2729828024087617E-003   5.4303504703078265E-002
  -2.7866799946715953E-003   9.3619685243313613E-003   5.0262945091450045E-002
  -3.0363059730257325E-003   1.1845292978700073E-002   4.6216224795532668E-002
  -2.5135798020217232E-002   4.8261898703056971E-003   5.7486037649097765E-002
  -2.4327341317756768E-002   5.1900995460171240E-003   5.8855212238836663E-002
  -2.3518884615296283E-002   5.4703816365466729E-003   6.0023465688153144E-002
  -2.2710427912835802E-002   5.6670361418943022E-003   6.0990797997047264E-002
  -2.1901971210375314E-002   5.7800630620599702E-003   6.1757209165518967E-002
  -3.0105436386221335E-002   7.8030960906440572E-003   5.7081305025931672E-002
  -2.9365513494306363E-002   7.8828460195106698E-003   5.7451544995238774E-002
  -2.8625590602391400E-002   7.9001457712608164E-003   5.7885638483877427E-002
  -2.7885667710476441E-002   7.8549953458942438E-003   5.8383585491847440E-002
  -2.7145744818561458E-002   7.7473947434110735E-003   5.8945386019148727E-002
  -3.6133357821384840E-002   1.0780002310982362E-002   5.6381823951888066E-002
  -3.5197194080261555E-002   1.0575592493004327E-002   5.5774306708828922E-002
  -3.4261030339138333E-002   1.0329909905974932E-002   5.5495417644854828E-002
  -3.3324866598015063E-002   1.0042954549894158E-002   5.5545156759966019E-002
  -3.2388702856891827E-002   9.7147264247620935E-003   5.5923524054162274E-002
  -4.3219562325707561E-002   1.3756908531320666E-002   5.5387594426967279E-002
  -4.1822383075622277E-002   1.3268338966497872E-002   5.3823497379606816E-002
  -4.0425203825536958E-002   1.2759674040689062E-002   5.2852803171085518E-002
  -3.9028024575451674E-002   1.2230913753894113E-002   5.2475511801403071E-002
  -3.7630845325366355E-002   1.1682058106113127E-002   5.2691623270559457E-002
  -5.1364049899189690E-002   1.6733814751659026E-002   5.4098616451168979E-002
  -4.9241080480388583E-002   1.5961085439991529E-002   5.1599117007572859E-002
  -4.7118111061587406E-002   1.5189438175403192E-002   4.9957795062569255E-002
  -4.4995141642786264E-002   1.4418872957894027E-002   4.9174650616158527E-002
  -4.2872172223985108E-002   1.3649389787464217E-002   4.9249683668340483E-002
  -2.1901971210375314E-002   5.7800630620599702E-003   6.1757209165518967E-002
  -2.1145520350565404E-002   5.8055623076775364E-003   6.1670352824005903E-002
  -2.0389069490755491E-002   5.7396337893802635E-003   6.1718692947742876E-002
  -1.9632618630945578E-002   5.5822775071685850E-003   6.1902229536730122E-002
  -1.8876167771135668E-002   5.3334934610420603E-003   6.2220962590967488E-002
  -2.7145744818561458E-002   7.7473947434110735E-003   5.8945386019148727E-002
  -2.6258034980676741E-002   7.5840775419008105E-003   5.8785202367890130E-002
  -2.5370325142792000E-002   7.3717773194533626E-003   5.8752340207530923E-002
  -2.4482615304907283E-002   7.1104940760684764E-003   5.8846799538071148E-002
  -2.3594905467022538E-002   6.8002278117461623E-003   5.9068580359510958E-002
  -3.2388702856891827E-002   9.7147264247620935E-003   5.5923524054162274E-002
  -3.1377609015282970E-002   9.3625927761242511E-003   5.5732457836135271E-002
  -3.0366515173674113E-002   9.0039208495263437E-003   5.5660838134657130E-002
  -2.9355421332065264E-002   8.6387106449683660E-003   5.5708664949727760E-002
  -2.8344327490456400E-002   8.2669621624502643E-003   5.5875938281347182E-002
  -3.7630845325366355E-002   1.1682058106113127E-002   5.2691623270559457E-002
  -3.6504242454384092E-002   1.1141108010347664E-002   5.2512119228741563E-002
  -3.5377639583401829E-002   1.0636064379599412E-002   5.2444186729121690E-002
  -3.4251036712419559E-002   1.0166927213868256E-002   5.2487825771699900E-002
  -3.3124433841437276E-002   9.7336965131543940E-003   5.2643036356476179E-002
  -4.2872172223985108E-002   1.3649389787464217E-002   4.9249683668340483E-002
  -4.1637935297980114E-002   1.2919623244570994E-002   4.9124186545708770E-002
  -4.0403698371975126E-002   1.2268207909672438E-002   4.9102385990924480E-002
  -3.9169461445970138E-002   1.1695143782768151E-002   4.9184282003987473E-002
  -3.7935224519965144E-002   1.1200430863858413E-002   4.9369874584897999E-002
  -1.8876167771135668E-002   5.3334934610420603E-003   6.2220962590967488E-002
  -1.7963644303837845E-002   5.0381635052328400E-003   6.1956791742372841E-002
  -1.7051120836540042E-002   4.7411694939729354E-003   6.1883824099832674E-002
  -1.6138597369242225E-002   4.4425114272619234E-003   6.2002059663347042E-002
  -1.5226073901944415E-002   4.1421893051004632E-003   6.2311498432915946E-002
  -2.3594905467022538E-002   6.8002278117461623E-003   5.9068580359510958E-002
  -2.2484790250677428E-002   6.4613844307514212E-003   5.8775196092432702E-002
  -2.1374675034332363E-002   6.1143698373486710E-003   5.8685792117394636E-002
  -2.0264559817987270E-002   5.7591840315384876E-003   5.8800368434396511E-002
  -1.9154444601642159E-002   5.3958270133201425E-003   5.9118925043438464E-002
  -2.8344327490456400E-002   8.2669621624502643E-003   5.5875938281347182E-002
  -2.7023843439078481E-002   7.8846053562698082E-003   5.5546833438828491E-002
  -2.5703359387700540E-002   7.4875701807245315E-003   5.5434485974335521E-002
  -2.4382875336322621E-002   7.0758566358147777E-003   5.5538895887868055E-002
  -2.3062391284944712E-002   6.6494647215400993E-003   5.5860063179426267E-002
  -3.3124433841437276E-002   9.7336965131543940E-003   5.2643036356476179E-002
  -3.1580803869040948E-002   9.3078262817880980E-003   5.2271703781560146E-002
  -3.0037173896644617E-002   8.8607705241004961E-003   5.2129905670655285E-002
  -2.8493543924248320E-002   8.3925292400910383E-003   5.2217642023761647E-002
  -2.6949913951851961E-002   7.9031024297599728E-003   5.2534912840879210E-002
  -3.7935224519965144E-002   1.1200430863858413E-002   4.9369874584897999E-002
  -3.6155671540564843E-002   1.0731047207306721E-002   4.8949807120627742E-002
  -3.4376118561164584E-002   1.0233970867476253E-002   4.8772051206354083E-002
  -3.2596565581764318E-002   9.7092018443675522E-003   4.8836606842077177E-002
  -3.0817012602364025E-002   9.1567401379798463E-003   4.9143474027797063E-002
  -1.5226073901944415E-002   4.1421893051004632E-003   6.2311498432915946E-002
  -1.4368214950152402E-002   3.8457768619218902E-003   6.2075158682271869E-002
  -1.3510355998360382E-002   3.5588478321610661E-003   6.2086250954787259E-002
  -1.2652497046568369E-002   3.2814022158182618E-003   6.2344775250462281E-002
  -1.1794638094776350E-002   3.0134400128924987E-003   6.2850731569296880E-002
  -1.9154444601642159E-002   5.3958270133201425E-003   5.9118925043438464E-002
  -1.8061017943998836E-002   5.0295225420547984E-003   5.8897024851746693E-002
  -1.6967591286355499E-002   4.6654943771018420E-003   5.8898828048597834E-002
  -1.5874164628712176E-002   4.3037425184619671E-003   5.9124334633992054E-002
  -1.4780737971068842E-002   3.9442669661349794E-003   5.9573544607929241E-002
  -2.3062391284944712E-002   6.6494647215400993E-003   5.5860063179426267E-002
  -2.1757125556066525E-002   6.2132682221872071E-003   5.5645395439581857E-002
  -2.0451859827188397E-002   5.7721409220424652E-003   5.5630702453664083E-002
  -1.9146594098310266E-002   5.3260828211057869E-003   5.5815984221672756E-002
  -1.7841328369432120E-002   4.8750939193772380E-003   5.6201240743608105E-002
  -2.6949913951851961E-002   7.9031024297599728E-003   5.2534912840879210E-002
  -2.5456537786355513E-002   7.3970139023198100E-003   5.2320270445777500E-002
  -2.3963161620859052E-002   6.8787874669831092E-003   5.2281874169985851E-002
  -2.2469785455362601E-002   6.3484231237496049E-003   5.2419724013504150E-002
  -2.0976409289866139E-002   5.8059208726195521E-003   5.2733819976332558E-002
  -3.0817012602364025E-002   9.1567401379798463E-003   4.9143474027797063E-002
  -2.9159254634865753E-002   8.5807595824525795E-003   4.8921649870333483E-002
  -2.7501496667367481E-002   7.9854340119237810E-003   4.8852343197563208E-002
  -2.5843738699869209E-002   7.3707634263934022E-003   4.8935554009486570E-002
  -2.4185980732370937E-002   6.7367478258618663E-003   4.9171282306103570E-002
  -1.1794638094776350E-002   3.0134400128924987E-003   6.2850731569296880E-002
  -1.0820517159179102E-002   2.7474311278888330E-003   6.2829447742304867E-002
  -9.8463962235818409E-003   2.4758454653108219E-003   6.3036285435124906E-002
  -8.8722752879845899E-003   2.1986830251580630E-003   6.3471244647757247E-002
  -7.8981543523873321E-003   1.9159438074308754E-003   6.4134325380201695E-002
  -1.4780737971068842E-002   3.9442669661349794E-003   5.9573544607929241E-002
  -1.3585034210368142E-002   3.5851597281633119E-003   5.9467673336569604E-002
  -1.2389330449667489E-002   3.2245128125895223E-003   5.9576846195604521E-002
  -1.1193626688966823E-002   2.8623262194139056E-003   5.9901063185034173E-002
  -9.9979229282661335E-003   2.4985999486364374E-003   6.0440324304858295E-002
  -1.7841328369432120E-002   4.8750939193772380E-003   5.6201240743608105E-002
  -1.6437119173045502E-002   4.4228883284378739E-003   5.6014819127852958E-002
  -1.5032909976658926E-002   3.9731801598688887E-003   5.6030364253074866E-002
  -1.3628700780272337E-002   3.5259694136701922E-003   5.6247876119273926E-002
  -1.2224491583885763E-002   3.0812560898418329E-003   5.6667354726450181E-002
  -2.0976409289866139E-002   5.8059208726195521E-003   5.2733819976332558E-002
  -1.9376772047211131E-002   5.2606169287123389E-003   5.2470885116154470E-002
  -1.7777134804556168E-002   4.7218475071480887E-003   5.2396839607535974E-002
  -1.6177497561901195E-002   4.1896126079263678E-003   5.2511683450477090E-002
  -1.4577860319246193E-002   3.6639122310472561E-003   5.2815416644978019E-002
  -2.4185980732370937E-002   6.7367478258618663E-003   4.9171282306103570E-002
  -2.2403992832865066E-002   6.0983455289870259E-003   4.8835871301474654E-002
  -2.0622004933359195E-002   5.4705148544270665E-003   4.8676272258987852E-002
  -1.8840017033853323E-002   4.8532558021824046E-003   4.8692485178643274E-002
  -1.7058029134347452E-002   4.2465683722527903E-003   4.8884510060440700E-002
  -7.8981543523873321E-003   1.9159438074308754E-003   6.4134325380201695E-002
  -6.9639307338840509E-003   1.6888215636021164E-003   6.4060170753866275E-002
  -6.0297071153807766E-003   1.5785100451446987E-003   6.4232061658221928E-002
  -5.0954834968774988E-003   1.5850092520584697E-003   6.4649998093268685E-002
  -4.1612598783742211E-003   1.7083191843429990E-003   6.5313980059006571E-002
  -9.9979229282661335E-003   2.4985999486364374E-003   6.0440324304858295E-002
  -8.8161461283447450E-003   2.1915700479668843E-003   6.0356748821103923E-002
  -7.6343693284233408E-003   1.9994725651163447E-003   6.0522234169494676E-002
  -6.4525925285019358E-003   1.9223075000838752E-003   6.0936780350030376E-002
  -5.2708157285805482E-003   1.9600748528704193E-003   6.1600387362711728E-002
  -1.2224491583885763E-002   3.0812560898418329E-003   5.6667354726450181E-002
  -1.0792146301092168E-002   2.6943185323315688E-003   5.6572480077724474E-002
  -9.3598010182986049E-003   2.4204350850875189E-003   5.6729681562597806E-002
  -7.9274557355050526E-003   2.2596057481096068E-003   5.7138959181070328E-002
  -6.4951104527114743E-003   2.2118305213977285E-003   5.7800312933142056E-002
  -1.4577860319246193E-002   3.6639122310472561E-003   5.2815416644978019E-002
  -1.2891931252126388E-002   3.1970670166962395E-003   5.2707364523728067E-002
  -1.1206002185006612E-002   2.8413976050589290E-003   5.2854403837531490E-002
  -9.5200731178868344E-003   2.5969039961351754E-003   5.3256534586388238E-002
  -7.8341440507670307E-003   2.4635861899248157E-003   5.3913756770298284E-002
  -1.7058029134347452E-002   4.2465683722527903E-003   4.8884510060440700E-002
  -1.5115500981447400E-002   3.6998155010609102E-003   4.8761402159114620E-002
  -1.3172972828547319E-002   3.2623601250303114E-003   4.8896400994295652E-002
  -1.1230444675647266E-002   2.9342022441606816E-003   4.9289506565983993E-002
  -9.2879165227471860E-003   2.7153418584524580E-003   4.9940718874179724E-002
  -4.1612598783742211E-003   1.7083191843429990E-003   6.5313980059006571E-002
  -3.6303954236829583E-003   2.0052124287932016E-003   6.4398080696972504E-002
  -3.0995309689917060E-003   2.5324615722025767E-003   6.3601474545371739E-002
  -2.5686665143004501E-003   3.2900666145717419E-003   6.2924161604203971E-002
  -2.0378020596091909E-003   4.2780275559003433E-003   6.2366141873469449E-002
  -5.2708157285805482E-003   1.9600748528704193E-003   6.1600387362711728E-002
  -4.5948556261037263E-003   2.2180026476119052E-003   6.0873423746630961E-002
  -3.9188955236269182E-003   2.8013189084450940E-003   6.0317358215688205E-002
  -3.2429354211501275E-003   3.7100236353702770E-003   5.9932190769883306E-002
  -2.5669753186733126E-003   4.9441168283866910E-003   5.9717921409216390E-002
  -6.4951104527114743E-003   2.2118305213977285E-003   5.7800312933142056E-002
  -5.6224498277443573E-003   2.4307928664308587E-003   5.7357317630147037E-002
  -4.7497892027772420E-003   3.0701762446878195E-003   5.7136825286994583E-002
  -3.8771285778101553E-003   4.1299806561684756E-003   5.7138835903684786E-002
  -3.0044679528430374E-003   5.6102061008730941E-003   5.7363349480217901E-002
  -7.8341440507670307E-003   2.4635861899248157E-003   5.3913756770298284E-002
  -6.7131780286048505E-003   2.6435830852496872E-003   5.3849762347520772E-002
  -5.5922120064426858E-003   3.3390335809303298E-003   5.4059875759290679E-002
  -4.4712459842805134E-003   4.5499376769670644E-003   5.4544097005608159E-002
  -3.3502799621183410E-003   6.2762953733594695E-003   5.5302426086472976E-002
  -9.2879165227471860E-003   2.7153418584524580E-003   4.9940718874179724E-002
  -7.8670402286852154E-003   2.8563733040685713E-003   5.0350757898752208E-002
  -6.4461639346232169E-003   3.6078909171730345E-003   5.1086509632576660E-002
  -5.0252876405612323E-003   4.9698946977653133E-003   5.2147974075653442E-002
  -3.6044113464992478E-003   6.9423846458459559E-003   5.3535151227982358E-002
  -2.0378020596091909E-003   4.2780275559003433E-003   6.2366141873469449E-002
  -2.2874280379633280E-003   5.5783358129312122E-003   5.8337903630418131E-002
  -2.5370540163174617E-003   7.2729828024087617E-003   5.4303504703078265E-002
  -2.7866799946715953E-003   9.3619685243313613E-003   5.0262945091450045E-002
  -3.0363059730257325E-003   1.1845292978700073E-002   4.6216224795532668E-002
  -2.5669753186733126E-003   4.9441168283866910E-003   5.9717921409216390E-002
  -2.8400796885497265E-003   6.5679888622130478E-003   5.6188300057812668E-002
  -3.1131840584261057E-003   8.6460301115676430E-003   5.2617882607652544E-002
  -3.3862884283024867E-003   1.1178240576449790E-002   4.9006669058736463E-002
  -3.6593927981789232E-003   1.4164620256860161E-002   4.5354659411064535E-002
  -3.0044679528430374E-003   5.6102061008730941E-003   5.7363349480217901E-002
  -3.3356861287092386E-003   7.5576419114949389E-003   5.4392175503543694E-002
  -3.6669043045754815E-003   1.0019077420726732E-002   5.1345570013645717E-002
  -3.9981224804416689E-003   1.2994512628568326E-002   4.8223533010523699E-002
  -4.3293406563078979E-003   1.6483947535020249E-002   4.5026064494179230E-002
  -3.3502799621183410E-003   6.2762953733594695E-003   5.5302426086472976E-002
  -3.7742473584419641E-003   8.5472949607763582E-003   5.2949529967610355E-002
  -4.1982147547655595E-003   1.1392124729885718E-002   5.0486566921056852E-002
  -4.6221821510892104E-003   1.4810784680686808E-002   4.7913536946812163E-002
  -5.0461495474127772E-003   1.8803274813180448E-002   4.5230440044875891E-002
  -3.6044113464992478E-003   6.9423846458459559E-003   5.3535151227982358E-002
  -4.1557633777478120E-003   9.5369480100582216E-003   5.1860363450014102E-002
  -4.7071154089964040E-003   1.2765172039044842E-002   5.0040873329886770E-002
  -5.2584674402449405E-003   1.6627056732805325E-002   4.8076680867601057E-002
  -5.8098194714935603E-003   2.1122602091340426E-002   4.5967786063155991E-002
  -5.1364049899189690E-002   1.6733814751659026E-002   5.4098616451168979E-002
  -4.9241080480388583E-002   1.5961085439991529E-002   5.1599117007572859E-002
  -4.7118111061587406E-002   1.5189438175403192E-002   4.9957795062569255E-002
  -4.4995141642786264E-002   1.4418872957894027E-002   4.9174650616158527E-002
  -4.2872172223985108E-002   1.3649389787464217E-002   4.9249683668340483E-002
  -5.9198250444710998E-002   1.7875809916435559E-002   4.6475655299872853E-002
  -5.6462653378934649E-002   1.7145242408659361E-002   4.5423117599289908E-002
  -5.3727056313158342E-002   1.6440901792903737E-002   4.4737657694064459E-002
  -5.0991459247381986E-002   1.5762788069168625E-002   4.4419275584196699E-002
  -4.8255862181605699E-002   1.5110901237454011E-002   4.4467971269686685E-002
  -6.5353593865151494E-002   1.9017805081212064E-002   3.8882283529997563E-002
  -6.2496468855635111E-002   1.8329399377327221E-002   3.9301852417369054E-002
  -5.9639343846118589E-002   1.7692365410404254E-002   3.9597399396863048E-002
  -5.6782218836602172E-002   1.7106703180443113E-002   3.9768924468479599E-002
  -5.3925093827085685E-002   1.6572412687443749E-002   3.9816427632218779E-002
  -6.9830080160511093E-002   2.0159800245988568E-002   3.1318501141542943E-002
  -6.7342526910489559E-002   1.9513556345995151E-002   3.3235321461810158E-002
  -6.4854973660468149E-002   1.8943829027904757E-002   3.4537020170964827E-002
  -6.2367420410446663E-002   1.8450618291717600E-002   3.5223597269007118E-002
  -5.9879867160425183E-002   1.8033924137433516E-002   3.5295052755936820E-002
  -7.2627709330789880E-002   2.1301795410765101E-002   2.3784308134508936E-002
  -7.1000827543498513E-002   2.0697713314663024E-002   2.7223524732613358E-002
  -6.9373945756207006E-002   2.0195292645405344E-002   2.9556520016370047E-002
  -6.7747063968915527E-002   1.9794533402992177E-002   3.0783293985779198E-002
  -6.6120182181624104E-002   1.9495435587423338E-002   3.0903846640840837E-002
  -4.2872172223985108E-002   1.3649389787464217E-002   4.9249683668340483E-002
  -4.1637935297980114E-002   1.2919623244570994E-002   4.9124186545708770E-002
  -4.0403698371975126E-002   1.2268207909672438E-002   4.9102385990924480E-002
  -3.9169461445970138E-002   1.1695143782768151E-002   4.9184282003987473E-002
  -3.7935224519965144E-002   1.1200430863858413E-002   4.9369874584897999E-002
  -4.8255862181605699E-002   1.5110901237454011E-002   4.4467971269686685E-002
  -4.6874731584049291E-002   1.4478677619135377E-002   4.4145854934282497E-002
  -4.5493600986492889E-002   1.3859553535588279E-002   4.4013829374133909E-002
  -4.4112470388936523E-002   1.3253528986812761E-002   4.4071894589240525E-002
  -4.2731339791380135E-002   1.2660603972808826E-002   4.4320050579602699E-002
  -5.3925093827085685E-002   1.6572412687443749E-002   3.9816427632218779E-002
  -5.2310675350569880E-002   1.6037731993699580E-002   3.9232440410819316E-002
  -5.0696256874054081E-002   1.5450899161504168E-002   3.8924938172083319E-002
  -4.9081838397538262E-002   1.4811914190857258E-002   3.8893920916010724E-002
  -4.7467419921022470E-002   1.4120777081759156E-002   3.9139388642601594E-002
  -5.9879867160425183E-002   1.8033924137433516E-002   3.5295052755936820E-002
  -5.7945766597541887E-002   1.7596786368263902E-002   3.4383942975319146E-002
  -5.6011666034658562E-002   1.7042244787419950E-002   3.3835712384773009E-002
  -5.4077565471775314E-002   1.6370299394901977E-002   3.3650360984298321E-002
  -5.2143464908892004E-002   1.5580950190709500E-002   3.3827888773895129E-002
  -6.6120182181624104E-002   1.9495435587423338E-002   3.0903846640840837E-002
  -6.3780005324965305E-002   1.9155840742828140E-002   2.9600362627782095E-002
  -6.1439828468306479E-002   1.8633590413335926E-002   2.8746152012202819E-002
  -5.9099651611647680E-002   1.7928684598946400E-002   2.8341214794103065E-002
  -5.6759474754988881E-002   1.7041123299659899E-002   2.8385550973482887E-002
  -3.7935224519965144E-002   1.1200430863858413E-002   4.9369874584897999E-002
  -3.6155671540564843E-002   1.0731047207306721E-002   4.8949807120627742E-002
  -3.4376118561164584E-002   1.0233970867476253E-002   4.8772051206354083E-002
  -3.2596565581764318E-002   9.7092018443675522E-003   4.8836606842077177E-002
  -3.0817012602364025E-002   9.1567401379798463E-003   4.9143474027797063E-002
  -4.2731339791380135E-002   1.2660603972808826E-002   4.4320050579602699E-002
  -4.0720362927053645E-002   1.2074130187028354E-002   4.3935185711232949E-002
  -3.8709386062727127E-002   1.1487459322923152E-002   4.3770857062718938E-002
  -3.6698409198400651E-002   1.0900591380493121E-002   4.3827064634060567E-002
  -3.4687432334074175E-002   1.0313526359738701E-002   4.4103808425257962E-002
  -4.7467419921022470E-002   1.4120777081759156E-002   3.9139388642601594E-002
  -4.5246794501910735E-002   1.3417213166749958E-002   3.8817221975086386E-002
  -4.3026169082799062E-002   1.2740947778369878E-002   3.8693816197285770E-002
  -4.0805543663687348E-002   1.2091980916618965E-002   3.8769171309199865E-002
  -3.8584918244575703E-002   1.1470312581497277E-002   3.9043287310828567E-002
  -5.2143464908892004E-002   1.5580950190709500E-002   3.3827888773895129E-002
  -4.9734966265136168E-002   1.4760296146471688E-002   3.3595915912188218E-002
  -4.7326467621380285E-002   1.3994436233816857E-002   3.3540928610054824E-002
  -4.4917968977624442E-002   1.3283370452744782E-002   3.3662926867494988E-002
  -4.2509470333868621E-002   1.2627098803255882E-002   3.3961910684509010E-002
  -5.6759474754988881E-002   1.7041123299659899E-002   2.8385550973482887E-002
  -5.4184878216729904E-002   1.6103379126193251E-002   2.8271267522538002E-002
  -5.1610281678470898E-002   1.5247924689263490E-002   2.8312194301025856E-002
  -4.9035685140211921E-002   1.4474759988870458E-002   2.8508331308946172E-002
  -4.6461088601952916E-002   1.3783885025014653E-002   2.8859678546299172E-002
  -3.0817012602364025E-002   9.1567401379798463E-003   4.9143474027797063E-002
  -2.9159254634865753E-002   8.5807595824525795E-003   4.8921649870333483E-002
  -2.7501496667367481E-002   7.9854340119237810E-003   4.8852343197563208E-002
  -2.5843738699869209E-002   7.3707634263934022E-003   4.8935554009486570E-002
  -2.4185980732370937E-002   6.7367478258618663E-003   4.9171282306103570E-002
  -3.4687432334074175E-002   1.0313526359738701E-002   4.4103808425257962E-002
  -3.2883146993385320E-002   9.7160099387068877E-003   4.3828902608884363E-002
  -3.1078861652696549E-002   9.0977877954455111E-003   4.3694534054198181E-002
  -2.9274576312007791E-002   8.4588599299545292E-003   4.3700702761199570E-002
  -2.7470290971318923E-002   7.7992263422339558E-003   4.3847408729888349E-002
  -3.8584918244575703E-002   1.1470312581497277E-002   3.9043287310828567E-002
  -3.6646085753702387E-002   1.0851260294961224E-002   3.8713939128316832E-002
  -3.4707253262829078E-002   1.0210141578967338E-002   3.8513147984486448E-002
  -3.2768420771955756E-002   9.5469564335155972E-003   3.8440913879337617E-002
  -3.0829588281082454E-002   8.8617048586061009E-003   3.8497236812870123E-002
  -4.2509470333868621E-002   1.2627098803255882E-002   3.3961910684509010E-002
  -4.0448070915816862E-002   1.1986510651215490E-002   3.3576759428630962E-002
  -3.8386671497765132E-002   1.1322495362489117E-002   3.3308184988428191E-002
  -3.6325272079713415E-002   1.0635052937076639E-002   3.3156187363900851E-002
  -3.4263872661661698E-002   9.9241833749782737E-003   3.3120766555048781E-002
  -4.6461088601952916E-002   1.3783885025014653E-002   2.8859678546299172E-002
  -4.4289102479728781E-002   1.3121761007469868E-002   2.8417363509826543E-002
  -4.2117116357504675E-002   1.2434849146010965E-002   2.8079645066023257E-002
  -3.9945130235280568E-002   1.1723149440637643E-002   2.7846523214889132E-002
  -3.7773144113056434E-002   1.0986661891350336E-002   2.7717997956424711E-002
  -2.4185980732370937E-002   6.7367478258618663E-003   4.9171282306103570E-002
  -2.2403992832865066E-002   6.0983455289870259E-003   4.8835871301474654E-002
  -2.0622004933359195E-002   5.4705148544270665E-003   4.8676272258987852E-002
  -1.8840017033853323E-002   4.8532558021824046E-003   4.8692485178643274E-002
  -1.7058029134347452E-002   4.2465683722527903E-003   4.8884510060440700E-002
  -2.7470290971318923E-002   7.7992263422339558E-003   4.3847408729888349E-002
  -2.5515317197334179E-002   7.1341153372014854E-003   4.3444345821740948E-002
  -2.3560343423349471E-002   6.4787552197746179E-003   4.3211442700409108E-002
  -2.1605369649364756E-002   5.8331459899535545E-003   4.3148699365892967E-002
  -1.9650395875380020E-002   5.1972876477379693E-003   4.3256115818192220E-002
  -3.0829588281082454E-002   8.8617048586061009E-003   3.8497236812870123E-002
  -2.8707280807945428E-002   8.1698851454158894E-003   3.8025701266494821E-002
  -2.6584973334808401E-002   7.4869955851220582E-003   3.7718673331608776E-002
  -2.4462665861671347E-002   6.8130361777244824E-003   3.7576153008211780E-002
  -2.2340358388534293E-002   6.1480069232234813E-003   3.7598140296303539E-002
  -3.4263872661661698E-002   9.9241833749782737E-003   3.3120766555048781E-002
  -3.1979883664698845E-002   9.2056549536300436E-003   3.2579937635736446E-002
  -2.9695894667736058E-002   8.4952359504694430E-003   3.2197964152586613E-002
  -2.7411905670773264E-002   7.7929263654953548E-003   3.1974846105599121E-002
  -2.5127916673810417E-002   7.0987261987087713E-003   3.1910583494774235E-002
  -3.7773144113056434E-002   1.0986661891350336E-002   2.7717997956424711E-002
  -3.5333125767594398E-002   1.0241424761844697E-002   2.7107054929465857E-002
  -3.2893107422132389E-002   9.5034763158168556E-003   2.6649315163342846E-002
  -3.0453089076670339E-002   8.7728165532664562E-003   2.6344778658055984E-002
  -2.8013070731208345E-002   8.0494454741942834E-003   2.6193445413604910E-002
  -1.7058029134347452E-002   4.2465683722527903E-003   4.8884510060440700E-002
  -1.5115500981447400E-002   3.6998155010609102E-003   4.8761402159114620E-002
  -1.3172972828547319E-002   3.2623601250303114E-003   4.8896400994295652E-002
  -1.1230444675647266E-002   2.9342022441606816E-003   4.9289506565983993E-002
  -9.2879165227471860E-003   2.7153418584524580E-003   4.9940718874179724E-002
  -1.9650395875380020E-002   5.1972876477379693E-003   4.3256115818192220E-002
  -1.7489906205050525E-002   4.6014880244387713E-003   4.3085098948360323E-002
  -1.5329416534721058E-002   4.0760549513666755E-003   4.3091898376880100E-002
  -1.3168926864391590E-002   3.6209884285214392E-003   4.3276514103751357E-002
  -1.1008437194062096E-002   3.2362884559032912E-003   4.3638946128973954E-002
  -2.2340358388534293E-002   6.1480069232234813E-003   3.7598140296303539E-002
  -2.0042197638931274E-002   5.5031605478169099E-003   3.7340283513031841E-002
  -1.7744036889328199E-002   4.8897497777031645E-003   3.7179952589955892E-002
  -1.5445876139725069E-002   4.3077746128822002E-003   3.7117147527075491E-002
  -1.3147715390122050E-002   3.7572350533541243E-003   3.7151868324391185E-002
  -2.5127916673810417E-002   7.0987261987087713E-003   3.1910583494774235E-002
  -2.2772375283089522E-002   6.4048330711949653E-003   3.1526955853128764E-002
  -2.0416833892368622E-002   5.7034446040395356E-003   3.1160563633523073E-002
  -1.8061292501647723E-002   4.9945607972431815E-003   3.0811406835957331E-002
  -1.5705751110926772E-002   4.2781816508049575E-003   3.0479485460431464E-002
  -2.8013070731208345E-002   8.0494454741942834E-003   2.6193445413604910E-002
  -2.5680439137525379E-002   7.3065055945729651E-003   2.5645115968651266E-002
  -2.3347807543842442E-002   6.5171394303760455E-003   2.5033731507581591E-002
  -2.1015175950159476E-002   5.6813469816037257E-003   2.4359292030396079E-002
  -1.8682544356476538E-002   4.7991282482559017E-003   2.3621797537094924E-002
  -9.2879165227471860E-003   2.7153418584524580E-003   4.9940718874179724E-002
  -7.8670402286852154E-003   2.8563733040685713E-003   5.0350757898752208E-002
  -6.4461639346232169E-003   3.6078909171730345E-003   5.1086509632576660E-002
  -5.0252876405612323E-003   4.9698946977653133E-003   5.2147974075653442E-002
  -3.6044113464992478E-003   6.9423846458459559E-003   5.3535151227982358E-002
  -1.1008437194062096E-002   3.2362884559032912E-003   4.3638946128973954E-002
  -9.2430508553189572E-003   3.1624078990128424E-003   4.4229904188589020E-002
  -7.4776645165757910E-003   3.6397996233511198E-003   4.5184169628314147E-002
  -5.7122781778326144E-003   4.6684636289184497E-003   4.6501742448149572E-002
  -3.9468918390894309E-003   6.2483999157147974E-003   4.8182622648094919E-002
  -1.3147715390122050E-002   3.7572350533541243E-003   3.7151868324391185E-002
  -1.1000224335839720E-002   3.4684424939570857E-003   3.7864531532789319E-002
  -8.8527332815573276E-003   3.6717083295294412E-003   3.8978096792155678E-002
  -6.7052422272749351E-003   4.3670325600715897E-003   4.0492564102490268E-002
  -4.5577511729925496E-003   5.5544151855831392E-003   4.2407933463792818E-002
  -1.5705751110926772E-002   4.2781816508049575E-003   3.0479485460431464E-002
  -1.3138560670247275E-002   3.7744770889010099E-003   3.1254639931353516E-002
  -1.0571370229567776E-002   3.7036170357077000E-003   3.2468291124101850E-002
  -8.0041797888882639E-003   4.0656014912247278E-003   3.4120439038676259E-002
  -5.4369893482087255E-003   4.8604304554515088E-003   3.6211083675076826E-002
  -1.8682544356476538E-002   4.7991282482559017E-003   2.3621797537094924E-002
  -1.5658059858541906E-002   4.0805116838456001E-003   2.4400229384281436E-002
  -1.2633575360607191E-002   3.7355257418859589E-003   2.5654752624152455E-002
  -9.6090908626725174E-003   3.7641704223776717E-003   2.7385367256707177E-002
  -6.5846063647378439E-003   4.1664457253202114E-003   2.9592073281946685E-002
  -3.6044113464992478E-003   6.9423846458459559E-003   5.3535151227982358E-002
  -4.1557633777478120E-003   9.5369480100582216E-003   5.1860363450014102E-002
  -4.7071154089964040E-003   1.2765172039044842E-002   5.0040873329886770E-002
  -5.2584674402449405E-003   1.6627056732805325E-002   4.8076680867601057E-002
  -5.8098194714935603E-003   2.1122602091340426E-002   4.5967786063155991E-002
  -3.9468918390894309E-003   6.2483999157147974E-003   4.8182622648094919E-002
  -4.5392776020911352E-003   8.6882516403694598E-003   4.7244234268850493E-002
  -5.1316633650928603E-003   1.2296661959512623E-002   4.6368480768258613E-002
  -5.7240491280945577E-003   1.7073630873143952E-002   4.5555362146318612E-002
  -6.3164348910962897E-003   2.3019158381264004E-002   4.4804878403031489E-002
  -4.5577511729925496E-003   5.5544151855831392E-003   4.2407933463792818E-002
  -4.9838334469362311E-003   7.8395552706804761E-003   4.2740842412986729E-002
  -5.4099157208798293E-003   1.1828151879980611E-002   4.3343723461644237E-002
  -5.8359979948234553E-003   1.7520205013483076E-002   4.4216576609765031E-002
  -6.2620802687670535E-003   2.4915714671187805E-002   4.5359401857349990E-002
  -5.4369893482087255E-003   4.8604304554515088E-003   3.6211083675076826E-002
  -5.4894309122830096E-003   6.9908589009917144E-003   3.8350187882422476E-002
  -5.5418724763573769E-003   1.1359641800448718E-002   4.0966601410043310E-002
  -5.5943140404316610E-003   1.7966779153821839E-002   4.4060324257938648E-002
  -5.6467556045059729E-003   2.6812270961111495E-002   4.7631356426109273E-002
  -6.5846063647378439E-003   4.1664457253202114E-003   2.9592073281946685E-002
  -6.0560699981316302E-003   6.1421625313029526E-003   3.4072270677158456E-002
  -5.5275336315253887E-003   1.0891131720916741E-002   3.9237114613456525E-002
  -4.9989972649191333E-003   1.8413353294160863E-002   4.5086605090840753E-002
  -4.4704608983129335E-003   2.8708827251035185E-002   5.1620742109311113E-002
  -7.2627709330789880E-002   2.1301795410765101E-002   2.3784308134508936E-002
  -7.1000827543498513E-002   2.0697713314663024E-002   2.7223524732613358E-002
  -6.9373945756207006E-002   2.0195292645405344E-002   2.9556520016370047E-002
  -6.7747063968915527E-002   1.9794533402992177E-002   3.0783293985779198E-002
  -6.6120182181624104E-002   1.9495435587423338E-002   3.0903846640840837E-002
  -7.6806306776214750E-002   2.3980499568875990E-002   2.1019957862024596E-002
  -7.5566725088317466E-002   2.2984204395307184E-002   2.0879467411303781E-002
  -7.4327143400420265E-002   2.2170578618083192E-002   2.1070598076142200E-002
  -7.3087561712523064E-002   2.1539622237203779E-002   2.1593349856539809E-002
  -7.1847980024625724E-002   2.1091335252669180E-002   2.2447722752496568E-002
  -8.5425697897012487E-002   2.6659203726986769E-002   1.7822890527323415E-002
  -8.3135573878602778E-002   2.5270695475951427E-002   1.4183700997277740E-002
  -8.0845449860192944E-002   2.4145864590761137E-002   1.2313975012698083E-002
  -7.8555325841783166E-002   2.3284711071415765E-002   1.2213712573584438E-002
  -7.6265201823373402E-002   2.2687234917915161E-002   1.3882913679936645E-002
  -9.8485882693183480E-002   2.9337907885097630E-002   1.4193106130405551E-002
  -9.3707373914354186E-002   2.7557186556595795E-002   7.1362254905354486E-003
  -8.8928865135525254E-002   2.6121150563439006E-002   3.2866508260378027E-003
  -8.4150356356696238E-002   2.5029799905627419E-002   2.6443821369132731E-003
  -7.9371847577867083E-002   2.4283134583161073E-002   5.2094194231609540E-003
 -0.11598686116472723        3.2016612043208492E-002   1.0130604671270915E-002
 -0.10728212519557223        2.9843677637239829E-002  -2.6295910892343288E-004
  -9.8577389226417012E-002   2.8096436536116959E-002  -6.0113744838386218E-003
  -8.9872653257261903E-002   2.6774888739839305E-002  -7.1146414534740479E-003
  -8.1167917288106795E-002   2.5879034248407096E-002  -3.5727600178304120E-003
  -6.6120182181624104E-002   1.9495435587423338E-002   3.0903846640840837E-002
  -6.3780005324965305E-002   1.9155840742828140E-002   2.9600362627782095E-002
  -6.1439828468306479E-002   1.8633590413335926E-002   2.8746152012202819E-002
  -5.9099651611647680E-002   1.7928684598946400E-002   2.8341214794103065E-002
  -5.6759474754988881E-002   1.7041123299659899E-002   2.8385550973482887E-002
  -7.1847980024625724E-002   2.1091335252669180E-002   2.2447722752496568E-002
  -6.9242564907899970E-002   2.0656424197535425E-002   2.2101493135059144E-002
  -6.6637149791174216E-002   2.0065595604858870E-002   2.1836466640276261E-002
  -6.4031734674448490E-002   1.9318849474639466E-002   2.1652643268147698E-002
  -6.1426319557722694E-002   1.8416185806877039E-002   2.1550023018673509E-002
  -7.6265201823373402E-002   2.2687234917915161E-002   1.3882913679936645E-002
  -7.3762618721405854E-002   2.2157007652242863E-002   1.4520676405474879E-002
  -7.1260035619438250E-002   2.1497600796382035E-002   1.4871571978842424E-002
  -6.8757452517470674E-002   2.0709014350332306E-002   1.4935600400039391E-002
  -6.6254869415503098E-002   1.9791248314094179E-002   1.4712761669065405E-002
  -7.9371847577867083E-002   2.4283134583161073E-002   5.2094194231609540E-003
  -7.7340166765482860E-002   2.3657591106950031E-002   6.8579124390292633E-003
  -7.5308485953098581E-002   2.2929605987904979E-002   7.8514680279014142E-003
  -7.3276805140714302E-002   2.2099179226025147E-002   8.1900861897780761E-003
  -7.1245124328330064E-002   2.1166310821311263E-002   7.8737669246585588E-003
  -8.1167917288106795E-002   2.5879034248407096E-002  -3.5727600178304120E-003
  -7.9975209040131057E-002   2.5158174561657587E-002  -8.8679876427782967E-004
  -7.8782500792155208E-002   2.4361611179428061E-002   7.7615478745356181E-004
  -7.7589792544179359E-002   2.3489344101718053E-002   1.4161006373636202E-003
  -7.6397084296203621E-002   2.2541373328528347E-002   1.0330387854529111E-003
  -5.6759474754988881E-002   1.7041123299659899E-002   2.8385550973482887E-002
  -5.4184878216729904E-002   1.6103379126193251E-002   2.8271267522538002E-002
  -5.1610281678470898E-002   1.5247924689263490E-002   2.8312194301025856E-002
  -4.9035685140211921E-002   1.4474759988870458E-002   2.8508331308946172E-002
  -4.6461088601952916E-002   1.3783885025014653E-002   2.8859678546299172E-002
  -6.1426319557722694E-002   1.8416185806877039E-002   2.1550023018673509E-002
  -5.8684179738938552E-002   1.7470291997419590E-002   2.1362241059119297E-002
  -5.5942039920154431E-002   1.6593855442114683E-002   2.1354335431182786E-002
  -5.3199900101370337E-002   1.5786876140962528E-002   2.1526306134863935E-002
  -5.0457760282586167E-002   1.5049354093962797E-002   2.1878153170162729E-002
  -6.6254869415503098E-002   1.9791248314094179E-002   1.4712761669065405E-002
  -6.3320520214008802E-002   1.8837204868645679E-002   1.4438648718517536E-002
  -6.0386171012514506E-002   1.7939786194965661E-002   1.4369078201772613E-002
  -5.7451821811020196E-002   1.7098992293054158E-002   1.4504050118830086E-002
  -5.4517472609525872E-002   1.6314823162910969E-002   1.4843564469690387E-002
  -7.1245124328330064E-002   2.1166310821311263E-002   7.8737669246585588E-003
  -6.8093899641940528E-002   2.0204117739872143E-002   7.5004905007329641E-003
  -6.4942674955551088E-002   1.9285716947816691E-002   7.3564226127949949E-003
  -6.1791450269161594E-002   1.8411108445145784E-002   7.4415632608447442E-003
  -5.8640225582772106E-002   1.7580292231859071E-002   7.7559124448823256E-003
  -7.6397084296203621E-002   2.2541373328528347E-002   1.0330387854529111E-003
  -7.3004318022733883E-002   2.1571030611098108E-002   5.4776640576520430E-004
  -6.9611551749264200E-002   2.0631647700667943E-002   3.1636866425049925E-004
  -6.6218785475794517E-002   1.9723224597237882E-002   3.3884556090808815E-004
  -6.2826019202324779E-002   1.8845761300807173E-002   6.1519709573842896E-004
  -4.6461088601952916E-002   1.3783885025014653E-002   2.8859678546299172E-002
  -4.4289102479728781E-002   1.3121761007469868E-002   2.8417363509826543E-002
  -4.2117116357504675E-002   1.2434849146010965E-002   2.8079645066023257E-002
  -3.9945130235280568E-002   1.1723149440637643E-002   2.7846523214889132E-002
  -3.7773144113056434E-002   1.0986661891350336E-002   2.7717997956424711E-002
  -5.0457760282586167E-002   1.5049354093962797E-002   2.1878153170162729E-002
  -4.8149080302234457E-002   1.4337849199733826E-002   2.1383789356579058E-002
  -4.5840400321882691E-002   1.3608921356893622E-002   2.1058216666581253E-002
  -4.3531720341530966E-002   1.2862570565442516E-002   2.0901435100169341E-002
  -4.1223040361179214E-002   1.2098796825380287E-002   2.0913444657343350E-002
  -5.4517472609525872E-002   1.6314823162910969E-002   1.4843564469690387E-002
  -5.2007904240130041E-002   1.5553937391997397E-002   1.4304516774298712E-002
  -4.9498335870734225E-002   1.4782993567776605E-002   1.3998454733409792E-002
  -4.6988767501338416E-002   1.4001991690247110E-002   1.3925378347023069E-002
  -4.4479199131942579E-002   1.3210931759409905E-002   1.4085287615138747E-002
  -5.8640225582772106E-002   1.7580292231859071E-002   7.7559124448823256E-003
  -5.5865574293415703E-002   1.6770025584261494E-002   7.1795457629860553E-003
  -5.3090923004059237E-002   1.5957065778659536E-002   6.9003592665089642E-003
  -5.0316271714702807E-002   1.5141412815052008E-002   6.9183529554501097E-003
  -4.7541620425346376E-002   1.4323066693439801E-002   7.2335268298103911E-003
  -6.2826019202324779E-002   1.8845761300807173E-002   6.1519709573842896E-004
  -5.9722090462091315E-002   1.7986113776525259E-002   8.8763226403498763E-006
  -5.6618161721857740E-002   1.7131137989541884E-002  -2.3606973412204635E-004
  -5.3514232981624277E-002   1.6280833939856763E-002  -1.1964107454906503E-004
  -5.0410304241390702E-002   1.5435201627469475E-002   3.5816230135898852E-004
  -3.7773144113056434E-002   1.0986661891350336E-002   2.7717997956424711E-002
  -3.5333125767594398E-002   1.0241424761844697E-002   2.7107054929465857E-002
  -3.2893107422132389E-002   9.5034763158168556E-003   2.6649315163342846E-002
  -3.0453089076670339E-002   8.7728165532664562E-003   2.6344778658055984E-002
  -2.8013070731208345E-002   8.0494454741942834E-003   2.6193445413604910E-002
  -4.1223040361179214E-002   1.2098796825380287E-002   2.0913444657343350E-002
  -3.8657906532880329E-002   1.1327324388085924E-002   2.0472808448557644E-002
  -3.6092772704581513E-002   1.0557877504939556E-002   2.0129199944609627E-002
  -3.3527638876282718E-002   9.7904561759412714E-003   1.9882619145499436E-002
  -3.0962505047983813E-002   9.0250604010904123E-003   1.9733066051226877E-002
  -4.4479199131942579E-002   1.3210931759409905E-002   1.4085287615138747E-002
  -4.1845125376805098E-002   1.2413224014327179E-002   1.3809695095196167E-002
  -3.9211051621667707E-002   1.1612278694062797E-002   1.3574954724092911E-002
  -3.6576977866530233E-002   1.0808095798615584E-002   1.3381066501829235E-002
  -3.3942904111392877E-002   1.0000675327986486E-002   1.3228030428404924E-002
  -4.7541620425346376E-002   1.4323066693439801E-002   7.2335268298103911E-003
  -4.4894782299368607E-002   1.3499123640568586E-002   7.1177148693812239E-003
  -4.2247944173390860E-002   1.2666679883185657E-002   6.9865795017929819E-003
  -3.9601106047413112E-002   1.1825735421290536E-002   6.8401207270457186E-003
  -3.6954267921435344E-002   1.0976290254882698E-002   6.6783385451400709E-003
  -5.0410304241390702E-002   1.5435201627469475E-002   3.5816230135898852E-004
  -4.7806877300570760E-002   1.4585023266809771E-002   3.9686777111269667E-004
  -4.5203450359750985E-002   1.3721081072308905E-002   3.6407427770945855E-004
  -4.2600023418931071E-002   1.2843375043964753E-002   2.5978182114902437E-004
  -3.9996596478111268E-002   1.1951905181778910E-002   8.3990401431588424E-005
  -2.8013070731208345E-002   8.0494454741942834E-003   2.6193445413604910E-002
  -2.5680439137525379E-002   7.3065055945729651E-003   2.5645115968651266E-002
  -2.3347807543842442E-002   6.5171394303760455E-003   2.5033731507581591E-002
  -2.1015175950159476E-002   5.6813469816037257E-003   2.4359292030396079E-002
  -1.8682544356476538E-002   4.7991282482559017E-003   2.3621797537094924E-002
  -3.0962505047983813E-002   9.0250604010904123E-003   1.9733066051226877E-002
  -2.8669660083933610E-002   8.2627980926098799E-003   1.9155947793131234E-002
  -2.6376815119883462E-002   7.5047771627217152E-003   1.8562311291886041E-002
  -2.4083970155833315E-002   6.7509976114266748E-003   1.7952156547491133E-002
  -2.1791125191783056E-002   6.0014594387242104E-003   1.7325483559946619E-002
  -3.3942904111392877E-002   1.0000675327986486E-002   1.3228030428404924E-002
  -3.1643309004009190E-002   9.2190905906467668E-003   1.2672791020335861E-002
  -2.9343713896625524E-002   8.4924148950673711E-003   1.2147570142083508E-002
  -2.7044118789241796E-002   7.8206482412496205E-003   1.1652367793647374E-002
  -2.4744523681858172E-002   7.2037906291922416E-003   1.1187183975028353E-002
  -3.6954267921435344E-002   1.0976290254882698E-002   6.6783385451400709E-003
  -3.4601385897751941E-002   1.0175383088683723E-002   6.1956456502655702E-003
  -3.2248503874068565E-002   9.4800526274138111E-003   5.7895080581738152E-003
  -2.9895621850385197E-002   8.8902988710722348E-003   5.4599257688650194E-003
  -2.7542739826701790E-002   8.4061218196605225E-003   5.2068987823390908E-003
  -3.9996596478111268E-002   1.1951905181778910E-002   8.3990401431588424E-005
  -3.7543890765161958E-002   1.1131675586720569E-002  -2.7548831707996380E-004
  -3.5091185052212703E-002   1.0467690359758974E-002  -5.1187495984270082E-004
  -3.2638479339263393E-002   9.9599495008954181E-003  -6.2516952685631039E-004
  -3.0185773626314139E-002   9.6084530101288035E-003  -6.1537201812078557E-004
  -1.8682544356476538E-002   4.7991282482559017E-003   2.3621797537094924E-002
  -1.5658059858541906E-002   4.0805116838456001E-003   2.4400229384281436E-002
  -1.2633575360607191E-002   3.7355257418859589E-003   2.5654752624152455E-002
  -9.6090908626725174E-003   3.7641704223776717E-003   2.7385367256707177E-002
  -6.5846063647378439E-003   4.1664457253202114E-003   2.9592073281946685E-002
  -2.1791125191783056E-002   6.0014594387242104E-003   1.7325483559946619E-002
  -1.8561084297555014E-002   5.3436772421452949E-003   1.8265013354026804E-002
  -1.5331043403327083E-002   4.8651656192209847E-003   1.9139564548009302E-002
  -1.2101002509099068E-002   4.5659245699516612E-003   1.9949137141894280E-002
  -8.8709616148711090E-003   4.4459540943364573E-003   2.0693731135681848E-002
  -2.4744523681858172E-002   7.2037906291922416E-003   1.1187183975028353E-002
  -2.1849996384118553E-002   6.6068428004447677E-003   1.2093451667205241E-002
  -1.8955469086378872E-002   5.9948054965555664E-003   1.2393670766503162E-002
  -1.6060941788639243E-002   5.3676787175253177E-003   1.2087841272921979E-002
  -1.3166414490899517E-002   4.7254624633529807E-003   1.1175963186461330E-002
  -2.7542739826701790E-002   8.4061218196605225E-003   5.2068987823390908E-003
  -2.5524796118232204E-002   7.8700083587446290E-003   5.8855443238168201E-003
  -2.3506852409762614E-002   7.1244453738903701E-003   5.4170712796342557E-003
  -2.1488908701293049E-002   6.1694328650990296E-003   3.8014796497905859E-003
  -1.9470964992823431E-002   5.0049708323695874E-003   1.0387694342859424E-003
  -3.0185773626314139E-002   9.6084530101288035E-003  -6.1537201812078557E-004
  -2.9585483499896315E-002   9.1331739170441573E-003  -3.5870867613840840E-004
  -2.8985193373478324E-002   8.2540852512245078E-003  -1.7902339125976108E-003
  -2.8384903247060445E-002   6.9711870126729081E-003  -4.9099477274998984E-003
  -2.7784613120642510E-002   5.2844792013859720E-003  -9.7178501208445844E-003
  -6.5846063647378439E-003   4.1664457253202114E-003   2.9592073281946685E-002
  -6.0560699981316302E-003   6.1421625313029526E-003   3.4072270677158456E-002
  -5.5275336315253887E-003   1.0891131720916741E-002   3.9237114613456525E-002
  -4.9989972649191333E-003   1.8413353294160863E-002   4.5086605090840753E-002
  -4.4704608983129335E-003   2.8708827251035185E-002   5.1620742109311113E-002
  -8.8709616148711090E-003   4.4459540943364573E-003   2.0693731135681848E-002
  -7.5852720207039703E-003   5.6585677241429155E-003   2.5866912601882286E-002
  -6.2995824265369427E-003   9.3570789911374685E-003   3.1869753982118276E-002
  -5.0138928323698873E-003   1.5541487895321004E-002   3.8702255276389874E-002
  -3.7282032382028873E-003   2.4211794436692191E-002   4.6364416484696802E-002
  -1.3166414490899517E-002   4.7254624633529807E-003   1.1175963186461330E-002
  -1.0978558296222324E-002   5.1749729169828784E-003   1.6754773977208703E-002
  -8.7907021015451101E-003   7.8230262613589591E-003   2.3308258054940620E-002
  -6.6028459068677818E-003   1.2669622496481531E-002   3.0836415419658057E-002
  -4.4149897121907034E-003   1.9714761622349419E-002   3.9339246071359635E-002
  -1.9470964992823431E-002   5.0049708323695874E-003   1.0387694342859424E-003
  -1.6235928824686604E-002   4.6913781098231744E-003   6.7358548031373755E-003
  -1.3000892656549854E-002   6.2889735315802900E-003   1.3552626831923226E-002
  -9.7658564884130356E-003   9.7977570976418658E-003   2.1489085520642895E-002
  -6.5308203202762774E-003   1.5217728808006536E-002   3.0545230869296863E-002
  -2.7784613120642510E-002   5.2844792013859720E-003  -9.7178501208445844E-003
  -2.3357383606096849E-002   4.2077833026628042E-003  -4.1898449203310872E-003
  -1.8930154091551188E-002   4.7549208018014544E-003   2.6028603130656414E-003
  -1.4502924577005555E-002   6.9258916988022695E-003   1.0660265579346621E-002
  -1.0075695062459866E-002   1.0720695993663654E-002   1.9982370878510514E-002
 </DataArray>
 </PointData>
 </Piece>
 </UnstructuredGrid>
 </VTKFile>
