 <VTKFile type="UnstructuredGrid"  version="0.1"   >
 <UnstructuredGrid>
 <Piece  NumberOfPoints="            25 "  NumberOfCells="           16 ">
 <Points>
 <DataArray  type="Float64" NumberOfComponents="3"  format="ascii" >
   0.0000000000000000        0.0000000000000000        0.0000000000000000     
  0.25000000000000000        0.0000000000000000        0.0000000000000000     
  0.50000000000000000        0.0000000000000000        0.0000000000000000     
  0.75000000000000000        0.0000000000000000        0.0000000000000000     
   1.0000000000000000        0.0000000000000000        0.0000000000000000     
   0.0000000000000000       0.25000000000000000        0.0000000000000000     
  0.25000000000000000       0.25000000000000000        0.0000000000000000     
  0.50000000000000000       0.25000000000000000        0.0000000000000000     
  0.75000000000000000       0.25000000000000000        0.0000000000000000     
   1.0000000000000000       0.25000000000000000        0.0000000000000000     
   0.0000000000000000       0.50000000000000000        0.0000000000000000     
  0.25000000000000000       0.50000000000000000        0.0000000000000000     
  0.50000000000000000       0.50000000000000000        0.0000000000000000     
  0.75000000000000000       0.50000000000000000        0.0000000000000000     
   1.0000000000000000       0.50000000000000000        0.0000000000000000     
   0.0000000000000000       0.75000000000000000        0.0000000000000000     
  0.25000000000000000       0.75000000000000000        0.0000000000000000     
  0.50000000000000000       0.75000000000000000        0.0000000000000000     
  0.75000000000000000       0.75000000000000000        0.0000000000000000     
   1.0000000000000000       0.75000000000000000        0.0000000000000000     
   0.0000000000000000        1.0000000000000000        0.0000000000000000     
  0.25000000000000000        1.0000000000000000        0.0000000000000000     
  0.50000000000000000        1.0000000000000000        0.0000000000000000     
  0.75000000000000000        1.0000000000000000        0.0000000000000000     
   1.0000000000000000        1.0000000000000000        0.0000000000000000     
 </DataArray>
 </Points>
 <Cells>
 <DataArray  type="Int32"  Name="connectivity"  format="ascii">
           0           1           6           5
           1           2           7           6
           2           3           8           7
           3           4           9           8
           5           6          11          10
           6           7          12          11
           7           8          13          12
           8           9          14          13
          10          11          16          15
          11          12          17          16
          12          13          18          17
          13          14          19          18
          15          16          21          20
          16          17          22          21
          17          18          23          22
          18          19          24          23
 </DataArray>
 <DataArray  type="Int32"  Name="offsets"  format="ascii"> 
           4
           8
          12
          16
          20
          24
          28
          32
          36
          40
          44
          48
          52
          56
          60
          64
 </DataArray>
 <DataArray  type="UInt8"  Name="types"  format="ascii">
 9
 9
 9
 9
 9
 9
 9
 9
 9
 9
 9
 9
 9
 9
 9
 9
 </DataArray>
 </Cells> 
 <PointData>
 <DataArray  type="Float64" Name="disp" NumberOfComponents="3" format="ascii">
   0.0000000000000000        0.0000000000000000        0.0000000000000000     
   3.2189253486086367E-002   2.4056852753692369E-002   0.0000000000000000     
   5.8571486520371509E-002   5.7494606779905880E-002   0.0000000000000000     
   7.9146699102855420E-002  0.10031326207864052        0.0000000000000000     
   9.3914891233538106E-002  0.15251281864989633        0.0000000000000000     
   0.0000000000000000        0.0000000000000000        0.0000000000000000     
   1.6094626743043152E-002   1.9192883193700550E-002   0.0000000000000000     
   2.9285743260185688E-002   5.1240925854111996E-002   0.0000000000000000     
   3.9573349551427606E-002   9.6144127981234340E-002   0.0000000000000000     
   4.6957445616768907E-002  0.15390248957506758        0.0000000000000000     
   0.0000000000000000        0.0000000000000000        0.0000000000000000     
  -2.1684043449710089E-017   1.7571560007036625E-002   0.0000000000000000     
  -3.9898639947466563E-017   4.9156365545514003E-002   0.0000000000000000     
  -5.4643789493269423E-017   9.4754416615432144E-002   0.0000000000000000     
  -6.5919492087118670E-017  0.15436571321679105        0.0000000000000000     
   0.0000000000000000        0.0000000000000000        0.0000000000000000     
  -1.6094626743043156E-002   1.9192883193700591E-002   0.0000000000000000     
  -2.9285743260185675E-002   5.1240925854111913E-002   0.0000000000000000     
  -3.9573349551427557E-002   9.6144127981233951E-002   0.0000000000000000     
  -4.6957445616768810E-002  0.15390248957506669        0.0000000000000000     
   0.0000000000000000        0.0000000000000000        0.0000000000000000     
  -3.2189253486086242E-002   2.4056852753692463E-002   0.0000000000000000     
  -5.8571486520371210E-002   5.7494606779905699E-002   0.0000000000000000     
  -7.9146699102854906E-002  0.10031326207863972        0.0000000000000000     
  -9.3914891233537329E-002  0.15251281864989452        0.0000000000000000     
 </DataArray>
 <DataArray  type="Float64" Name="stress" NumberOfComponents="3" format="ascii">
   9255234385.5789833        2776570315.6736951        1787667887.7629356     
   7210590444.7091932        606706874.21537328        1167939382.7916651     
   5532461653.9956856       -341439400.05533338        816227206.36506581     
   4220848013.4384632       -67868507.138425112        732531358.48313797     
   3275749523.0375261        1427419552.9660971        916851839.14588165     
   4627617192.7894840        1388285157.8368452        1178335704.0318553     
   3605295222.3545885        303353437.10768712        879307955.44733548     
   2766230826.9978318       -170719700.02767575        848296535.40748811     
   2110424006.7192130       -33934253.569244027        1085301443.9123130     
   1637874761.5187340        713709776.48298478        1590322680.9618101     
  -6.4051328343759032E-006  -1.9215398503127708E-006   975224976.12149966     
  -3.4427588984770473E-006   4.4835929840631324E-006   783097479.66589379     
  -7.9835405685613928E-006  -1.3427903477780911E-005   858986311.75496125     
  -1.9261149451944680E-005  -5.4489380041012142E-005   1202891472.3887017     
  -3.7515778029916002E-005  -1.1950147830992756E-004   1814812961.5671153     
  -4627617192.7894869       -1388285157.8368459        1178335704.0318680     
  -3605295222.3545837       -303353437.10767496        879307955.44733930     
  -2766230826.9978328        170719700.02765334        848296535.40748489     
  -2110424006.7192352        33934253.569138885        1085301443.9123042     
  -1637874761.5187900       -713709776.48321903        1590322680.9617977     
  -9255234385.5789566       -2776570315.6736870        1787667887.7629604     
  -7210590444.7091494       -606706874.21534920        1167939382.7916725     
  -5532461653.9956417        341439400.05532479        816227206.36505902     
  -4220848013.4384327        67868507.138337135        732531358.48312068     
  -3275749523.0375223       -1427419552.9663124        916851839.14585698     
 </DataArray>
 <DataArray  type="Float64" Name="VM" NumberOfComponents="1" format="ascii">
   8789662486.1879196     
   7216525494.1850157     
   5883229874.9958601     
   4440319055.4083309     
   3257920269.5742784     
   4591639074.6398392     
   3783655070.4560270     
   3211269116.2772503     
   2839065754.3563805     
   3100068844.1164432     
   1689139207.4525826     
   1356364622.0604637     
   1487807934.9657919     
   2083469146.1685667     
   3143348255.6687880     
   4591639074.6398506     
   3783655070.4560304     
   3211269116.2772374     
   2839065754.3563466     
   3100068844.1164398     
   8789662486.1879120     
   7216525494.1849880     
   5883229874.9958105     
   4440319055.4082499     
   3257920269.5742407     
 </DataArray>
 <DataArray  type="Float64" Name="strain" NumberOfComponents="3" format="ascii">
  0.14037105484794793        0.0000000000000000        7.7465608469727207E-002
  0.11714297304074302       -2.5941170986623078E-002   5.0610706587638818E-002
   9.3914891233538106E-002  -3.3352964937567321E-002   3.5369845609152850E-002
   7.0686809426333180E-002  -2.2235381852832733E-002   3.1743025534269310E-002
   4.7458727619128283E-002   7.4115782675806541E-003   3.9730246362988206E-002
   7.0185527423973840E-002   0.0000000000000000        5.1061213841380404E-002
   5.8571486520371377E-002  -1.2970585493311492E-002   3.8103344736051203E-002
   4.6957445616768907E-002  -1.6676482468783754E-002   3.6759516534324486E-002
   3.5343404713166438E-002  -1.1117690926416800E-002   4.7029729236200232E-002
   2.3729363809563975E-002   3.7057891337894111E-003   6.8913982841678434E-002
  -9.7144514654701197E-017   0.0000000000000000        4.2259748965264986E-002
  -7.9797279894933126E-017   9.1940344226770776E-017   3.3934224118855397E-002
  -6.5919492087118670E-017  -1.8388068845354155E-016   3.7222740176048319E-002
  -4.8572257327350599E-017  -8.1185058675714572E-016   5.2125297136843739E-002
  -2.7755575615628914E-017  -1.8041124150158794E-015   7.8641895001241663E-002
  -7.0185527423973881E-002   0.0000000000000000        5.1061213841380945E-002
  -5.8571486520371349E-002   1.2970585493311669E-002   3.8103344736051370E-002
  -4.6957445616768810E-002   1.6676482468783387E-002   3.6759516534324348E-002
  -3.5343404713166278E-002   1.1117690926415156E-002   4.7029729236199851E-002
  -2.3729363809563739E-002  -3.7057891337930332E-003   6.8913982841677907E-002
 -0.14037105484794751        0.0000000000000000        7.7465608469728289E-002
 -0.11714297304074242        2.5941170986623262E-002   5.0610706587639137E-002
  -9.3914891233537329E-002   3.3352964937566960E-002   3.5369845609152559E-002
  -7.0686809426332223E-002   2.2235381852831117E-002   3.1743025534268561E-002
  -4.7458727619127145E-002  -7.4115782675842623E-003   3.9730246362987137E-002
 </DataArray>
 </PointData>
 </Piece>
 <Piece  NumberOfPoints="            25 "  NumberOfCells="           16 ">
 <Points>
 <DataArray  type="Float64" NumberOfComponents="3"  format="ascii" >
  0.50000000000000000        0.0000000000000000        0.0000000000000000     
  0.75000000000000000        0.0000000000000000        0.0000000000000000     
   1.0000000000000000        0.0000000000000000        0.0000000000000000     
   1.2500000000000000        0.0000000000000000        0.0000000000000000     
   1.5000000000000000        0.0000000000000000        0.0000000000000000     
  0.50000000000000000       0.25000000000000000        0.0000000000000000     
  0.75000000000000000       0.25000000000000000        0.0000000000000000     
   1.0000000000000000       0.25000000000000000        0.0000000000000000     
   1.2500000000000000       0.25000000000000000        0.0000000000000000     
   1.5000000000000000       0.25000000000000000        0.0000000000000000     
  0.50000000000000000       0.50000000000000000        0.0000000000000000     
  0.75000000000000000       0.50000000000000000        0.0000000000000000     
   1.0000000000000000       0.50000000000000000        0.0000000000000000     
   1.2500000000000000       0.50000000000000000        0.0000000000000000     
   1.5000000000000000       0.50000000000000000        0.0000000000000000     
  0.50000000000000000       0.75000000000000000        0.0000000000000000     
  0.75000000000000000       0.75000000000000000        0.0000000000000000     
   1.0000000000000000       0.75000000000000000        0.0000000000000000     
   1.2500000000000000       0.75000000000000000        0.0000000000000000     
   1.5000000000000000       0.75000000000000000        0.0000000000000000     
  0.50000000000000000        1.0000000000000000        0.0000000000000000     
  0.75000000000000000        1.0000000000000000        0.0000000000000000     
   1.0000000000000000        1.0000000000000000        0.0000000000000000     
   1.2500000000000000        1.0000000000000000        0.0000000000000000     
   1.5000000000000000        1.0000000000000000        0.0000000000000000     
 </DataArray>
 </Points>
 <Cells>
 <DataArray  type="Int32"  Name="connectivity"  format="ascii">
           0           1           6           5
           1           2           7           6
           2           3           8           7
           3           4           9           8
           5           6          11          10
           6           7          12          11
           7           8          13          12
           8           9          14          13
          10          11          16          15
          11          12          17          16
          12          13          18          17
          13          14          19          18
          15          16          21          20
          16          17          22          21
          17          18          23          22
          18          19          24          23
 </DataArray>
 <DataArray  type="Int32"  Name="offsets"  format="ascii"> 
           4
           8
          12
          16
          20
          24
          28
          32
          36
          40
          44
          48
          52
          56
          60
          64
 </DataArray>
 <DataArray  type="UInt8"  Name="types"  format="ascii">
 9
 9
 9
 9
 9
 9
 9
 9
 9
 9
 9
 9
 9
 9
 9
 9
 </DataArray>
 </Cells> 
 <PointData>
 <DataArray  type="Float64" Name="disp" NumberOfComponents="3" format="ascii">
   5.8559517662932457E-002   5.4041262961019292E-002   0.0000000000000000     
   7.9152594211743213E-002  0.10122739027762495        0.0000000000000000     
   9.3902922376098791E-002  0.15363324829416930        0.0000000000000000     
  0.10281050215599923       0.21125883701065232        0.0000000000000000     
  0.10587533355144448       0.27410415642707403        0.0000000000000000     
   2.9279758831466208E-002   4.8913444436048441E-002   0.0000000000000000     
   3.9576297105871572E-002   9.7384442409585076E-002   0.0000000000000000     
   4.6951461188049375E-002  0.15102888595244732        0.0000000000000000     
   5.1405251077999599E-002  0.20984677506463520        0.0000000000000000     
   5.2937666775722245E-002  0.27383810974614864        0.0000000000000000     
   3.4694469519536142E-017   4.7204171594391685E-002   0.0000000000000000     
   2.2551405187698492E-017   9.6103459786905210E-002   0.0000000000000000     
   1.8648277366750676E-017  0.15016076517187335        0.0000000000000000     
   2.2876665839444144E-017  0.20937608774929614        0.0000000000000000     
   3.4694469519536142E-017  0.27374942751917358        0.0000000000000000     
  -2.9279758831466052E-002   4.8913444436049024E-002   0.0000000000000000     
  -3.9576297105871433E-002   9.7384442409585367E-002   0.0000000000000000     
  -4.6951461188049250E-002  0.15102888595244740        0.0000000000000000     
  -5.1405251077999481E-002  0.20984677506463520        0.0000000000000000     
  -5.2937666775722148E-002  0.27383810974614864        0.0000000000000000     
  -5.8559517662932055E-002   5.4041262961020457E-002   0.0000000000000000     
  -7.9152594211742811E-002  0.10122739027762553        0.0000000000000000     
  -9.3902922376098444E-002  0.15363324829416944        0.0000000000000000     
 -0.10281050215599895       0.21125883701065226        0.0000000000000000     
 -0.10587533355144431       0.27410415642707392        0.0000000000000000     
 </DataArray>
 <DataArray  type="Float64" Name="stress" NumberOfComponents="3" format="ascii">
   5660656702.6944971        57295082.817653418        1411984904.7849250     
   4255258868.4045367        46834342.748587847        943356513.29569149     
   2844978207.1488028        20097512.793606520        744393431.85823536     
   1429814718.9272935       -22915407.047293246        815095660.47255695     
   9768403.7400097847       -82204416.774104550        1155463199.1386588     
   2830328351.3472567        28647541.408864260        1532724586.8376262     
   2127629434.2022743        23417171.374313474        1059823721.7533395     
   1422489103.5744050        10048756.396808565        856588166.72083163     
   714907359.46365082       -11457703.523646027        923017921.74009979     
   4884201.8700122125       -41102208.387050077        1259112986.8111451     
   1.9398402298395592E-005   7.5763571240903538E-005   1572971147.5218534     
   9.6305747259723399E-006   3.7653030876366920E-005   1098646124.5725536     
   2.7793701406309723E-006   9.2645671354365744E-006   893986411.67502999     
   1.1637897605316931E-006  -2.5391776593418758E-006   958992008.82928169     
   1.4640303621430636E-006  -6.2221290391080197E-006   1293662916.0353100     
  -2830328351.3472157       -28647541.408712149        1532724586.8376093     
  -2127629434.2022545       -23417171.374237657        1059823721.7533329     
  -1422489103.5744026       -10048756.396789312        856588166.72083068     
  -714907359.46365666        11457703.523636818        923017921.74010444     
  -4884201.8700175881        41102208.387040138        1259112986.8111520     
  -5660656702.6944475       -57295082.817498922        1411984904.7848940     
  -4255258868.4045210       -46834342.748513937        943356513.29567754     
  -2844978207.1488132       -20097512.793593407        744393431.85823524     
  -1429814718.9273214        22915407.047276378        815095660.47256684     
  -9768403.7400489487        82204416.774079472        1155463199.1386721     
 </DataArray>
 <DataArray  type="Float64" Name="VM" NumberOfComponents="1" format="ascii">
   6140284468.3054800     
   4536506780.9936686     
   3114400852.0801306     
   2017623066.8267279     
   2003232789.1366723     
   3870171997.0451784     
   2801287431.4662209     
   2051953177.5634084     
   1753653688.6504049     
   2181286441.3264742     
   2724465946.3477697     
   1902910907.2983088     
   1548429886.2973385     
   1661022883.3448572     
   2240689898.4408674     
   3870171997.0451832     
   2801287431.4662261     
   2051953177.5634120     
   1753653688.6504128     
   2181286441.3264861     
   6140284468.3054829     
   4536506780.9936790     
   3114400852.0801458     
   2017623066.8267536     
   2003232789.1366954     
 </DataArray>
 <DataArray  type="Float64" Name="strain" NumberOfComponents="3" format="ascii">
   9.4057802964153350E-002  -2.7348365466511593E-002   6.1186012540680082E-002
   7.0686809426332681E-002  -2.0495721962879555E-002   4.0878782242813300E-002
   4.7315815888512018E-002  -1.3889932489183906E-002   3.2257048713856866E-002
   2.3944822350691359E-002  -7.5309970454246885E-003   3.5320811953810802E-002
   5.7382881287068588E-004  -1.4189156316017915E-003   5.0070071962675211E-002
   4.7028901482076627E-002  -1.3674182733255213E-002   6.6418065429630468E-002
   3.5343404713166340E-002  -1.0247860981439483E-002   4.5925694609311382E-002
   2.3657907944256040E-002  -6.9449662445918818E-003   3.7118820557902707E-002
   1.1972411175345744E-002  -3.7654985227123542E-003   3.9997443275404325E-002
   2.8691440643545396E-004  -7.0945781580089573E-004   5.4561562761816285E-002
  -5.5511151231257827E-017   1.1657341758564144E-015   6.8162083059280315E-002
  -2.7755575615628914E-017   5.7939764097625357E-016   4.7607998731477322E-002
   0.0000000000000000        1.4051260155412137E-016   3.8739411172584635E-002
   3.2092384305570931E-017  -4.8138576458356397E-017   4.1556320382602208E-002
   5.5511151231257827E-017  -1.1102230246251565E-016   5.6058726361530101E-002
  -4.7028901482076696E-002   1.3674182733257541E-002   6.6418065429629733E-002
  -3.5343404713166389E-002   1.0247860981440647E-002   4.5925694609311091E-002
  -2.3657907944256096E-002   6.9449662445921915E-003   3.7118820557902665E-002
  -1.1972411175345794E-002   3.7654985227122302E-003   3.9997443275404526E-002
  -2.8691440643549386E-004   7.0945781580075695E-004   5.4561562761816590E-002
  -9.4057802964153295E-002   2.7348365466513924E-002   6.1186012540678736E-002
  -7.0686809426332778E-002   2.0495721962880707E-002   4.0878782242812696E-002
  -4.7315815888512254E-002   1.3889932489184176E-002   3.2257048713856859E-002
  -2.3944822350691741E-002   7.5309970454245480E-003   3.5320811953811232E-002
  -5.7382881287121323E-004   1.4189156316015694E-003   5.0070071962675794E-002
 </DataArray>
 </PointData>
 </Piece>
 </UnstructuredGrid>
 </VTKFile>
