 <VTKFile type="UnstructuredGrid"  version="0.1"   >
 <UnstructuredGrid>
 <Piece  NumberOfPoints="          1600 "  NumberOfCells="         1024 ">
 <Points>
 <DataArray  type="Float64" NumberOfComponents="3"  format="ascii" >
   0.0000000000000000        0.0000000000000000        0.0000000000000000     
   3.1250000000000000E-002   0.0000000000000000        0.0000000000000000     
   6.2500000000000000E-002   0.0000000000000000        0.0000000000000000     
   9.3750000000000000E-002   0.0000000000000000        0.0000000000000000     
  0.12500000000000000        0.0000000000000000        0.0000000000000000     
   0.0000000000000000        3.1250000000000000E-002   0.0000000000000000     
   3.1250000000000000E-002   3.1250000000000000E-002   0.0000000000000000     
   6.2500000000000000E-002   3.1250000000000000E-002   0.0000000000000000     
   9.3750000000000000E-002   3.1250000000000000E-002   0.0000000000000000     
  0.12500000000000000        3.1250000000000000E-002   0.0000000000000000     
   0.0000000000000000        6.2500000000000000E-002   0.0000000000000000     
   3.1250000000000000E-002   6.2500000000000000E-002   0.0000000000000000     
   6.2500000000000000E-002   6.2500000000000000E-002   0.0000000000000000     
   9.3750000000000000E-002   6.2500000000000000E-002   0.0000000000000000     
  0.12500000000000000        6.2500000000000000E-002   0.0000000000000000     
   0.0000000000000000        9.3750000000000000E-002   0.0000000000000000     
   3.1250000000000000E-002   9.3750000000000000E-002   0.0000000000000000     
   6.2500000000000000E-002   9.3750000000000000E-002   0.0000000000000000     
   9.3750000000000000E-002   9.3750000000000000E-002   0.0000000000000000     
  0.12500000000000000        9.3750000000000000E-002   0.0000000000000000     
   0.0000000000000000       0.12500000000000000        0.0000000000000000     
   3.1250000000000000E-002  0.12500000000000000        0.0000000000000000     
   6.2500000000000000E-002  0.12500000000000000        0.0000000000000000     
   9.3750000000000000E-002  0.12500000000000000        0.0000000000000000     
  0.12500000000000000       0.12500000000000000        0.0000000000000000     
  0.12500000000000000        0.0000000000000000        0.0000000000000000     
  0.15625000000000000        0.0000000000000000        0.0000000000000000     
  0.18750000000000000        0.0000000000000000        0.0000000000000000     
  0.21875000000000000        0.0000000000000000        0.0000000000000000     
  0.25000000000000000        0.0000000000000000        0.0000000000000000     
  0.12500000000000000        3.1250000000000000E-002   0.0000000000000000     
  0.15625000000000000        3.1250000000000000E-002   0.0000000000000000     
  0.18750000000000000        3.1250000000000000E-002   0.0000000000000000     
  0.21875000000000000        3.1250000000000000E-002   0.0000000000000000     
  0.25000000000000000        3.1250000000000000E-002   0.0000000000000000     
  0.12500000000000000        6.2500000000000000E-002   0.0000000000000000     
  0.15625000000000000        6.2500000000000000E-002   0.0000000000000000     
  0.18750000000000000        6.2500000000000000E-002   0.0000000000000000     
  0.21875000000000000        6.2500000000000000E-002   0.0000000000000000     
  0.25000000000000000        6.2500000000000000E-002   0.0000000000000000     
  0.12500000000000000        9.3750000000000000E-002   0.0000000000000000     
  0.15625000000000000        9.3750000000000000E-002   0.0000000000000000     
  0.18750000000000000        9.3750000000000000E-002   0.0000000000000000     
  0.21875000000000000        9.3750000000000000E-002   0.0000000000000000     
  0.25000000000000000        9.3750000000000000E-002   0.0000000000000000     
  0.12500000000000000       0.12500000000000000        0.0000000000000000     
  0.15625000000000000       0.12500000000000000        0.0000000000000000     
  0.18750000000000000       0.12500000000000000        0.0000000000000000     
  0.21875000000000000       0.12500000000000000        0.0000000000000000     
  0.25000000000000000       0.12500000000000000        0.0000000000000000     
  0.25000000000000000        0.0000000000000000        0.0000000000000000     
  0.28125000000000000        0.0000000000000000        0.0000000000000000     
  0.31250000000000000        0.0000000000000000        0.0000000000000000     
  0.34375000000000000        0.0000000000000000        0.0000000000000000     
  0.37500000000000000        0.0000000000000000        0.0000000000000000     
  0.25000000000000000        3.1250000000000000E-002   0.0000000000000000     
  0.28125000000000000        3.1250000000000000E-002   0.0000000000000000     
  0.31250000000000000        3.1250000000000000E-002   0.0000000000000000     
  0.34375000000000000        3.1250000000000000E-002   0.0000000000000000     
  0.37500000000000000        3.1250000000000000E-002   0.0000000000000000     
  0.25000000000000000        6.2500000000000000E-002   0.0000000000000000     
  0.28125000000000000        6.2500000000000000E-002   0.0000000000000000     
  0.31250000000000000        6.2500000000000000E-002   0.0000000000000000     
  0.34375000000000000        6.2500000000000000E-002   0.0000000000000000     
  0.37500000000000000        6.2500000000000000E-002   0.0000000000000000     
  0.25000000000000000        9.3750000000000000E-002   0.0000000000000000     
  0.28125000000000000        9.3750000000000000E-002   0.0000000000000000     
  0.31250000000000000        9.3750000000000000E-002   0.0000000000000000     
  0.34375000000000000        9.3750000000000000E-002   0.0000000000000000     
  0.37500000000000000        9.3750000000000000E-002   0.0000000000000000     
  0.25000000000000000       0.12500000000000000        0.0000000000000000     
  0.28125000000000000       0.12500000000000000        0.0000000000000000     
  0.31250000000000000       0.12500000000000000        0.0000000000000000     
  0.34375000000000000       0.12500000000000000        0.0000000000000000     
  0.37500000000000000       0.12500000000000000        0.0000000000000000     
  0.37500000000000000        0.0000000000000000        0.0000000000000000     
  0.40625000000000000        0.0000000000000000        0.0000000000000000     
  0.43750000000000000        0.0000000000000000        0.0000000000000000     
  0.46875000000000000        0.0000000000000000        0.0000000000000000     
  0.50000000000000000        0.0000000000000000        0.0000000000000000     
  0.37500000000000000        3.1250000000000000E-002   0.0000000000000000     
  0.40625000000000000        3.1250000000000000E-002   0.0000000000000000     
  0.43750000000000000        3.1250000000000000E-002   0.0000000000000000     
  0.46875000000000000        3.1250000000000000E-002   0.0000000000000000     
  0.50000000000000000        3.1250000000000000E-002   0.0000000000000000     
  0.37500000000000000        6.2500000000000000E-002   0.0000000000000000     
  0.40625000000000000        6.2500000000000000E-002   0.0000000000000000     
  0.43750000000000000        6.2500000000000000E-002   0.0000000000000000     
  0.46875000000000000        6.2500000000000000E-002   0.0000000000000000     
  0.50000000000000000        6.2500000000000000E-002   0.0000000000000000     
  0.37500000000000000        9.3750000000000000E-002   0.0000000000000000     
  0.40625000000000000        9.3750000000000000E-002   0.0000000000000000     
  0.43750000000000000        9.3750000000000000E-002   0.0000000000000000     
  0.46875000000000000        9.3750000000000000E-002   0.0000000000000000     
  0.50000000000000000        9.3750000000000000E-002   0.0000000000000000     
  0.37500000000000000       0.12500000000000000        0.0000000000000000     
  0.40625000000000000       0.12500000000000000        0.0000000000000000     
  0.43750000000000000       0.12500000000000000        0.0000000000000000     
  0.46875000000000000       0.12500000000000000        0.0000000000000000     
  0.50000000000000000       0.12500000000000000        0.0000000000000000     
  0.50000000000000000        0.0000000000000000        0.0000000000000000     
  0.53125000000000000        0.0000000000000000        0.0000000000000000     
  0.56250000000000000        0.0000000000000000        0.0000000000000000     
  0.59375000000000000        0.0000000000000000        0.0000000000000000     
  0.62500000000000000        0.0000000000000000        0.0000000000000000     
  0.50000000000000000        3.1250000000000000E-002   0.0000000000000000     
  0.53125000000000000        3.1250000000000000E-002   0.0000000000000000     
  0.56250000000000000        3.1250000000000000E-002   0.0000000000000000     
  0.59375000000000000        3.1250000000000000E-002   0.0000000000000000     
  0.62500000000000000        3.1250000000000000E-002   0.0000000000000000     
  0.50000000000000000        6.2500000000000000E-002   0.0000000000000000     
  0.53125000000000000        6.2500000000000000E-002   0.0000000000000000     
  0.56250000000000000        6.2500000000000000E-002   0.0000000000000000     
  0.59375000000000000        6.2500000000000000E-002   0.0000000000000000     
  0.62500000000000000        6.2500000000000000E-002   0.0000000000000000     
  0.50000000000000000        9.3750000000000000E-002   0.0000000000000000     
  0.53125000000000000        9.3750000000000000E-002   0.0000000000000000     
  0.56250000000000000        9.3750000000000000E-002   0.0000000000000000     
  0.59375000000000000        9.3750000000000000E-002   0.0000000000000000     
  0.62500000000000000        9.3750000000000000E-002   0.0000000000000000     
  0.50000000000000000       0.12500000000000000        0.0000000000000000     
  0.53125000000000000       0.12500000000000000        0.0000000000000000     
  0.56250000000000000       0.12500000000000000        0.0000000000000000     
  0.59375000000000000       0.12500000000000000        0.0000000000000000     
  0.62500000000000000       0.12500000000000000        0.0000000000000000     
  0.62500000000000000        0.0000000000000000        0.0000000000000000     
  0.65625000000000000        0.0000000000000000        0.0000000000000000     
  0.68750000000000000        0.0000000000000000        0.0000000000000000     
  0.71875000000000000        0.0000000000000000        0.0000000000000000     
  0.75000000000000000        0.0000000000000000        0.0000000000000000     
  0.62500000000000000        3.1250000000000000E-002   0.0000000000000000     
  0.65625000000000000        3.1250000000000000E-002   0.0000000000000000     
  0.68750000000000000        3.1250000000000000E-002   0.0000000000000000     
  0.71875000000000000        3.1250000000000000E-002   0.0000000000000000     
  0.75000000000000000        3.1250000000000000E-002   0.0000000000000000     
  0.62500000000000000        6.2500000000000000E-002   0.0000000000000000     
  0.65625000000000000        6.2500000000000000E-002   0.0000000000000000     
  0.68750000000000000        6.2500000000000000E-002   0.0000000000000000     
  0.71875000000000000        6.2500000000000000E-002   0.0000000000000000     
  0.75000000000000000        6.2500000000000000E-002   0.0000000000000000     
  0.62500000000000000        9.3750000000000000E-002   0.0000000000000000     
  0.65625000000000000        9.3750000000000000E-002   0.0000000000000000     
  0.68750000000000000        9.3750000000000000E-002   0.0000000000000000     
  0.71875000000000000        9.3750000000000000E-002   0.0000000000000000     
  0.75000000000000000        9.3750000000000000E-002   0.0000000000000000     
  0.62500000000000000       0.12500000000000000        0.0000000000000000     
  0.65625000000000000       0.12500000000000000        0.0000000000000000     
  0.68750000000000000       0.12500000000000000        0.0000000000000000     
  0.71875000000000000       0.12500000000000000        0.0000000000000000     
  0.75000000000000000       0.12500000000000000        0.0000000000000000     
  0.75000000000000000        0.0000000000000000        0.0000000000000000     
  0.78125000000000000        0.0000000000000000        0.0000000000000000     
  0.81250000000000000        0.0000000000000000        0.0000000000000000     
  0.84375000000000000        0.0000000000000000        0.0000000000000000     
  0.87500000000000000        0.0000000000000000        0.0000000000000000     
  0.75000000000000000        3.1250000000000000E-002   0.0000000000000000     
  0.78125000000000000        3.1250000000000000E-002   0.0000000000000000     
  0.81250000000000000        3.1250000000000000E-002   0.0000000000000000     
  0.84375000000000000        3.1250000000000000E-002   0.0000000000000000     
  0.87500000000000000        3.1250000000000000E-002   0.0000000000000000     
  0.75000000000000000        6.2500000000000000E-002   0.0000000000000000     
  0.78125000000000000        6.2500000000000000E-002   0.0000000000000000     
  0.81250000000000000        6.2500000000000000E-002   0.0000000000000000     
  0.84375000000000000        6.2500000000000000E-002   0.0000000000000000     
  0.87500000000000000        6.2500000000000000E-002   0.0000000000000000     
  0.75000000000000000        9.3750000000000000E-002   0.0000000000000000     
  0.78125000000000000        9.3750000000000000E-002   0.0000000000000000     
  0.81250000000000000        9.3750000000000000E-002   0.0000000000000000     
  0.84375000000000000        9.3750000000000000E-002   0.0000000000000000     
  0.87500000000000000        9.3750000000000000E-002   0.0000000000000000     
  0.75000000000000000       0.12500000000000000        0.0000000000000000     
  0.78125000000000000       0.12500000000000000        0.0000000000000000     
  0.81250000000000000       0.12500000000000000        0.0000000000000000     
  0.84375000000000000       0.12500000000000000        0.0000000000000000     
  0.87500000000000000       0.12500000000000000        0.0000000000000000     
  0.87500000000000000        0.0000000000000000        0.0000000000000000     
  0.90625000000000000        0.0000000000000000        0.0000000000000000     
  0.93750000000000000        0.0000000000000000        0.0000000000000000     
  0.96875000000000000        0.0000000000000000        0.0000000000000000     
   1.0000000000000000        0.0000000000000000        0.0000000000000000     
  0.87500000000000000        3.1250000000000000E-002   0.0000000000000000     
  0.90625000000000000        3.1250000000000000E-002   0.0000000000000000     
  0.93750000000000000        3.1250000000000000E-002   0.0000000000000000     
  0.96875000000000000        3.1250000000000000E-002   0.0000000000000000     
   1.0000000000000000        3.1250000000000000E-002   0.0000000000000000     
  0.87500000000000000        6.2500000000000000E-002   0.0000000000000000     
  0.90625000000000000        6.2500000000000000E-002   0.0000000000000000     
  0.93750000000000000        6.2500000000000000E-002   0.0000000000000000     
  0.96875000000000000        6.2500000000000000E-002   0.0000000000000000     
   1.0000000000000000        6.2500000000000000E-002   0.0000000000000000     
  0.87500000000000000        9.3750000000000000E-002   0.0000000000000000     
  0.90625000000000000        9.3750000000000000E-002   0.0000000000000000     
  0.93750000000000000        9.3750000000000000E-002   0.0000000000000000     
  0.96875000000000000        9.3750000000000000E-002   0.0000000000000000     
   1.0000000000000000        9.3750000000000000E-002   0.0000000000000000     
  0.87500000000000000       0.12500000000000000        0.0000000000000000     
  0.90625000000000000       0.12500000000000000        0.0000000000000000     
  0.93750000000000000       0.12500000000000000        0.0000000000000000     
  0.96875000000000000       0.12500000000000000        0.0000000000000000     
   1.0000000000000000       0.12500000000000000        0.0000000000000000     
   0.0000000000000000       0.12500000000000000        0.0000000000000000     
   3.1250000000000000E-002  0.12500000000000000        0.0000000000000000     
   6.2500000000000000E-002  0.12500000000000000        0.0000000000000000     
   9.3750000000000000E-002  0.12500000000000000        0.0000000000000000     
  0.12500000000000000       0.12500000000000000        0.0000000000000000     
   0.0000000000000000       0.15625000000000000        0.0000000000000000     
   3.1250000000000000E-002  0.15625000000000000        0.0000000000000000     
   6.2500000000000000E-002  0.15625000000000000        0.0000000000000000     
   9.3750000000000000E-002  0.15625000000000000        0.0000000000000000     
  0.12500000000000000       0.15625000000000000        0.0000000000000000     
   0.0000000000000000       0.18750000000000000        0.0000000000000000     
   3.1250000000000000E-002  0.18750000000000000        0.0000000000000000     
   6.2500000000000000E-002  0.18750000000000000        0.0000000000000000     
   9.3750000000000000E-002  0.18750000000000000        0.0000000000000000     
  0.12500000000000000       0.18750000000000000        0.0000000000000000     
   0.0000000000000000       0.21875000000000000        0.0000000000000000     
   3.1250000000000000E-002  0.21875000000000000        0.0000000000000000     
   6.2500000000000000E-002  0.21875000000000000        0.0000000000000000     
   9.3750000000000000E-002  0.21875000000000000        0.0000000000000000     
  0.12500000000000000       0.21875000000000000        0.0000000000000000     
   0.0000000000000000       0.25000000000000000        0.0000000000000000     
   3.1250000000000000E-002  0.25000000000000000        0.0000000000000000     
   6.2500000000000000E-002  0.25000000000000000        0.0000000000000000     
   9.3750000000000000E-002  0.25000000000000000        0.0000000000000000     
  0.12500000000000000       0.25000000000000000        0.0000000000000000     
  0.12500000000000000       0.12500000000000000        0.0000000000000000     
  0.15625000000000000       0.12500000000000000        0.0000000000000000     
  0.18750000000000000       0.12500000000000000        0.0000000000000000     
  0.21875000000000000       0.12500000000000000        0.0000000000000000     
  0.25000000000000000       0.12500000000000000        0.0000000000000000     
  0.12500000000000000       0.15625000000000000        0.0000000000000000     
  0.15625000000000000       0.15625000000000000        0.0000000000000000     
  0.18750000000000000       0.15625000000000000        0.0000000000000000     
  0.21875000000000000       0.15625000000000000        0.0000000000000000     
  0.25000000000000000       0.15625000000000000        0.0000000000000000     
  0.12500000000000000       0.18750000000000000        0.0000000000000000     
  0.15625000000000000       0.18750000000000000        0.0000000000000000     
  0.18750000000000000       0.18750000000000000        0.0000000000000000     
  0.21875000000000000       0.18750000000000000        0.0000000000000000     
  0.25000000000000000       0.18750000000000000        0.0000000000000000     
  0.12500000000000000       0.21875000000000000        0.0000000000000000     
  0.15625000000000000       0.21875000000000000        0.0000000000000000     
  0.18750000000000000       0.21875000000000000        0.0000000000000000     
  0.21875000000000000       0.21875000000000000        0.0000000000000000     
  0.25000000000000000       0.21875000000000000        0.0000000000000000     
  0.12500000000000000       0.25000000000000000        0.0000000000000000     
  0.15625000000000000       0.25000000000000000        0.0000000000000000     
  0.18750000000000000       0.25000000000000000        0.0000000000000000     
  0.21875000000000000       0.25000000000000000        0.0000000000000000     
  0.25000000000000000       0.25000000000000000        0.0000000000000000     
  0.25000000000000000       0.12500000000000000        0.0000000000000000     
  0.28125000000000000       0.12500000000000000        0.0000000000000000     
  0.31250000000000000       0.12500000000000000        0.0000000000000000     
  0.34375000000000000       0.12500000000000000        0.0000000000000000     
  0.37500000000000000       0.12500000000000000        0.0000000000000000     
  0.25000000000000000       0.15625000000000000        0.0000000000000000     
  0.28125000000000000       0.15625000000000000        0.0000000000000000     
  0.31250000000000000       0.15625000000000000        0.0000000000000000     
  0.34375000000000000       0.15625000000000000        0.0000000000000000     
  0.37500000000000000       0.15625000000000000        0.0000000000000000     
  0.25000000000000000       0.18750000000000000        0.0000000000000000     
  0.28125000000000000       0.18750000000000000        0.0000000000000000     
  0.31250000000000000       0.18750000000000000        0.0000000000000000     
  0.34375000000000000       0.18750000000000000        0.0000000000000000     
  0.37500000000000000       0.18750000000000000        0.0000000000000000     
  0.25000000000000000       0.21875000000000000        0.0000000000000000     
  0.28125000000000000       0.21875000000000000        0.0000000000000000     
  0.31250000000000000       0.21875000000000000        0.0000000000000000     
  0.34375000000000000       0.21875000000000000        0.0000000000000000     
  0.37500000000000000       0.21875000000000000        0.0000000000000000     
  0.25000000000000000       0.25000000000000000        0.0000000000000000     
  0.28125000000000000       0.25000000000000000        0.0000000000000000     
  0.31250000000000000       0.25000000000000000        0.0000000000000000     
  0.34375000000000000       0.25000000000000000        0.0000000000000000     
  0.37500000000000000       0.25000000000000000        0.0000000000000000     
  0.37500000000000000       0.12500000000000000        0.0000000000000000     
  0.40625000000000000       0.12500000000000000        0.0000000000000000     
  0.43750000000000000       0.12500000000000000        0.0000000000000000     
  0.46875000000000000       0.12500000000000000        0.0000000000000000     
  0.50000000000000000       0.12500000000000000        0.0000000000000000     
  0.37500000000000000       0.15625000000000000        0.0000000000000000     
  0.40625000000000000       0.15625000000000000        0.0000000000000000     
  0.43750000000000000       0.15625000000000000        0.0000000000000000     
  0.46875000000000000       0.15625000000000000        0.0000000000000000     
  0.50000000000000000       0.15625000000000000        0.0000000000000000     
  0.37500000000000000       0.18750000000000000        0.0000000000000000     
  0.40625000000000000       0.18750000000000000        0.0000000000000000     
  0.43750000000000000       0.18750000000000000        0.0000000000000000     
  0.46875000000000000       0.18750000000000000        0.0000000000000000     
  0.50000000000000000       0.18750000000000000        0.0000000000000000     
  0.37500000000000000       0.21875000000000000        0.0000000000000000     
  0.40625000000000000       0.21875000000000000        0.0000000000000000     
  0.43750000000000000       0.21875000000000000        0.0000000000000000     
  0.46875000000000000       0.21875000000000000        0.0000000000000000     
  0.50000000000000000       0.21875000000000000        0.0000000000000000     
  0.37500000000000000       0.25000000000000000        0.0000000000000000     
  0.40625000000000000       0.25000000000000000        0.0000000000000000     
  0.43750000000000000       0.25000000000000000        0.0000000000000000     
  0.46875000000000000       0.25000000000000000        0.0000000000000000     
  0.50000000000000000       0.25000000000000000        0.0000000000000000     
  0.50000000000000000       0.12500000000000000        0.0000000000000000     
  0.53125000000000000       0.12500000000000000        0.0000000000000000     
  0.56250000000000000       0.12500000000000000        0.0000000000000000     
  0.59375000000000000       0.12500000000000000        0.0000000000000000     
  0.62500000000000000       0.12500000000000000        0.0000000000000000     
  0.50000000000000000       0.15625000000000000        0.0000000000000000     
  0.53125000000000000       0.15625000000000000        0.0000000000000000     
  0.56250000000000000       0.15625000000000000        0.0000000000000000     
  0.59375000000000000       0.15625000000000000        0.0000000000000000     
  0.62500000000000000       0.15625000000000000        0.0000000000000000     
  0.50000000000000000       0.18750000000000000        0.0000000000000000     
  0.53125000000000000       0.18750000000000000        0.0000000000000000     
  0.56250000000000000       0.18750000000000000        0.0000000000000000     
  0.59375000000000000       0.18750000000000000        0.0000000000000000     
  0.62500000000000000       0.18750000000000000        0.0000000000000000     
  0.50000000000000000       0.21875000000000000        0.0000000000000000     
  0.53125000000000000       0.21875000000000000        0.0000000000000000     
  0.56250000000000000       0.21875000000000000        0.0000000000000000     
  0.59375000000000000       0.21875000000000000        0.0000000000000000     
  0.62500000000000000       0.21875000000000000        0.0000000000000000     
  0.50000000000000000       0.25000000000000000        0.0000000000000000     
  0.53125000000000000       0.25000000000000000        0.0000000000000000     
  0.56250000000000000       0.25000000000000000        0.0000000000000000     
  0.59375000000000000       0.25000000000000000        0.0000000000000000     
  0.62500000000000000       0.25000000000000000        0.0000000000000000     
  0.62500000000000000       0.12500000000000000        0.0000000000000000     
  0.65625000000000000       0.12500000000000000        0.0000000000000000     
  0.68750000000000000       0.12500000000000000        0.0000000000000000     
  0.71875000000000000       0.12500000000000000        0.0000000000000000     
  0.75000000000000000       0.12500000000000000        0.0000000000000000     
  0.62500000000000000       0.15625000000000000        0.0000000000000000     
  0.65625000000000000       0.15625000000000000        0.0000000000000000     
  0.68750000000000000       0.15625000000000000        0.0000000000000000     
  0.71875000000000000       0.15625000000000000        0.0000000000000000     
  0.75000000000000000       0.15625000000000000        0.0000000000000000     
  0.62500000000000000       0.18750000000000000        0.0000000000000000     
  0.65625000000000000       0.18750000000000000        0.0000000000000000     
  0.68750000000000000       0.18750000000000000        0.0000000000000000     
  0.71875000000000000       0.18750000000000000        0.0000000000000000     
  0.75000000000000000       0.18750000000000000        0.0000000000000000     
  0.62500000000000000       0.21875000000000000        0.0000000000000000     
  0.65625000000000000       0.21875000000000000        0.0000000000000000     
  0.68750000000000000       0.21875000000000000        0.0000000000000000     
  0.71875000000000000       0.21875000000000000        0.0000000000000000     
  0.75000000000000000       0.21875000000000000        0.0000000000000000     
  0.62500000000000000       0.25000000000000000        0.0000000000000000     
  0.65625000000000000       0.25000000000000000        0.0000000000000000     
  0.68750000000000000       0.25000000000000000        0.0000000000000000     
  0.71875000000000000       0.25000000000000000        0.0000000000000000     
  0.75000000000000000       0.25000000000000000        0.0000000000000000     
  0.75000000000000000       0.12500000000000000        0.0000000000000000     
  0.78125000000000000       0.12500000000000000        0.0000000000000000     
  0.81250000000000000       0.12500000000000000        0.0000000000000000     
  0.84375000000000000       0.12500000000000000        0.0000000000000000     
  0.87500000000000000       0.12500000000000000        0.0000000000000000     
  0.75000000000000000       0.15625000000000000        0.0000000000000000     
  0.78125000000000000       0.15625000000000000        0.0000000000000000     
  0.81250000000000000       0.15625000000000000        0.0000000000000000     
  0.84375000000000000       0.15625000000000000        0.0000000000000000     
  0.87500000000000000       0.15625000000000000        0.0000000000000000     
  0.75000000000000000       0.18750000000000000        0.0000000000000000     
  0.78125000000000000       0.18750000000000000        0.0000000000000000     
  0.81250000000000000       0.18750000000000000        0.0000000000000000     
  0.84375000000000000       0.18750000000000000        0.0000000000000000     
  0.87500000000000000       0.18750000000000000        0.0000000000000000     
  0.75000000000000000       0.21875000000000000        0.0000000000000000     
  0.78125000000000000       0.21875000000000000        0.0000000000000000     
  0.81250000000000000       0.21875000000000000        0.0000000000000000     
  0.84375000000000000       0.21875000000000000        0.0000000000000000     
  0.87500000000000000       0.21875000000000000        0.0000000000000000     
  0.75000000000000000       0.25000000000000000        0.0000000000000000     
  0.78125000000000000       0.25000000000000000        0.0000000000000000     
  0.81250000000000000       0.25000000000000000        0.0000000000000000     
  0.84375000000000000       0.25000000000000000        0.0000000000000000     
  0.87500000000000000       0.25000000000000000        0.0000000000000000     
  0.87500000000000000       0.12500000000000000        0.0000000000000000     
  0.90625000000000000       0.12500000000000000        0.0000000000000000     
  0.93750000000000000       0.12500000000000000        0.0000000000000000     
  0.96875000000000000       0.12500000000000000        0.0000000000000000     
   1.0000000000000000       0.12500000000000000        0.0000000000000000     
  0.87500000000000000       0.15625000000000000        0.0000000000000000     
  0.90625000000000000       0.15625000000000000        0.0000000000000000     
  0.93750000000000000       0.15625000000000000        0.0000000000000000     
  0.96875000000000000       0.15625000000000000        0.0000000000000000     
   1.0000000000000000       0.15625000000000000        0.0000000000000000     
  0.87500000000000000       0.18750000000000000        0.0000000000000000     
  0.90625000000000000       0.18750000000000000        0.0000000000000000     
  0.93750000000000000       0.18750000000000000        0.0000000000000000     
  0.96875000000000000       0.18750000000000000        0.0000000000000000     
   1.0000000000000000       0.18750000000000000        0.0000000000000000     
  0.87500000000000000       0.21875000000000000        0.0000000000000000     
  0.90625000000000000       0.21875000000000000        0.0000000000000000     
  0.93750000000000000       0.21875000000000000        0.0000000000000000     
  0.96875000000000000       0.21875000000000000        0.0000000000000000     
   1.0000000000000000       0.21875000000000000        0.0000000000000000     
  0.87500000000000000       0.25000000000000000        0.0000000000000000     
  0.90625000000000000       0.25000000000000000        0.0000000000000000     
  0.93750000000000000       0.25000000000000000        0.0000000000000000     
  0.96875000000000000       0.25000000000000000        0.0000000000000000     
   1.0000000000000000       0.25000000000000000        0.0000000000000000     
   0.0000000000000000       0.25000000000000000        0.0000000000000000     
   3.1250000000000000E-002  0.25000000000000000        0.0000000000000000     
   6.2500000000000000E-002  0.25000000000000000        0.0000000000000000     
   9.3750000000000000E-002  0.25000000000000000        0.0000000000000000     
  0.12500000000000000       0.25000000000000000        0.0000000000000000     
   0.0000000000000000       0.28125000000000000        0.0000000000000000     
   3.1250000000000000E-002  0.28125000000000000        0.0000000000000000     
   6.2500000000000000E-002  0.28125000000000000        0.0000000000000000     
   9.3750000000000000E-002  0.28125000000000000        0.0000000000000000     
  0.12500000000000000       0.28125000000000000        0.0000000000000000     
   0.0000000000000000       0.31250000000000000        0.0000000000000000     
   3.1250000000000000E-002  0.31250000000000000        0.0000000000000000     
   6.2500000000000000E-002  0.31250000000000000        0.0000000000000000     
   9.3750000000000000E-002  0.31250000000000000        0.0000000000000000     
  0.12500000000000000       0.31250000000000000        0.0000000000000000     
   0.0000000000000000       0.34375000000000000        0.0000000000000000     
   3.1250000000000000E-002  0.34375000000000000        0.0000000000000000     
   6.2500000000000000E-002  0.34375000000000000        0.0000000000000000     
   9.3750000000000000E-002  0.34375000000000000        0.0000000000000000     
  0.12500000000000000       0.34375000000000000        0.0000000000000000     
   0.0000000000000000       0.37500000000000000        0.0000000000000000     
   3.1250000000000000E-002  0.37500000000000000        0.0000000000000000     
   6.2500000000000000E-002  0.37500000000000000        0.0000000000000000     
   9.3750000000000000E-002  0.37500000000000000        0.0000000000000000     
  0.12500000000000000       0.37500000000000000        0.0000000000000000     
  0.12500000000000000       0.25000000000000000        0.0000000000000000     
  0.15625000000000000       0.25000000000000000        0.0000000000000000     
  0.18750000000000000       0.25000000000000000        0.0000000000000000     
  0.21875000000000000       0.25000000000000000        0.0000000000000000     
  0.25000000000000000       0.25000000000000000        0.0000000000000000     
  0.12500000000000000       0.28125000000000000        0.0000000000000000     
  0.15625000000000000       0.28125000000000000        0.0000000000000000     
  0.18750000000000000       0.28125000000000000        0.0000000000000000     
  0.21875000000000000       0.28125000000000000        0.0000000000000000     
  0.25000000000000000       0.28125000000000000        0.0000000000000000     
  0.12500000000000000       0.31250000000000000        0.0000000000000000     
  0.15625000000000000       0.31250000000000000        0.0000000000000000     
  0.18750000000000000       0.31250000000000000        0.0000000000000000     
  0.21875000000000000       0.31250000000000000        0.0000000000000000     
  0.25000000000000000       0.31250000000000000        0.0000000000000000     
  0.12500000000000000       0.34375000000000000        0.0000000000000000     
  0.15625000000000000       0.34375000000000000        0.0000000000000000     
  0.18750000000000000       0.34375000000000000        0.0000000000000000     
  0.21875000000000000       0.34375000000000000        0.0000000000000000     
  0.25000000000000000       0.34375000000000000        0.0000000000000000     
  0.12500000000000000       0.37500000000000000        0.0000000000000000     
  0.15625000000000000       0.37500000000000000        0.0000000000000000     
  0.18750000000000000       0.37500000000000000        0.0000000000000000     
  0.21875000000000000       0.37500000000000000        0.0000000000000000     
  0.25000000000000000       0.37500000000000000        0.0000000000000000     
  0.25000000000000000       0.25000000000000000        0.0000000000000000     
  0.28125000000000000       0.25000000000000000        0.0000000000000000     
  0.31250000000000000       0.25000000000000000        0.0000000000000000     
  0.34375000000000000       0.25000000000000000        0.0000000000000000     
  0.37500000000000000       0.25000000000000000        0.0000000000000000     
  0.25000000000000000       0.28125000000000000        0.0000000000000000     
  0.28125000000000000       0.28125000000000000        0.0000000000000000     
  0.31250000000000000       0.28125000000000000        0.0000000000000000     
  0.34375000000000000       0.28125000000000000        0.0000000000000000     
  0.37500000000000000       0.28125000000000000        0.0000000000000000     
  0.25000000000000000       0.31250000000000000        0.0000000000000000     
  0.28125000000000000       0.31250000000000000        0.0000000000000000     
  0.31250000000000000       0.31250000000000000        0.0000000000000000     
  0.34375000000000000       0.31250000000000000        0.0000000000000000     
  0.37500000000000000       0.31250000000000000        0.0000000000000000     
  0.25000000000000000       0.34375000000000000        0.0000000000000000     
  0.28125000000000000       0.34375000000000000        0.0000000000000000     
  0.31250000000000000       0.34375000000000000        0.0000000000000000     
  0.34375000000000000       0.34375000000000000        0.0000000000000000     
  0.37500000000000000       0.34375000000000000        0.0000000000000000     
  0.25000000000000000       0.37500000000000000        0.0000000000000000     
  0.28125000000000000       0.37500000000000000        0.0000000000000000     
  0.31250000000000000       0.37500000000000000        0.0000000000000000     
  0.34375000000000000       0.37500000000000000        0.0000000000000000     
  0.37500000000000000       0.37500000000000000        0.0000000000000000     
  0.37500000000000000       0.25000000000000000        0.0000000000000000     
  0.40625000000000000       0.25000000000000000        0.0000000000000000     
  0.43750000000000000       0.25000000000000000        0.0000000000000000     
  0.46875000000000000       0.25000000000000000        0.0000000000000000     
  0.50000000000000000       0.25000000000000000        0.0000000000000000     
  0.37500000000000000       0.28125000000000000        0.0000000000000000     
  0.40625000000000000       0.28125000000000000        0.0000000000000000     
  0.43750000000000000       0.28125000000000000        0.0000000000000000     
  0.46875000000000000       0.28125000000000000        0.0000000000000000     
  0.50000000000000000       0.28125000000000000        0.0000000000000000     
  0.37500000000000000       0.31250000000000000        0.0000000000000000     
  0.40625000000000000       0.31250000000000000        0.0000000000000000     
  0.43750000000000000       0.31250000000000000        0.0000000000000000     
  0.46875000000000000       0.31250000000000000        0.0000000000000000     
  0.50000000000000000       0.31250000000000000        0.0000000000000000     
  0.37500000000000000       0.34375000000000000        0.0000000000000000     
  0.40625000000000000       0.34375000000000000        0.0000000000000000     
  0.43750000000000000       0.34375000000000000        0.0000000000000000     
  0.46875000000000000       0.34375000000000000        0.0000000000000000     
  0.50000000000000000       0.34375000000000000        0.0000000000000000     
  0.37500000000000000       0.37500000000000000        0.0000000000000000     
  0.40625000000000000       0.37500000000000000        0.0000000000000000     
  0.43750000000000000       0.37500000000000000        0.0000000000000000     
  0.46875000000000000       0.37500000000000000        0.0000000000000000     
  0.50000000000000000       0.37500000000000000        0.0000000000000000     
  0.50000000000000000       0.25000000000000000        0.0000000000000000     
  0.53125000000000000       0.25000000000000000        0.0000000000000000     
  0.56250000000000000       0.25000000000000000        0.0000000000000000     
  0.59375000000000000       0.25000000000000000        0.0000000000000000     
  0.62500000000000000       0.25000000000000000        0.0000000000000000     
  0.50000000000000000       0.28125000000000000        0.0000000000000000     
  0.53125000000000000       0.28125000000000000        0.0000000000000000     
  0.56250000000000000       0.28125000000000000        0.0000000000000000     
  0.59375000000000000       0.28125000000000000        0.0000000000000000     
  0.62500000000000000       0.28125000000000000        0.0000000000000000     
  0.50000000000000000       0.31250000000000000        0.0000000000000000     
  0.53125000000000000       0.31250000000000000        0.0000000000000000     
  0.56250000000000000       0.31250000000000000        0.0000000000000000     
  0.59375000000000000       0.31250000000000000        0.0000000000000000     
  0.62500000000000000       0.31250000000000000        0.0000000000000000     
  0.50000000000000000       0.34375000000000000        0.0000000000000000     
  0.53125000000000000       0.34375000000000000        0.0000000000000000     
  0.56250000000000000       0.34375000000000000        0.0000000000000000     
  0.59375000000000000       0.34375000000000000        0.0000000000000000     
  0.62500000000000000       0.34375000000000000        0.0000000000000000     
  0.50000000000000000       0.37500000000000000        0.0000000000000000     
  0.53125000000000000       0.37500000000000000        0.0000000000000000     
  0.56250000000000000       0.37500000000000000        0.0000000000000000     
  0.59375000000000000       0.37500000000000000        0.0000000000000000     
  0.62500000000000000       0.37500000000000000        0.0000000000000000     
  0.62500000000000000       0.25000000000000000        0.0000000000000000     
  0.65625000000000000       0.25000000000000000        0.0000000000000000     
  0.68750000000000000       0.25000000000000000        0.0000000000000000     
  0.71875000000000000       0.25000000000000000        0.0000000000000000     
  0.75000000000000000       0.25000000000000000        0.0000000000000000     
  0.62500000000000000       0.28125000000000000        0.0000000000000000     
  0.65625000000000000       0.28125000000000000        0.0000000000000000     
  0.68750000000000000       0.28125000000000000        0.0000000000000000     
  0.71875000000000000       0.28125000000000000        0.0000000000000000     
  0.75000000000000000       0.28125000000000000        0.0000000000000000     
  0.62500000000000000       0.31250000000000000        0.0000000000000000     
  0.65625000000000000       0.31250000000000000        0.0000000000000000     
  0.68750000000000000       0.31250000000000000        0.0000000000000000     
  0.71875000000000000       0.31250000000000000        0.0000000000000000     
  0.75000000000000000       0.31250000000000000        0.0000000000000000     
  0.62500000000000000       0.34375000000000000        0.0000000000000000     
  0.65625000000000000       0.34375000000000000        0.0000000000000000     
  0.68750000000000000       0.34375000000000000        0.0000000000000000     
  0.71875000000000000       0.34375000000000000        0.0000000000000000     
  0.75000000000000000       0.34375000000000000        0.0000000000000000     
  0.62500000000000000       0.37500000000000000        0.0000000000000000     
  0.65625000000000000       0.37500000000000000        0.0000000000000000     
  0.68750000000000000       0.37500000000000000        0.0000000000000000     
  0.71875000000000000       0.37500000000000000        0.0000000000000000     
  0.75000000000000000       0.37500000000000000        0.0000000000000000     
  0.75000000000000000       0.25000000000000000        0.0000000000000000     
  0.78125000000000000       0.25000000000000000        0.0000000000000000     
  0.81250000000000000       0.25000000000000000        0.0000000000000000     
  0.84375000000000000       0.25000000000000000        0.0000000000000000     
  0.87500000000000000       0.25000000000000000        0.0000000000000000     
  0.75000000000000000       0.28125000000000000        0.0000000000000000     
  0.78125000000000000       0.28125000000000000        0.0000000000000000     
  0.81250000000000000       0.28125000000000000        0.0000000000000000     
  0.84375000000000000       0.28125000000000000        0.0000000000000000     
  0.87500000000000000       0.28125000000000000        0.0000000000000000     
  0.75000000000000000       0.31250000000000000        0.0000000000000000     
  0.78125000000000000       0.31250000000000000        0.0000000000000000     
  0.81250000000000000       0.31250000000000000        0.0000000000000000     
  0.84375000000000000       0.31250000000000000        0.0000000000000000     
  0.87500000000000000       0.31250000000000000        0.0000000000000000     
  0.75000000000000000       0.34375000000000000        0.0000000000000000     
  0.78125000000000000       0.34375000000000000        0.0000000000000000     
  0.81250000000000000       0.34375000000000000        0.0000000000000000     
  0.84375000000000000       0.34375000000000000        0.0000000000000000     
  0.87500000000000000       0.34375000000000000        0.0000000000000000     
  0.75000000000000000       0.37500000000000000        0.0000000000000000     
  0.78125000000000000       0.37500000000000000        0.0000000000000000     
  0.81250000000000000       0.37500000000000000        0.0000000000000000     
  0.84375000000000000       0.37500000000000000        0.0000000000000000     
  0.87500000000000000       0.37500000000000000        0.0000000000000000     
  0.87500000000000000       0.25000000000000000        0.0000000000000000     
  0.90625000000000000       0.25000000000000000        0.0000000000000000     
  0.93750000000000000       0.25000000000000000        0.0000000000000000     
  0.96875000000000000       0.25000000000000000        0.0000000000000000     
   1.0000000000000000       0.25000000000000000        0.0000000000000000     
  0.87500000000000000       0.28125000000000000        0.0000000000000000     
  0.90625000000000000       0.28125000000000000        0.0000000000000000     
  0.93750000000000000       0.28125000000000000        0.0000000000000000     
  0.96875000000000000       0.28125000000000000        0.0000000000000000     
   1.0000000000000000       0.28125000000000000        0.0000000000000000     
  0.87500000000000000       0.31250000000000000        0.0000000000000000     
  0.90625000000000000       0.31250000000000000        0.0000000000000000     
  0.93750000000000000       0.31250000000000000        0.0000000000000000     
  0.96875000000000000       0.31250000000000000        0.0000000000000000     
   1.0000000000000000       0.31250000000000000        0.0000000000000000     
  0.87500000000000000       0.34375000000000000        0.0000000000000000     
  0.90625000000000000       0.34375000000000000        0.0000000000000000     
  0.93750000000000000       0.34375000000000000        0.0000000000000000     
  0.96875000000000000       0.34375000000000000        0.0000000000000000     
   1.0000000000000000       0.34375000000000000        0.0000000000000000     
  0.87500000000000000       0.37500000000000000        0.0000000000000000     
  0.90625000000000000       0.37500000000000000        0.0000000000000000     
  0.93750000000000000       0.37500000000000000        0.0000000000000000     
  0.96875000000000000       0.37500000000000000        0.0000000000000000     
   1.0000000000000000       0.37500000000000000        0.0000000000000000     
   0.0000000000000000       0.37500000000000000        0.0000000000000000     
   3.1250000000000000E-002  0.37500000000000000        0.0000000000000000     
   6.2500000000000000E-002  0.37500000000000000        0.0000000000000000     
   9.3750000000000000E-002  0.37500000000000000        0.0000000000000000     
  0.12500000000000000       0.37500000000000000        0.0000000000000000     
   0.0000000000000000       0.40625000000000000        0.0000000000000000     
   3.1250000000000000E-002  0.40625000000000000        0.0000000000000000     
   6.2500000000000000E-002  0.40625000000000000        0.0000000000000000     
   9.3750000000000000E-002  0.40625000000000000        0.0000000000000000     
  0.12500000000000000       0.40625000000000000        0.0000000000000000     
   0.0000000000000000       0.43750000000000000        0.0000000000000000     
   3.1250000000000000E-002  0.43750000000000000        0.0000000000000000     
   6.2500000000000000E-002  0.43750000000000000        0.0000000000000000     
   9.3750000000000000E-002  0.43750000000000000        0.0000000000000000     
  0.12500000000000000       0.43750000000000000        0.0000000000000000     
   0.0000000000000000       0.46875000000000000        0.0000000000000000     
   3.1250000000000000E-002  0.46875000000000000        0.0000000000000000     
   6.2500000000000000E-002  0.46875000000000000        0.0000000000000000     
   9.3750000000000000E-002  0.46875000000000000        0.0000000000000000     
  0.12500000000000000       0.46875000000000000        0.0000000000000000     
   0.0000000000000000       0.50000000000000000        0.0000000000000000     
   3.1250000000000000E-002  0.50000000000000000        0.0000000000000000     
   6.2500000000000000E-002  0.50000000000000000        0.0000000000000000     
   9.3750000000000000E-002  0.50000000000000000        0.0000000000000000     
  0.12500000000000000       0.50000000000000000        0.0000000000000000     
  0.12500000000000000       0.37500000000000000        0.0000000000000000     
  0.15625000000000000       0.37500000000000000        0.0000000000000000     
  0.18750000000000000       0.37500000000000000        0.0000000000000000     
  0.21875000000000000       0.37500000000000000        0.0000000000000000     
  0.25000000000000000       0.37500000000000000        0.0000000000000000     
  0.12500000000000000       0.40625000000000000        0.0000000000000000     
  0.15625000000000000       0.40625000000000000        0.0000000000000000     
  0.18750000000000000       0.40625000000000000        0.0000000000000000     
  0.21875000000000000       0.40625000000000000        0.0000000000000000     
  0.25000000000000000       0.40625000000000000        0.0000000000000000     
  0.12500000000000000       0.43750000000000000        0.0000000000000000     
  0.15625000000000000       0.43750000000000000        0.0000000000000000     
  0.18750000000000000       0.43750000000000000        0.0000000000000000     
  0.21875000000000000       0.43750000000000000        0.0000000000000000     
  0.25000000000000000       0.43750000000000000        0.0000000000000000     
  0.12500000000000000       0.46875000000000000        0.0000000000000000     
  0.15625000000000000       0.46875000000000000        0.0000000000000000     
  0.18750000000000000       0.46875000000000000        0.0000000000000000     
  0.21875000000000000       0.46875000000000000        0.0000000000000000     
  0.25000000000000000       0.46875000000000000        0.0000000000000000     
  0.12500000000000000       0.50000000000000000        0.0000000000000000     
  0.15625000000000000       0.50000000000000000        0.0000000000000000     
  0.18750000000000000       0.50000000000000000        0.0000000000000000     
  0.21875000000000000       0.50000000000000000        0.0000000000000000     
  0.25000000000000000       0.50000000000000000        0.0000000000000000     
  0.25000000000000000       0.37500000000000000        0.0000000000000000     
  0.28125000000000000       0.37500000000000000        0.0000000000000000     
  0.31250000000000000       0.37500000000000000        0.0000000000000000     
  0.34375000000000000       0.37500000000000000        0.0000000000000000     
  0.37500000000000000       0.37500000000000000        0.0000000000000000     
  0.25000000000000000       0.40625000000000000        0.0000000000000000     
  0.28125000000000000       0.40625000000000000        0.0000000000000000     
  0.31250000000000000       0.40625000000000000        0.0000000000000000     
  0.34375000000000000       0.40625000000000000        0.0000000000000000     
  0.37500000000000000       0.40625000000000000        0.0000000000000000     
  0.25000000000000000       0.43750000000000000        0.0000000000000000     
  0.28125000000000000       0.43750000000000000        0.0000000000000000     
  0.31250000000000000       0.43750000000000000        0.0000000000000000     
  0.34375000000000000       0.43750000000000000        0.0000000000000000     
  0.37500000000000000       0.43750000000000000        0.0000000000000000     
  0.25000000000000000       0.46875000000000000        0.0000000000000000     
  0.28125000000000000       0.46875000000000000        0.0000000000000000     
  0.31250000000000000       0.46875000000000000        0.0000000000000000     
  0.34375000000000000       0.46875000000000000        0.0000000000000000     
  0.37500000000000000       0.46875000000000000        0.0000000000000000     
  0.25000000000000000       0.50000000000000000        0.0000000000000000     
  0.28125000000000000       0.50000000000000000        0.0000000000000000     
  0.31250000000000000       0.50000000000000000        0.0000000000000000     
  0.34375000000000000       0.50000000000000000        0.0000000000000000     
  0.37500000000000000       0.50000000000000000        0.0000000000000000     
  0.37500000000000000       0.37500000000000000        0.0000000000000000     
  0.40625000000000000       0.37500000000000000        0.0000000000000000     
  0.43750000000000000       0.37500000000000000        0.0000000000000000     
  0.46875000000000000       0.37500000000000000        0.0000000000000000     
  0.50000000000000000       0.37500000000000000        0.0000000000000000     
  0.37500000000000000       0.40625000000000000        0.0000000000000000     
  0.40625000000000000       0.40625000000000000        0.0000000000000000     
  0.43750000000000000       0.40625000000000000        0.0000000000000000     
  0.46875000000000000       0.40625000000000000        0.0000000000000000     
  0.50000000000000000       0.40625000000000000        0.0000000000000000     
  0.37500000000000000       0.43750000000000000        0.0000000000000000     
  0.40625000000000000       0.43750000000000000        0.0000000000000000     
  0.43750000000000000       0.43750000000000000        0.0000000000000000     
  0.46875000000000000       0.43750000000000000        0.0000000000000000     
  0.50000000000000000       0.43750000000000000        0.0000000000000000     
  0.37500000000000000       0.46875000000000000        0.0000000000000000     
  0.40625000000000000       0.46875000000000000        0.0000000000000000     
  0.43750000000000000       0.46875000000000000        0.0000000000000000     
  0.46875000000000000       0.46875000000000000        0.0000000000000000     
  0.50000000000000000       0.46875000000000000        0.0000000000000000     
  0.37500000000000000       0.50000000000000000        0.0000000000000000     
  0.40625000000000000       0.50000000000000000        0.0000000000000000     
  0.43750000000000000       0.50000000000000000        0.0000000000000000     
  0.46875000000000000       0.50000000000000000        0.0000000000000000     
  0.50000000000000000       0.50000000000000000        0.0000000000000000     
  0.50000000000000000       0.37500000000000000        0.0000000000000000     
  0.53125000000000000       0.37500000000000000        0.0000000000000000     
  0.56250000000000000       0.37500000000000000        0.0000000000000000     
  0.59375000000000000       0.37500000000000000        0.0000000000000000     
  0.62500000000000000       0.37500000000000000        0.0000000000000000     
  0.50000000000000000       0.40625000000000000        0.0000000000000000     
  0.53125000000000000       0.40625000000000000        0.0000000000000000     
  0.56250000000000000       0.40625000000000000        0.0000000000000000     
  0.59375000000000000       0.40625000000000000        0.0000000000000000     
  0.62500000000000000       0.40625000000000000        0.0000000000000000     
  0.50000000000000000       0.43750000000000000        0.0000000000000000     
  0.53125000000000000       0.43750000000000000        0.0000000000000000     
  0.56250000000000000       0.43750000000000000        0.0000000000000000     
  0.59375000000000000       0.43750000000000000        0.0000000000000000     
  0.62500000000000000       0.43750000000000000        0.0000000000000000     
  0.50000000000000000       0.46875000000000000        0.0000000000000000     
  0.53125000000000000       0.46875000000000000        0.0000000000000000     
  0.56250000000000000       0.46875000000000000        0.0000000000000000     
  0.59375000000000000       0.46875000000000000        0.0000000000000000     
  0.62500000000000000       0.46875000000000000        0.0000000000000000     
  0.50000000000000000       0.50000000000000000        0.0000000000000000     
  0.53125000000000000       0.50000000000000000        0.0000000000000000     
  0.56250000000000000       0.50000000000000000        0.0000000000000000     
  0.59375000000000000       0.50000000000000000        0.0000000000000000     
  0.62500000000000000       0.50000000000000000        0.0000000000000000     
  0.62500000000000000       0.37500000000000000        0.0000000000000000     
  0.65625000000000000       0.37500000000000000        0.0000000000000000     
  0.68750000000000000       0.37500000000000000        0.0000000000000000     
  0.71875000000000000       0.37500000000000000        0.0000000000000000     
  0.75000000000000000       0.37500000000000000        0.0000000000000000     
  0.62500000000000000       0.40625000000000000        0.0000000000000000     
  0.65625000000000000       0.40625000000000000        0.0000000000000000     
  0.68750000000000000       0.40625000000000000        0.0000000000000000     
  0.71875000000000000       0.40625000000000000        0.0000000000000000     
  0.75000000000000000       0.40625000000000000        0.0000000000000000     
  0.62500000000000000       0.43750000000000000        0.0000000000000000     
  0.65625000000000000       0.43750000000000000        0.0000000000000000     
  0.68750000000000000       0.43750000000000000        0.0000000000000000     
  0.71875000000000000       0.43750000000000000        0.0000000000000000     
  0.75000000000000000       0.43750000000000000        0.0000000000000000     
  0.62500000000000000       0.46875000000000000        0.0000000000000000     
  0.65625000000000000       0.46875000000000000        0.0000000000000000     
  0.68750000000000000       0.46875000000000000        0.0000000000000000     
  0.71875000000000000       0.46875000000000000        0.0000000000000000     
  0.75000000000000000       0.46875000000000000        0.0000000000000000     
  0.62500000000000000       0.50000000000000000        0.0000000000000000     
  0.65625000000000000       0.50000000000000000        0.0000000000000000     
  0.68750000000000000       0.50000000000000000        0.0000000000000000     
  0.71875000000000000       0.50000000000000000        0.0000000000000000     
  0.75000000000000000       0.50000000000000000        0.0000000000000000     
  0.75000000000000000       0.37500000000000000        0.0000000000000000     
  0.78125000000000000       0.37500000000000000        0.0000000000000000     
  0.81250000000000000       0.37500000000000000        0.0000000000000000     
  0.84375000000000000       0.37500000000000000        0.0000000000000000     
  0.87500000000000000       0.37500000000000000        0.0000000000000000     
  0.75000000000000000       0.40625000000000000        0.0000000000000000     
  0.78125000000000000       0.40625000000000000        0.0000000000000000     
  0.81250000000000000       0.40625000000000000        0.0000000000000000     
  0.84375000000000000       0.40625000000000000        0.0000000000000000     
  0.87500000000000000       0.40625000000000000        0.0000000000000000     
  0.75000000000000000       0.43750000000000000        0.0000000000000000     
  0.78125000000000000       0.43750000000000000        0.0000000000000000     
  0.81250000000000000       0.43750000000000000        0.0000000000000000     
  0.84375000000000000       0.43750000000000000        0.0000000000000000     
  0.87500000000000000       0.43750000000000000        0.0000000000000000     
  0.75000000000000000       0.46875000000000000        0.0000000000000000     
  0.78125000000000000       0.46875000000000000        0.0000000000000000     
  0.81250000000000000       0.46875000000000000        0.0000000000000000     
  0.84375000000000000       0.46875000000000000        0.0000000000000000     
  0.87500000000000000       0.46875000000000000        0.0000000000000000     
  0.75000000000000000       0.50000000000000000        0.0000000000000000     
  0.78125000000000000       0.50000000000000000        0.0000000000000000     
  0.81250000000000000       0.50000000000000000        0.0000000000000000     
  0.84375000000000000       0.50000000000000000        0.0000000000000000     
  0.87500000000000000       0.50000000000000000        0.0000000000000000     
  0.87500000000000000       0.37500000000000000        0.0000000000000000     
  0.90625000000000000       0.37500000000000000        0.0000000000000000     
  0.93750000000000000       0.37500000000000000        0.0000000000000000     
  0.96875000000000000       0.37500000000000000        0.0000000000000000     
   1.0000000000000000       0.37500000000000000        0.0000000000000000     
  0.87500000000000000       0.40625000000000000        0.0000000000000000     
  0.90625000000000000       0.40625000000000000        0.0000000000000000     
  0.93750000000000000       0.40625000000000000        0.0000000000000000     
  0.96875000000000000       0.40625000000000000        0.0000000000000000     
   1.0000000000000000       0.40625000000000000        0.0000000000000000     
  0.87500000000000000       0.43750000000000000        0.0000000000000000     
  0.90625000000000000       0.43750000000000000        0.0000000000000000     
  0.93750000000000000       0.43750000000000000        0.0000000000000000     
  0.96875000000000000       0.43750000000000000        0.0000000000000000     
   1.0000000000000000       0.43750000000000000        0.0000000000000000     
  0.87500000000000000       0.46875000000000000        0.0000000000000000     
  0.90625000000000000       0.46875000000000000        0.0000000000000000     
  0.93750000000000000       0.46875000000000000        0.0000000000000000     
  0.96875000000000000       0.46875000000000000        0.0000000000000000     
   1.0000000000000000       0.46875000000000000        0.0000000000000000     
  0.87500000000000000       0.50000000000000000        0.0000000000000000     
  0.90625000000000000       0.50000000000000000        0.0000000000000000     
  0.93750000000000000       0.50000000000000000        0.0000000000000000     
  0.96875000000000000       0.50000000000000000        0.0000000000000000     
   1.0000000000000000       0.50000000000000000        0.0000000000000000     
   0.0000000000000000       0.50000000000000000        0.0000000000000000     
   3.1250000000000000E-002  0.50000000000000000        0.0000000000000000     
   6.2500000000000000E-002  0.50000000000000000        0.0000000000000000     
   9.3750000000000000E-002  0.50000000000000000        0.0000000000000000     
  0.12500000000000000       0.50000000000000000        0.0000000000000000     
   0.0000000000000000       0.53125000000000000        0.0000000000000000     
   3.1250000000000000E-002  0.53125000000000000        0.0000000000000000     
   6.2500000000000000E-002  0.53125000000000000        0.0000000000000000     
   9.3750000000000000E-002  0.53125000000000000        0.0000000000000000     
  0.12500000000000000       0.53125000000000000        0.0000000000000000     
   0.0000000000000000       0.56250000000000000        0.0000000000000000     
   3.1250000000000000E-002  0.56250000000000000        0.0000000000000000     
   6.2500000000000000E-002  0.56250000000000000        0.0000000000000000     
   9.3750000000000000E-002  0.56250000000000000        0.0000000000000000     
  0.12500000000000000       0.56250000000000000        0.0000000000000000     
   0.0000000000000000       0.59375000000000000        0.0000000000000000     
   3.1250000000000000E-002  0.59375000000000000        0.0000000000000000     
   6.2500000000000000E-002  0.59375000000000000        0.0000000000000000     
   9.3750000000000000E-002  0.59375000000000000        0.0000000000000000     
  0.12500000000000000       0.59375000000000000        0.0000000000000000     
   0.0000000000000000       0.62500000000000000        0.0000000000000000     
   3.1250000000000000E-002  0.62500000000000000        0.0000000000000000     
   6.2500000000000000E-002  0.62500000000000000        0.0000000000000000     
   9.3750000000000000E-002  0.62500000000000000        0.0000000000000000     
  0.12500000000000000       0.62500000000000000        0.0000000000000000     
  0.12500000000000000       0.50000000000000000        0.0000000000000000     
  0.15625000000000000       0.50000000000000000        0.0000000000000000     
  0.18750000000000000       0.50000000000000000        0.0000000000000000     
  0.21875000000000000       0.50000000000000000        0.0000000000000000     
  0.25000000000000000       0.50000000000000000        0.0000000000000000     
  0.12500000000000000       0.53125000000000000        0.0000000000000000     
  0.15625000000000000       0.53125000000000000        0.0000000000000000     
  0.18750000000000000       0.53125000000000000        0.0000000000000000     
  0.21875000000000000       0.53125000000000000        0.0000000000000000     
  0.25000000000000000       0.53125000000000000        0.0000000000000000     
  0.12500000000000000       0.56250000000000000        0.0000000000000000     
  0.15625000000000000       0.56250000000000000        0.0000000000000000     
  0.18750000000000000       0.56250000000000000        0.0000000000000000     
  0.21875000000000000       0.56250000000000000        0.0000000000000000     
  0.25000000000000000       0.56250000000000000        0.0000000000000000     
  0.12500000000000000       0.59375000000000000        0.0000000000000000     
  0.15625000000000000       0.59375000000000000        0.0000000000000000     
  0.18750000000000000       0.59375000000000000        0.0000000000000000     
  0.21875000000000000       0.59375000000000000        0.0000000000000000     
  0.25000000000000000       0.59375000000000000        0.0000000000000000     
  0.12500000000000000       0.62500000000000000        0.0000000000000000     
  0.15625000000000000       0.62500000000000000        0.0000000000000000     
  0.18750000000000000       0.62500000000000000        0.0000000000000000     
  0.21875000000000000       0.62500000000000000        0.0000000000000000     
  0.25000000000000000       0.62500000000000000        0.0000000000000000     
  0.25000000000000000       0.50000000000000000        0.0000000000000000     
  0.28125000000000000       0.50000000000000000        0.0000000000000000     
  0.31250000000000000       0.50000000000000000        0.0000000000000000     
  0.34375000000000000       0.50000000000000000        0.0000000000000000     
  0.37500000000000000       0.50000000000000000        0.0000000000000000     
  0.25000000000000000       0.53125000000000000        0.0000000000000000     
  0.28125000000000000       0.53125000000000000        0.0000000000000000     
  0.31250000000000000       0.53125000000000000        0.0000000000000000     
  0.34375000000000000       0.53125000000000000        0.0000000000000000     
  0.37500000000000000       0.53125000000000000        0.0000000000000000     
  0.25000000000000000       0.56250000000000000        0.0000000000000000     
  0.28125000000000000       0.56250000000000000        0.0000000000000000     
  0.31250000000000000       0.56250000000000000        0.0000000000000000     
  0.34375000000000000       0.56250000000000000        0.0000000000000000     
  0.37500000000000000       0.56250000000000000        0.0000000000000000     
  0.25000000000000000       0.59375000000000000        0.0000000000000000     
  0.28125000000000000       0.59375000000000000        0.0000000000000000     
  0.31250000000000000       0.59375000000000000        0.0000000000000000     
  0.34375000000000000       0.59375000000000000        0.0000000000000000     
  0.37500000000000000       0.59375000000000000        0.0000000000000000     
  0.25000000000000000       0.62500000000000000        0.0000000000000000     
  0.28125000000000000       0.62500000000000000        0.0000000000000000     
  0.31250000000000000       0.62500000000000000        0.0000000000000000     
  0.34375000000000000       0.62500000000000000        0.0000000000000000     
  0.37500000000000000       0.62500000000000000        0.0000000000000000     
  0.37500000000000000       0.50000000000000000        0.0000000000000000     
  0.40625000000000000       0.50000000000000000        0.0000000000000000     
  0.43750000000000000       0.50000000000000000        0.0000000000000000     
  0.46875000000000000       0.50000000000000000        0.0000000000000000     
  0.50000000000000000       0.50000000000000000        0.0000000000000000     
  0.37500000000000000       0.53125000000000000        0.0000000000000000     
  0.40625000000000000       0.53125000000000000        0.0000000000000000     
  0.43750000000000000       0.53125000000000000        0.0000000000000000     
  0.46875000000000000       0.53125000000000000        0.0000000000000000     
  0.50000000000000000       0.53125000000000000        0.0000000000000000     
  0.37500000000000000       0.56250000000000000        0.0000000000000000     
  0.40625000000000000       0.56250000000000000        0.0000000000000000     
  0.43750000000000000       0.56250000000000000        0.0000000000000000     
  0.46875000000000000       0.56250000000000000        0.0000000000000000     
  0.50000000000000000       0.56250000000000000        0.0000000000000000     
  0.37500000000000000       0.59375000000000000        0.0000000000000000     
  0.40625000000000000       0.59375000000000000        0.0000000000000000     
  0.43750000000000000       0.59375000000000000        0.0000000000000000     
  0.46875000000000000       0.59375000000000000        0.0000000000000000     
  0.50000000000000000       0.59375000000000000        0.0000000000000000     
  0.37500000000000000       0.62500000000000000        0.0000000000000000     
  0.40625000000000000       0.62500000000000000        0.0000000000000000     
  0.43750000000000000       0.62500000000000000        0.0000000000000000     
  0.46875000000000000       0.62500000000000000        0.0000000000000000     
  0.50000000000000000       0.62500000000000000        0.0000000000000000     
  0.50000000000000000       0.50000000000000000        0.0000000000000000     
  0.53125000000000000       0.50000000000000000        0.0000000000000000     
  0.56250000000000000       0.50000000000000000        0.0000000000000000     
  0.59375000000000000       0.50000000000000000        0.0000000000000000     
  0.62500000000000000       0.50000000000000000        0.0000000000000000     
  0.50000000000000000       0.53125000000000000        0.0000000000000000     
  0.53125000000000000       0.53125000000000000        0.0000000000000000     
  0.56250000000000000       0.53125000000000000        0.0000000000000000     
  0.59375000000000000       0.53125000000000000        0.0000000000000000     
  0.62500000000000000       0.53125000000000000        0.0000000000000000     
  0.50000000000000000       0.56250000000000000        0.0000000000000000     
  0.53125000000000000       0.56250000000000000        0.0000000000000000     
  0.56250000000000000       0.56250000000000000        0.0000000000000000     
  0.59375000000000000       0.56250000000000000        0.0000000000000000     
  0.62500000000000000       0.56250000000000000        0.0000000000000000     
  0.50000000000000000       0.59375000000000000        0.0000000000000000     
  0.53125000000000000       0.59375000000000000        0.0000000000000000     
  0.56250000000000000       0.59375000000000000        0.0000000000000000     
  0.59375000000000000       0.59375000000000000        0.0000000000000000     
  0.62500000000000000       0.59375000000000000        0.0000000000000000     
  0.50000000000000000       0.62500000000000000        0.0000000000000000     
  0.53125000000000000       0.62500000000000000        0.0000000000000000     
  0.56250000000000000       0.62500000000000000        0.0000000000000000     
  0.59375000000000000       0.62500000000000000        0.0000000000000000     
  0.62500000000000000       0.62500000000000000        0.0000000000000000     
  0.62500000000000000       0.50000000000000000        0.0000000000000000     
  0.65625000000000000       0.50000000000000000        0.0000000000000000     
  0.68750000000000000       0.50000000000000000        0.0000000000000000     
  0.71875000000000000       0.50000000000000000        0.0000000000000000     
  0.75000000000000000       0.50000000000000000        0.0000000000000000     
  0.62500000000000000       0.53125000000000000        0.0000000000000000     
  0.65625000000000000       0.53125000000000000        0.0000000000000000     
  0.68750000000000000       0.53125000000000000        0.0000000000000000     
  0.71875000000000000       0.53125000000000000        0.0000000000000000     
  0.75000000000000000       0.53125000000000000        0.0000000000000000     
  0.62500000000000000       0.56250000000000000        0.0000000000000000     
  0.65625000000000000       0.56250000000000000        0.0000000000000000     
  0.68750000000000000       0.56250000000000000        0.0000000000000000     
  0.71875000000000000       0.56250000000000000        0.0000000000000000     
  0.75000000000000000       0.56250000000000000        0.0000000000000000     
  0.62500000000000000       0.59375000000000000        0.0000000000000000     
  0.65625000000000000       0.59375000000000000        0.0000000000000000     
  0.68750000000000000       0.59375000000000000        0.0000000000000000     
  0.71875000000000000       0.59375000000000000        0.0000000000000000     
  0.75000000000000000       0.59375000000000000        0.0000000000000000     
  0.62500000000000000       0.62500000000000000        0.0000000000000000     
  0.65625000000000000       0.62500000000000000        0.0000000000000000     
  0.68750000000000000       0.62500000000000000        0.0000000000000000     
  0.71875000000000000       0.62500000000000000        0.0000000000000000     
  0.75000000000000000       0.62500000000000000        0.0000000000000000     
  0.75000000000000000       0.50000000000000000        0.0000000000000000     
  0.78125000000000000       0.50000000000000000        0.0000000000000000     
  0.81250000000000000       0.50000000000000000        0.0000000000000000     
  0.84375000000000000       0.50000000000000000        0.0000000000000000     
  0.87500000000000000       0.50000000000000000        0.0000000000000000     
  0.75000000000000000       0.53125000000000000        0.0000000000000000     
  0.78125000000000000       0.53125000000000000        0.0000000000000000     
  0.81250000000000000       0.53125000000000000        0.0000000000000000     
  0.84375000000000000       0.53125000000000000        0.0000000000000000     
  0.87500000000000000       0.53125000000000000        0.0000000000000000     
  0.75000000000000000       0.56250000000000000        0.0000000000000000     
  0.78125000000000000       0.56250000000000000        0.0000000000000000     
  0.81250000000000000       0.56250000000000000        0.0000000000000000     
  0.84375000000000000       0.56250000000000000        0.0000000000000000     
  0.87500000000000000       0.56250000000000000        0.0000000000000000     
  0.75000000000000000       0.59375000000000000        0.0000000000000000     
  0.78125000000000000       0.59375000000000000        0.0000000000000000     
  0.81250000000000000       0.59375000000000000        0.0000000000000000     
  0.84375000000000000       0.59375000000000000        0.0000000000000000     
  0.87500000000000000       0.59375000000000000        0.0000000000000000     
  0.75000000000000000       0.62500000000000000        0.0000000000000000     
  0.78125000000000000       0.62500000000000000        0.0000000000000000     
  0.81250000000000000       0.62500000000000000        0.0000000000000000     
  0.84375000000000000       0.62500000000000000        0.0000000000000000     
  0.87500000000000000       0.62500000000000000        0.0000000000000000     
  0.87500000000000000       0.50000000000000000        0.0000000000000000     
  0.90625000000000000       0.50000000000000000        0.0000000000000000     
  0.93750000000000000       0.50000000000000000        0.0000000000000000     
  0.96875000000000000       0.50000000000000000        0.0000000000000000     
   1.0000000000000000       0.50000000000000000        0.0000000000000000     
  0.87500000000000000       0.53125000000000000        0.0000000000000000     
  0.90625000000000000       0.53125000000000000        0.0000000000000000     
  0.93750000000000000       0.53125000000000000        0.0000000000000000     
  0.96875000000000000       0.53125000000000000        0.0000000000000000     
   1.0000000000000000       0.53125000000000000        0.0000000000000000     
  0.87500000000000000       0.56250000000000000        0.0000000000000000     
  0.90625000000000000       0.56250000000000000        0.0000000000000000     
  0.93750000000000000       0.56250000000000000        0.0000000000000000     
  0.96875000000000000       0.56250000000000000        0.0000000000000000     
   1.0000000000000000       0.56250000000000000        0.0000000000000000     
  0.87500000000000000       0.59375000000000000        0.0000000000000000     
  0.90625000000000000       0.59375000000000000        0.0000000000000000     
  0.93750000000000000       0.59375000000000000        0.0000000000000000     
  0.96875000000000000       0.59375000000000000        0.0000000000000000     
   1.0000000000000000       0.59375000000000000        0.0000000000000000     
  0.87500000000000000       0.62500000000000000        0.0000000000000000     
  0.90625000000000000       0.62500000000000000        0.0000000000000000     
  0.93750000000000000       0.62500000000000000        0.0000000000000000     
  0.96875000000000000       0.62500000000000000        0.0000000000000000     
   1.0000000000000000       0.62500000000000000        0.0000000000000000     
   0.0000000000000000       0.62500000000000000        0.0000000000000000     
   3.1250000000000000E-002  0.62500000000000000        0.0000000000000000     
   6.2500000000000000E-002  0.62500000000000000        0.0000000000000000     
   9.3750000000000000E-002  0.62500000000000000        0.0000000000000000     
  0.12500000000000000       0.62500000000000000        0.0000000000000000     
   0.0000000000000000       0.65625000000000000        0.0000000000000000     
   3.1250000000000000E-002  0.65625000000000000        0.0000000000000000     
   6.2500000000000000E-002  0.65625000000000000        0.0000000000000000     
   9.3750000000000000E-002  0.65625000000000000        0.0000000000000000     
  0.12500000000000000       0.65625000000000000        0.0000000000000000     
   0.0000000000000000       0.68750000000000000        0.0000000000000000     
   3.1250000000000000E-002  0.68750000000000000        0.0000000000000000     
   6.2500000000000000E-002  0.68750000000000000        0.0000000000000000     
   9.3750000000000000E-002  0.68750000000000000        0.0000000000000000     
  0.12500000000000000       0.68750000000000000        0.0000000000000000     
   0.0000000000000000       0.71875000000000000        0.0000000000000000     
   3.1250000000000000E-002  0.71875000000000000        0.0000000000000000     
   6.2500000000000000E-002  0.71875000000000000        0.0000000000000000     
   9.3750000000000000E-002  0.71875000000000000        0.0000000000000000     
  0.12500000000000000       0.71875000000000000        0.0000000000000000     
   0.0000000000000000       0.75000000000000000        0.0000000000000000     
   3.1250000000000000E-002  0.75000000000000000        0.0000000000000000     
   6.2500000000000000E-002  0.75000000000000000        0.0000000000000000     
   9.3750000000000000E-002  0.75000000000000000        0.0000000000000000     
  0.12500000000000000       0.75000000000000000        0.0000000000000000     
  0.12500000000000000       0.62500000000000000        0.0000000000000000     
  0.15625000000000000       0.62500000000000000        0.0000000000000000     
  0.18750000000000000       0.62500000000000000        0.0000000000000000     
  0.21875000000000000       0.62500000000000000        0.0000000000000000     
  0.25000000000000000       0.62500000000000000        0.0000000000000000     
  0.12500000000000000       0.65625000000000000        0.0000000000000000     
  0.15625000000000000       0.65625000000000000        0.0000000000000000     
  0.18750000000000000       0.65625000000000000        0.0000000000000000     
  0.21875000000000000       0.65625000000000000        0.0000000000000000     
  0.25000000000000000       0.65625000000000000        0.0000000000000000     
  0.12500000000000000       0.68750000000000000        0.0000000000000000     
  0.15625000000000000       0.68750000000000000        0.0000000000000000     
  0.18750000000000000       0.68750000000000000        0.0000000000000000     
  0.21875000000000000       0.68750000000000000        0.0000000000000000     
  0.25000000000000000       0.68750000000000000        0.0000000000000000     
  0.12500000000000000       0.71875000000000000        0.0000000000000000     
  0.15625000000000000       0.71875000000000000        0.0000000000000000     
  0.18750000000000000       0.71875000000000000        0.0000000000000000     
  0.21875000000000000       0.71875000000000000        0.0000000000000000     
  0.25000000000000000       0.71875000000000000        0.0000000000000000     
  0.12500000000000000       0.75000000000000000        0.0000000000000000     
  0.15625000000000000       0.75000000000000000        0.0000000000000000     
  0.18750000000000000       0.75000000000000000        0.0000000000000000     
  0.21875000000000000       0.75000000000000000        0.0000000000000000     
  0.25000000000000000       0.75000000000000000        0.0000000000000000     
  0.25000000000000000       0.62500000000000000        0.0000000000000000     
  0.28125000000000000       0.62500000000000000        0.0000000000000000     
  0.31250000000000000       0.62500000000000000        0.0000000000000000     
  0.34375000000000000       0.62500000000000000        0.0000000000000000     
  0.37500000000000000       0.62500000000000000        0.0000000000000000     
  0.25000000000000000       0.65625000000000000        0.0000000000000000     
  0.28125000000000000       0.65625000000000000        0.0000000000000000     
  0.31250000000000000       0.65625000000000000        0.0000000000000000     
  0.34375000000000000       0.65625000000000000        0.0000000000000000     
  0.37500000000000000       0.65625000000000000        0.0000000000000000     
  0.25000000000000000       0.68750000000000000        0.0000000000000000     
  0.28125000000000000       0.68750000000000000        0.0000000000000000     
  0.31250000000000000       0.68750000000000000        0.0000000000000000     
  0.34375000000000000       0.68750000000000000        0.0000000000000000     
  0.37500000000000000       0.68750000000000000        0.0000000000000000     
  0.25000000000000000       0.71875000000000000        0.0000000000000000     
  0.28125000000000000       0.71875000000000000        0.0000000000000000     
  0.31250000000000000       0.71875000000000000        0.0000000000000000     
  0.34375000000000000       0.71875000000000000        0.0000000000000000     
  0.37500000000000000       0.71875000000000000        0.0000000000000000     
  0.25000000000000000       0.75000000000000000        0.0000000000000000     
  0.28125000000000000       0.75000000000000000        0.0000000000000000     
  0.31250000000000000       0.75000000000000000        0.0000000000000000     
  0.34375000000000000       0.75000000000000000        0.0000000000000000     
  0.37500000000000000       0.75000000000000000        0.0000000000000000     
  0.37500000000000000       0.62500000000000000        0.0000000000000000     
  0.40625000000000000       0.62500000000000000        0.0000000000000000     
  0.43750000000000000       0.62500000000000000        0.0000000000000000     
  0.46875000000000000       0.62500000000000000        0.0000000000000000     
  0.50000000000000000       0.62500000000000000        0.0000000000000000     
  0.37500000000000000       0.65625000000000000        0.0000000000000000     
  0.40625000000000000       0.65625000000000000        0.0000000000000000     
  0.43750000000000000       0.65625000000000000        0.0000000000000000     
  0.46875000000000000       0.65625000000000000        0.0000000000000000     
  0.50000000000000000       0.65625000000000000        0.0000000000000000     
  0.37500000000000000       0.68750000000000000        0.0000000000000000     
  0.40625000000000000       0.68750000000000000        0.0000000000000000     
  0.43750000000000000       0.68750000000000000        0.0000000000000000     
  0.46875000000000000       0.68750000000000000        0.0000000000000000     
  0.50000000000000000       0.68750000000000000        0.0000000000000000     
  0.37500000000000000       0.71875000000000000        0.0000000000000000     
  0.40625000000000000       0.71875000000000000        0.0000000000000000     
  0.43750000000000000       0.71875000000000000        0.0000000000000000     
  0.46875000000000000       0.71875000000000000        0.0000000000000000     
  0.50000000000000000       0.71875000000000000        0.0000000000000000     
  0.37500000000000000       0.75000000000000000        0.0000000000000000     
  0.40625000000000000       0.75000000000000000        0.0000000000000000     
  0.43750000000000000       0.75000000000000000        0.0000000000000000     
  0.46875000000000000       0.75000000000000000        0.0000000000000000     
  0.50000000000000000       0.75000000000000000        0.0000000000000000     
  0.50000000000000000       0.62500000000000000        0.0000000000000000     
  0.53125000000000000       0.62500000000000000        0.0000000000000000     
  0.56250000000000000       0.62500000000000000        0.0000000000000000     
  0.59375000000000000       0.62500000000000000        0.0000000000000000     
  0.62500000000000000       0.62500000000000000        0.0000000000000000     
  0.50000000000000000       0.65625000000000000        0.0000000000000000     
  0.53125000000000000       0.65625000000000000        0.0000000000000000     
  0.56250000000000000       0.65625000000000000        0.0000000000000000     
  0.59375000000000000       0.65625000000000000        0.0000000000000000     
  0.62500000000000000       0.65625000000000000        0.0000000000000000     
  0.50000000000000000       0.68750000000000000        0.0000000000000000     
  0.53125000000000000       0.68750000000000000        0.0000000000000000     
  0.56250000000000000       0.68750000000000000        0.0000000000000000     
  0.59375000000000000       0.68750000000000000        0.0000000000000000     
  0.62500000000000000       0.68750000000000000        0.0000000000000000     
  0.50000000000000000       0.71875000000000000        0.0000000000000000     
  0.53125000000000000       0.71875000000000000        0.0000000000000000     
  0.56250000000000000       0.71875000000000000        0.0000000000000000     
  0.59375000000000000       0.71875000000000000        0.0000000000000000     
  0.62500000000000000       0.71875000000000000        0.0000000000000000     
  0.50000000000000000       0.75000000000000000        0.0000000000000000     
  0.53125000000000000       0.75000000000000000        0.0000000000000000     
  0.56250000000000000       0.75000000000000000        0.0000000000000000     
  0.59375000000000000       0.75000000000000000        0.0000000000000000     
  0.62500000000000000       0.75000000000000000        0.0000000000000000     
  0.62500000000000000       0.62500000000000000        0.0000000000000000     
  0.65625000000000000       0.62500000000000000        0.0000000000000000     
  0.68750000000000000       0.62500000000000000        0.0000000000000000     
  0.71875000000000000       0.62500000000000000        0.0000000000000000     
  0.75000000000000000       0.62500000000000000        0.0000000000000000     
  0.62500000000000000       0.65625000000000000        0.0000000000000000     
  0.65625000000000000       0.65625000000000000        0.0000000000000000     
  0.68750000000000000       0.65625000000000000        0.0000000000000000     
  0.71875000000000000       0.65625000000000000        0.0000000000000000     
  0.75000000000000000       0.65625000000000000        0.0000000000000000     
  0.62500000000000000       0.68750000000000000        0.0000000000000000     
  0.65625000000000000       0.68750000000000000        0.0000000000000000     
  0.68750000000000000       0.68750000000000000        0.0000000000000000     
  0.71875000000000000       0.68750000000000000        0.0000000000000000     
  0.75000000000000000       0.68750000000000000        0.0000000000000000     
  0.62500000000000000       0.71875000000000000        0.0000000000000000     
  0.65625000000000000       0.71875000000000000        0.0000000000000000     
  0.68750000000000000       0.71875000000000000        0.0000000000000000     
  0.71875000000000000       0.71875000000000000        0.0000000000000000     
  0.75000000000000000       0.71875000000000000        0.0000000000000000     
  0.62500000000000000       0.75000000000000000        0.0000000000000000     
  0.65625000000000000       0.75000000000000000        0.0000000000000000     
  0.68750000000000000       0.75000000000000000        0.0000000000000000     
  0.71875000000000000       0.75000000000000000        0.0000000000000000     
  0.75000000000000000       0.75000000000000000        0.0000000000000000     
  0.75000000000000000       0.62500000000000000        0.0000000000000000     
  0.78125000000000000       0.62500000000000000        0.0000000000000000     
  0.81250000000000000       0.62500000000000000        0.0000000000000000     
  0.84375000000000000       0.62500000000000000        0.0000000000000000     
  0.87500000000000000       0.62500000000000000        0.0000000000000000     
  0.75000000000000000       0.65625000000000000        0.0000000000000000     
  0.78125000000000000       0.65625000000000000        0.0000000000000000     
  0.81250000000000000       0.65625000000000000        0.0000000000000000     
  0.84375000000000000       0.65625000000000000        0.0000000000000000     
  0.87500000000000000       0.65625000000000000        0.0000000000000000     
  0.75000000000000000       0.68750000000000000        0.0000000000000000     
  0.78125000000000000       0.68750000000000000        0.0000000000000000     
  0.81250000000000000       0.68750000000000000        0.0000000000000000     
  0.84375000000000000       0.68750000000000000        0.0000000000000000     
  0.87500000000000000       0.68750000000000000        0.0000000000000000     
  0.75000000000000000       0.71875000000000000        0.0000000000000000     
  0.78125000000000000       0.71875000000000000        0.0000000000000000     
  0.81250000000000000       0.71875000000000000        0.0000000000000000     
  0.84375000000000000       0.71875000000000000        0.0000000000000000     
  0.87500000000000000       0.71875000000000000        0.0000000000000000     
  0.75000000000000000       0.75000000000000000        0.0000000000000000     
  0.78125000000000000       0.75000000000000000        0.0000000000000000     
  0.81250000000000000       0.75000000000000000        0.0000000000000000     
  0.84375000000000000       0.75000000000000000        0.0000000000000000     
  0.87500000000000000       0.75000000000000000        0.0000000000000000     
  0.87500000000000000       0.62500000000000000        0.0000000000000000     
  0.90625000000000000       0.62500000000000000        0.0000000000000000     
  0.93750000000000000       0.62500000000000000        0.0000000000000000     
  0.96875000000000000       0.62500000000000000        0.0000000000000000     
   1.0000000000000000       0.62500000000000000        0.0000000000000000     
  0.87500000000000000       0.65625000000000000        0.0000000000000000     
  0.90625000000000000       0.65625000000000000        0.0000000000000000     
  0.93750000000000000       0.65625000000000000        0.0000000000000000     
  0.96875000000000000       0.65625000000000000        0.0000000000000000     
   1.0000000000000000       0.65625000000000000        0.0000000000000000     
  0.87500000000000000       0.68750000000000000        0.0000000000000000     
  0.90625000000000000       0.68750000000000000        0.0000000000000000     
  0.93750000000000000       0.68750000000000000        0.0000000000000000     
  0.96875000000000000       0.68750000000000000        0.0000000000000000     
   1.0000000000000000       0.68750000000000000        0.0000000000000000     
  0.87500000000000000       0.71875000000000000        0.0000000000000000     
  0.90625000000000000       0.71875000000000000        0.0000000000000000     
  0.93750000000000000       0.71875000000000000        0.0000000000000000     
  0.96875000000000000       0.71875000000000000        0.0000000000000000     
   1.0000000000000000       0.71875000000000000        0.0000000000000000     
  0.87500000000000000       0.75000000000000000        0.0000000000000000     
  0.90625000000000000       0.75000000000000000        0.0000000000000000     
  0.93750000000000000       0.75000000000000000        0.0000000000000000     
  0.96875000000000000       0.75000000000000000        0.0000000000000000     
   1.0000000000000000       0.75000000000000000        0.0000000000000000     
   0.0000000000000000       0.75000000000000000        0.0000000000000000     
   3.1250000000000000E-002  0.75000000000000000        0.0000000000000000     
   6.2500000000000000E-002  0.75000000000000000        0.0000000000000000     
   9.3750000000000000E-002  0.75000000000000000        0.0000000000000000     
  0.12500000000000000       0.75000000000000000        0.0000000000000000     
   0.0000000000000000       0.78125000000000000        0.0000000000000000     
   3.1250000000000000E-002  0.78125000000000000        0.0000000000000000     
   6.2500000000000000E-002  0.78125000000000000        0.0000000000000000     
   9.3750000000000000E-002  0.78125000000000000        0.0000000000000000     
  0.12500000000000000       0.78125000000000000        0.0000000000000000     
   0.0000000000000000       0.81250000000000000        0.0000000000000000     
   3.1250000000000000E-002  0.81250000000000000        0.0000000000000000     
   6.2500000000000000E-002  0.81250000000000000        0.0000000000000000     
   9.3750000000000000E-002  0.81250000000000000        0.0000000000000000     
  0.12500000000000000       0.81250000000000000        0.0000000000000000     
   0.0000000000000000       0.84375000000000000        0.0000000000000000     
   3.1250000000000000E-002  0.84375000000000000        0.0000000000000000     
   6.2500000000000000E-002  0.84375000000000000        0.0000000000000000     
   9.3750000000000000E-002  0.84375000000000000        0.0000000000000000     
  0.12500000000000000       0.84375000000000000        0.0000000000000000     
   0.0000000000000000       0.87500000000000000        0.0000000000000000     
   3.1250000000000000E-002  0.87500000000000000        0.0000000000000000     
   6.2500000000000000E-002  0.87500000000000000        0.0000000000000000     
   9.3750000000000000E-002  0.87500000000000000        0.0000000000000000     
  0.12500000000000000       0.87500000000000000        0.0000000000000000     
  0.12500000000000000       0.75000000000000000        0.0000000000000000     
  0.15625000000000000       0.75000000000000000        0.0000000000000000     
  0.18750000000000000       0.75000000000000000        0.0000000000000000     
  0.21875000000000000       0.75000000000000000        0.0000000000000000     
  0.25000000000000000       0.75000000000000000        0.0000000000000000     
  0.12500000000000000       0.78125000000000000        0.0000000000000000     
  0.15625000000000000       0.78125000000000000        0.0000000000000000     
  0.18750000000000000       0.78125000000000000        0.0000000000000000     
  0.21875000000000000       0.78125000000000000        0.0000000000000000     
  0.25000000000000000       0.78125000000000000        0.0000000000000000     
  0.12500000000000000       0.81250000000000000        0.0000000000000000     
  0.15625000000000000       0.81250000000000000        0.0000000000000000     
  0.18750000000000000       0.81250000000000000        0.0000000000000000     
  0.21875000000000000       0.81250000000000000        0.0000000000000000     
  0.25000000000000000       0.81250000000000000        0.0000000000000000     
  0.12500000000000000       0.84375000000000000        0.0000000000000000     
  0.15625000000000000       0.84375000000000000        0.0000000000000000     
  0.18750000000000000       0.84375000000000000        0.0000000000000000     
  0.21875000000000000       0.84375000000000000        0.0000000000000000     
  0.25000000000000000       0.84375000000000000        0.0000000000000000     
  0.12500000000000000       0.87500000000000000        0.0000000000000000     
  0.15625000000000000       0.87500000000000000        0.0000000000000000     
  0.18750000000000000       0.87500000000000000        0.0000000000000000     
  0.21875000000000000       0.87500000000000000        0.0000000000000000     
  0.25000000000000000       0.87500000000000000        0.0000000000000000     
  0.25000000000000000       0.75000000000000000        0.0000000000000000     
  0.28125000000000000       0.75000000000000000        0.0000000000000000     
  0.31250000000000000       0.75000000000000000        0.0000000000000000     
  0.34375000000000000       0.75000000000000000        0.0000000000000000     
  0.37500000000000000       0.75000000000000000        0.0000000000000000     
  0.25000000000000000       0.78125000000000000        0.0000000000000000     
  0.28125000000000000       0.78125000000000000        0.0000000000000000     
  0.31250000000000000       0.78125000000000000        0.0000000000000000     
  0.34375000000000000       0.78125000000000000        0.0000000000000000     
  0.37500000000000000       0.78125000000000000        0.0000000000000000     
  0.25000000000000000       0.81250000000000000        0.0000000000000000     
  0.28125000000000000       0.81250000000000000        0.0000000000000000     
  0.31250000000000000       0.81250000000000000        0.0000000000000000     
  0.34375000000000000       0.81250000000000000        0.0000000000000000     
  0.37500000000000000       0.81250000000000000        0.0000000000000000     
  0.25000000000000000       0.84375000000000000        0.0000000000000000     
  0.28125000000000000       0.84375000000000000        0.0000000000000000     
  0.31250000000000000       0.84375000000000000        0.0000000000000000     
  0.34375000000000000       0.84375000000000000        0.0000000000000000     
  0.37500000000000000       0.84375000000000000        0.0000000000000000     
  0.25000000000000000       0.87500000000000000        0.0000000000000000     
  0.28125000000000000       0.87500000000000000        0.0000000000000000     
  0.31250000000000000       0.87500000000000000        0.0000000000000000     
  0.34375000000000000       0.87500000000000000        0.0000000000000000     
  0.37500000000000000       0.87500000000000000        0.0000000000000000     
  0.37500000000000000       0.75000000000000000        0.0000000000000000     
  0.40625000000000000       0.75000000000000000        0.0000000000000000     
  0.43750000000000000       0.75000000000000000        0.0000000000000000     
  0.46875000000000000       0.75000000000000000        0.0000000000000000     
  0.50000000000000000       0.75000000000000000        0.0000000000000000     
  0.37500000000000000       0.78125000000000000        0.0000000000000000     
  0.40625000000000000       0.78125000000000000        0.0000000000000000     
  0.43750000000000000       0.78125000000000000        0.0000000000000000     
  0.46875000000000000       0.78125000000000000        0.0000000000000000     
  0.50000000000000000       0.78125000000000000        0.0000000000000000     
  0.37500000000000000       0.81250000000000000        0.0000000000000000     
  0.40625000000000000       0.81250000000000000        0.0000000000000000     
  0.43750000000000000       0.81250000000000000        0.0000000000000000     
  0.46875000000000000       0.81250000000000000        0.0000000000000000     
  0.50000000000000000       0.81250000000000000        0.0000000000000000     
  0.37500000000000000       0.84375000000000000        0.0000000000000000     
  0.40625000000000000       0.84375000000000000        0.0000000000000000     
  0.43750000000000000       0.84375000000000000        0.0000000000000000     
  0.46875000000000000       0.84375000000000000        0.0000000000000000     
  0.50000000000000000       0.84375000000000000        0.0000000000000000     
  0.37500000000000000       0.87500000000000000        0.0000000000000000     
  0.40625000000000000       0.87500000000000000        0.0000000000000000     
  0.43750000000000000       0.87500000000000000        0.0000000000000000     
  0.46875000000000000       0.87500000000000000        0.0000000000000000     
  0.50000000000000000       0.87500000000000000        0.0000000000000000     
  0.50000000000000000       0.75000000000000000        0.0000000000000000     
  0.53125000000000000       0.75000000000000000        0.0000000000000000     
  0.56250000000000000       0.75000000000000000        0.0000000000000000     
  0.59375000000000000       0.75000000000000000        0.0000000000000000     
  0.62500000000000000       0.75000000000000000        0.0000000000000000     
  0.50000000000000000       0.78125000000000000        0.0000000000000000     
  0.53125000000000000       0.78125000000000000        0.0000000000000000     
  0.56250000000000000       0.78125000000000000        0.0000000000000000     
  0.59375000000000000       0.78125000000000000        0.0000000000000000     
  0.62500000000000000       0.78125000000000000        0.0000000000000000     
  0.50000000000000000       0.81250000000000000        0.0000000000000000     
  0.53125000000000000       0.81250000000000000        0.0000000000000000     
  0.56250000000000000       0.81250000000000000        0.0000000000000000     
  0.59375000000000000       0.81250000000000000        0.0000000000000000     
  0.62500000000000000       0.81250000000000000        0.0000000000000000     
  0.50000000000000000       0.84375000000000000        0.0000000000000000     
  0.53125000000000000       0.84375000000000000        0.0000000000000000     
  0.56250000000000000       0.84375000000000000        0.0000000000000000     
  0.59375000000000000       0.84375000000000000        0.0000000000000000     
  0.62500000000000000       0.84375000000000000        0.0000000000000000     
  0.50000000000000000       0.87500000000000000        0.0000000000000000     
  0.53125000000000000       0.87500000000000000        0.0000000000000000     
  0.56250000000000000       0.87500000000000000        0.0000000000000000     
  0.59375000000000000       0.87500000000000000        0.0000000000000000     
  0.62500000000000000       0.87500000000000000        0.0000000000000000     
  0.62500000000000000       0.75000000000000000        0.0000000000000000     
  0.65625000000000000       0.75000000000000000        0.0000000000000000     
  0.68750000000000000       0.75000000000000000        0.0000000000000000     
  0.71875000000000000       0.75000000000000000        0.0000000000000000     
  0.75000000000000000       0.75000000000000000        0.0000000000000000     
  0.62500000000000000       0.78125000000000000        0.0000000000000000     
  0.65625000000000000       0.78125000000000000        0.0000000000000000     
  0.68750000000000000       0.78125000000000000        0.0000000000000000     
  0.71875000000000000       0.78125000000000000        0.0000000000000000     
  0.75000000000000000       0.78125000000000000        0.0000000000000000     
  0.62500000000000000       0.81250000000000000        0.0000000000000000     
  0.65625000000000000       0.81250000000000000        0.0000000000000000     
  0.68750000000000000       0.81250000000000000        0.0000000000000000     
  0.71875000000000000       0.81250000000000000        0.0000000000000000     
  0.75000000000000000       0.81250000000000000        0.0000000000000000     
  0.62500000000000000       0.84375000000000000        0.0000000000000000     
  0.65625000000000000       0.84375000000000000        0.0000000000000000     
  0.68750000000000000       0.84375000000000000        0.0000000000000000     
  0.71875000000000000       0.84375000000000000        0.0000000000000000     
  0.75000000000000000       0.84375000000000000        0.0000000000000000     
  0.62500000000000000       0.87500000000000000        0.0000000000000000     
  0.65625000000000000       0.87500000000000000        0.0000000000000000     
  0.68750000000000000       0.87500000000000000        0.0000000000000000     
  0.71875000000000000       0.87500000000000000        0.0000000000000000     
  0.75000000000000000       0.87500000000000000        0.0000000000000000     
  0.75000000000000000       0.75000000000000000        0.0000000000000000     
  0.78125000000000000       0.75000000000000000        0.0000000000000000     
  0.81250000000000000       0.75000000000000000        0.0000000000000000     
  0.84375000000000000       0.75000000000000000        0.0000000000000000     
  0.87500000000000000       0.75000000000000000        0.0000000000000000     
  0.75000000000000000       0.78125000000000000        0.0000000000000000     
  0.78125000000000000       0.78125000000000000        0.0000000000000000     
  0.81250000000000000       0.78125000000000000        0.0000000000000000     
  0.84375000000000000       0.78125000000000000        0.0000000000000000     
  0.87500000000000000       0.78125000000000000        0.0000000000000000     
  0.75000000000000000       0.81250000000000000        0.0000000000000000     
  0.78125000000000000       0.81250000000000000        0.0000000000000000     
  0.81250000000000000       0.81250000000000000        0.0000000000000000     
  0.84375000000000000       0.81250000000000000        0.0000000000000000     
  0.87500000000000000       0.81250000000000000        0.0000000000000000     
  0.75000000000000000       0.84375000000000000        0.0000000000000000     
  0.78125000000000000       0.84375000000000000        0.0000000000000000     
  0.81250000000000000       0.84375000000000000        0.0000000000000000     
  0.84375000000000000       0.84375000000000000        0.0000000000000000     
  0.87500000000000000       0.84375000000000000        0.0000000000000000     
  0.75000000000000000       0.87500000000000000        0.0000000000000000     
  0.78125000000000000       0.87500000000000000        0.0000000000000000     
  0.81250000000000000       0.87500000000000000        0.0000000000000000     
  0.84375000000000000       0.87500000000000000        0.0000000000000000     
  0.87500000000000000       0.87500000000000000        0.0000000000000000     
  0.87500000000000000       0.75000000000000000        0.0000000000000000     
  0.90625000000000000       0.75000000000000000        0.0000000000000000     
  0.93750000000000000       0.75000000000000000        0.0000000000000000     
  0.96875000000000000       0.75000000000000000        0.0000000000000000     
   1.0000000000000000       0.75000000000000000        0.0000000000000000     
  0.87500000000000000       0.78125000000000000        0.0000000000000000     
  0.90625000000000000       0.78125000000000000        0.0000000000000000     
  0.93750000000000000       0.78125000000000000        0.0000000000000000     
  0.96875000000000000       0.78125000000000000        0.0000000000000000     
   1.0000000000000000       0.78125000000000000        0.0000000000000000     
  0.87500000000000000       0.81250000000000000        0.0000000000000000     
  0.90625000000000000       0.81250000000000000        0.0000000000000000     
  0.93750000000000000       0.81250000000000000        0.0000000000000000     
  0.96875000000000000       0.81250000000000000        0.0000000000000000     
   1.0000000000000000       0.81250000000000000        0.0000000000000000     
  0.87500000000000000       0.84375000000000000        0.0000000000000000     
  0.90625000000000000       0.84375000000000000        0.0000000000000000     
  0.93750000000000000       0.84375000000000000        0.0000000000000000     
  0.96875000000000000       0.84375000000000000        0.0000000000000000     
   1.0000000000000000       0.84375000000000000        0.0000000000000000     
  0.87500000000000000       0.87500000000000000        0.0000000000000000     
  0.90625000000000000       0.87500000000000000        0.0000000000000000     
  0.93750000000000000       0.87500000000000000        0.0000000000000000     
  0.96875000000000000       0.87500000000000000        0.0000000000000000     
   1.0000000000000000       0.87500000000000000        0.0000000000000000     
   0.0000000000000000       0.87500000000000000        0.0000000000000000     
   3.1250000000000000E-002  0.87500000000000000        0.0000000000000000     
   6.2500000000000000E-002  0.87500000000000000        0.0000000000000000     
   9.3750000000000000E-002  0.87500000000000000        0.0000000000000000     
  0.12500000000000000       0.87500000000000000        0.0000000000000000     
   0.0000000000000000       0.90625000000000000        0.0000000000000000     
   3.1250000000000000E-002  0.90625000000000000        0.0000000000000000     
   6.2500000000000000E-002  0.90625000000000000        0.0000000000000000     
   9.3750000000000000E-002  0.90625000000000000        0.0000000000000000     
  0.12500000000000000       0.90625000000000000        0.0000000000000000     
   0.0000000000000000       0.93750000000000000        0.0000000000000000     
   3.1250000000000000E-002  0.93750000000000000        0.0000000000000000     
   6.2500000000000000E-002  0.93750000000000000        0.0000000000000000     
   9.3750000000000000E-002  0.93750000000000000        0.0000000000000000     
  0.12500000000000000       0.93750000000000000        0.0000000000000000     
   0.0000000000000000       0.96875000000000000        0.0000000000000000     
   3.1250000000000000E-002  0.96875000000000000        0.0000000000000000     
   6.2500000000000000E-002  0.96875000000000000        0.0000000000000000     
   9.3750000000000000E-002  0.96875000000000000        0.0000000000000000     
  0.12500000000000000       0.96875000000000000        0.0000000000000000     
   0.0000000000000000        1.0000000000000000        0.0000000000000000     
   3.1250000000000000E-002   1.0000000000000000        0.0000000000000000     
   6.2500000000000000E-002   1.0000000000000000        0.0000000000000000     
   9.3750000000000000E-002   1.0000000000000000        0.0000000000000000     
  0.12500000000000000        1.0000000000000000        0.0000000000000000     
  0.12500000000000000       0.87500000000000000        0.0000000000000000     
  0.15625000000000000       0.87500000000000000        0.0000000000000000     
  0.18750000000000000       0.87500000000000000        0.0000000000000000     
  0.21875000000000000       0.87500000000000000        0.0000000000000000     
  0.25000000000000000       0.87500000000000000        0.0000000000000000     
  0.12500000000000000       0.90625000000000000        0.0000000000000000     
  0.15625000000000000       0.90625000000000000        0.0000000000000000     
  0.18750000000000000       0.90625000000000000        0.0000000000000000     
  0.21875000000000000       0.90625000000000000        0.0000000000000000     
  0.25000000000000000       0.90625000000000000        0.0000000000000000     
  0.12500000000000000       0.93750000000000000        0.0000000000000000     
  0.15625000000000000       0.93750000000000000        0.0000000000000000     
  0.18750000000000000       0.93750000000000000        0.0000000000000000     
  0.21875000000000000       0.93750000000000000        0.0000000000000000     
  0.25000000000000000       0.93750000000000000        0.0000000000000000     
  0.12500000000000000       0.96875000000000000        0.0000000000000000     
  0.15625000000000000       0.96875000000000000        0.0000000000000000     
  0.18750000000000000       0.96875000000000000        0.0000000000000000     
  0.21875000000000000       0.96875000000000000        0.0000000000000000     
  0.25000000000000000       0.96875000000000000        0.0000000000000000     
  0.12500000000000000        1.0000000000000000        0.0000000000000000     
  0.15625000000000000        1.0000000000000000        0.0000000000000000     
  0.18750000000000000        1.0000000000000000        0.0000000000000000     
  0.21875000000000000        1.0000000000000000        0.0000000000000000     
  0.25000000000000000        1.0000000000000000        0.0000000000000000     
  0.25000000000000000       0.87500000000000000        0.0000000000000000     
  0.28125000000000000       0.87500000000000000        0.0000000000000000     
  0.31250000000000000       0.87500000000000000        0.0000000000000000     
  0.34375000000000000       0.87500000000000000        0.0000000000000000     
  0.37500000000000000       0.87500000000000000        0.0000000000000000     
  0.25000000000000000       0.90625000000000000        0.0000000000000000     
  0.28125000000000000       0.90625000000000000        0.0000000000000000     
  0.31250000000000000       0.90625000000000000        0.0000000000000000     
  0.34375000000000000       0.90625000000000000        0.0000000000000000     
  0.37500000000000000       0.90625000000000000        0.0000000000000000     
  0.25000000000000000       0.93750000000000000        0.0000000000000000     
  0.28125000000000000       0.93750000000000000        0.0000000000000000     
  0.31250000000000000       0.93750000000000000        0.0000000000000000     
  0.34375000000000000       0.93750000000000000        0.0000000000000000     
  0.37500000000000000       0.93750000000000000        0.0000000000000000     
  0.25000000000000000       0.96875000000000000        0.0000000000000000     
  0.28125000000000000       0.96875000000000000        0.0000000000000000     
  0.31250000000000000       0.96875000000000000        0.0000000000000000     
  0.34375000000000000       0.96875000000000000        0.0000000000000000     
  0.37500000000000000       0.96875000000000000        0.0000000000000000     
  0.25000000000000000        1.0000000000000000        0.0000000000000000     
  0.28125000000000000        1.0000000000000000        0.0000000000000000     
  0.31250000000000000        1.0000000000000000        0.0000000000000000     
  0.34375000000000000        1.0000000000000000        0.0000000000000000     
  0.37500000000000000        1.0000000000000000        0.0000000000000000     
  0.37500000000000000       0.87500000000000000        0.0000000000000000     
  0.40625000000000000       0.87500000000000000        0.0000000000000000     
  0.43750000000000000       0.87500000000000000        0.0000000000000000     
  0.46875000000000000       0.87500000000000000        0.0000000000000000     
  0.50000000000000000       0.87500000000000000        0.0000000000000000     
  0.37500000000000000       0.90625000000000000        0.0000000000000000     
  0.40625000000000000       0.90625000000000000        0.0000000000000000     
  0.43750000000000000       0.90625000000000000        0.0000000000000000     
  0.46875000000000000       0.90625000000000000        0.0000000000000000     
  0.50000000000000000       0.90625000000000000        0.0000000000000000     
  0.37500000000000000       0.93750000000000000        0.0000000000000000     
  0.40625000000000000       0.93750000000000000        0.0000000000000000     
  0.43750000000000000       0.93750000000000000        0.0000000000000000     
  0.46875000000000000       0.93750000000000000        0.0000000000000000     
  0.50000000000000000       0.93750000000000000        0.0000000000000000     
  0.37500000000000000       0.96875000000000000        0.0000000000000000     
  0.40625000000000000       0.96875000000000000        0.0000000000000000     
  0.43750000000000000       0.96875000000000000        0.0000000000000000     
  0.46875000000000000       0.96875000000000000        0.0000000000000000     
  0.50000000000000000       0.96875000000000000        0.0000000000000000     
  0.37500000000000000        1.0000000000000000        0.0000000000000000     
  0.40625000000000000        1.0000000000000000        0.0000000000000000     
  0.43750000000000000        1.0000000000000000        0.0000000000000000     
  0.46875000000000000        1.0000000000000000        0.0000000000000000     
  0.50000000000000000        1.0000000000000000        0.0000000000000000     
  0.50000000000000000       0.87500000000000000        0.0000000000000000     
  0.53125000000000000       0.87500000000000000        0.0000000000000000     
  0.56250000000000000       0.87500000000000000        0.0000000000000000     
  0.59375000000000000       0.87500000000000000        0.0000000000000000     
  0.62500000000000000       0.87500000000000000        0.0000000000000000     
  0.50000000000000000       0.90625000000000000        0.0000000000000000     
  0.53125000000000000       0.90625000000000000        0.0000000000000000     
  0.56250000000000000       0.90625000000000000        0.0000000000000000     
  0.59375000000000000       0.90625000000000000        0.0000000000000000     
  0.62500000000000000       0.90625000000000000        0.0000000000000000     
  0.50000000000000000       0.93750000000000000        0.0000000000000000     
  0.53125000000000000       0.93750000000000000        0.0000000000000000     
  0.56250000000000000       0.93750000000000000        0.0000000000000000     
  0.59375000000000000       0.93750000000000000        0.0000000000000000     
  0.62500000000000000       0.93750000000000000        0.0000000000000000     
  0.50000000000000000       0.96875000000000000        0.0000000000000000     
  0.53125000000000000       0.96875000000000000        0.0000000000000000     
  0.56250000000000000       0.96875000000000000        0.0000000000000000     
  0.59375000000000000       0.96875000000000000        0.0000000000000000     
  0.62500000000000000       0.96875000000000000        0.0000000000000000     
  0.50000000000000000        1.0000000000000000        0.0000000000000000     
  0.53125000000000000        1.0000000000000000        0.0000000000000000     
  0.56250000000000000        1.0000000000000000        0.0000000000000000     
  0.59375000000000000        1.0000000000000000        0.0000000000000000     
  0.62500000000000000        1.0000000000000000        0.0000000000000000     
  0.62500000000000000       0.87500000000000000        0.0000000000000000     
  0.65625000000000000       0.87500000000000000        0.0000000000000000     
  0.68750000000000000       0.87500000000000000        0.0000000000000000     
  0.71875000000000000       0.87500000000000000        0.0000000000000000     
  0.75000000000000000       0.87500000000000000        0.0000000000000000     
  0.62500000000000000       0.90625000000000000        0.0000000000000000     
  0.65625000000000000       0.90625000000000000        0.0000000000000000     
  0.68750000000000000       0.90625000000000000        0.0000000000000000     
  0.71875000000000000       0.90625000000000000        0.0000000000000000     
  0.75000000000000000       0.90625000000000000        0.0000000000000000     
  0.62500000000000000       0.93750000000000000        0.0000000000000000     
  0.65625000000000000       0.93750000000000000        0.0000000000000000     
  0.68750000000000000       0.93750000000000000        0.0000000000000000     
  0.71875000000000000       0.93750000000000000        0.0000000000000000     
  0.75000000000000000       0.93750000000000000        0.0000000000000000     
  0.62500000000000000       0.96875000000000000        0.0000000000000000     
  0.65625000000000000       0.96875000000000000        0.0000000000000000     
  0.68750000000000000       0.96875000000000000        0.0000000000000000     
  0.71875000000000000       0.96875000000000000        0.0000000000000000     
  0.75000000000000000       0.96875000000000000        0.0000000000000000     
  0.62500000000000000        1.0000000000000000        0.0000000000000000     
  0.65625000000000000        1.0000000000000000        0.0000000000000000     
  0.68750000000000000        1.0000000000000000        0.0000000000000000     
  0.71875000000000000        1.0000000000000000        0.0000000000000000     
  0.75000000000000000        1.0000000000000000        0.0000000000000000     
  0.75000000000000000       0.87500000000000000        0.0000000000000000     
  0.78125000000000000       0.87500000000000000        0.0000000000000000     
  0.81250000000000000       0.87500000000000000        0.0000000000000000     
  0.84375000000000000       0.87500000000000000        0.0000000000000000     
  0.87500000000000000       0.87500000000000000        0.0000000000000000     
  0.75000000000000000       0.90625000000000000        0.0000000000000000     
  0.78125000000000000       0.90625000000000000        0.0000000000000000     
  0.81250000000000000       0.90625000000000000        0.0000000000000000     
  0.84375000000000000       0.90625000000000000        0.0000000000000000     
  0.87500000000000000       0.90625000000000000        0.0000000000000000     
  0.75000000000000000       0.93750000000000000        0.0000000000000000     
  0.78125000000000000       0.93750000000000000        0.0000000000000000     
  0.81250000000000000       0.93750000000000000        0.0000000000000000     
  0.84375000000000000       0.93750000000000000        0.0000000000000000     
  0.87500000000000000       0.93750000000000000        0.0000000000000000     
  0.75000000000000000       0.96875000000000000        0.0000000000000000     
  0.78125000000000000       0.96875000000000000        0.0000000000000000     
  0.81250000000000000       0.96875000000000000        0.0000000000000000     
  0.84375000000000000       0.96875000000000000        0.0000000000000000     
  0.87500000000000000       0.96875000000000000        0.0000000000000000     
  0.75000000000000000        1.0000000000000000        0.0000000000000000     
  0.78125000000000000        1.0000000000000000        0.0000000000000000     
  0.81250000000000000        1.0000000000000000        0.0000000000000000     
  0.84375000000000000        1.0000000000000000        0.0000000000000000     
  0.87500000000000000        1.0000000000000000        0.0000000000000000     
  0.87500000000000000       0.87500000000000000        0.0000000000000000     
  0.90625000000000000       0.87500000000000000        0.0000000000000000     
  0.93750000000000000       0.87500000000000000        0.0000000000000000     
  0.96875000000000000       0.87500000000000000        0.0000000000000000     
   1.0000000000000000       0.87500000000000000        0.0000000000000000     
  0.87500000000000000       0.90625000000000000        0.0000000000000000     
  0.90625000000000000       0.90625000000000000        0.0000000000000000     
  0.93750000000000000       0.90625000000000000        0.0000000000000000     
  0.96875000000000000       0.90625000000000000        0.0000000000000000     
   1.0000000000000000       0.90625000000000000        0.0000000000000000     
  0.87500000000000000       0.93750000000000000        0.0000000000000000     
  0.90625000000000000       0.93750000000000000        0.0000000000000000     
  0.93750000000000000       0.93750000000000000        0.0000000000000000     
  0.96875000000000000       0.93750000000000000        0.0000000000000000     
   1.0000000000000000       0.93750000000000000        0.0000000000000000     
  0.87500000000000000       0.96875000000000000        0.0000000000000000     
  0.90625000000000000       0.96875000000000000        0.0000000000000000     
  0.93750000000000000       0.96875000000000000        0.0000000000000000     
  0.96875000000000000       0.96875000000000000        0.0000000000000000     
   1.0000000000000000       0.96875000000000000        0.0000000000000000     
  0.87500000000000000        1.0000000000000000        0.0000000000000000     
  0.90625000000000000        1.0000000000000000        0.0000000000000000     
  0.93750000000000000        1.0000000000000000        0.0000000000000000     
  0.96875000000000000        1.0000000000000000        0.0000000000000000     
   1.0000000000000000        1.0000000000000000        0.0000000000000000     
 </DataArray>
 </Points>
 <Cells>
 <DataArray  type="Int32"  Name="connectivity"  format="ascii">
           0           1           6           5
           1           2           7           6
           2           3           8           7
           3           4           9           8
           5           6          11          10
           6           7          12          11
           7           8          13          12
           8           9          14          13
          10          11          16          15
          11          12          17          16
          12          13          18          17
          13          14          19          18
          15          16          21          20
          16          17          22          21
          17          18          23          22
          18          19          24          23
          25          26          31          30
          26          27          32          31
          27          28          33          32
          28          29          34          33
          30          31          36          35
          31          32          37          36
          32          33          38          37
          33          34          39          38
          35          36          41          40
          36          37          42          41
          37          38          43          42
          38          39          44          43
          40          41          46          45
          41          42          47          46
          42          43          48          47
          43          44          49          48
          50          51          56          55
          51          52          57          56
          52          53          58          57
          53          54          59          58
          55          56          61          60
          56          57          62          61
          57          58          63          62
          58          59          64          63
          60          61          66          65
          61          62          67          66
          62          63          68          67
          63          64          69          68
          65          66          71          70
          66          67          72          71
          67          68          73          72
          68          69          74          73
          75          76          81          80
          76          77          82          81
          77          78          83          82
          78          79          84          83
          80          81          86          85
          81          82          87          86
          82          83          88          87
          83          84          89          88
          85          86          91          90
          86          87          92          91
          87          88          93          92
          88          89          94          93
          90          91          96          95
          91          92          97          96
          92          93          98          97
          93          94          99          98
         100         101         106         105
         101         102         107         106
         102         103         108         107
         103         104         109         108
         105         106         111         110
         106         107         112         111
         107         108         113         112
         108         109         114         113
         110         111         116         115
         111         112         117         116
         112         113         118         117
         113         114         119         118
         115         116         121         120
         116         117         122         121
         117         118         123         122
         118         119         124         123
         125         126         131         130
         126         127         132         131
         127         128         133         132
         128         129         134         133
         130         131         136         135
         131         132         137         136
         132         133         138         137
         133         134         139         138
         135         136         141         140
         136         137         142         141
         137         138         143         142
         138         139         144         143
         140         141         146         145
         141         142         147         146
         142         143         148         147
         143         144         149         148
         150         151         156         155
         151         152         157         156
         152         153         158         157
         153         154         159         158
         155         156         161         160
         156         157         162         161
         157         158         163         162
         158         159         164         163
         160         161         166         165
         161         162         167         166
         162         163         168         167
         163         164         169         168
         165         166         171         170
         166         167         172         171
         167         168         173         172
         168         169         174         173
         175         176         181         180
         176         177         182         181
         177         178         183         182
         178         179         184         183
         180         181         186         185
         181         182         187         186
         182         183         188         187
         183         184         189         188
         185         186         191         190
         186         187         192         191
         187         188         193         192
         188         189         194         193
         190         191         196         195
         191         192         197         196
         192         193         198         197
         193         194         199         198
         200         201         206         205
         201         202         207         206
         202         203         208         207
         203         204         209         208
         205         206         211         210
         206         207         212         211
         207         208         213         212
         208         209         214         213
         210         211         216         215
         211         212         217         216
         212         213         218         217
         213         214         219         218
         215         216         221         220
         216         217         222         221
         217         218         223         222
         218         219         224         223
         225         226         231         230
         226         227         232         231
         227         228         233         232
         228         229         234         233
         230         231         236         235
         231         232         237         236
         232         233         238         237
         233         234         239         238
         235         236         241         240
         236         237         242         241
         237         238         243         242
         238         239         244         243
         240         241         246         245
         241         242         247         246
         242         243         248         247
         243         244         249         248
         250         251         256         255
         251         252         257         256
         252         253         258         257
         253         254         259         258
         255         256         261         260
         256         257         262         261
         257         258         263         262
         258         259         264         263
         260         261         266         265
         261         262         267         266
         262         263         268         267
         263         264         269         268
         265         266         271         270
         266         267         272         271
         267         268         273         272
         268         269         274         273
         275         276         281         280
         276         277         282         281
         277         278         283         282
         278         279         284         283
         280         281         286         285
         281         282         287         286
         282         283         288         287
         283         284         289         288
         285         286         291         290
         286         287         292         291
         287         288         293         292
         288         289         294         293
         290         291         296         295
         291         292         297         296
         292         293         298         297
         293         294         299         298
         300         301         306         305
         301         302         307         306
         302         303         308         307
         303         304         309         308
         305         306         311         310
         306         307         312         311
         307         308         313         312
         308         309         314         313
         310         311         316         315
         311         312         317         316
         312         313         318         317
         313         314         319         318
         315         316         321         320
         316         317         322         321
         317         318         323         322
         318         319         324         323
         325         326         331         330
         326         327         332         331
         327         328         333         332
         328         329         334         333
         330         331         336         335
         331         332         337         336
         332         333         338         337
         333         334         339         338
         335         336         341         340
         336         337         342         341
         337         338         343         342
         338         339         344         343
         340         341         346         345
         341         342         347         346
         342         343         348         347
         343         344         349         348
         350         351         356         355
         351         352         357         356
         352         353         358         357
         353         354         359         358
         355         356         361         360
         356         357         362         361
         357         358         363         362
         358         359         364         363
         360         361         366         365
         361         362         367         366
         362         363         368         367
         363         364         369         368
         365         366         371         370
         366         367         372         371
         367         368         373         372
         368         369         374         373
         375         376         381         380
         376         377         382         381
         377         378         383         382
         378         379         384         383
         380         381         386         385
         381         382         387         386
         382         383         388         387
         383         384         389         388
         385         386         391         390
         386         387         392         391
         387         388         393         392
         388         389         394         393
         390         391         396         395
         391         392         397         396
         392         393         398         397
         393         394         399         398
         400         401         406         405
         401         402         407         406
         402         403         408         407
         403         404         409         408
         405         406         411         410
         406         407         412         411
         407         408         413         412
         408         409         414         413
         410         411         416         415
         411         412         417         416
         412         413         418         417
         413         414         419         418
         415         416         421         420
         416         417         422         421
         417         418         423         422
         418         419         424         423
         425         426         431         430
         426         427         432         431
         427         428         433         432
         428         429         434         433
         430         431         436         435
         431         432         437         436
         432         433         438         437
         433         434         439         438
         435         436         441         440
         436         437         442         441
         437         438         443         442
         438         439         444         443
         440         441         446         445
         441         442         447         446
         442         443         448         447
         443         444         449         448
         450         451         456         455
         451         452         457         456
         452         453         458         457
         453         454         459         458
         455         456         461         460
         456         457         462         461
         457         458         463         462
         458         459         464         463
         460         461         466         465
         461         462         467         466
         462         463         468         467
         463         464         469         468
         465         466         471         470
         466         467         472         471
         467         468         473         472
         468         469         474         473
         475         476         481         480
         476         477         482         481
         477         478         483         482
         478         479         484         483
         480         481         486         485
         481         482         487         486
         482         483         488         487
         483         484         489         488
         485         486         491         490
         486         487         492         491
         487         488         493         492
         488         489         494         493
         490         491         496         495
         491         492         497         496
         492         493         498         497
         493         494         499         498
         500         501         506         505
         501         502         507         506
         502         503         508         507
         503         504         509         508
         505         506         511         510
         506         507         512         511
         507         508         513         512
         508         509         514         513
         510         511         516         515
         511         512         517         516
         512         513         518         517
         513         514         519         518
         515         516         521         520
         516         517         522         521
         517         518         523         522
         518         519         524         523
         525         526         531         530
         526         527         532         531
         527         528         533         532
         528         529         534         533
         530         531         536         535
         531         532         537         536
         532         533         538         537
         533         534         539         538
         535         536         541         540
         536         537         542         541
         537         538         543         542
         538         539         544         543
         540         541         546         545
         541         542         547         546
         542         543         548         547
         543         544         549         548
         550         551         556         555
         551         552         557         556
         552         553         558         557
         553         554         559         558
         555         556         561         560
         556         557         562         561
         557         558         563         562
         558         559         564         563
         560         561         566         565
         561         562         567         566
         562         563         568         567
         563         564         569         568
         565         566         571         570
         566         567         572         571
         567         568         573         572
         568         569         574         573
         575         576         581         580
         576         577         582         581
         577         578         583         582
         578         579         584         583
         580         581         586         585
         581         582         587         586
         582         583         588         587
         583         584         589         588
         585         586         591         590
         586         587         592         591
         587         588         593         592
         588         589         594         593
         590         591         596         595
         591         592         597         596
         592         593         598         597
         593         594         599         598
         600         601         606         605
         601         602         607         606
         602         603         608         607
         603         604         609         608
         605         606         611         610
         606         607         612         611
         607         608         613         612
         608         609         614         613
         610         611         616         615
         611         612         617         616
         612         613         618         617
         613         614         619         618
         615         616         621         620
         616         617         622         621
         617         618         623         622
         618         619         624         623
         625         626         631         630
         626         627         632         631
         627         628         633         632
         628         629         634         633
         630         631         636         635
         631         632         637         636
         632         633         638         637
         633         634         639         638
         635         636         641         640
         636         637         642         641
         637         638         643         642
         638         639         644         643
         640         641         646         645
         641         642         647         646
         642         643         648         647
         643         644         649         648
         650         651         656         655
         651         652         657         656
         652         653         658         657
         653         654         659         658
         655         656         661         660
         656         657         662         661
         657         658         663         662
         658         659         664         663
         660         661         666         665
         661         662         667         666
         662         663         668         667
         663         664         669         668
         665         666         671         670
         666         667         672         671
         667         668         673         672
         668         669         674         673
         675         676         681         680
         676         677         682         681
         677         678         683         682
         678         679         684         683
         680         681         686         685
         681         682         687         686
         682         683         688         687
         683         684         689         688
         685         686         691         690
         686         687         692         691
         687         688         693         692
         688         689         694         693
         690         691         696         695
         691         692         697         696
         692         693         698         697
         693         694         699         698
         700         701         706         705
         701         702         707         706
         702         703         708         707
         703         704         709         708
         705         706         711         710
         706         707         712         711
         707         708         713         712
         708         709         714         713
         710         711         716         715
         711         712         717         716
         712         713         718         717
         713         714         719         718
         715         716         721         720
         716         717         722         721
         717         718         723         722
         718         719         724         723
         725         726         731         730
         726         727         732         731
         727         728         733         732
         728         729         734         733
         730         731         736         735
         731         732         737         736
         732         733         738         737
         733         734         739         738
         735         736         741         740
         736         737         742         741
         737         738         743         742
         738         739         744         743
         740         741         746         745
         741         742         747         746
         742         743         748         747
         743         744         749         748
         750         751         756         755
         751         752         757         756
         752         753         758         757
         753         754         759         758
         755         756         761         760
         756         757         762         761
         757         758         763         762
         758         759         764         763
         760         761         766         765
         761         762         767         766
         762         763         768         767
         763         764         769         768
         765         766         771         770
         766         767         772         771
         767         768         773         772
         768         769         774         773
         775         776         781         780
         776         777         782         781
         777         778         783         782
         778         779         784         783
         780         781         786         785
         781         782         787         786
         782         783         788         787
         783         784         789         788
         785         786         791         790
         786         787         792         791
         787         788         793         792
         788         789         794         793
         790         791         796         795
         791         792         797         796
         792         793         798         797
         793         794         799         798
         800         801         806         805
         801         802         807         806
         802         803         808         807
         803         804         809         808
         805         806         811         810
         806         807         812         811
         807         808         813         812
         808         809         814         813
         810         811         816         815
         811         812         817         816
         812         813         818         817
         813         814         819         818
         815         816         821         820
         816         817         822         821
         817         818         823         822
         818         819         824         823
         825         826         831         830
         826         827         832         831
         827         828         833         832
         828         829         834         833
         830         831         836         835
         831         832         837         836
         832         833         838         837
         833         834         839         838
         835         836         841         840
         836         837         842         841
         837         838         843         842
         838         839         844         843
         840         841         846         845
         841         842         847         846
         842         843         848         847
         843         844         849         848
         850         851         856         855
         851         852         857         856
         852         853         858         857
         853         854         859         858
         855         856         861         860
         856         857         862         861
         857         858         863         862
         858         859         864         863
         860         861         866         865
         861         862         867         866
         862         863         868         867
         863         864         869         868
         865         866         871         870
         866         867         872         871
         867         868         873         872
         868         869         874         873
         875         876         881         880
         876         877         882         881
         877         878         883         882
         878         879         884         883
         880         881         886         885
         881         882         887         886
         882         883         888         887
         883         884         889         888
         885         886         891         890
         886         887         892         891
         887         888         893         892
         888         889         894         893
         890         891         896         895
         891         892         897         896
         892         893         898         897
         893         894         899         898
         900         901         906         905
         901         902         907         906
         902         903         908         907
         903         904         909         908
         905         906         911         910
         906         907         912         911
         907         908         913         912
         908         909         914         913
         910         911         916         915
         911         912         917         916
         912         913         918         917
         913         914         919         918
         915         916         921         920
         916         917         922         921
         917         918         923         922
         918         919         924         923
         925         926         931         930
         926         927         932         931
         927         928         933         932
         928         929         934         933
         930         931         936         935
         931         932         937         936
         932         933         938         937
         933         934         939         938
         935         936         941         940
         936         937         942         941
         937         938         943         942
         938         939         944         943
         940         941         946         945
         941         942         947         946
         942         943         948         947
         943         944         949         948
         950         951         956         955
         951         952         957         956
         952         953         958         957
         953         954         959         958
         955         956         961         960
         956         957         962         961
         957         958         963         962
         958         959         964         963
         960         961         966         965
         961         962         967         966
         962         963         968         967
         963         964         969         968
         965         966         971         970
         966         967         972         971
         967         968         973         972
         968         969         974         973
         975         976         981         980
         976         977         982         981
         977         978         983         982
         978         979         984         983
         980         981         986         985
         981         982         987         986
         982         983         988         987
         983         984         989         988
         985         986         991         990
         986         987         992         991
         987         988         993         992
         988         989         994         993
         990         991         996         995
         991         992         997         996
         992         993         998         997
         993         994         999         998
        1000        1001        1006        1005
        1001        1002        1007        1006
        1002        1003        1008        1007
        1003        1004        1009        1008
        1005        1006        1011        1010
        1006        1007        1012        1011
        1007        1008        1013        1012
        1008        1009        1014        1013
        1010        1011        1016        1015
        1011        1012        1017        1016
        1012        1013        1018        1017
        1013        1014        1019        1018
        1015        1016        1021        1020
        1016        1017        1022        1021
        1017        1018        1023        1022
        1018        1019        1024        1023
        1025        1026        1031        1030
        1026        1027        1032        1031
        1027        1028        1033        1032
        1028        1029        1034        1033
        1030        1031        1036        1035
        1031        1032        1037        1036
        1032        1033        1038        1037
        1033        1034        1039        1038
        1035        1036        1041        1040
        1036        1037        1042        1041
        1037        1038        1043        1042
        1038        1039        1044        1043
        1040        1041        1046        1045
        1041        1042        1047        1046
        1042        1043        1048        1047
        1043        1044        1049        1048
        1050        1051        1056        1055
        1051        1052        1057        1056
        1052        1053        1058        1057
        1053        1054        1059        1058
        1055        1056        1061        1060
        1056        1057        1062        1061
        1057        1058        1063        1062
        1058        1059        1064        1063
        1060        1061        1066        1065
        1061        1062        1067        1066
        1062        1063        1068        1067
        1063        1064        1069        1068
        1065        1066        1071        1070
        1066        1067        1072        1071
        1067        1068        1073        1072
        1068        1069        1074        1073
        1075        1076        1081        1080
        1076        1077        1082        1081
        1077        1078        1083        1082
        1078        1079        1084        1083
        1080        1081        1086        1085
        1081        1082        1087        1086
        1082        1083        1088        1087
        1083        1084        1089        1088
        1085        1086        1091        1090
        1086        1087        1092        1091
        1087        1088        1093        1092
        1088        1089        1094        1093
        1090        1091        1096        1095
        1091        1092        1097        1096
        1092        1093        1098        1097
        1093        1094        1099        1098
        1100        1101        1106        1105
        1101        1102        1107        1106
        1102        1103        1108        1107
        1103        1104        1109        1108
        1105        1106        1111        1110
        1106        1107        1112        1111
        1107        1108        1113        1112
        1108        1109        1114        1113
        1110        1111        1116        1115
        1111        1112        1117        1116
        1112        1113        1118        1117
        1113        1114        1119        1118
        1115        1116        1121        1120
        1116        1117        1122        1121
        1117        1118        1123        1122
        1118        1119        1124        1123
        1125        1126        1131        1130
        1126        1127        1132        1131
        1127        1128        1133        1132
        1128        1129        1134        1133
        1130        1131        1136        1135
        1131        1132        1137        1136
        1132        1133        1138        1137
        1133        1134        1139        1138
        1135        1136        1141        1140
        1136        1137        1142        1141
        1137        1138        1143        1142
        1138        1139        1144        1143
        1140        1141        1146        1145
        1141        1142        1147        1146
        1142        1143        1148        1147
        1143        1144        1149        1148
        1150        1151        1156        1155
        1151        1152        1157        1156
        1152        1153        1158        1157
        1153        1154        1159        1158
        1155        1156        1161        1160
        1156        1157        1162        1161
        1157        1158        1163        1162
        1158        1159        1164        1163
        1160        1161        1166        1165
        1161        1162        1167        1166
        1162        1163        1168        1167
        1163        1164        1169        1168
        1165        1166        1171        1170
        1166        1167        1172        1171
        1167        1168        1173        1172
        1168        1169        1174        1173
        1175        1176        1181        1180
        1176        1177        1182        1181
        1177        1178        1183        1182
        1178        1179        1184        1183
        1180        1181        1186        1185
        1181        1182        1187        1186
        1182        1183        1188        1187
        1183        1184        1189        1188
        1185        1186        1191        1190
        1186        1187        1192        1191
        1187        1188        1193        1192
        1188        1189        1194        1193
        1190        1191        1196        1195
        1191        1192        1197        1196
        1192        1193        1198        1197
        1193        1194        1199        1198
        1200        1201        1206        1205
        1201        1202        1207        1206
        1202        1203        1208        1207
        1203        1204        1209        1208
        1205        1206        1211        1210
        1206        1207        1212        1211
        1207        1208        1213        1212
        1208        1209        1214        1213
        1210        1211        1216        1215
        1211        1212        1217        1216
        1212        1213        1218        1217
        1213        1214        1219        1218
        1215        1216        1221        1220
        1216        1217        1222        1221
        1217        1218        1223        1222
        1218        1219        1224        1223
        1225        1226        1231        1230
        1226        1227        1232        1231
        1227        1228        1233        1232
        1228        1229        1234        1233
        1230        1231        1236        1235
        1231        1232        1237        1236
        1232        1233        1238        1237
        1233        1234        1239        1238
        1235        1236        1241        1240
        1236        1237        1242        1241
        1237        1238        1243        1242
        1238        1239        1244        1243
        1240        1241        1246        1245
        1241        1242        1247        1246
        1242        1243        1248        1247
        1243        1244        1249        1248
        1250        1251        1256        1255
        1251        1252        1257        1256
        1252        1253        1258        1257
        1253        1254        1259        1258
        1255        1256        1261        1260
        1256        1257        1262        1261
        1257        1258        1263        1262
        1258        1259        1264        1263
        1260        1261        1266        1265
        1261        1262        1267        1266
        1262        1263        1268        1267
        1263        1264        1269        1268
        1265        1266        1271        1270
        1266        1267        1272        1271
        1267        1268        1273        1272
        1268        1269        1274        1273
        1275        1276        1281        1280
        1276        1277        1282        1281
        1277        1278        1283        1282
        1278        1279        1284        1283
        1280        1281        1286        1285
        1281        1282        1287        1286
        1282        1283        1288        1287
        1283        1284        1289        1288
        1285        1286        1291        1290
        1286        1287        1292        1291
        1287        1288        1293        1292
        1288        1289        1294        1293
        1290        1291        1296        1295
        1291        1292        1297        1296
        1292        1293        1298        1297
        1293        1294        1299        1298
        1300        1301        1306        1305
        1301        1302        1307        1306
        1302        1303        1308        1307
        1303        1304        1309        1308
        1305        1306        1311        1310
        1306        1307        1312        1311
        1307        1308        1313        1312
        1308        1309        1314        1313
        1310        1311        1316        1315
        1311        1312        1317        1316
        1312        1313        1318        1317
        1313        1314        1319        1318
        1315        1316        1321        1320
        1316        1317        1322        1321
        1317        1318        1323        1322
        1318        1319        1324        1323
        1325        1326        1331        1330
        1326        1327        1332        1331
        1327        1328        1333        1332
        1328        1329        1334        1333
        1330        1331        1336        1335
        1331        1332        1337        1336
        1332        1333        1338        1337
        1333        1334        1339        1338
        1335        1336        1341        1340
        1336        1337        1342        1341
        1337        1338        1343        1342
        1338        1339        1344        1343
        1340        1341        1346        1345
        1341        1342        1347        1346
        1342        1343        1348        1347
        1343        1344        1349        1348
        1350        1351        1356        1355
        1351        1352        1357        1356
        1352        1353        1358        1357
        1353        1354        1359        1358
        1355        1356        1361        1360
        1356        1357        1362        1361
        1357        1358        1363        1362
        1358        1359        1364        1363
        1360        1361        1366        1365
        1361        1362        1367        1366
        1362        1363        1368        1367
        1363        1364        1369        1368
        1365        1366        1371        1370
        1366        1367        1372        1371
        1367        1368        1373        1372
        1368        1369        1374        1373
        1375        1376        1381        1380
        1376        1377        1382        1381
        1377        1378        1383        1382
        1378        1379        1384        1383
        1380        1381        1386        1385
        1381        1382        1387        1386
        1382        1383        1388        1387
        1383        1384        1389        1388
        1385        1386        1391        1390
        1386        1387        1392        1391
        1387        1388        1393        1392
        1388        1389        1394        1393
        1390        1391        1396        1395
        1391        1392        1397        1396
        1392        1393        1398        1397
        1393        1394        1399        1398
        1400        1401        1406        1405
        1401        1402        1407        1406
        1402        1403        1408        1407
        1403        1404        1409        1408
        1405        1406        1411        1410
        1406        1407        1412        1411
        1407        1408        1413        1412
        1408        1409        1414        1413
        1410        1411        1416        1415
        1411        1412        1417        1416
        1412        1413        1418        1417
        1413        1414        1419        1418
        1415        1416        1421        1420
        1416        1417        1422        1421
        1417        1418        1423        1422
        1418        1419        1424        1423
        1425        1426        1431        1430
        1426        1427        1432        1431
        1427        1428        1433        1432
        1428        1429        1434        1433
        1430        1431        1436        1435
        1431        1432        1437        1436
        1432        1433        1438        1437
        1433        1434        1439        1438
        1435        1436        1441        1440
        1436        1437        1442        1441
        1437        1438        1443        1442
        1438        1439        1444        1443
        1440        1441        1446        1445
        1441        1442        1447        1446
        1442        1443        1448        1447
        1443        1444        1449        1448
        1450        1451        1456        1455
        1451        1452        1457        1456
        1452        1453        1458        1457
        1453        1454        1459        1458
        1455        1456        1461        1460
        1456        1457        1462        1461
        1457        1458        1463        1462
        1458        1459        1464        1463
        1460        1461        1466        1465
        1461        1462        1467        1466
        1462        1463        1468        1467
        1463        1464        1469        1468
        1465        1466        1471        1470
        1466        1467        1472        1471
        1467        1468        1473        1472
        1468        1469        1474        1473
        1475        1476        1481        1480
        1476        1477        1482        1481
        1477        1478        1483        1482
        1478        1479        1484        1483
        1480        1481        1486        1485
        1481        1482        1487        1486
        1482        1483        1488        1487
        1483        1484        1489        1488
        1485        1486        1491        1490
        1486        1487        1492        1491
        1487        1488        1493        1492
        1488        1489        1494        1493
        1490        1491        1496        1495
        1491        1492        1497        1496
        1492        1493        1498        1497
        1493        1494        1499        1498
        1500        1501        1506        1505
        1501        1502        1507        1506
        1502        1503        1508        1507
        1503        1504        1509        1508
        1505        1506        1511        1510
        1506        1507        1512        1511
        1507        1508        1513        1512
        1508        1509        1514        1513
        1510        1511        1516        1515
        1511        1512        1517        1516
        1512        1513        1518        1517
        1513        1514        1519        1518
        1515        1516        1521        1520
        1516        1517        1522        1521
        1517        1518        1523        1522
        1518        1519        1524        1523
        1525        1526        1531        1530
        1526        1527        1532        1531
        1527        1528        1533        1532
        1528        1529        1534        1533
        1530        1531        1536        1535
        1531        1532        1537        1536
        1532        1533        1538        1537
        1533        1534        1539        1538
        1535        1536        1541        1540
        1536        1537        1542        1541
        1537        1538        1543        1542
        1538        1539        1544        1543
        1540        1541        1546        1545
        1541        1542        1547        1546
        1542        1543        1548        1547
        1543        1544        1549        1548
        1550        1551        1556        1555
        1551        1552        1557        1556
        1552        1553        1558        1557
        1553        1554        1559        1558
        1555        1556        1561        1560
        1556        1557        1562        1561
        1557        1558        1563        1562
        1558        1559        1564        1563
        1560        1561        1566        1565
        1561        1562        1567        1566
        1562        1563        1568        1567
        1563        1564        1569        1568
        1565        1566        1571        1570
        1566        1567        1572        1571
        1567        1568        1573        1572
        1568        1569        1574        1573
        1575        1576        1581        1580
        1576        1577        1582        1581
        1577        1578        1583        1582
        1578        1579        1584        1583
        1580        1581        1586        1585
        1581        1582        1587        1586
        1582        1583        1588        1587
        1583        1584        1589        1588
        1585        1586        1591        1590
        1586        1587        1592        1591
        1587        1588        1593        1592
        1588        1589        1594        1593
        1590        1591        1596        1595
        1591        1592        1597        1596
        1592        1593        1598        1597
        1593        1594        1599        1598
 </DataArray>
 <DataArray  type="Int32"  Name="offsets"  format="ascii"> 
           4
           8
          12
          16
          20
          24
          28
          32
          36
          40
          44
          48
          52
          56
          60
          64
          68
          72
          76
          80
          84
          88
          92
          96
         100
         104
         108
         112
         116
         120
         124
         128
         132
         136
         140
         144
         148
         152
         156
         160
         164
         168
         172
         176
         180
         184
         188
         192
         196
         200
         204
         208
         212
         216
         220
         224
         228
         232
         236
         240
         244
         248
         252
         256
         260
         264
         268
         272
         276
         280
         284
         288
         292
         296
         300
         304
         308
         312
         316
         320
         324
         328
         332
         336
         340
         344
         348
         352
         356
         360
         364
         368
         372
         376
         380
         384
         388
         392
         396
         400
         404
         408
         412
         416
         420
         424
         428
         432
         436
         440
         444
         448
         452
         456
         460
         464
         468
         472
         476
         480
         484
         488
         492
         496
         500
         504
         508
         512
         516
         520
         524
         528
         532
         536
         540
         544
         548
         552
         556
         560
         564
         568
         572
         576
         580
         584
         588
         592
         596
         600
         604
         608
         612
         616
         620
         624
         628
         632
         636
         640
         644
         648
         652
         656
         660
         664
         668
         672
         676
         680
         684
         688
         692
         696
         700
         704
         708
         712
         716
         720
         724
         728
         732
         736
         740
         744
         748
         752
         756
         760
         764
         768
         772
         776
         780
         784
         788
         792
         796
         800
         804
         808
         812
         816
         820
         824
         828
         832
         836
         840
         844
         848
         852
         856
         860
         864
         868
         872
         876
         880
         884
         888
         892
         896
         900
         904
         908
         912
         916
         920
         924
         928
         932
         936
         940
         944
         948
         952
         956
         960
         964
         968
         972
         976
         980
         984
         988
         992
         996
        1000
        1004
        1008
        1012
        1016
        1020
        1024
        1028
        1032
        1036
        1040
        1044
        1048
        1052
        1056
        1060
        1064
        1068
        1072
        1076
        1080
        1084
        1088
        1092
        1096
        1100
        1104
        1108
        1112
        1116
        1120
        1124
        1128
        1132
        1136
        1140
        1144
        1148
        1152
        1156
        1160
        1164
        1168
        1172
        1176
        1180
        1184
        1188
        1192
        1196
        1200
        1204
        1208
        1212
        1216
        1220
        1224
        1228
        1232
        1236
        1240
        1244
        1248
        1252
        1256
        1260
        1264
        1268
        1272
        1276
        1280
        1284
        1288
        1292
        1296
        1300
        1304
        1308
        1312
        1316
        1320
        1324
        1328
        1332
        1336
        1340
        1344
        1348
        1352
        1356
        1360
        1364
        1368
        1372
        1376
        1380
        1384
        1388
        1392
        1396
        1400
        1404
        1408
        1412
        1416
        1420
        1424
        1428
        1432
        1436
        1440
        1444
        1448
        1452
        1456
        1460
        1464
        1468
        1472
        1476
        1480
        1484
        1488
        1492
        1496
        1500
        1504
        1508
        1512
        1516
        1520
        1524
        1528
        1532
        1536
        1540
        1544
        1548
        1552
        1556
        1560
        1564
        1568
        1572
        1576
        1580
        1584
        1588
        1592
        1596
        1600
        1604
        1608
        1612
        1616
        1620
        1624
        1628
        1632
        1636
        1640
        1644
        1648
        1652
        1656
        1660
        1664
        1668
        1672
        1676
        1680
        1684
        1688
        1692
        1696
        1700
        1704
        1708
        1712
        1716
        1720
        1724
        1728
        1732
        1736
        1740
        1744
        1748
        1752
        1756
        1760
        1764
        1768
        1772
        1776
        1780
        1784
        1788
        1792
        1796
        1800
        1804
        1808
        1812
        1816
        1820
        1824
        1828
        1832
        1836
        1840
        1844
        1848
        1852
        1856
        1860
        1864
        1868
        1872
        1876
        1880
        1884
        1888
        1892
        1896
        1900
        1904
        1908
        1912
        1916
        1920
        1924
        1928
        1932
        1936
        1940
        1944
        1948
        1952
        1956
        1960
        1964
        1968
        1972
        1976
        1980
        1984
        1988
        1992
        1996
        2000
        2004
        2008
        2012
        2016
        2020
        2024
        2028
        2032
        2036
        2040
        2044
        2048
        2052
        2056
        2060
        2064
        2068
        2072
        2076
        2080
        2084
        2088
        2092
        2096
        2100
        2104
        2108
        2112
        2116
        2120
        2124
        2128
        2132
        2136
        2140
        2144
        2148
        2152
        2156
        2160
        2164
        2168
        2172
        2176
        2180
        2184
        2188
        2192
        2196
        2200
        2204
        2208
        2212
        2216
        2220
        2224
        2228
        2232
        2236
        2240
        2244
        2248
        2252
        2256
        2260
        2264
        2268
        2272
        2276
        2280
        2284
        2288
        2292
        2296
        2300
        2304
        2308
        2312
        2316
        2320
        2324
        2328
        2332
        2336
        2340
        2344
        2348
        2352
        2356
        2360
        2364
        2368
        2372
        2376
        2380
        2384
        2388
        2392
        2396
        2400
        2404
        2408
        2412
        2416
        2420
        2424
        2428
        2432
        2436
        2440
        2444
        2448
        2452
        2456
        2460
        2464
        2468
        2472
        2476
        2480
        2484
        2488
        2492
        2496
        2500
        2504
        2508
        2512
        2516
        2520
        2524
        2528
        2532
        2536
        2540
        2544
        2548
        2552
        2556
        2560
        2564
        2568
        2572
        2576
        2580
        2584
        2588
        2592
        2596
        2600
        2604
        2608
        2612
        2616
        2620
        2624
        2628
        2632
        2636
        2640
        2644
        2648
        2652
        2656
        2660
        2664
        2668
        2672
        2676
        2680
        2684
        2688
        2692
        2696
        2700
        2704
        2708
        2712
        2716
        2720
        2724
        2728
        2732
        2736
        2740
        2744
        2748
        2752
        2756
        2760
        2764
        2768
        2772
        2776
        2780
        2784
        2788
        2792
        2796
        2800
        2804
        2808
        2812
        2816
        2820
        2824
        2828
        2832
        2836
        2840
        2844
        2848
        2852
        2856
        2860
        2864
        2868
        2872
        2876
        2880
        2884
        2888
        2892
        2896
        2900
        2904
        2908
        2912
        2916
        2920
        2924
        2928
        2932
        2936
        2940
        2944
        2948
        2952
        2956
        2960
        2964
        2968
        2972
        2976
        2980
        2984
        2988
        2992
        2996
        3000
        3004
        3008
        3012
        3016
        3020
        3024
        3028
        3032
        3036
        3040
        3044
        3048
        3052
        3056
        3060
        3064
        3068
        3072
        3076
        3080
        3084
        3088
        3092
        3096
        3100
        3104
        3108
        3112
        3116
        3120
        3124
        3128
        3132
        3136
        3140
        3144
        3148
        3152
        3156
        3160
        3164
        3168
        3172
        3176
        3180
        3184
        3188
        3192
        3196
        3200
        3204
        3208
        3212
        3216
        3220
        3224
        3228
        3232
        3236
        3240
        3244
        3248
        3252
        3256
        3260
        3264
        3268
        3272
        3276
        3280
        3284
        3288
        3292
        3296
        3300
        3304
        3308
        3312
        3316
        3320
        3324
        3328
        3332
        3336
        3340
        3344
        3348
        3352
        3356
        3360
        3364
        3368
        3372
        3376
        3380
        3384
        3388
        3392
        3396
        3400
        3404
        3408
        3412
        3416
        3420
        3424
        3428
        3432
        3436
        3440
        3444
        3448
        3452
        3456
        3460
        3464
        3468
        3472
        3476
        3480
        3484
        3488
        3492
        3496
        3500
        3504
        3508
        3512
        3516
        3520
        3524
        3528
        3532
        3536
        3540
        3544
        3548
        3552
        3556
        3560
        3564
        3568
        3572
        3576
        3580
        3584
        3588
        3592
        3596
        3600
        3604
        3608
        3612
        3616
        3620
        3624
        3628
        3632
        3636
        3640
        3644
        3648
        3652
        3656
        3660
        3664
        3668
        3672
        3676
        3680
        3684
        3688
        3692
        3696
        3700
        3704
        3708
        3712
        3716
        3720
        3724
        3728
        3732
        3736
        3740
        3744
        3748
        3752
        3756
        3760
        3764
        3768
        3772
        3776
        3780
        3784
        3788
        3792
        3796
        3800
        3804
        3808
        3812
        3816
        3820
        3824
        3828
        3832
        3836
        3840
        3844
        3848
        3852
        3856
        3860
        3864
        3868
        3872
        3876
        3880
        3884
        3888
        3892
        3896
        3900
        3904
        3908
        3912
        3916
        3920
        3924
        3928
        3932
        3936
        3940
        3944
        3948
        3952
        3956
        3960
        3964
        3968
        3972
        3976
        3980
        3984
        3988
        3992
        3996
        4000
        4004
        4008
        4012
        4016
        4020
        4024
        4028
        4032
        4036
        4040
        4044
        4048
        4052
        4056
        4060
        4064
        4068
        4072
        4076
        4080
        4084
        4088
        4092
        4096
 </DataArray>
 <DataArray  type="UInt8"  Name="types"  format="ascii">
 9
 9
 9
 9
 9
 9
 9
 9
 9
 9
 9
 9
 9
 9
 9
 9
 9
 9
 9
 9
 9
 9
 9
 9
 9
 9
 9
 9
 9
 9
 9
 9
 9
 9
 9
 9
 9
 9
 9
 9
 9
 9
 9
 9
 9
 9
 9
 9
 9
 9
 9
 9
 9
 9
 9
 9
 9
 9
 9
 9
 9
 9
 9
 9
 9
 9
 9
 9
 9
 9
 9
 9
 9
 9
 9
 9
 9
 9
 9
 9
 9
 9
 9
 9
 9
 9
 9
 9
 9
 9
 9
 9
 9
 9
 9
 9
 9
 9
 9
 9
 9
 9
 9
 9
 9
 9
 9
 9
 9
 9
 9
 9
 9
 9
 9
 9
 9
 9
 9
 9
 9
 9
 9
 9
 9
 9
 9
 9
 9
 9
 9
 9
 9
 9
 9
 9
 9
 9
 9
 9
 9
 9
 9
 9
 9
 9
 9
 9
 9
 9
 9
 9
 9
 9
 9
 9
 9
 9
 9
 9
 9
 9
 9
 9
 9
 9
 9
 9
 9
 9
 9
 9
 9
 9
 9
 9
 9
 9
 9
 9
 9
 9
 9
 9
 9
 9
 9
 9
 9
 9
 9
 9
 9
 9
 9
 9
 9
 9
 9
 9
 9
 9
 9
 9
 9
 9
 9
 9
 9
 9
 9
 9
 9
 9
 9
 9
 9
 9
 9
 9
 9
 9
 9
 9
 9
 9
 9
 9
 9
 9
 9
 9
 9
 9
 9
 9
 9
 9
 9
 9
 9
 9
 9
 9
 9
 9
 9
 9
 9
 9
 9
 9
 9
 9
 9
 9
 9
 9
 9
 9
 9
 9
 9
 9
 9
 9
 9
 9
 9
 9
 9
 9
 9
 9
 9
 9
 9
 9
 9
 9
 9
 9
 9
 9
 9
 9
 9
 9
 9
 9
 9
 9
 9
 9
 9
 9
 9
 9
 9
 9
 9
 9
 9
 9
 9
 9
 9
 9
 9
 9
 9
 9
 9
 9
 9
 9
 9
 9
 9
 9
 9
 9
 9
 9
 9
 9
 9
 9
 9
 9
 9
 9
 9
 9
 9
 9
 9
 9
 9
 9
 9
 9
 9
 9
 9
 9
 9
 9
 9
 9
 9
 9
 9
 9
 9
 9
 9
 9
 9
 9
 9
 9
 9
 9
 9
 9
 9
 9
 9
 9
 9
 9
 9
 9
 9
 9
 9
 9
 9
 9
 9
 9
 9
 9
 9
 9
 9
 9
 9
 9
 9
 9
 9
 9
 9
 9
 9
 9
 9
 9
 9
 9
 9
 9
 9
 9
 9
 9
 9
 9
 9
 9
 9
 9
 9
 9
 9
 9
 9
 9
 9
 9
 9
 9
 9
 9
 9
 9
 9
 9
 9
 9
 9
 9
 9
 9
 9
 9
 9
 9
 9
 9
 9
 9
 9
 9
 9
 9
 9
 9
 9
 9
 9
 9
 9
 9
 9
 9
 9
 9
 9
 9
 9
 9
 9
 9
 9
 9
 9
 9
 9
 9
 9
 9
 9
 9
 9
 9
 9
 9
 9
 9
 9
 9
 9
 9
 9
 9
 9
 9
 9
 9
 9
 9
 9
 9
 9
 9
 9
 9
 9
 9
 9
 9
 9
 9
 9
 9
 9
 9
 9
 9
 9
 9
 9
 9
 9
 9
 9
 9
 9
 9
 9
 9
 9
 9
 9
 9
 9
 9
 9
 9
 9
 9
 9
 9
 9
 9
 9
 9
 9
 9
 9
 9
 9
 9
 9
 9
 9
 9
 9
 9
 9
 9
 9
 9
 9
 9
 9
 9
 9
 9
 9
 9
 9
 9
 9
 9
 9
 9
 9
 9
 9
 9
 9
 9
 9
 9
 9
 9
 9
 9
 9
 9
 9
 9
 9
 9
 9
 9
 9
 9
 9
 9
 9
 9
 9
 9
 9
 9
 9
 9
 9
 9
 9
 9
 9
 9
 9
 9
 9
 9
 9
 9
 9
 9
 9
 9
 9
 9
 9
 9
 9
 9
 9
 9
 9
 9
 9
 9
 9
 9
 9
 9
 9
 9
 9
 9
 9
 9
 9
 9
 9
 9
 9
 9
 9
 9
 9
 9
 9
 9
 9
 9
 9
 9
 9
 9
 9
 9
 9
 9
 9
 9
 9
 9
 9
 9
 9
 9
 9
 9
 9
 9
 9
 9
 9
 9
 9
 9
 9
 9
 9
 9
 9
 9
 9
 9
 9
 9
 9
 9
 9
 9
 9
 9
 9
 9
 9
 9
 9
 9
 9
 9
 9
 9
 9
 9
 9
 9
 9
 9
 9
 9
 9
 9
 9
 9
 9
 9
 9
 9
 9
 9
 9
 9
 9
 9
 9
 9
 9
 9
 9
 9
 9
 9
 9
 9
 9
 9
 9
 9
 9
 9
 9
 9
 9
 9
 9
 9
 9
 9
 9
 9
 9
 9
 9
 9
 9
 9
 9
 9
 9
 9
 9
 9
 9
 9
 9
 9
 9
 9
 9
 9
 9
 9
 9
 9
 9
 9
 9
 9
 9
 9
 9
 9
 9
 9
 9
 9
 9
 9
 9
 9
 9
 9
 9
 9
 9
 9
 9
 9
 9
 9
 9
 9
 9
 9
 9
 9
 9
 9
 9
 9
 9
 9
 9
 9
 9
 9
 9
 9
 9
 9
 9
 9
 9
 9
 9
 9
 9
 9
 9
 9
 9
 9
 9
 9
 9
 9
 9
 9
 9
 9
 9
 9
 9
 9
 9
 9
 9
 9
 9
 9
 9
 9
 9
 9
 9
 9
 9
 9
 9
 9
 9
 9
 9
 9
 9
 9
 9
 9
 9
 9
 9
 9
 9
 9
 9
 9
 9
 9
 9
 9
 9
 9
 9
 9
 9
 9
 9
 9
 9
 9
 9
 9
 9
 9
 9
 9
 9
 9
 9
 9
 9
 9
 9
 9
 9
 9
 9
 9
 9
 9
 9
 9
 9
 9
 9
 9
 9
 9
 9
 9
 9
 9
 9
 9
 9
 9
 9
 9
 9
 9
 9
 9
 9
 9
 9
 9
 9
 9
 9
 9
 9
 9
 9
 9
 9
 9
 9
 9
 9
 9
 9
 9
 9
 9
 9
 9
 9
 9
 9
 9
 9
 9
 9
 9
 9
 9
 9
 9
 9
 9
 9
 9
 9
 9
 9
 9
 9
 9
 9
 9
 9
 9
 9
 9
 9
 9
 9
 9
 9
 9
 9
 9
 9
 9
 9
 9
 9
 9
 9
 9
 9
 9
 9
 9
 9
 9
 9
 9
 9
 9
 9
 9
 9
 9
 9
 9
 9
 9
 9
 9
 </DataArray>
 </Cells> 
 <PointData>
 <DataArray  type="Float64" Name="disp" NumberOfComponents="3" format="ascii">
   0.0000000000000000        0.0000000000000000        0.0000000000000000     
   6.0959802192888241E-003   3.7904324491907378E-003   0.0000000000000000     
   1.1666164674102661E-002   7.3238184994042100E-003   0.0000000000000000     
   1.6710553364441515E-002   1.0600158150640419E-002   0.0000000000000000     
   2.1229146290305381E-002   1.3619451402899361E-002   0.0000000000000000     
   0.0000000000000000        0.0000000000000000        0.0000000000000000     
   4.8912374004542059E-003   3.0221021871932514E-003   0.0000000000000000     
   9.5738709023525433E-003   6.0604426852513462E-003   0.0000000000000000     
   1.4047900505695014E-002   9.1150214941742858E-003   0.0000000000000000     
   1.8313326210481613E-002   1.2185838613962070E-002   0.0000000000000000     
   0.0000000000000000        0.0000000000000000        0.0000000000000000     
   3.9536924013564238E-003   2.4250362696449745E-003   0.0000000000000000     
   7.9108973232473821E-003   5.0627455126575557E-003   0.0000000000000000     
   1.1871614765672875E-002   7.9131277290377458E-003   0.0000000000000000     
   1.5835844728632902E-002   1.0976182918785545E-002   0.0000000000000000     
   0.0000000000000000        0.0000000000000000        0.0000000000000000     
   3.2833452219954776E-003   1.9992346965459072E-003   0.0000000000000000     
   6.6772439367871785E-003   4.3307269816228421E-003   0.0000000000000000     
   1.0181696144375099E-002   6.9944768552308040E-003   0.0000000000000000     
   1.3796701844759247E-002   9.9904843173697945E-003   0.0000000000000000     
   0.0000000000000000        0.0000000000000000        0.0000000000000000     
   2.8801958623713673E-003   1.7446974678960499E-003   0.0000000000000000     
   5.8729107429719308E-003   3.8643870921472021E-003   0.0000000000000000     
   8.9781446418016903E-003   6.3590688727534561E-003   0.0000000000000000     
   1.2195897558860644E-002   9.2287428097148141E-003   0.0000000000000000     
   2.1229146290305381E-002   1.3619451402899361E-002   0.0000000000000000     
   2.5434617542198921E-002   1.6612373579456940E-002   0.0000000000000000     
   2.9539641210626789E-002   1.9809600003589060E-002   0.0000000000000000     
   3.3544217295588992E-002   2.3211130675295712E-002   0.0000000000000000     
   3.7448345797085530E-002   2.6816965594576900E-002   0.0000000000000000     
   1.8313326210481613E-002   1.2185838613962070E-002   0.0000000000000000     
   2.2408254522912615E-002   1.5341293363297225E-002   0.0000000000000000     
   2.6370791949188281E-002   1.8649785060862279E-002   0.0000000000000000     
   3.0200938489308615E-002   2.2111313706657244E-002   0.0000000000000000     
   3.3898694143273615E-002   2.5725879300682111E-002   0.0000000000000000     
   1.5835844728632902E-002   1.0976182918785545E-002   0.0000000000000000     
   1.9731766713401416E-002   1.4210757162847604E-002   0.0000000000000000     
   2.3487560221252372E-002   1.7575696542170584E-002   0.0000000000000000     
   2.7103225252185753E-002   2.1071001056754479E-002   0.0000000000000000     
   3.0578761806201581E-002   2.4696670706599283E-002   0.0000000000000000     
   1.3796701844759247E-002   9.9904843173697945E-003   0.0000000000000000     
   1.7405154113665326E-002   1.3220764978108085E-002   0.0000000000000000     
   2.0889946026819043E-002   1.6587334447513952E-002   0.0000000000000000     
   2.4251077584220408E-002   2.0090192725587395E-002   0.0000000000000000     
   2.7488548785869413E-002   2.3729339812328422E-002   0.0000000000000000     
   1.2195897558860644E-002   9.2287428097148141E-003   0.0000000000000000     
   1.5428416723704340E-002   1.2371316809078664E-002   0.0000000000000000     
   1.8577949365888316E-002   1.5684698776892398E-002   0.0000000000000000     
   2.1644495485412578E-002   1.9168888713156019E-002   0.0000000000000000     
   2.4628055082277119E-002   2.2823886617869518E-002   0.0000000000000000     
   3.7448345797085530E-002   2.6816965594576900E-002   0.0000000000000000     
   4.1256838774512132E-002   3.0622294704044664E-002   0.0000000000000000     
   4.4974508287264542E-002   3.4622307946311034E-002   0.0000000000000000     
   4.8601354335342746E-002   3.8817005321375997E-002   0.0000000000000000     
   5.2137376918746772E-002   4.3206386829239579E-002   0.0000000000000000     
   3.3898694143273615E-002   2.5725879300682111E-002   0.0000000000000000     
   3.7487488288197229E-002   2.9522200512894354E-002   0.0000000000000000     
   4.0990750301193396E-002   3.3528996013251447E-002   0.0000000000000000     
   4.4408480182262108E-002   3.7746265801753401E-002   0.0000000000000000     
   4.7740677931403394E-002   4.2174009878400205E-002   0.0000000000000000     
   3.0578761806201581E-002   2.4696670706599283E-002   0.0000000000000000     
   3.3943728386281340E-002   2.8497201361998601E-002   0.0000000000000000     
   3.7227683495406540E-002   3.2517088893246025E-002   0.0000000000000000     
   4.0430627133577174E-002   3.6756333300341552E-002   0.0000000000000000     
   4.3552559300793235E-002   4.1214934583285193E-002   0.0000000000000000     
   2.7488548785869413E-002   2.3729339812328422E-002   0.0000000000000000     
   3.0625559068764466E-002   2.7547297251357412E-002   0.0000000000000000     
   3.3685307869903959E-002   3.1586586586294770E-002   0.0000000000000000     
   3.6667795189287915E-002   3.5847207817140479E-002   0.0000000000000000     
   3.9573021026916309E-002   4.0329160943894549E-002   0.0000000000000000     
   2.4628055082277119E-002   2.2823886617869518E-002   0.0000000000000000     
   2.7532980335646599E-002   2.6672488180970774E-002   0.0000000000000000     
   3.0363623424685675E-002   3.0737489092397655E-002   0.0000000000000000     
   3.3119984349394352E-002   3.5018889352150161E-002   0.0000000000000000     
   3.5802063109772610E-002   3.9516688960228280E-002   0.0000000000000000     
   5.2137376918746772E-002   4.3206386829239579E-002   0.0000000000000000     
   5.5578555387902559E-002   4.7795355227254720E-002   0.0000000000000000     
   5.8920869093236045E-002   5.2588813272774412E-002   0.0000000000000000     
   6.2164318034747271E-002   5.7586760965798622E-002   0.0000000000000000     
   6.5308902212436196E-002   6.2789198306327385E-002   0.0000000000000000     
   4.7740677931403394E-002   4.2174009878400205E-002   0.0000000000000000     
   5.0982226734409886E-002   4.6806015687883722E-002   0.0000000000000000     
   5.4128009777074257E-002   5.1636070674895854E-002   0.0000000000000000     
   5.7178027059396522E-002   5.6664174839436560E-002   0.0000000000000000     
   6.0132278581376680E-002   6.1890328181505888E-002   0.0000000000000000     
   4.3552559300793235E-002   4.1214934583285193E-002   0.0000000000000000     
   4.6588491294872421E-002   4.5880563577103753E-002   0.0000000000000000     
   4.9533434413632414E-002   5.0740891116824026E-002   0.0000000000000000     
   5.2387388657073229E-002   5.5795917202446040E-002   0.0000000000000000     
   5.5150354025194831E-002   6.1045641833969773E-002   0.0000000000000000     
   3.9573021026916309E-002   4.0329160943894549E-002   0.0000000000000000     
   4.2397349069290172E-002   4.5018998894914772E-002   0.0000000000000000     
   4.5137143002910524E-002   4.9903274598558929E-002   0.0000000000000000     
   4.7792402827777344E-002   5.4981988054827020E-002   0.0000000000000000     
   5.0363128543890662E-002   6.0255139263719039E-002   0.0000000000000000     
   3.5802063109772610E-002   3.9516688960228280E-002   0.0000000000000000     
   3.8408800057663124E-002   4.4221321641316813E-002   0.0000000000000000     
   4.0939135544908550E-002   4.9123221120100570E-002   0.0000000000000000     
   4.3393069571508902E-002   5.4222387396579523E-002   0.0000000000000000     
   4.5770602137464159E-002   5.9518820470753700E-002   0.0000000000000000     
   6.5308902212436196E-002   6.2789198306327385E-002   0.0000000000000000     
   6.8360986601014626E-002   6.8181623067237393E-002   0.0000000000000000     
   7.1326936175194311E-002   7.3749533021405370E-002   0.0000000000000000     
   7.4206750934975238E-002   7.9492928168831301E-002   0.0000000000000000     
   7.7000430880357421E-002   8.5411808509515186E-002   0.0000000000000000     
   6.0132278581376680E-002   6.1890328181505888E-002   0.0000000000000000     
   6.2998293162309482E-002   6.7304898160384083E-002   0.0000000000000000     
   6.5783599621489705E-002   7.2898252235351457E-002   0.0000000000000000     
   6.8488197958917349E-002   7.8670390406408011E-002   0.0000000000000000     
   7.1112088174592414E-002   8.4621312673553745E-002   0.0000000000000000     
   5.5150354025194831E-002   6.1045641833969773E-002   0.0000000000000000     
   5.7830005372035559E-002   6.6483135799946316E-002   0.0000000000000000     
   6.0434017551633697E-002   7.2101469888926781E-002   0.0000000000000000     
   6.2962390563989251E-002   7.7900644100911146E-002   0.0000000000000000     
   6.5415124409102229E-002   8.3880658435899411E-002   0.0000000000000000     
   5.0363128543890662E-002   6.0255139263719039E-002   0.0000000000000000     
   5.2856123230192835E-002   6.5716335985924093E-002   0.0000000000000000     
   5.5278189965626272E-002   7.1359185982131354E-002   0.0000000000000000     
   5.7629328750190952E-002   7.7183689252340718E-002   0.0000000000000000     
   5.9909539583886881E-002   8.3189845796552281E-002   0.0000000000000000     
   4.5770602137464159E-002   5.9518820470753700E-002   0.0000000000000000     
   4.8076646736781331E-002   6.5004498718317441E-002   0.0000000000000000     
   5.0316116863467424E-002   7.0671400514965135E-002   0.0000000000000000     
   5.2489012517522429E-002   7.6519525860696755E-002   0.0000000000000000     
   5.4595333698946341E-002   8.2548874755512314E-002   0.0000000000000000     
   7.7000430880357421E-002   8.5411808509515186E-002   0.0000000000000000     
   7.9696003662388826E-002   9.1500543757510155E-002   0.0000000000000000     
   8.2281496932117379E-002   9.7753503626869312E-002   0.0000000000000000     
   8.4756910689543094E-002  0.10417068811759266        0.0000000000000000     
   8.7122244934665971E-002  0.11075209722968019        0.0000000000000000     
   7.1112088174592414E-002   8.4621312673553745E-002   0.0000000000000000     
   7.3642116743659863E-002   9.0741963847682766E-002   0.0000000000000000     
   7.6065130141264647E-002   9.7023288739689281E-002   0.0000000000000000     
   7.8381128367406766E-002  0.10346528734957329        0.0000000000000000     
   8.0590111422086247E-002  0.11006795967733476        0.0000000000000000     
   6.5415124409102229E-002   8.3880658435899411E-002   0.0000000000000000     
   6.7778828856432452E-002   9.0030261283158025E-002   0.0000000000000000     
   7.0040113675439719E-002   9.6338201031953452E-002   0.0000000000000000     
   7.2198978866124044E-002  0.10280447768228568        0.0000000000000000     
   7.4255424428485414E-002  0.10942909123415469        0.0000000000000000     
   5.9909539583886881E-002   8.3189845796552281E-002   0.0000000000000000     
   6.2106140000706578E-002   8.9365436063935974E-002   0.0000000000000000     
   6.4206447534642580E-002   9.5698240503661811E-002   0.0000000000000000     
   6.6210462185694874E-002  0.10218825911572982        0.0000000000000000     
   6.8118183953863459E-002  0.10883549190013993        0.0000000000000000     
   5.4595333698946341E-002   8.2548874755512314E-002   0.0000000000000000     
   5.6624050176482262E-002   8.8747488190016585E-002   0.0000000000000000     
   5.8564131718873237E-002   9.5103407154814371E-002   0.0000000000000000     
   6.0415578326119289E-002  0.10161663164990570        0.0000000000000000     
   6.2178389998220410E-002  0.10828716167529050        0.0000000000000000     
   8.7122244934665971E-002  0.11075209722968019        0.0000000000000000     
   8.9394186767346590E-002  0.11747686755054546        0.0000000000000000     
   9.1589423287445473E-002  0.12432413566760203        0.0000000000000000     
   9.3707954494962664E-002  0.13129390158084991        0.0000000000000000     
   9.5749780389898148E-002  0.13838616529028905        0.0000000000000000     
   8.0590111422086247E-002  0.11006795967733476        0.0000000000000000     
   8.2714325771240771E-002  0.11681551817425068        0.0000000000000000     
   8.4776017880807963E-002  0.12369217529159797        0.0000000000000000     
   8.6775187750787894E-002  0.13069793102937668        0.0000000000000000     
   8.8711835381180548E-002  0.13783278538758678        0.0000000000000000     
   7.4255424428485414E-002  0.10942909123415469        0.0000000000000000     
   7.6234306417455031E-002  0.11619947792374251        0.0000000000000000     
   7.8160480887964109E-002  0.12310307398723125        0.0000000000000000     
   8.0033947840012609E-002  0.13013987942462085        0.0000000000000000     
   8.1854707273600544E-002  0.13730989423591131        0.0000000000000000     
   6.8118183953863459E-002  0.10883549190013993        0.0000000000000000     
   6.9954128705989424E-002  0.11562874679902101        0.0000000000000000     
   7.1742812308913870E-002  0.12255683175450181        0.0000000000000000     
   7.3484234762636783E-002  0.12961974676658239        0.0000000000000000     
   7.5178396067158121E-002  0.13681749183526271        0.0000000000000000     
   6.2178389998220410E-002  0.10828716167529050        0.0000000000000000     
   6.3873792636843951E-002  0.11510332480008610        0.0000000000000000     
   6.5523012143657272E-002  0.12205344859340971        0.0000000000000000     
   6.7126048518660386E-002  0.12913753305526132        0.0000000000000000     
   6.8682901761853279E-002  0.13635557818564092        0.0000000000000000     
   9.5749780389898148E-002  0.13838616529028905        0.0000000000000000     
   9.7696673487736349E-002  0.14560732702120610        0.0000000000000000     
   9.9530406303961719E-002  0.15296378699888757        0.0000000000000000     
  0.10125097883857423       0.16045554522333350        0.0000000000000000     
  0.10285839109157391       0.16808260169454389        0.0000000000000000     
   8.8711835381180548E-002  0.13783278538758678        0.0000000000000000     
   9.0550213669080420E-002  0.14508977117131572        0.0000000000000000     
   9.2254575511582018E-002  0.15246192118565094        0.0000000000000000     
   9.3824920908685314E-002  0.15994923543059250        0.0000000000000000     
   9.5261249860390335E-002  0.16755171390614032        0.0000000000000000     
   8.1854707273600544E-002  0.13730989423591131        0.0000000000000000     
   8.3578066238551782E-002  0.14459851470745622        0.0000000000000000     
   8.5159331784690109E-002  0.15199113712560897        0.0000000000000000     
   8.6598503912015595E-002  0.15948776149036969        0.0000000000000000     
   8.7895582620528184E-002  0.16708838780173829        0.0000000000000000     
   7.5178396067158121E-002  0.13681749183526271        0.0000000000000000     
   7.6780231196150392E-002  0.14413355762962757        0.0000000000000000     
   7.8244675123286034E-002  0.15155143481876171        0.0000000000000000     
   7.9571727848565102E-002  0.15907112340266513        0.0000000000000000     
   8.0761389371987499E-002  0.16669262338133783        0.0000000000000000     
   6.8682901761853279E-002  0.13635557818564092        0.0000000000000000     
   7.0156708541876292E-002  0.14369489993782977        0.0000000000000000     
   7.1510605527369792E-002  0.15114281426510906        0.0000000000000000     
   7.2744592718333764E-002  0.15869932116747876        0.0000000000000000     
   7.3858670114768224E-002  0.16636442064493895        0.0000000000000000     
   0.0000000000000000        0.0000000000000000        0.0000000000000000     
   2.8801958623713673E-003   1.7446974678960499E-003   0.0000000000000000     
   5.8729107429719308E-003   3.8643870921472021E-003   0.0000000000000000     
   8.9781446418016903E-003   6.3590688727534561E-003   0.0000000000000000     
   1.2195897558860644E-002   9.2287428097148141E-003   0.0000000000000000     
   0.0000000000000000        0.0000000000000000        0.0000000000000000     
   2.6104157609528784E-003   1.5887621629524129E-003   0.0000000000000000     
   5.2899345348650364E-003   3.5564088284715865E-003   0.0000000000000000     
   8.0385563217364731E-003   5.9029399965575199E-003   0.0000000000000000     
   1.0856281121567189E-002   8.6283556672102132E-003   0.0000000000000000     
   0.0000000000000000        0.0000000000000000        0.0000000000000000     
   2.3401763562087966E-003   1.4587663609720069E-003   0.0000000000000000     
   4.7203521055298910E-003   3.2994751748369436E-003   0.0000000000000000     
   7.1405272479632817E-003   5.5221264415948089E-003   0.0000000000000000     
   9.6007017835089709E-003   8.1267201612456041E-003   0.0000000000000000     
   0.0000000000000000        0.0000000000000000        0.0000000000000000     
   2.0694776481391219E-003   1.3547100619548320E-003   0.0000000000000000     
   4.1641634549664944E-003   3.0935861312432734E-003   0.0000000000000000     
   6.2840574204821179E-003   5.2166282078653240E-003   0.0000000000000000     
   8.4291595446859893E-003   7.7238362918209836E-003   0.0000000000000000     
   0.0000000000000000        0.0000000000000000        0.0000000000000000     
   1.7983196367438543E-003   1.2765932659008880E-003   0.0000000000000000     
   3.6213685831748468E-003   2.9387416976905762E-003   0.0000000000000000     
   5.4691468392929782E-003   4.9864452953690651E-003   0.0000000000000000     
   7.3416544050982479E-003   7.4197040589363541E-003   0.0000000000000000     
   1.2195897558860644E-002   9.2287428097148141E-003   0.0000000000000000     
   1.5428416723704340E-002   1.2371316809078664E-002   0.0000000000000000     
   1.8577949365888316E-002   1.5684698776892398E-002   0.0000000000000000     
   2.1644495485412578E-002   1.9168888713156019E-002   0.0000000000000000     
   2.4628055082277119E-002   2.2823886617869518E-002   0.0000000000000000     
   1.0856281121567189E-002   8.6283556672102132E-003   0.0000000000000000     
   1.3689738795465870E-002   1.1650354093546079E-002   0.0000000000000000     
   1.6485559204541186E-002   1.4886633528681520E-002   0.0000000000000000     
   1.9243742348793148E-002   1.8337193972616548E-002   0.0000000000000000     
   2.1964288228221759E-002   2.2002035425351153E-002   0.0000000000000000     
   9.6007017835089709E-003   8.1267201612456041E-003   0.0000000000000000     
   1.2077304580897312E-002   1.1045818269297064E-002   0.0000000000000000     
   1.4546764508858664E-002   1.4211982701256932E-002   0.0000000000000000     
   1.7009081567393024E-002   1.7625213457125203E-002   0.0000000000000000     
   1.9464255756500390E-002   2.1285510536901878E-002   0.0000000000000000     
   8.4291595446859893E-003   7.7238362918209836E-003   0.0000000000000000     
   1.0591114079998682E-002   1.0557709336331628E-002   0.0000000000000000     
   1.2761565278840745E-002   1.3660746294618626E-002   0.0000000000000000     
   1.4940513141212197E-002   1.7032947166681984E-002   0.0000000000000000     
   1.7127957667113024E-002   2.0674311952521701E-002   0.0000000000000000     
   7.3416544050982479E-003   7.4197040589363541E-003   0.0000000000000000     
   9.2311672927699647E-003   1.0186027294649765E-002   0.0000000000000000     
   1.1129961514487436E-002   1.3232924308766611E-002   0.0000000000000000     
   1.3038037070250669E-002   1.6560395101286898E-002   0.0000000000000000     
   1.4955393960059651E-002   2.0168439672210624E-002   0.0000000000000000     
   2.4628055082277119E-002   2.2823886617869518E-002   0.0000000000000000     
   2.7532980335646599E-002   2.6672488180970774E-002   0.0000000000000000     
   3.0363623424685675E-002   3.0737489092397655E-002   0.0000000000000000     
   3.3119984349394352E-002   3.5018889352150161E-002   0.0000000000000000     
   3.5802063109772610E-002   3.9516688960228280E-002   0.0000000000000000     
   2.1964288228221759E-002   2.2002035425351153E-002   0.0000000000000000     
   2.4630890320500108E-002   2.5879305411912527E-002   0.0000000000000000     
   2.7227242103301300E-002   2.9967151457327861E-002   0.0000000000000000     
   2.9753343576625336E-002   3.4265573561597165E-002   0.0000000000000000     
   3.2209194740472215E-002   3.8774571724720430E-002   0.0000000000000000     
   1.9464255756500390E-002   2.1285510536901878E-002   0.0000000000000000     
   2.1884187156897349E-002   2.5174280205256482E-002   0.0000000000000000     
   2.4240775849300473E-002   2.9272928726858549E-002   0.0000000000000000     
   2.6534021833709759E-002   3.3581456101708068E-002   0.0000000000000000     
   2.8763925110125217E-002   3.8099862329805050E-002   0.0000000000000000     
   1.7127957667113024E-002   2.0674311952521701E-002   0.0000000000000000     
   1.9292870844838328E-002   2.4557412561002655E-002   0.0000000000000000     
   2.1404224662683189E-002   2.8654820900989704E-002   0.0000000000000000     
   2.3462019120647618E-002   3.2966536972482884E-002   0.0000000000000000     
   2.5466254218731613E-002   3.7492560775482145E-002   0.0000000000000000     
   1.4955393960059651E-002   2.0168439672210624E-002   0.0000000000000000     
   1.6856941384323032E-002   2.4028702479151023E-002   0.0000000000000000     
   1.8717588543449449E-002   2.8112827979721346E-002   0.0000000000000000     
   2.0537335437438908E-002   3.2420816173921584E-002   0.0000000000000000     
   2.2316182066291407E-002   3.6952667061751737E-002   0.0000000000000000     
   3.5802063109772610E-002   3.9516688960228280E-002   0.0000000000000000     
   3.8408800057663124E-002   4.4221321641316813E-002   0.0000000000000000     
   4.0939135544908550E-002   4.9123221120100570E-002   0.0000000000000000     
   4.3393069571508902E-002   5.4222387396579523E-002   0.0000000000000000     
   4.5770602137464159E-002   5.9518820470753700E-002   0.0000000000000000     
   3.2209194740472215E-002   3.8774571724720430E-002   0.0000000000000000     
   3.4595967070402925E-002   4.3489389980039178E-002   0.0000000000000000     
   3.6914832041978464E-002   4.8405272360894952E-002   0.0000000000000000     
   3.9165789655198811E-002   5.3522218867287752E-002   0.0000000000000000     
   4.1348839910063988E-002   5.8840229499217571E-002   0.0000000000000000     
   2.8763925110125217E-002   3.8099862329805050E-002   0.0000000000000000     
   3.0931972917921224E-002   4.2825062074811168E-002   0.0000000000000000     
   3.3039652496472151E-002   4.7753970000388106E-002   0.0000000000000000     
   3.5086963845778009E-002   5.2886586106535884E-002   0.0000000000000000     
   3.7073906965838788E-002   5.8222910393254459E-002   0.0000000000000000     
   2.5466254218731613E-002   3.7492560775482145E-002   0.0000000000000000     
   2.7416817600218010E-002   4.2228337925632797E-002   0.0000000000000000     
   2.9313596908389628E-002   4.7169314038580039E-002   0.0000000000000000     
   3.1156592143246481E-002   5.2315489114323911E-002   0.0000000000000000     
   3.2945803304788565E-002   5.7666863152864394E-002   0.0000000000000000     
   2.2316182066291407E-002   3.6952667061751737E-002   0.0000000000000000     
   2.4050501117293281E-002   4.1699217532504038E-002   0.0000000000000000     
   2.5736665277730893E-002   4.6651304475470737E-002   0.0000000000000000     
   2.7374674547604234E-002   5.1808927890651842E-002   0.0000000000000000     
   2.8964528926913310E-002   5.7172087778047345E-002   0.0000000000000000     
   4.5770602137464159E-002   5.9518820470753700E-002   0.0000000000000000     
   4.8076646736781331E-002   6.5004498718317441E-002   0.0000000000000000     
   5.0316116863467424E-002   7.0671400514965135E-002   0.0000000000000000     
   5.2489012517522429E-002   7.6519525860696755E-002   0.0000000000000000     
   5.4595333698946341E-002   8.2548874755512314E-002   0.0000000000000000     
   4.1348839910063988E-002   5.8840229499217571E-002   0.0000000000000000     
   4.3466887558026392E-002   6.4349029012565007E-002   0.0000000000000000     
   4.5522837350538456E-002   7.0038342163210615E-002   0.0000000000000000     
   4.7516689287600174E-002   7.5908168951154431E-002   0.0000000000000000     
   4.9448443369211552E-002   8.1958509376396441E-002   0.0000000000000000     
   3.7073906965838788E-002   5.8222910393254459E-002   0.0000000000000000     
   3.9002157360153375E-002   6.3751331884105422E-002   0.0000000000000000     
   4.0873390532220673E-002   6.9460239602650270E-002   0.0000000000000000     
   4.2687606482040674E-002   7.5349633548889017E-002   0.0000000000000000     
   4.4444805209613372E-002   8.1419513722821676E-002   0.0000000000000000     
   3.2945803304788565E-002   5.7666863152864394E-002   0.0000000000000000     
   3.4682456143162288E-002   6.3211407332938702E-002   0.0000000000000000     
   3.6367776408514074E-002   6.8937092833284086E-002   0.0000000000000000     
   3.8001764100843931E-002   7.4843919653900484E-002   0.0000000000000000     
   3.9584419220151837E-002   8.0931887794787966E-002   0.0000000000000000     
   2.8964528926913310E-002   5.7172087778047345E-002   0.0000000000000000     
   3.0507783907053113E-002   6.2729255359064873E-002   0.0000000000000000     
   3.2005994979418653E-002   6.8468901855112035E-002   0.0000000000000000     
   3.3459162144009916E-002   7.4391027266188875E-002   0.0000000000000000     
   3.4867285400826932E-002   8.0495631592295364E-002   0.0000000000000000     
   5.4595333698946341E-002   8.2548874755512314E-002   0.0000000000000000     
   5.6624050176482262E-002   8.8747488190016585E-002   0.0000000000000000     
   5.8564131718873237E-002   9.5103407154814371E-002   0.0000000000000000     
   6.0415578326119289E-002  0.10161663164990570        0.0000000000000000     
   6.2178389998220410E-002  0.10828716167529050        0.0000000000000000     
   4.9448443369211552E-002   8.1958509376396441E-002   0.0000000000000000     
   5.1308887038438139E-002   8.8178025620739620E-002   0.0000000000000000     
   5.3088807738345518E-002   9.4555379865986930E-002   0.0000000000000000     
   5.4788205468933683E-002  0.10109057211213834        0.0000000000000000     
   5.6407080230202647E-002  0.10778360235919390        0.0000000000000000     
   4.4444805209613372E-002   8.1419513722821676E-002   0.0000000000000000     
   4.6136978241252867E-002   8.7658656315444866E-002   0.0000000000000000     
   4.7756117103273231E-002   9.4055837517755245E-002   0.0000000000000000     
   4.9302221795674464E-002  0.10061105732975283        0.0000000000000000     
   5.0775292318456580E-002  0.10732431575143757        0.0000000000000000     
   3.9584419220151837E-002   8.0931887794787966E-002   0.0000000000000000     
   4.1108323784926445E-002   8.7189380274132339E-002   0.0000000000000000     
   4.2566059813656375E-002   9.3604780110119357E-002   0.0000000000000000     
   4.3957627306341639E-002  0.10017808730274907        0.0000000000000000     
   4.5283026262982216E-002  0.10690930185202148        0.0000000000000000     
   3.4867285400826932E-002   8.0495631592295364E-002   0.0000000000000000     
   3.6222923669458874E-002   8.6770197496801982E-002   0.0000000000000000     
   3.7518635869494964E-002   9.3202207643079252E-002   0.0000000000000000     
   3.8754422000935200E-002   9.9791662031127132E-002   0.0000000000000000     
   3.9930282063779569E-002  0.10653856066094566        0.0000000000000000     
   6.2178389998220410E-002  0.10828716167529050        0.0000000000000000     
   6.3873792636843951E-002  0.11510332480008610        0.0000000000000000     
   6.5523012143657272E-002  0.12205344859340971        0.0000000000000000     
   6.7126048518660386E-002  0.12913753305526132        0.0000000000000000     
   6.8682901761853279E-002  0.13635557818564092        0.0000000000000000     
   5.6407080230202647E-002  0.10778360235919390        0.0000000000000000     
   5.7962560648423957E-002  0.11462175433767435        0.0000000000000000     
   5.9471775349869221E-002  0.12159231177810054        0.0000000000000000     
   6.0934724334538427E-002  0.12869527468047243        0.0000000000000000     
   6.2351407602431581E-002  0.13593064304478999        0.0000000000000000     
   5.0775292318456580E-002  0.10732431575143757        0.0000000000000000     
   5.2189695179134861E-002  0.11418257782252232        0.0000000000000000     
   5.3559796885224636E-002  0.12117280858271998        0.0000000000000000     
   5.4885597436725879E-002  0.12829500803203051        0.0000000000000000     
   5.6167096833638602E-002  0.13554917617045387        0.0000000000000000     
   4.5283026262982216E-002  0.10690930185202148        0.0000000000000000     
   4.6555196228976657E-002  0.11378579525462997        0.0000000000000000     
   4.7787076749723496E-002  0.12079493900726800        0.0000000000000000     
   4.8978667825222720E-002  0.12793673310993556        0.0000000000000000     
   5.0129969455474356E-002  0.13521117756263257        0.0000000000000000     
   3.9930282063779569E-002  0.10653856066094566        0.0000000000000000     
   4.1059063797949359E-002  0.11343140663399733        0.0000000000000000     
   4.2153614943365836E-002  0.12045870305174464        0.0000000000000000     
   4.3213935500028985E-002  0.12762044991418756        0.0000000000000000     
   4.4240025467938829E-002  0.13491664722132612        0.0000000000000000     
   6.8682901761853279E-002  0.13635557818564092        0.0000000000000000     
   7.0156708541876292E-002  0.14369489993782977        0.0000000000000000     
   7.1510605527369792E-002  0.15114281426510906        0.0000000000000000     
   7.2744592718333764E-002  0.15869932116747876        0.0000000000000000     
   7.3858670114768224E-002  0.16636442064493895        0.0000000000000000     
   6.2351407602431581E-002  0.13593064304478999        0.0000000000000000     
   6.3695111396552123E-002  0.14329078478642421        0.0000000000000000     
   6.4939121959903506E-002  0.15076806782074606        0.0000000000000000     
   6.6083439292485752E-002  0.15836249214775552        0.0000000000000000     
   6.7128063394298818E-002  0.16607405776745260        0.0000000000000000     
   5.6167096833638602E-002  0.13554917617045387        0.0000000000000000     
   5.7383052881000519E-002  0.14292945532977225        0.0000000000000000     
   5.8512223383849350E-002  0.15042998784176767        0.0000000000000000     
   5.9554608342185067E-002  0.15805077370644016        0.0000000000000000     
   6.0510207756007676E-002  0.16579181292378981        0.0000000000000000     
   5.0129969455474356E-002  0.13521117756263257        0.0000000000000000     
   5.1220532995221509E-002  0.14261091156787381        0.0000000000000000     
   5.2229909799207296E-002  0.15012857432817386        0.0000000000000000     
   5.3158099867431731E-002  0.15776416584353278        0.0000000000000000     
   5.4005103199894815E-002  0.16551768611395051        0.0000000000000000     
   4.4240025467938829E-002  0.13491664722132612        0.0000000000000000     
   4.5207551739215056E-002  0.14233515350072898        0.0000000000000000     
   4.6092181205977356E-002  0.14986382727996470        0.0000000000000000     
   4.6893913868225758E-002  0.15750266855903330        0.0000000000000000     
   4.7612749725960225E-002  0.16525167733793480        0.0000000000000000     
   0.0000000000000000        0.0000000000000000        0.0000000000000000     
   1.7983196367438543E-003   1.2765932659008880E-003   0.0000000000000000     
   3.6213685831748468E-003   2.9387416976905762E-003   0.0000000000000000     
   5.4691468392929782E-003   4.9864452953690651E-003   0.0000000000000000     
   7.3416544050982479E-003   7.4197040589363541E-003   0.0000000000000000     
   0.0000000000000000        0.0000000000000000        0.0000000000000000     
   1.5349807526542447E-003   1.2173085125883431E-003   0.0000000000000000     
   3.0993269597660265E-003   2.8204406550207941E-003   0.0000000000000000     
   4.6930386213353452E-003   4.8093964272973534E-003   0.0000000000000000     
   6.3161157373622006E-003   7.1841758294180188E-003   0.0000000000000000     
   0.0000000000000000        0.0000000000000000        0.0000000000000000     
   1.2877394265015450E-003   1.1697483417953650E-003   0.0000000000000000     
   2.6053980543511114E-003   2.7241817840758676E-003   0.0000000000000000     
   3.9529758835486995E-003   4.6633003268415057E-003   0.0000000000000000     
   5.3304729140943091E-003   6.9871039700922831E-003   0.0000000000000000     
   0.0000000000000000        0.0000000000000000        0.0000000000000000     
   1.0565956582857549E-003   1.1339127535219540E-003   0.0000000000000000     
   2.1395818669301026E-003   2.6499650848557971E-003   0.0000000000000000     
   3.2489586259330412E-003   4.5481569940015272E-003   0.0000000000000000     
   4.3847259352945743E-003   6.8284884809591464E-003   0.0000000000000000     
   0.0000000000000000        0.0000000000000000        0.0000000000000000     
   8.4154944800687447E-004   1.1098017477681099E-003   0.0000000000000000     
   1.7018783975029984E-003   2.5977905573605813E-003   0.0000000000000000     
   2.5809868484883711E-003   4.4639664287774144E-003   0.0000000000000000     
   3.4788748009629933E-003   6.7083293620186094E-003   0.0000000000000000     
   7.3416544050982479E-003   7.4197040589363541E-003   0.0000000000000000     
   9.2311672927699647E-003   1.0186027294649765E-002   0.0000000000000000     
   1.1129961514487436E-002   1.3232924308766611E-002   0.0000000000000000     
   1.3038037070250669E-002   1.6560395101286898E-002   0.0000000000000000     
   1.4955393960059651E-002   2.0168439672210624E-002   0.0000000000000000     
   6.3161157373622006E-003   7.1841758294180188E-003   0.0000000000000000     
   7.9558051606942199E-003   9.8951438063607563E-003   0.0000000000000000     
   9.5993537441790306E-003   1.2892665303103531E-002   0.0000000000000000     
   1.1246761487816630E-002   1.6176740319646339E-002   0.0000000000000000     
   1.2898028391607023E-002   1.9747368855989184E-002   0.0000000000000000     
   5.3304729140943091E-003   6.9871039700922831E-003   0.0000000000000000     
   6.7233686252544996E-003   9.6494305335738939E-003   0.0000000000000000     
   8.1171424962958282E-003   1.2604117837032041E-002   0.0000000000000000     
   9.5117945272182904E-003   1.5851165880466717E-002   0.0000000000000000     
   1.0907324718021893E-002   1.9390574663877929E-002   0.0000000000000000     
   4.3847259352945743E-003   6.8284884809591464E-003   0.0000000000000000     
   5.5338576864508004E-003   9.4488874762891761E-003   0.0000000000000000     
   6.6833277708378235E-003   1.2367281910552134E-002   0.0000000000000000     
   7.8331361884556444E-003   1.5583671783748029E-002   0.0000000000000000     
   8.9832829393042615E-003   1.9098057095876853E-002   0.0000000000000000     
   3.4788748009629933E-003   6.7083293620186094E-003   0.0000000000000000     
   4.3872723442831248E-003   9.2935146345066010E-003   0.0000000000000000     
   5.2979095678050226E-003   1.2182157523663821E-002   0.0000000000000000     
   6.2107864715286896E-003   1.5374258029490278E-002   0.0000000000000000     
   7.1259030554541251E-003   1.8869816151985963E-002   0.0000000000000000     
   1.4955393960059651E-002   2.0168439672210624E-002   0.0000000000000000     
   1.6856941384323032E-002   2.4028702479151023E-002   0.0000000000000000     
   1.8717588543449449E-002   2.8112827979721346E-002   0.0000000000000000     
   2.0537335437438908E-002   3.2420816173921584E-002   0.0000000000000000     
   2.2316182066291407E-002   3.6952667061751737E-002   0.0000000000000000     
   1.2898028391607023E-002   1.9747368855989184E-002   0.0000000000000000     
   1.4537006403377507E-002   2.3578620641619297E-002   0.0000000000000000     
   1.6147547470955381E-002   2.7644565406023912E-002   0.0000000000000000     
   1.7729651594340645E-002   3.1945203149203030E-002   0.0000000000000000     
   1.9283318773533301E-002   3.6480533871156628E-002   0.0000000000000000     
   1.0907324718021893E-002   1.9390574663877929E-002   0.0000000000000000     
   1.2293673530027780E-002   2.3197637730325148E-002   0.0000000000000000     
   1.3660781424557098E-002   2.7247648622867850E-002   0.0000000000000000     
   1.5008648401609847E-002   3.1540607341506037E-002   0.0000000000000000     
   1.6337274461186029E-002   3.6076513886239704E-002   0.0000000000000000     
   8.9832829393042615E-003   1.9098057095876853E-002   0.0000000000000000     
   1.0126942764273856E-002   2.2885753745268574E-002   0.0000000000000000     
   1.1257290404254607E-002   2.6922077630253165E-002   0.0000000000000000     
   1.2374325859246516E-002   3.1207028750830625E-002   0.0000000000000000     
   1.3478049129249586E-002   3.5740607107000950E-002   0.0000000000000000     
   7.1259030554541251E-003   1.8869816151985963E-002   0.0000000000000000     
   8.0368141061157288E-003   2.2642968686449588E-002   0.0000000000000000     
   8.9370744100479051E-003   2.6667852428179858E-002   0.0000000000000000     
   9.8266839672506521E-003   3.0944467377176786E-002   0.0000000000000000     
   1.0705642777723972E-002   3.5472813533440367E-002   0.0000000000000000     
   2.2316182066291407E-002   3.6952667061751737E-002   0.0000000000000000     
   2.4050501117293281E-002   4.1699217532504038E-002   0.0000000000000000     
   2.5736665277730893E-002   4.6651304475470737E-002   0.0000000000000000     
   2.7374674547604234E-002   5.1808927890651842E-002   0.0000000000000000     
   2.8964528926913310E-002   5.7172087778047345E-002   0.0000000000000000     
   1.9283318773533301E-002   3.6480533871156628E-002   0.0000000000000000     
   2.0801430730716306E-002   4.1236081539453545E-002   0.0000000000000000     
   2.2276869188072614E-002   4.6197370121662543E-002   0.0000000000000000     
   2.3709634145602222E-002   5.1364399617783635E-002   0.0000000000000000     
   2.5099725603305135E-002   5.6737170027816836E-002   0.0000000000000000     
   1.6337274461186029E-002   3.6076513886239704E-002   0.0000000000000000     
   1.7638013702056334E-002   4.0837310590509934E-002   0.0000000000000000     
   1.8902220222991456E-002   4.5804939787757772E-002   0.0000000000000000     
   2.0129894023991395E-002   5.0979401477983244E-002   0.0000000000000000     
   2.1321035105056143E-002   5.6360695661186330E-002   0.0000000000000000     
   1.3478049129249586E-002   3.5740607107000950E-002   0.0000000000000000     
   1.4560250031313369E-002   4.0502904685673205E-002   0.0000000000000000     
   1.5612718382487425E-002   4.5474013473756437E-002   0.0000000000000000     
   1.6635454182771747E-002   5.0653933471250669E-002   0.0000000000000000     
   1.7628457432166341E-002   5.6042664678155892E-002   0.0000000000000000     
   1.0705642777723972E-002   3.5472813533440367E-002   0.0000000000000000     
   1.1568139718487408E-002   4.0232863824943357E-002   0.0000000000000000     
   1.2408363666560514E-002   4.5204591179658540E-002   0.0000000000000000     
   1.3226314621943284E-002   5.0387995597585909E-002   0.0000000000000000     
   1.4021992584635722E-002   5.5783077078725464E-002   0.0000000000000000     
   2.8964528926913310E-002   5.7172087778047345E-002   0.0000000000000000     
   3.0507783907053113E-002   6.2729255359064873E-002   0.0000000000000000     
   3.2005994979418653E-002   6.8468901855112035E-002   0.0000000000000000     
   3.3459162144009916E-002   7.4391027266188875E-002   0.0000000000000000     
   3.4867285400826932E-002   8.0495631592295364E-002   0.0000000000000000     
   2.5099725603305135E-002   5.6737170027816836E-002   0.0000000000000000     
   2.6449138488337704E-002   6.2304768818844197E-002   0.0000000000000000     
   2.7759867727856290E-002   6.8056283457947855E-002   0.0000000000000000     
   2.9031913321860885E-002   7.3991713945127796E-002   0.0000000000000000     
   3.0265275270351492E-002   8.0111060280384006E-002   0.0000000000000000     
   2.1321035105056143E-002   5.6360695661186330E-002   0.0000000000000000     
   2.2477517723527907E-002   6.1937840568637006E-002   0.0000000000000000     
   2.3601216136748867E-002   6.7699854431605200E-002   0.0000000000000000     
   2.4692130344719017E-002   7.3646737250090910E-002   0.0000000000000000     
   2.5750260347438363E-002   7.9778489024094165E-002   0.0000000000000000     
   1.7628457432166341E-002   5.6042664678155892E-002   0.0000000000000000     
   1.8592921612623717E-002   6.1628470608443287E-002   0.0000000000000000     
   1.9530040206096378E-002   6.7399614776084055E-002   0.0000000000000000     
   2.0439813212584319E-002   7.3356097181078245E-002   0.0000000000000000     
   2.1322240632087548E-002   7.9497917823425773E-002   0.0000000000000000     
   1.4021992584635722E-002   5.5783077078725464E-002   0.0000000000000000     
   1.4795350155625133E-002   6.1376658938263037E-002   0.0000000000000000     
   1.5546339935898821E-002   6.7155564491384476E-002   0.0000000000000000     
   1.6274961925456792E-002   7.3119793738089744E-002   0.0000000000000000     
   1.6981216124299044E-002   7.9269346678378871E-002   0.0000000000000000     
   3.4867285400826932E-002   8.0495631592295364E-002   0.0000000000000000     
   3.6222923669458874E-002   8.6770197496801982E-002   0.0000000000000000     
   3.7518635869494964E-002   9.3202207643079252E-002   0.0000000000000000     
   3.8754422000935200E-002   9.9791662031127132E-002   0.0000000000000000     
   3.9930282063779569E-002  0.10653856066094566        0.0000000000000000     
   3.0265275270351492E-002   8.0111060280384006E-002   0.0000000000000000     
   3.1452465601769293E-002   8.6400858861351307E-002   0.0000000000000000     
   3.2585996344555439E-002   9.2847646085664468E-002   0.0000000000000000     
   3.3665867498709964E-002   9.9451421953323446E-002   0.0000000000000000     
   3.4692079064232835E-002  0.10621218646432831        0.0000000000000000     
   2.5750260347438363E-002   7.9778489024094165E-002   0.0000000000000000     
   2.6768637288776813E-002   8.6081115245677770E-002   0.0000000000000000     
   2.7740292312604282E-002   9.2540621406904527E-002   0.0000000000000000     
   2.8665225418920755E-002   9.9157007507774467E-002   0.0000000000000000     
   2.9543436607726237E-002  0.10593027354828760        0.0000000000000000     
   2.1322240632087548E-002   7.9497917823425773E-002   0.0000000000000000     
   2.2171438730481469E-002   8.5810966649781314E-002   0.0000000000000000     
   2.2981523773641474E-002   9.2281133606799445E-002   0.0000000000000000     
   2.3752495761567575E-002   9.8908418694480194E-002   0.0000000000000000     
   2.4484354694259768E-002  0.10569282191282352        0.0000000000000000     
   1.6981216124299044E-002   7.9269346678378871E-002   0.0000000000000000     
   1.7660869926883236E-002   8.5590413073661983E-002   0.0000000000000000     
   1.8309690727667031E-002   9.2069182685349235E-002   0.0000000000000000     
   1.8927678526650428E-002   9.8705655513440585E-002   0.0000000000000000     
   1.9514833323833431E-002  0.10549983155793607        0.0000000000000000     
   3.9930282063779569E-002  0.10653856066094566        0.0000000000000000     
   4.1059063797949359E-002  0.11343140663399733        0.0000000000000000     
   4.2153614943365836E-002  0.12045870305174464        0.0000000000000000     
   4.3213935500028985E-002  0.12762044991418756        0.0000000000000000     
   4.4240025467938829E-002  0.13491664722132612        0.0000000000000000     
   3.4692079064232835E-002  0.10621218646432831        0.0000000000000000     
   3.5677618072547719E-002  0.11311971220894376        0.0000000000000000     
   3.6635471555078243E-002  0.12016377177743458        0.0000000000000000     
   3.7565639511824407E-002  0.12734436516980074        0.0000000000000000     
   3.8468121942786225E-002  0.13466149238604225        0.0000000000000000     
   2.9543436607726237E-002  0.10593027354828760        0.0000000000000000     
   3.0387179239266510E-002  0.11285101222778869        0.0000000000000000     
   3.1208706673787348E-002  0.11990981624562257        0.0000000000000000     
   3.2008018911288759E-002  0.12710668560178925        0.0000000000000000     
   3.2785115951770749E-002  0.13444162029628870        0.0000000000000000     
   2.4484354694259768E-002  0.10569282191282352        0.0000000000000000     
   2.5187747298105734E-002  0.11262530669053211        0.0000000000000000     
   2.5873320299493161E-002  0.11969683645630862        0.0000000000000000     
   2.6541073698422041E-002  0.12690741121015309        0.0000000000000000     
   2.7191007494892387E-002  0.13425703095206545        0.0000000000000000     
   1.9514833323833431E-002  0.10549983155793607        0.0000000000000000     
   2.0079322249065390E-002  0.11244259559717400        0.0000000000000000     
   2.0629312432195665E-002  0.11952483240949272        0.0000000000000000     
   2.1164803873224253E-002  0.12674654199489221        0.0000000000000000     
   2.1685796572151153E-002  0.13410772435337254        0.0000000000000000     
   4.4240025467938829E-002  0.13491664722132612        0.0000000000000000     
   4.5207551739215056E-002  0.14233515350072898        0.0000000000000000     
   4.6092181205977356E-002  0.14986382727996470        0.0000000000000000     
   4.6893913868225758E-002  0.15750266855903330        0.0000000000000000     
   4.7612749725960225E-002  0.16525167733793480        0.0000000000000000     
   3.8468121942786225E-002  0.13466149238604225        0.0000000000000000     
   3.9314474615873576E-002  0.14209801396410174        0.0000000000000000     
   4.0076253298996375E-002  0.14963679044192191        0.0000000000000000     
   4.0753457992154615E-002  0.15727782181950264        0.0000000000000000     
   4.1346088695348296E-002  0.16502110809684400        0.0000000000000000     
   3.2785115951770749E-002  0.13444162029628870        0.0000000000000000     
   3.3511667128089478E-002  0.14189532579375627        0.0000000000000000     
   3.4159341773101169E-002  0.14944850755882727        0.0000000000000000     
   3.4728139886805807E-002  0.15710116559150170        0.0000000000000000     
   3.5218061469203393E-002  0.16485329989177958        0.0000000000000000     
   2.7191007494892387E-002  0.13425703095206545        0.0000000000000000     
   2.7799129275862765E-002  0.14172708898969250        0.0000000000000000     
   2.8341446628291744E-002  0.14929897863068081        0.0000000000000000     
   2.8817959552179345E-002  0.15697269987503046        0.0000000000000000     
   2.9228668047525535E-002  0.16474825272274149        0.0000000000000000     
   2.1685796572151153E-002  0.13410772435337254        0.0000000000000000     
   2.2176861059193424E-002  0.14159330355191041        0.0000000000000000     
   2.2622567864568108E-002  0.14918820365748253        0.0000000000000000     
   2.3022916988275202E-002  0.15689242467008901        0.0000000000000000     
   2.3377908430314714E-002  0.16470596658972975        0.0000000000000000     
   0.0000000000000000        0.0000000000000000        0.0000000000000000     
   8.4154944800687447E-004   1.1098017477681099E-003   0.0000000000000000     
   1.7018783975029984E-003   2.5977905573605813E-003   0.0000000000000000     
   2.5809868484883711E-003   4.4639664287774144E-003   0.0000000000000000     
   3.4788748009629933E-003   6.7083293620186094E-003   0.0000000000000000     
   0.0000000000000000        0.0000000000000000        0.0000000000000000     
   6.3369453453137833E-004   1.0938385449273591E-003   0.0000000000000000     
   1.2777518785914948E-003   2.5617935947852902E-003   0.0000000000000000     
   1.9321720321803498E-003   4.4038651495737925E-003   0.0000000000000000     
   2.5969549952979429E-003   6.6200532092928676E-003   0.0000000000000000     
   0.0000000000000000        0.0000000000000000        0.0000000000000000     
   4.2412465672574085E-004   1.0824463653932273E-003   0.0000000000000000     
   8.5266654271728731E-004   2.5361095903249889E-003   0.0000000000000000     
   1.2856256579746393E-003   4.3609896747952848E-003   0.0000000000000000     
   1.7230020024977971E-003   6.5570866188041166E-003   0.0000000000000000     
   0.0000000000000000        0.0000000000000000        0.0000000000000000     
   2.1283981458996220E-004   1.0756252091657147E-003   0.0000000000000000     
   4.2662238988037547E-004   2.5207385439796792E-003   0.0000000000000000     
   6.4134772587123986E-004   4.3353400044418939E-003   0.0000000000000000     
   8.5701582256255543E-004   6.5194295905523572E-003   0.0000000000000000     
   0.0000000000000000        0.0000000000000000        0.0000000000000000     
  -1.5999187595765250E-007   1.0733750762448213E-003   0.0000000000000000     
  -3.8057991924041580E-007   2.5156804557493603E-003   0.0000000000000000     
  -6.6176412984837122E-007   4.3269161385136156E-003   0.0000000000000000     
  -1.0035445077814645E-006   6.5070821245375903E-003   0.0000000000000000     
   3.4788748009629933E-003   6.7083293620186094E-003   0.0000000000000000     
   4.3872723442831248E-003   9.2935146345066010E-003   0.0000000000000000     
   5.2979095678050226E-003   1.2182157523663821E-002   0.0000000000000000     
   6.2107864715286896E-003   1.5374258029490278E-002   0.0000000000000000     
   7.1259030554541251E-003   1.8869816151985963E-002   0.0000000000000000     
   2.5969549952979429E-003   6.6200532092928676E-003   0.0000000000000000     
   3.2691385667641430E-003   9.1773762078147577E-003   0.0000000000000000     
   3.9457605453988194E-003   1.2042852579011706E-002   0.0000000000000000     
   4.6268209312019717E-003   1.5216482322883714E-002   0.0000000000000000     
   5.3123197241736015E-003   1.8698265439430782E-002   0.0000000000000000     
   1.7230020024977971E-003   6.5570866188041166E-003   0.0000000000000000     
   2.1649823219065303E-003   9.0945363958022368E-003   0.0000000000000000     
   2.6117533618206091E-003   1.1943474979240400E-002   0.0000000000000000     
   3.0633151222400341E-003   1.5103902369118604E-002   0.0000000000000000     
   3.5196676031648048E-003   1.8575818565436848E-002   0.0000000000000000     
   8.5701582256255543E-004   6.5194295905523572E-003   0.0000000000000000     
   1.0748036097102849E-003   9.0449951984690365E-003   0.0000000000000000     
   1.2958880170703916E-003   1.1884024724349899E-002   0.0000000000000000     
   1.5202690446428752E-003   1.5036518168194939E-002   0.0000000000000000     
   1.7479466924277356E-003   1.8502475530004163E-002   0.0000000000000000     
  -1.0035445077814645E-006   6.5070821245375903E-003   0.0000000000000000     
  -1.3975698245922427E-006   9.0287526158151603E-003   0.0000000000000000     
  -1.8354888518334084E-006   1.1864501814340206E-002   0.0000000000000000     
  -2.3173015895046414E-006   1.5014329720112728E-002   0.0000000000000000     
  -2.8430080376060487E-006   1.8478236333132725E-002   0.0000000000000000     
   7.1259030554541251E-003   1.8869816151985963E-002   0.0000000000000000     
   8.0368141061157288E-003   2.2642968686449588E-002   0.0000000000000000     
   8.9370744100479051E-003   2.6667852428179858E-002   0.0000000000000000     
   9.8266839672506521E-003   3.0944467377176786E-002   0.0000000000000000     
   1.0705642777723972E-002   3.5472813533440367E-002   0.0000000000000000     
   5.3123197241736015E-003   1.8698265439430782E-002   0.0000000000000000     
   5.9954214829763715E-003   2.2460803114636250E-002   0.0000000000000000     
   6.6692907662729483E-003   2.6476696534483465E-002   0.0000000000000000     
   7.3339275740633321E-003   3.0745945698972418E-002   0.0000000000000000     
   7.9893319063475219E-003   3.5268550608103119E-002   0.0000000000000000     
   3.5196676031648048E-003   1.8575818565436848E-002   0.0000000000000000     
   3.9748988222787478E-003   2.2330777590596644E-002   0.0000000000000000     
   4.4230967972656906E-003   2.6340333466999502E-002   0.0000000000000000     
   4.8642615281256343E-003   3.0604486194645415E-002   0.0000000000000000     
   5.2983930148585755E-003   3.5123235773534378E-002   0.0000000000000000     
   1.7479466924277356E-003   1.8502475530004163E-002   0.0000000000000000     
   1.9752461240228596E-003   2.2252892114330774E-002   0.0000000000000000     
   2.1984925030261340E-003   2.6258763225727975E-002   0.0000000000000000     
   2.4176858294375574E-003   3.0520088864195768E-002   0.0000000000000000     
   2.6328261032571320E-003   3.5036869029734151E-002   0.0000000000000000     
  -2.8430080376060487E-006   1.8478236333132725E-002   0.0000000000000000     
  -3.5366117912936793E-006   2.2227146685838632E-002   0.0000000000000000     
  -4.5221164457234472E-006   2.6231985810668886E-002   0.0000000000000000     
  -5.7995220008955081E-006   3.0492753707623488E-002   0.0000000000000000     
  -7.3688284568087983E-006   3.5009450376702438E-002   0.0000000000000000     
   1.0705642777723972E-002   3.5472813533440367E-002   0.0000000000000000     
   1.1568139718487408E-002   4.0232863824943357E-002   0.0000000000000000     
   1.2408363666560514E-002   4.5204591179658540E-002   0.0000000000000000     
   1.3226314621943284E-002   5.0387995597585909E-002   0.0000000000000000     
   1.4021992584635722E-002   5.5783077078725464E-002   0.0000000000000000     
   7.9893319063475219E-003   3.5268550608103119E-002   0.0000000000000000     
   8.6325814537050616E-003   4.0025045314259315E-002   0.0000000000000000     
   9.2607539067154944E-003   4.4995963869824768E-002   0.0000000000000000     
   9.8738492653788184E-003   5.0181306274799477E-002   0.0000000000000000     
   1.0471867529695037E-002   5.5581072529183435E-002   0.0000000000000000     
   5.2983930148585755E-003   3.5123235773534378E-002   0.0000000000000000     
   5.7244739270929362E-003   3.9877306459559989E-002   0.0000000000000000     
   6.1414869344571339E-003   4.4847422508615835E-002   0.0000000000000000     
   6.5494320369511704E-003   5.0033583920701889E-002   0.0000000000000000     
   6.9483092345750432E-003   5.5435790695818173E-002   0.0000000000000000     
   2.6328261032571320E-003   3.5036869029734151E-002   0.0000000000000000     
   2.8438171386510314E-003   3.9789647260845384E-002   0.0000000000000000     
   3.0505627497854322E-003   4.4758967096031721E-002   0.0000000000000000     
   3.2530629366603341E-003   4.9944828535293140E-002   0.0000000000000000     
   3.4513176992757369E-003   5.5347231578629669E-002   0.0000000000000000     
  -7.3688284568087983E-006   3.5009450376702438E-002   0.0000000000000000     
  -9.3889116206521614E-006   3.9762067718115496E-002   0.0000000000000000     
  -1.2018647299611405E-005   4.4730597632072433E-002   0.0000000000000000     
  -1.5258035493687181E-005   4.9915040118573242E-002   0.0000000000000000     
  -1.9107076202879922E-005   5.5315395177617924E-002   0.0000000000000000     
   1.4021992584635722E-002   5.5783077078725464E-002   0.0000000000000000     
   1.4795350155625133E-002   6.1376658938263037E-002   0.0000000000000000     
   1.5546339935898821E-002   6.7155564491384476E-002   0.0000000000000000     
   1.6274961925456792E-002   7.3119793738089744E-002   0.0000000000000000     
   1.6981216124299044E-002   7.9269346678378871E-002   0.0000000000000000     
   1.0471867529695037E-002   5.5581072529183435E-002   0.0000000000000000     
   1.1053670372225780E-002   6.1180654311813923E-002   0.0000000000000000     
   1.1618119465532678E-002   6.6965443301528219E-002   0.0000000000000000     
   1.2165214809615733E-002   7.2935439498326329E-002   0.0000000000000000     
   1.2694956404474943E-002   7.9090642902208227E-002   0.0000000000000000     
   6.9483092345750432E-003   5.5435790695818173E-002   0.0000000000000000     
   7.3367492821192802E-003   6.1038705482813614E-002   0.0000000000000000     
   7.7133829343744098E-003   6.6826990930537178E-002   0.0000000000000000     
   8.0782101913404337E-003   7.2800647038988836E-002   0.0000000000000000     
   8.4312310530173483E-003   7.8959673808168609E-002   0.0000000000000000     
   3.4513176992757369E-003   5.5347231578629669E-002   0.0000000000000000     
   3.6445868853056339E-003   6.0950812451262111E-002   0.0000000000000000     
   3.8321303424240201E-003   6.6740207378411326E-002   0.0000000000000000     
   4.0139480706308951E-003   7.2715416360077292E-002   0.0000000000000000     
   4.1900400699262583E-003   7.8876439396260017E-002   0.0000000000000000     
  -1.9107076202879922E-005   5.5315395177617924E-002   0.0000000000000000     
  -2.2816818215158434E-005   6.0916975217159428E-002   0.0000000000000000     
  -2.5638310318492773E-005   6.6705092645150676E-002   0.0000000000000000     
  -2.7571552512883194E-005   7.2679747461591684E-002   0.0000000000000000     
  -2.8616544798329901E-005   7.8840939666482451E-002   0.0000000000000000     
   1.6981216124299044E-002   7.9269346678378871E-002   0.0000000000000000     
   1.7660869926883236E-002   8.5590413073661983E-002   0.0000000000000000     
   1.8309690727667031E-002   9.2069182685349235E-002   0.0000000000000000     
   1.8927678526650428E-002   9.8705655513440585E-002   0.0000000000000000     
   1.9514833323833431E-002  0.10549983155793607        0.0000000000000000     
   1.2694956404474943E-002   7.9090642902208227E-002   0.0000000000000000     
   1.3204781441052665E-002   8.5417616350338330E-002   0.0000000000000000     
   1.3692127110291250E-002   9.1902922679880955E-002   0.0000000000000000     
   1.4156993412190696E-002   9.8546561890836173E-002   0.0000000000000000     
   1.4599380346751007E-002  0.10534853398320392        0.0000000000000000     
   8.4312310530173483E-003   7.8959673808168609E-002   0.0000000000000000     
   8.7710238360603054E-003   8.5290738312828795E-002   0.0000000000000000     
   9.0961668571244419E-003   9.1780507627721705E-002   0.0000000000000000     
   9.4066601162097682E-003   9.8428981752847339E-002   0.0000000000000000     
   9.7025036133162774E-003  0.10523616068820574        0.0000000000000000     
   4.1900400699262583E-003   7.8876439396260017E-002   0.0000000000000000     
   4.3595971119061499E-003   8.5209778961133451E-002   0.0000000000000000     
   4.5218099681666128E-003   9.1701937528871486E-002   0.0000000000000000     
   4.6766786387076433E-003   9.8352915099474192E-002   0.0000000000000000     
   4.8242031235292450E-003  0.10516271167294150        0.0000000000000000     
  -2.8616544798329901E-005   7.8840939666482451E-002   0.0000000000000000     
  -2.9498731409795774E-005   8.5174738295252239E-002   0.0000000000000000     
  -3.0943556582244179E-005   9.1667212383330296E-002   0.0000000000000000     
  -3.2951020315678004E-005   9.8318361930716622E-002   0.0000000000000000     
  -3.5521122610094116E-005  0.10512818693741124        0.0000000000000000     
   1.9514833323833431E-002  0.10549983155793607        0.0000000000000000     
   2.0079322249065390E-002  0.11244259559717400        0.0000000000000000     
   2.0629312432195665E-002  0.11952483240949272        0.0000000000000000     
   2.1164803873224253E-002  0.12674654199489221        0.0000000000000000     
   2.1685796572151153E-002  0.13410772435337254        0.0000000000000000     
   1.4599380346751007E-002  0.10534853398320392        0.0000000000000000     
   1.5024705829404050E-002  0.11229931597198643        0.0000000000000000     
   1.5438387775581696E-002  0.11938938487218581        0.0000000000000000     
   1.5840426185283946E-002  0.12661874068380211        0.0000000000000000     
   1.6230821058510800E-002  0.13398738340683530        0.0000000000000000     
   9.7025036133162774E-003  0.10523616068820574        0.0000000000000000     
   9.9866997763802794E-003  0.11219190483924138        0.0000000000000000     
   1.0262251033338081E-002  0.11928607461139885        0.0000000000000000     
   1.0529157384189679E-002  0.12651867000467812        0.0000000000000000     
   1.0787418828935077E-002  0.13388969101907922        0.0000000000000000     
   4.8242031235292450E-003  0.10516271167294150        0.0000000000000000     
   4.9653040899940793E-003  0.11212036219893891        0.0000000000000000     
   5.1009022054648145E-003  0.11921490162713183        0.0000000000000000     
   5.2309974699414506E-003  0.12644632995752028        0.0000000000000000     
   5.3555898834239859E-003  0.13381464719010422        0.0000000000000000     
  -3.5521122610094116E-005  0.10512818693741124        0.0000000000000000     
  -3.9481229754548567E-005  0.11208468805107899        0.0000000000000000     
  -4.5658708038096431E-005  0.11917586591938475        0.0000000000000000     
  -5.4053557460739956E-005  0.12640172054232854        0.0000000000000000     
  -6.4665778022475646E-005  0.13376225191991037        0.0000000000000000     
   2.1685796572151153E-002  0.13410772435337254        0.0000000000000000     
   2.2176861059193424E-002  0.14159330355191041        0.0000000000000000     
   2.2622567864568108E-002  0.14918820365748253        0.0000000000000000     
   2.3022916988275202E-002  0.15689242467008901        0.0000000000000000     
   2.3377908430314714E-002  0.16470596658972975        0.0000000000000000     
   1.6230821058510800E-002  0.13398738340683530        0.0000000000000000     
   1.6603198177750793E-002  0.14148419014608590        0.0000000000000000     
   1.6951183325492461E-002  0.14909803800635418        0.0000000000000000     
   1.7274776501735808E-002  0.15682892698764025        0.0000000000000000     
   1.7573977706480830E-002  0.16467685708994409        0.0000000000000000     
   1.0787418828935077E-002  0.13388969101907922        0.0000000000000000     
   1.1036476331204217E-002  0.14138996943789481        0.0000000000000000     
   1.1275770854627049E-002  0.14901033704441749        0.0000000000000000     
   1.1505302399203566E-002  0.15675079383864732        0.0000000000000000     
   1.1725070964933772E-002  0.16461133982058429        0.0000000000000000     
   5.3555898834239859E-003  0.13381464719010422        0.0000000000000000     
   5.4766955195536962E-003  0.14131064142733715        0.0000000000000000     
   5.5963304519718602E-003  0.14892510077167248        0.0000000000000000     
   5.7144946806784768E-003  0.15665802522311015        0.0000000000000000     
   5.8311882056735469E-003  0.16450941478165029        0.0000000000000000     
  -6.4665778022475646E-005  0.13376225191991037        0.0000000000000000     
  -7.6144257200773911E-005  0.14124620611441294        0.0000000000000000     
  -8.7137882473101798E-005  0.14884232918811910        0.0000000000000000     
  -9.7646653839460418E-005  0.15655062114102883        0.0000000000000000     
  -1.0767057129984839E-004  0.16437108197314212        0.0000000000000000     
   0.0000000000000000        0.0000000000000000        0.0000000000000000     
  -1.5999187595765250E-007   1.0733750762448213E-003   0.0000000000000000     
  -3.8057991924041580E-007   2.5156804557493603E-003   0.0000000000000000     
  -6.6176412984837122E-007   4.3269161385136156E-003   0.0000000000000000     
  -1.0035445077814645E-006   6.5070821245375903E-003   0.0000000000000000     
   0.0000000000000000        0.0000000000000000        0.0000000000000000     
  -2.1315475781416376E-004   1.0756992314679818E-003   0.0000000000000000     
  -4.2736630340239852E-004   2.5209285232531881E-003   0.0000000000000000     
  -6.4263463676470401E-004   4.3356878753556191E-003   0.0000000000000000     
  -8.5895975790108040E-004   6.5199772877752764E-003   0.0000000000000000     
   0.0000000000000000        0.0000000000000000        0.0000000000000000     
  -4.2442447836680137E-004   1.0826009396726305E-003   0.0000000000000000     
  -8.5335871728993656E-004   2.5364759441103201E-003   0.0000000000000000     
  -1.2868027167694052E-003   4.3616250133130686E-003   0.0000000000000000     
  -1.7247564768052078E-003   6.5580481472808762E-003   0.0000000000000000     
   0.0000000000000000        0.0000000000000000        0.0000000000000000     
  -6.3396915353387047E-004   1.0940802008587676E-003   0.0000000000000000     
  -1.2783578215818546E-003   2.5623227183207554E-003   0.0000000000000000     
  -1.9331660041439524E-003   4.4047275523859640E-003   0.0000000000000000     
  -2.5983937012201645E-003   6.6212947030543914E-003   0.0000000000000000     
   0.0000000000000000        0.0000000000000000        0.0000000000000000     
  -8.4178878331537068E-004   1.1101370150263926E-003   0.0000000000000000     
  -1.7023636162781528E-003   2.5984688458844940E-003   0.0000000000000000     
  -2.5817244988883452E-003   4.4649954925743036E-003   0.0000000000000000     
  -3.4798714311459491E-003   6.7097169550958220E-003   0.0000000000000000     
  -1.0035445077814645E-006   6.5070821245375903E-003   0.0000000000000000     
  -1.3975698245922427E-006   9.0287526158151603E-003   0.0000000000000000     
  -1.8354888518334084E-006   1.1864501814340206E-002   0.0000000000000000     
  -2.3173015895046414E-006   1.5014329720112728E-002   0.0000000000000000     
  -2.8430080376060487E-006   1.8478236333132725E-002   0.0000000000000000     
  -8.5895975790108040E-004   6.5199772877752764E-003   0.0000000000000000     
  -1.0775049458041344E-003   9.0457122015063923E-003   0.0000000000000000     
  -1.2994334794664713E-003   1.1884808057543206E-002   0.0000000000000000     
  -1.5247453588880923E-003   1.5037264855885715E-002   0.0000000000000000     
  -1.7534405840689965E-003   1.8503082596533920E-002   0.0000000000000000     
  -1.7247564768052078E-003   6.5580481472808762E-003   0.0000000000000000     
  -2.1674022473343727E-003   9.0957775092085219E-003   0.0000000000000000     
  -2.6149222782939287E-003   1.1944845262290780E-002   0.0000000000000000     
  -3.0673165696838748E-003   1.5105251406527655E-002   0.0000000000000000     
  -3.5245851215042114E-003   1.8576995941919142E-002   0.0000000000000000     
  -2.5983937012201645E-003   6.6212947030543914E-003   0.0000000000000000     
  -3.2710894744153091E-003   9.1789485389215438E-003   0.0000000000000000     
  -3.9483018853342048E-003   1.2044613428582932E-002   0.0000000000000000     
  -4.6300309339768510E-003   1.5218289372038543E-002   0.0000000000000000     
  -5.3162766203432507E-003   1.8699976369288392E-002   0.0000000000000000     
  -3.4798714311459491E-003   6.7097169550958220E-003   0.0000000000000000     
  -4.3885666270469413E-003   9.2952252906454667E-003   0.0000000000000000     
  -5.2995723005873005E-003   1.2184112556419654E-002   0.0000000000000000     
  -6.2128884517670246E-003   1.5376378752418389E-002   0.0000000000000000     
  -7.1285150805861152E-003   1.8872023878641668E-002   0.0000000000000000     
  -2.8430080376060487E-006   1.8478236333132725E-002   0.0000000000000000     
  -3.5366117912936793E-006   2.2227146685838632E-002   0.0000000000000000     
  -4.5221164457234472E-006   2.6231985810668886E-002   0.0000000000000000     
  -5.7995220008955081E-006   3.0492753707623488E-002   0.0000000000000000     
  -7.3688284568087983E-006   3.5009450376702438E-002   0.0000000000000000     
  -1.7534405840689965E-003   1.8503082596533920E-002   0.0000000000000000     
  -1.9820702381831185E-003   2.2253532427986698E-002   0.0000000000000000     
  -2.2071854044043945E-003   2.6259885498742926E-002   0.0000000000000000     
  -2.4287860827328228E-003   3.0522141808802597E-002   0.0000000000000000     
  -2.6468722731684043E-003   3.5040301358165715E-002   0.0000000000000000     
  -3.5245851215042114E-003   1.8576995941919142E-002   0.0000000000000000     
  -3.9809756081720226E-003   2.2332040463641446E-002   0.0000000000000000     
  -4.4307357041043936E-003   2.6342346566870768E-002   0.0000000000000000     
  -4.8738654093013227E-003   3.0607914251607114E-002   0.0000000000000000     
  -5.3103647237628098E-003   3.5128743517850468E-002   0.0000000000000000     
  -5.3162766203432507E-003   1.8699976369288392E-002   0.0000000000000000     
  -6.0002527217580051E-003   2.2462670792802883E-002   0.0000000000000000     
  -6.6751730155457179E-003   2.6479369015052431E-002   0.0000000000000000     
  -7.3410375017063934E-003   3.0750071036037042E-002   0.0000000000000000     
  -7.9978461802400272E-003   3.5274776855756702E-002   0.0000000000000000     
  -7.1285150805861152E-003   1.8872023878641668E-002   0.0000000000000000     
  -8.0399015789410673E-003   2.2645423415471003E-002   0.0000000000000000     
  -8.9404973387283738E-003   2.6670952843287906E-002   0.0000000000000000     
  -9.8303023599480340E-003   3.0948612162092382E-002   0.0000000000000000     
  -1.0709316642600055E-002   3.5478401371884419E-002   0.0000000000000000     
  -7.3688284568087983E-006   3.5009450376702438E-002   0.0000000000000000     
  -9.3889116206521614E-006   3.9762067718115496E-002   0.0000000000000000     
  -1.2018647299611405E-005   4.4730597632072433E-002   0.0000000000000000     
  -1.5258035493687181E-005   4.9915040118573242E-002   0.0000000000000000     
  -1.9107076202879922E-005   5.5315395177617924E-002   0.0000000000000000     
  -2.6468722731684043E-003   3.5040301358165715E-002   0.0000000000000000     
  -2.8616419931722040E-003   3.9793734606950494E-002   0.0000000000000000     
  -3.0732932602052909E-003   4.4761812015275161E-002   0.0000000000000000     
  -3.2818260742676617E-003   4.9944533583139709E-002   0.0000000000000000     
  -3.4872404353593197E-003   5.5341899310544153E-002   0.0000000000000000     
  -5.3103647237628098E-003   3.5128743517850468E-002   0.0000000000000000     
  -5.7394398754537146E-003   3.9883814702930565E-002   0.0000000000000000     
  -6.1602970923388990E-003   4.4852108144177102E-002   0.0000000000000000     
  -6.5729363744183615E-003   5.0033623841590116E-002   0.0000000000000000     
  -6.9773577216920976E-003   5.5428361795169571E-002   0.0000000000000000     
  -7.9978461802400272E-003   3.5274776855756702E-002   0.0000000000000000     
  -8.6427825584651837E-003   4.0032308006055693E-002   0.0000000000000000     
  -9.2730301437004385E-003   4.5001486018778264E-002   0.0000000000000000     
  -9.8885889359457777E-003   5.0182310893924428E-002   0.0000000000000000     
  -1.0489458935201212E-002   5.5574782631494173E-002   0.0000000000000000     
  -1.0709316642600055E-002   3.5478401371884419E-002   0.0000000000000000     
  -1.1571670042206612E-002   4.0239214516325887E-002   0.0000000000000000     
  -1.2411492414289902E-002   4.5209945639078632E-002   0.0000000000000000     
  -1.3228783758849921E-002   5.0390594740142659E-002   0.0000000000000000     
  -1.4023544075886667E-002   5.5781161819517956E-002   0.0000000000000000     
  -1.9107076202879922E-005   5.5315395177617924E-002   0.0000000000000000     
  -2.2816818215158434E-005   6.0916975217159428E-002   0.0000000000000000     
  -2.5638310318492773E-005   6.6705092645150676E-002   0.0000000000000000     
  -2.7571552512883194E-005   7.2679747461591684E-002   0.0000000000000000     
  -2.8616544798329901E-005   7.8840939666482451E-002   0.0000000000000000     
  -3.4872404353593197E-003   5.5341899310544153E-002   0.0000000000000000     
  -3.6874060249966339E-003   6.0940177703418801E-002   0.0000000000000000     
  -3.8801925246959726E-003   6.6725637267694010E-002   0.0000000000000000     
  -4.0655999344573366E-003   7.2698278003369740E-002   0.0000000000000000     
  -4.2436282542807242E-003   7.8858099910446011E-002   0.0000000000000000     
  -6.9773577216920976E-003   5.5428361795169571E-002   0.0000000000000000     
  -7.3711249315923282E-003   6.1023403832953536E-002   0.0000000000000000     
  -7.7518018015512611E-003   6.6805831782980052E-002   0.0000000000000000     
  -8.1193883315689025E-003   7.2775645645249132E-002   0.0000000000000000     
  -8.4738845216452419E-003   7.8932845419760797E-002   0.0000000000000000     
  -1.0489458935201212E-002   5.5574782631494173E-002   0.0000000000000000     
  -1.1073973538002241E-002   6.1166653605763621E-002   0.0000000000000000     
  -1.1640466140884360E-002   6.6945676191008857E-002   0.0000000000000000     
  -1.2188936743847575E-002   7.2911850387229929E-002   0.0000000000000000     
  -1.2719385346891878E-002   7.9065176194426781E-002   0.0000000000000000     
  -1.4023544075886667E-002   5.5781161819517956E-002   0.0000000000000000     
  -1.4795951844226373E-002   6.1369927021849048E-002   0.0000000000000000     
  -1.5546185542695271E-002   6.7145170491780412E-002   0.0000000000000000     
  -1.6274245171293358E-002   7.3106892229312062E-002   0.0000000000000000     
  -1.6980130730020637E-002   7.9255092234443991E-002   0.0000000000000000     
  -2.8616544798329901E-005   7.8840939666482451E-002   0.0000000000000000     
  -2.9498731409795774E-005   8.5174738295252239E-002   0.0000000000000000     
  -3.0943556582244179E-005   9.1667212383330296E-002   0.0000000000000000     
  -3.2951020315678004E-005   9.8318361930716622E-002   0.0000000000000000     
  -3.5521122610094116E-005  0.10512818693741124        0.0000000000000000     
  -4.2436282542807242E-003   7.8858099910446011E-002   0.0000000000000000     
  -4.4148148997331183E-003   8.5190731941280434E-002   0.0000000000000000     
  -4.5796972863814947E-003   9.1681803048230578E-002   0.0000000000000000     
  -4.7382754142258534E-003   9.8331313231296472E-002   0.0000000000000000     
  -4.8905492832661962E-003  0.10513926249047807        0.0000000000000000     
  -8.4738845216452419E-003   7.8932845419760797E-002   0.0000000000000000     
  -8.8149025989094059E-003   8.5262875525313253E-002   0.0000000000000000     
  -9.1420547904905048E-003   9.1751180380704789E-002   0.0000000000000000     
  -9.4553410963885455E-003   9.8397759985935418E-002   0.0000000000000000     
  -9.7547615166035193E-003  0.10520261434100514        0.0000000000000000     
  -1.2719385346891878E-002   7.9065176194426781E-002   0.0000000000000000     
  -1.3229761828938653E-002   8.5391169047350710E-002   0.0000000000000000     
  -1.3718016068909279E-002   9.1875344380752982E-002   0.0000000000000000     
  -1.4184148066803749E-002   9.8517702194633558E-002   0.0000000000000000     
  -1.4628157822622070E-002  0.10531824248899245        0.0000000000000000     
  -1.6980130730020637E-002   7.9255092234443991E-002   0.0000000000000000     
  -1.7659392589820865E-002   8.5575612507392804E-002   0.0000000000000000     
  -1.8307581121637814E-002   9.2054295048375062E-002   0.0000000000000000     
  -1.8924696325471470E-002   9.8691139857390808E-002   0.0000000000000000     
  -1.9510738201321841E-002  0.10548614693444003        0.0000000000000000     
  -3.5521122610094116E-005  0.10512818693741124        0.0000000000000000     
  -3.9481229754548567E-005  0.11208468805107899        0.0000000000000000     
  -4.5658708038096431E-005  0.11917586591938475        0.0000000000000000     
  -5.4053557460739956E-005  0.12640172054232854        0.0000000000000000     
  -6.4665778022475646E-005  0.13376225191991037        0.0000000000000000     
  -4.8905492832661962E-003  0.10513926249047807        0.0000000000000000     
  -5.0389953708139985E-003  0.11209277945242890        0.0000000000000000     
  -5.1860901541807350E-003  0.11917899274380246        0.0000000000000000     
  -5.3318336333664099E-003  0.12639790236459872        0.0000000000000000     
  -5.4762258083710189E-003  0.13374950831481769        0.0000000000000000     
  -9.7547615166035193E-003  0.10520261434100514        0.0000000000000000     
  -1.0044577521132659E-002  0.11215253345975590        0.0000000000000000     
  -1.0329050579973175E-002  0.11923430735602972        0.0000000000000000     
  -1.0608180693125075E-002  0.12644793602982654        0.0000000000000000     
  -1.0881967860588360E-002  0.13379341948114640        0.0000000000000000     
  -1.4628157822622070E-002  0.10531824248899245        0.0000000000000000     
  -1.5056227680710530E-002  0.11226395007306002        0.0000000000000000     
  -1.5474539985415420E-002  0.11934180975606654        0.0000000000000000     
  -1.5883094736736745E-002  0.12655182153801200        0.0000000000000000     
  -1.6281891934674501E-002  0.13389398541889647        0.0000000000000000     
  -1.9510738201321841E-002  0.10548614693444003        0.0000000000000000     
  -2.0073945849547616E-002  0.11242702929234122        0.0000000000000000     
  -2.0622558370507471E-002  0.11950149994391293        0.0000000000000000     
  -2.1156575764201411E-002  0.12670955888915514        0.0000000000000000     
  -2.1675998030629435E-002  0.13405120612806784        0.0000000000000000     
  -6.4665778022475646E-005  0.13376225191991037        0.0000000000000000     
  -7.6144257200773911E-005  0.14124620611441294        0.0000000000000000     
  -8.7137882473101798E-005  0.14884232918811910        0.0000000000000000     
  -9.7646653839460418E-005  0.15655062114102883        0.0000000000000000     
  -1.0767057129984839E-004  0.16437108197314212        0.0000000000000000     
  -5.4762258083710189E-003  0.13374950831481769        0.0000000000000000     
  -5.6186569132568552E-003  0.14122044146923660        0.0000000000000000     
  -5.7585171820861997E-003  0.14879733270263260        0.0000000000000000     
  -5.8958066148590586E-003  0.15648018201500563        0.0000000000000000     
  -6.0305252115754274E-003  0.16426898940635587        0.0000000000000000     
  -1.0881967860588360E-002  0.13379341948114640        0.0000000000000000     
  -1.1147456362812206E-002  0.14125712546192251        0.0000000000000000     
  -1.1401690480245797E-002  0.14882542172408808        0.0000000000000000     
  -1.1644670212889133E-002  0.15649830826764308        0.0000000000000000     
  -1.1876395560742211E-002  0.16427578509258758        0.0000000000000000     
  -1.6281891934674501E-002  0.13389398541889647        0.0000000000000000     
  -1.6662542605866835E-002  0.14135625809247068        0.0000000000000000     
  -1.7016657776951893E-002  0.14892659625248558        0.0000000000000000     
  -1.7344237447929685E-002  0.15660499989894103        0.0000000000000000     
  -1.7645281618800194E-002  0.16439146903183721        0.0000000000000000     
  -2.1675998030629435E-002  0.13405120612806784        0.0000000000000000     
  -2.2163915642420734E-002  0.14151783936088114        0.0000000000000000     
  -2.2603419072204489E-002  0.14910085628782505        0.0000000000000000     
  -2.2994508319980705E-002  0.15680025690889962        0.0000000000000000     
  -2.3337183385749381E-002  0.16461604122410484        0.0000000000000000     
   0.0000000000000000        0.0000000000000000        0.0000000000000000     
  -8.4178878331537068E-004   1.1101370150263926E-003   0.0000000000000000     
  -1.7023636162781528E-003   2.5984688458844940E-003   0.0000000000000000     
  -2.5817244988883452E-003   4.4649954925743036E-003   0.0000000000000000     
  -3.4798714311459491E-003   6.7097169550958220E-003   0.0000000000000000     
   0.0000000000000000        0.0000000000000000        0.0000000000000000     
  -1.0567865241203787E-003   1.1343285337179993E-003   0.0000000000000000     
  -2.1399251734639324E-003   2.6507593397817560E-003   0.0000000000000000     
  -3.2494159480306603E-003   4.5492924181912706E-003   0.0000000000000000     
  -4.3852588478205633E-003   6.8299277689465440E-003   0.0000000000000000     
   0.0000000000000000        0.0000000000000000        0.0000000000000000     
  -1.2878655323579704E-003   1.1702119084760797E-003   0.0000000000000000     
  -2.6055915652242953E-003   2.7250392129927617E-003   0.0000000000000000     
  -3.9531780985989752E-003   4.6644819135500479E-003   0.0000000000000000     
  -5.3306251324820092E-003   6.9885400101479351E-003   0.0000000000000000     
   0.0000000000000000        0.0000000000000000        0.0000000000000000     
  -1.5350258080281461E-003   1.2177871393006345E-003   0.0000000000000000     
  -3.0993627915592418E-003   2.8213084655175124E-003   0.0000000000000000     
  -4.6930109505932882E-003   4.8105639786506322E-003   0.0000000000000000     
  -6.3159702851302854E-003   7.1855536786999963E-003   0.0000000000000000     
   0.0000000000000000        0.0000000000000000        0.0000000000000000     
  -1.7982673511309053E-003   1.2770542261916632E-003   0.0000000000000000     
  -3.6212388524687724E-003   2.9395670973560049E-003   0.0000000000000000     
  -5.4689145040136009E-003   4.9875386134930252E-003   0.0000000000000000     
  -7.3412943057653904E-003   7.4209687746027249E-003   0.0000000000000000     
  -3.4798714311459491E-003   6.7097169550958220E-003   0.0000000000000000     
  -4.3885666270469413E-003   9.2952252906454667E-003   0.0000000000000000     
  -5.2995723005873005E-003   1.2184112556419654E-002   0.0000000000000000     
  -6.2128884517670246E-003   1.5376378752418389E-002   0.0000000000000000     
  -7.1285150805861152E-003   1.8872023878641668E-002   0.0000000000000000     
  -4.3852588478205633E-003   6.8299277689465440E-003   0.0000000000000000     
  -5.5344746801748342E-003   9.4506112133396856E-003   0.0000000000000000     
  -6.6840842524346616E-003   1.2369288572662805E-002   0.0000000000000000     
  -7.8340875646000490E-003   1.5585959846915905E-002   0.0000000000000000     
  -8.9844846166709912E-003   1.9100625036098984E-002   0.0000000000000000     
  -5.3306251324820092E-003   6.9885400101479351E-003   0.0000000000000000     
  -6.7234546087445463E-003   9.6511097559636022E-003   0.0000000000000000     
  -8.1171884692577360E-003   1.2606087404174231E-002   0.0000000000000000     
  -9.5118267140215790E-003   1.5853472954779815E-002   0.0000000000000000     
  -1.0907369343036072E-002   1.9393266407780357E-002   0.0000000000000000     
  -6.3159702851302854E-003   7.1855536786999963E-003   0.0000000000000000     
  -7.9555064127560787E-003   9.8967209185172201E-003   0.0000000000000000     
  -9.5988849510565220E-003   1.2894509050953927E-002   0.0000000000000000     
  -1.1246105900031613E-002   1.6178918076010119E-002   0.0000000000000000     
  -1.2897169259681351E-002   1.9749947993685787E-002   0.0000000000000000     
  -7.3412943057653904E-003   7.4209687746027249E-003   0.0000000000000000     
  -9.2306300922094346E-003   1.0187444701000539E-002   0.0000000000000000     
  -1.1129173697831023E-002   1.3234553513001901E-002   0.0000000000000000     
  -1.3036925122630152E-002   1.6562295210606814E-002   0.0000000000000000     
  -1.4953884366606829E-002   2.0170669793815276E-002   0.0000000000000000     
  -7.1285150805861152E-003   1.8872023878641668E-002   0.0000000000000000     
  -8.0399015789410673E-003   2.2645423415471003E-002   0.0000000000000000     
  -8.9404973387283738E-003   2.6670952843287906E-002   0.0000000000000000     
  -9.8303023599480340E-003   3.0948612162092382E-002   0.0000000000000000     
  -1.0709316642600055E-002   3.5478401371884419E-002   0.0000000000000000     
  -8.9844846166709912E-003   1.9100625036098984E-002   0.0000000000000000     
  -1.0128213394245879E-002   2.2888638544659095E-002   0.0000000000000000     
  -1.1258211882923088E-002   2.6925354777043293E-002   0.0000000000000000     
  -1.2374480082702619E-002   3.1210773733251575E-002   0.0000000000000000     
  -1.3477017993584478E-002   3.5744895413283947E-002   0.0000000000000000     
  -1.0907369343036072E-002   1.9393266407780357E-002   0.0000000000000000     
  -1.2293479382197114E-002   2.3200656393380453E-002   0.0000000000000000     
  -1.3659819857400590E-002   2.7250831541784693E-002   0.0000000000000000     
  -1.5006390768646519E-002   3.1543791852993087E-002   0.0000000000000000     
  -1.6333192115934887E-002   3.6079537327005626E-002   0.0000000000000000     
  -1.2897169259681351E-002   1.9749947993685787E-002   0.0000000000000000     
  -1.4535699542794765E-002   2.3581476961635074E-002   0.0000000000000000     
  -1.6145321262160891E-002   2.7647383137512121E-002   0.0000000000000000     
  -1.7726034417779729E-002   3.1947666521316906E-002   0.0000000000000000     
  -1.9277839009651278E-002   3.6482327113049461E-002   0.0000000000000000     
  -1.4953884366606829E-002   2.0170669793815276E-002   0.0000000000000000     
  -1.6854873876038842E-002   2.4031100249422965E-002   0.0000000000000000     
  -1.8714716097203984E-002   2.8115009564225552E-002   0.0000000000000000     
  -2.0533411030102252E-002   3.2422397738223044E-002   0.0000000000000000     
  -2.2310958674733653E-002   3.6953264771415438E-002   0.0000000000000000     
  -1.0709316642600055E-002   3.5478401371884419E-002   0.0000000000000000     
  -1.1571670042206612E-002   4.0239214516325887E-002   0.0000000000000000     
  -1.2411492414289902E-002   4.5209945639078632E-002   0.0000000000000000     
  -1.3228783758849921E-002   5.0390594740142659E-002   0.0000000000000000     
  -1.4023544075886667E-002   5.5781161819517956E-002   0.0000000000000000     
  -1.3477017993584478E-002   3.5744895413283947E-002   0.0000000000000000     
  -1.4557408111396551E-002   4.0507541018937006E-002   0.0000000000000000     
  -1.5607232931966721E-002   4.5478531752007334E-002   0.0000000000000000     
  -1.6626492455294996E-002   5.0657867612494946E-002   0.0000000000000000     
  -1.7615186681381373E-002   5.6045548600399835E-002   0.0000000000000000     
  -1.6333192115934887E-002   3.6079537327005626E-002   0.0000000000000000     
  -1.7631302550753538E-002   4.0840294299084902E-002   0.0000000000000000     
  -1.8891800724590315E-002   4.5808289104493513E-002   0.0000000000000000     
  -2.0114686637445218E-002   5.0983521743231432E-002   0.0000000000000000     
  -2.1299960289318243E-002   5.6365992215298692E-002   0.0000000000000000     
  -1.9277839009651278E-002   3.6482327113049461E-002   0.0000000000000000     
  -2.0793353360277576E-002   4.1237474356769603E-002   0.0000000000000000     
  -2.2265195792160679E-002   4.6199217696537148E-002   0.0000000000000000     
  -2.3693366305300584E-002   5.1367557132352130E-002   0.0000000000000000     
  -2.5077864899697287E-002   5.6742492664214529E-002   0.0000000000000000     
  -2.2310958674733653E-002   3.6953264771415438E-002   0.0000000000000000     
  -2.4043560539968679E-002   4.1699081191991068E-002   0.0000000000000000     
  -2.5727418134677826E-002   4.6651317528138253E-002   0.0000000000000000     
  -2.7362531458861090E-002   5.1809973779857015E-002   0.0000000000000000     
  -2.8948900512518493E-002   5.7175049947147338E-002   0.0000000000000000     
  -1.4023544075886667E-002   5.5781161819517956E-002   0.0000000000000000     
  -1.4795951844226373E-002   6.1369927021849048E-002   0.0000000000000000     
  -1.5546185542695271E-002   6.7145170491780412E-002   0.0000000000000000     
  -1.6274245171293358E-002   7.3106892229312062E-002   0.0000000000000000     
  -1.6980130730020637E-002   7.9255092234443991E-002   0.0000000000000000     
  -1.7615186681381373E-002   5.6045548600399835E-002   0.0000000000000000     
  -1.8575409045816466E-002   6.1630165443011406E-002   0.0000000000000000     
  -1.9509252984190900E-002   6.7400308867619024E-002   0.0000000000000000     
  -2.0416718496504668E-002   7.3355978874222738E-002   0.0000000000000000     
  -2.1297805582757779E-002   7.9497175462822506E-002   0.0000000000000000     
  -2.1299960289318243E-002   5.6365992215298692E-002   0.0000000000000000     
  -2.2450694338324268E-002   6.1944310231052228E-002   0.0000000000000000     
  -2.3569961442578165E-002   6.7707085500849043E-002   0.0000000000000000     
  -2.4657761602079931E-002   7.3654318024689081E-002   0.0000000000000000     
  -2.5714094816829562E-002   7.9786007802572390E-002   0.0000000000000000     
  -2.5077864899697287E-002   5.6742492664214529E-002   0.0000000000000000     
  -2.6421807721749780E-002   6.2312361385971557E-002   0.0000000000000000     
  -2.7728310917857060E-002   6.8065500391470399E-002   0.0000000000000000     
  -2.8997374488019131E-002   7.4001909680711117E-002   0.0000000000000000     
  -3.0228998432235994E-002   8.0121589253693656E-002   0.0000000000000000     
  -2.8948900512518493E-002   5.7175049947147338E-002   0.0000000000000000     
  -3.0488749196092998E-002   6.2734318907769357E-002   0.0000000000000000     
  -3.1984301410027595E-002   6.8475553539483175E-002   0.0000000000000000     
  -3.3435557154322282E-002   7.4398753842288834E-002   0.0000000000000000     
  -3.4842516428977066E-002   8.0503919816186292E-002   0.0000000000000000     
  -1.6980130730020637E-002   7.9255092234443991E-002   0.0000000000000000     
  -1.7659392589820865E-002   8.5575612507392804E-002   0.0000000000000000     
  -1.8307581121637814E-002   9.2054295048375062E-002   0.0000000000000000     
  -1.8924696325471470E-002   9.8691139857390808E-002   0.0000000000000000     
  -1.9510738201321841E-002  0.10548614693444003        0.0000000000000000     
  -2.1297805582757779E-002   7.9497175462822506E-002   0.0000000000000000     
  -2.2145763205835601E-002   8.5810196021828836E-002   0.0000000000000000     
  -2.2953840328623527E-002   9.2281337939652264E-002   0.0000000000000000     
  -2.3722036951121551E-002   9.8910601216292762E-002   0.0000000000000000     
  -2.4450353073329680E-002  0.10569798585175033        0.0000000000000000     
  -2.5714094816829562E-002   7.9786007802572390E-002   0.0000000000000000     
  -2.6730842001262418E-002   8.6088909707048189E-002   0.0000000000000000     
  -2.7699884069813847E-002   9.2549778610665684E-002   0.0000000000000000     
  -2.8621221022483850E-002   9.9168614513424944E-002   0.0000000000000000     
  -2.9494852859272426E-002  0.10594541741532588        0.0000000000000000     
  -3.0228998432235994E-002   8.0121589253693656E-002   0.0000000000000000     
  -3.1414628976101318E-002   8.6411753563050808E-002   0.0000000000000000     
  -3.2545712345208769E-002   9.2859617061415378E-002   0.0000000000000000     
  -3.3622248539558357E-002   9.9465179748787338E-002   0.0000000000000000     
  -3.4644237559150082E-002  0.10622844162516673        0.0000000000000000     
  -3.4842516428977066E-002   8.0503919816186292E-002   0.0000000000000000     
  -3.6197124130352289E-002   8.6778727589836735E-002   0.0000000000000000     
  -3.7491325154808290E-002   9.3210853291901291E-002   0.0000000000000000     
  -3.8725119502345078E-002   9.9800296922379989E-002   0.0000000000000000     
  -3.9898507172962644E-002  0.10654705848127280        0.0000000000000000     
  -1.9510738201321841E-002  0.10548614693444003        0.0000000000000000     
  -2.0073945849547616E-002  0.11242702929234122        0.0000000000000000     
  -2.0622558370507471E-002  0.11950149994391293        0.0000000000000000     
  -2.1156575764201411E-002  0.12670955888915514        0.0000000000000000     
  -2.1675998030629435E-002  0.13405120612806784        0.0000000000000000     
  -2.4450353073329680E-002  0.10569798585175033        0.0000000000000000     
  -2.5148856185353174E-002  0.11263211246199833        0.0000000000000000     
  -2.5827613777297302E-002  0.11970160166301011        0.0000000000000000     
  -2.6486625849162067E-002  0.12690645345478563        0.0000000000000000     
  -2.7125892400947465E-002  0.13424666783732495        0.0000000000000000     
  -2.9494852859272426E-002  0.10594541741532588        0.0000000000000000     
  -3.0332082845836474E-002  0.11286954092643016        0.0000000000000000     
  -3.1144214247832903E-002  0.11993033865679928        0.0000000000000000     
  -3.1931247065261695E-002  0.12712781060643324        0.0000000000000000     
  -3.2693181298122875E-002  0.13446195677533210        0.0000000000000000     
  -3.4644237559150082E-002  0.10622844162516673        0.0000000000000000     
  -3.5623625830997520E-002  0.11313931468563670        0.0000000000000000     
  -3.6572359782114254E-002  0.12018771092528047        0.0000000000000000     
  -3.7490439412500312E-002  0.12737363034409799        0.0000000000000000     
  -3.8377864722155659E-002  0.13469707294208927        0.0000000000000000     
  -3.9898507172962644E-002  0.10654705848127280        0.0000000000000000     
  -4.1023485140836306E-002  0.11344143373961796        0.0000000000000000     
  -4.2112050380141389E-002  0.12047371846845363        0.0000000000000000     
  -4.3164202890877898E-002  0.12764391266777980        0.0000000000000000     
  -4.4179942673045827E-002  0.13495201633759654        0.0000000000000000     
  -2.1675998030629435E-002  0.13405120612806784        0.0000000000000000     
  -2.2163915642420734E-002  0.14151783936088114        0.0000000000000000     
  -2.2603419072204489E-002  0.14910085628782505        0.0000000000000000     
  -2.2994508319980705E-002  0.15680025690889962        0.0000000000000000     
  -2.3337183385749381E-002  0.16461604122410484        0.0000000000000000     
  -2.7125892400947465E-002  0.13424666783732495        0.0000000000000000     
  -2.7720674577953141E-002  0.14171650225925139        0.0000000000000000     
  -2.8246233525478746E-002  0.14931021416918841        0.0000000000000000     
  -2.8702569243524285E-002  0.15702780356713597        0.0000000000000000     
  -2.9089681732089746E-002  0.16486927045309410        0.0000000000000000     
  -3.2693181298122875E-002  0.13446195677533210        0.0000000000000000     
  -3.3401918517943281E-002  0.14192687977967905        0.0000000000000000     
  -3.4029360296249818E-002  0.14951668223565751        0.0000000000000000     
  -3.4575506633042485E-002  0.15723136414326738        0.0000000000000000     
  -3.5040357528321263E-002  0.16507092550250868        0.0000000000000000     
  -3.8377864722155659E-002  0.13469707294208927        0.0000000000000000     
  -3.9207647462391172E-002  0.14214897192216414        0.0000000000000000     
  -3.9952799384517713E-002  0.14972026048723233        0.0000000000000000     
  -4.0613320488535304E-002  0.15741093863729380        0.0000000000000000     
  -4.1189210774443923E-002  0.16522100637234863        0.0000000000000000     
  -4.4179942673045827E-002  0.13495201633759654        0.0000000000000000     
  -4.5137861411296804E-002  0.14238277868670660        0.0000000000000000     
  -4.6016550790282440E-002  0.14992094892391286        0.0000000000000000     
  -4.6816010810002751E-002  0.15756652704921523        0.0000000000000000     
  -4.7536241470457742E-002  0.16531951306261386        0.0000000000000000     
   0.0000000000000000        0.0000000000000000        0.0000000000000000     
  -1.7982673511309053E-003   1.2770542261916632E-003   0.0000000000000000     
  -3.6212388524687724E-003   2.9395670973560049E-003   0.0000000000000000     
  -5.4689145040136009E-003   4.9875386134930252E-003   0.0000000000000000     
  -7.3412943057653904E-003   7.4209687746027249E-003   0.0000000000000000     
   0.0000000000000000        0.0000000000000000        0.0000000000000000     
  -2.0693348770389175E-003   1.3551314325406423E-003   0.0000000000000000     
  -4.1638848096903483E-003   3.0943367277700591E-003   0.0000000000000000     
  -6.2836497979542917E-003   5.2176158856882494E-003   0.0000000000000000     
  -8.4286298418307492E-003   7.7249689062952129E-003   0.0000000000000000     
   0.0000000000000000        0.0000000000000000        0.0000000000000000     
  -2.3399731011248524E-003   1.4591370217390482E-003   0.0000000000000000     
  -4.7199657249614316E-003   3.3001389760214895E-003   0.0000000000000000     
  -7.1399778715097416E-003   5.5230058628473223E-003   0.0000000000000000     
  -9.6000095407697793E-003   8.1277376822165518E-003   0.0000000000000000     
   0.0000000000000000        0.0000000000000000        0.0000000000000000     
  -2.6101820233887085E-003   1.5890709937868800E-003   0.0000000000000000     
  -5.2894815982820241E-003   3.5569738421102962E-003   0.0000000000000000     
  -8.0378987246799479E-003   5.9037085449702483E-003   0.0000000000000000     
  -1.0855433402582482E-002   8.6292751023667371E-003   0.0000000000000000     
   0.0000000000000000        0.0000000000000000        0.0000000000000000     
  -2.8799616438304875E-003   1.7449333486841390E-003   0.0000000000000000     
  -5.8724324296521250E-003   3.8648413260364799E-003   0.0000000000000000     
  -8.9774123574649142E-003   6.3597239320570247E-003   0.0000000000000000     
  -1.2194901427268853E-002   9.2295811667457723E-003   0.0000000000000000     
  -7.3412943057653904E-003   7.4209687746027249E-003   0.0000000000000000     
  -9.2306300922094346E-003   1.0187444701000539E-002   0.0000000000000000     
  -1.1129173697831023E-002   1.3234553513001901E-002   0.0000000000000000     
  -1.3036925122630152E-002   1.6562295210606814E-002   0.0000000000000000     
  -1.4953884366606829E-002   2.0170669793815276E-002   0.0000000000000000     
  -8.4286298418307492E-003   7.7249689062952129E-003   0.0000000000000000     
  -1.0590405802099915E-002   1.0558956336310061E-002   0.0000000000000000     
  -1.2760558539541996E-002   1.3662138722451901E-002   0.0000000000000000     
  -1.4939088054156982E-002   1.7034516064720728E-002   0.0000000000000000     
  -1.7125994345944882E-002   2.0676088363116553E-002   0.0000000000000000     
  -9.6000095407697793E-003   8.1277376822165518E-003   0.0000000000000000     
  -1.2076413697422836E-002   1.1046931057342295E-002   0.0000000000000000     
  -1.4545543306150207E-002   1.4213182611437674E-002   0.0000000000000000     
  -1.7007398366951889E-002   1.7626492344502694E-002   0.0000000000000000     
  -1.9461978879827889E-002   2.1286860256537352E-002   0.0000000000000000     
  -1.0855433402582482E-002   8.6292751023667371E-003   0.0000000000000000     
  -1.3688653778178191E-002   1.1651368864097235E-002   0.0000000000000000     
  -1.6484127997655654E-002   1.4887685179959226E-002   0.0000000000000000     
  -1.9241856061014868E-002   1.8338224049952698E-002   0.0000000000000000     
  -2.1961837968255831E-002   2.2002985474077669E-002   0.0000000000000000     
  -1.2194901427268853E-002   9.2295811667457723E-003   0.0000000000000000     
  -1.5427126044365981E-002   1.2372269756574891E-002   0.0000000000000000     
  -1.8576312614058340E-002   1.5685646428016554E-002   0.0000000000000000     
  -2.1642461136345922E-002   1.9169711181070758E-002   0.0000000000000000     
  -2.4625571611228733E-002   2.2824464015737508E-002   0.0000000000000000     
  -1.4953884366606829E-002   2.0170669793815276E-002   0.0000000000000000     
  -1.6854873876038842E-002   2.4031100249422965E-002   0.0000000000000000     
  -1.8714716097203984E-002   2.8115009564225552E-002   0.0000000000000000     
  -2.0533411030102252E-002   3.2422397738223044E-002   0.0000000000000000     
  -2.2310958674733653E-002   3.6953264771415438E-002   0.0000000000000000     
  -1.7125994345944882E-002   2.0676088363116553E-002   0.0000000000000000     
  -1.9290311745321607E-002   2.4559224593269497E-002   0.0000000000000000     
  -2.1401074582703072E-002   2.8656293730809679E-002   0.0000000000000000     
  -2.3458282858089274E-002   3.2967295775737107E-002   0.0000000000000000     
  -2.5461936571480222E-002   3.7492230728051780E-002   0.0000000000000000     
  -1.9461978879827889E-002   2.1286860256537352E-002   0.0000000000000000     
  -2.1881322514035330E-002   2.5175548329700041E-002   0.0000000000000000     
  -2.4237466938831369E-002   2.9273818546149157E-002   0.0000000000000000     
  -2.6530412154215987E-002   3.3581670905884708E-002   0.0000000000000000     
  -2.8760158160189203E-002   3.8099105408906674E-002   0.0000000000000000     
  -2.1961837968255831E-002   2.2002985474077669E-002   0.0000000000000000     
  -2.4627906182180016E-002   2.5880071458714602E-002   0.0000000000000000     
  -2.7223893165588868E-002   2.9967584010243995E-002   0.0000000000000000     
  -2.9749798918482392E-002   3.4265523128665848E-002   0.0000000000000000     
  -3.2205623440860587E-002   3.8773888813980147E-002   0.0000000000000000     
  -2.4625571611228733E-002   2.2824464015737508E-002   0.0000000000000000     
  -2.7530062749755658E-002   2.6672793980313185E-002   0.0000000000000000     
  -3.0360353262975575E-002   3.0737590123094190E-002   0.0000000000000000     
  -3.3116443150888485E-002   3.5018852444080525E-002   0.0000000000000000     
  -3.5798332413494394E-002   3.9516580943272178E-002   0.0000000000000000     
  -2.2310958674733653E-002   3.6953264771415438E-002   0.0000000000000000     
  -2.4043560539968679E-002   4.1699081191991068E-002   0.0000000000000000     
  -2.5727418134677826E-002   4.6651317528138253E-002   0.0000000000000000     
  -2.7362531458861090E-002   5.1809973779857015E-002   0.0000000000000000     
  -2.8948900512518493E-002   5.7175049947147338E-002   0.0000000000000000     
  -2.5461936571480222E-002   3.7492230728051780E-002   0.0000000000000000     
  -2.7411867986996599E-002   4.2227069725634836E-002   0.0000000000000000     
  -2.9307909368759110E-002   4.7167783906367465E-002   0.0000000000000000     
  -3.1150060716767746E-002   5.2314373270249626E-002   0.0000000000000000     
  -3.2938322031022517E-002   5.7666837817281331E-002   0.0000000000000000     
  -2.8760158160189203E-002   3.8099105408906674E-002   0.0000000000000000     
  -3.0928219598531127E-002   4.2823394878586454E-002   0.0000000000000000     
  -3.3036111111021914E-002   4.7751812138295380E-002   0.0000000000000000     
  -3.5083832697661528E-002   5.2884357188033478E-002   0.0000000000000000     
  -3.7071384358450005E-002   5.8221030027800741E-002   0.0000000000000000     
  -3.2205623440860587E-002   3.8773888813980147E-002   0.0000000000000000     
  -3.4592615374572276E-002   4.3488056650845881E-002   0.0000000000000000     
  -3.6912023361466220E-002   4.8403402223922025E-002   0.0000000000000000     
  -3.9163847401542461E-002   5.3519925533208570E-002   0.0000000000000000     
  -4.1348087494800963E-002   5.8837626578705518E-002   0.0000000000000000     
  -3.5798332413494394E-002   3.9516580943272178E-002   0.0000000000000000     
  -3.8405055315120007E-002   4.4221055042413145E-002   0.0000000000000000     
  -4.0935646120092054E-002   4.9122554163247380E-002   0.0000000000000000     
  -4.3390104828410520E-002   5.4221078305774904E-002   0.0000000000000000     
  -4.5768431440075405E-002   5.9516627469995712E-002   0.0000000000000000     
  -2.8948900512518493E-002   5.7175049947147338E-002   0.0000000000000000     
  -3.0488749196092998E-002   6.2734318907769357E-002   0.0000000000000000     
  -3.1984301410027595E-002   6.8475553539483175E-002   0.0000000000000000     
  -3.3435557154322282E-002   7.4398753842288834E-002   0.0000000000000000     
  -3.4842516428977066E-002   8.0503919816186292E-002   0.0000000000000000     
  -3.2938322031022517E-002   5.7666837817281331E-002   0.0000000000000000     
  -3.4674048335138090E-002   6.3212696425900453E-002   0.0000000000000000     
  -3.6358594652729170E-002   6.8939467974544810E-002   0.0000000000000000     
  -3.7991960983795738E-002   7.4847152463214439E-002   0.0000000000000000     
  -3.9574147328337805E-002   8.0935749891909312E-002   0.0000000000000000     
  -3.7071384358450005E-002   5.8221030027800741E-002   0.0000000000000000     
  -3.9000234712669252E-002   6.3750007569819675E-002   0.0000000000000000     
  -4.0871852379601198E-002   6.9459466726312827E-002   0.0000000000000000     
  -4.2686237359245850E-002   7.5349407497280155E-002   0.0000000000000000     
  -4.4443389651603188E-002   8.1419829882721714E-002   0.0000000000000000     
  -4.1348087494800963E-002   5.8837626578705518E-002   0.0000000000000000     
  -4.3467308328686477E-002   6.4346252339527024E-002   0.0000000000000000     
  -4.5524074590643698E-002   7.0035549794787183E-002   0.0000000000000000     
  -4.7518386280672620E-002   7.5905518944485995E-002   0.0000000000000000     
  -4.9450243398773248E-002   8.1956159788623473E-002   0.0000000000000000     
  -4.5768431440075405E-002   5.9516627469995712E-002   0.0000000000000000     
  -4.8075269183189759E-002   6.5001430735022486E-002   0.0000000000000000     
  -5.0315261285856644E-002   7.0667717179967893E-002   0.0000000000000000     
  -5.2488407748076046E-002   7.6515486804831945E-002   0.0000000000000000     
  -5.4594708569847966E-002   8.2544739609614642E-002   0.0000000000000000     
  -3.4842516428977066E-002   8.0503919816186292E-002   0.0000000000000000     
  -3.6197124130352289E-002   8.6778727589836735E-002   0.0000000000000000     
  -3.7491325154808290E-002   9.3210853291901291E-002   0.0000000000000000     
  -3.8725119502345078E-002   9.9800296922379989E-002   0.0000000000000000     
  -3.9898507172962644E-002  0.10654705848127280        0.0000000000000000     
  -3.9574147328337805E-002   8.0935749891909312E-002   0.0000000000000000     
  -4.1097653687377701E-002   8.7193304306337593E-002   0.0000000000000000     
  -4.2554980061937794E-002   9.3607859752207465E-002   0.0000000000000000     
  -4.3946126452018085E-002  0.10017941622951891        0.0000000000000000     
  -4.5271092857618572E-002  0.10690797373827193        0.0000000000000000     
  -4.4443389651603188E-002   8.1419829882721714E-002   0.0000000000000000     
  -4.6135543870539905E-002   8.7658956231485105E-002   0.0000000000000000     
  -4.7754934629922662E-002   9.4055008892417899E-002   0.0000000000000000     
  -4.9301561929751464E-002  0.10060798786552017        0.0000000000000000     
  -5.0775425770026313E-002  0.10731789315079188        0.0000000000000000     
  -4.9450243398773248E-002   8.1956159788623473E-002   0.0000000000000000     
  -5.1310794679838900E-002   8.8175683365279187E-002   0.0000000000000000     
  -5.3091188858762892E-002   9.4552300712532594E-002   0.0000000000000000     
  -5.4791425935545215E-002  0.10108601183038375        0.0000000000000000     
  -5.6411505910185879E-002  0.10777681671883264        0.0000000000000000     
  -5.4594708569847966E-002   8.2544739609614642E-002   0.0000000000000000     
  -5.6623406115274687E-002   8.8743485707719866E-002   0.0000000000000000     
  -5.8563742748458478E-002   9.5099735212551564E-002   0.0000000000000000     
  -6.0415718469399346E-002  0.10161348812410967        0.0000000000000000     
  -6.2179333278097271E-002  0.10828474444239425        0.0000000000000000     
  -3.9898507172962644E-002  0.10654705848127280        0.0000000000000000     
  -4.1023485140836306E-002  0.11344143373961796        0.0000000000000000     
  -4.2112050380141389E-002  0.12047371846845363        0.0000000000000000     
  -4.3164202890877898E-002  0.12764391266777980        0.0000000000000000     
  -4.4179942673045827E-002  0.13495201633759654        0.0000000000000000     
  -4.5271092857618572E-002  0.10690797373827193        0.0000000000000000     
  -4.6542274753110208E-002  0.11378387453929541        0.0000000000000000     
  -4.7772067612863983E-002  0.12079746089341822        0.0000000000000000     
  -4.8960471436879913E-002  0.12794873280064034        0.0000000000000000     
  -5.0107486225157968E-002  0.13523769026096186        0.0000000000000000     
  -5.0775425770026313E-002  0.10731789315079188        0.0000000000000000     
  -5.2190608645576606E-002  0.11417461353559052        0.0000000000000000     
  -5.3561193051231769E-002  0.12116803780727364        0.0000000000000000     
  -5.4887178986991782E-002  0.12829816596584123        0.0000000000000000     
  -5.6168566452856658E-002  0.13556499801129324        0.0000000000000000     
  -5.6411505910185879E-002  0.10777681671883264        0.0000000000000000     
  -5.7968486818235500E-002  0.11461365072850334        0.0000000000000000     
  -5.9479426695244718E-002  0.12158544921001989        0.0000000000000000     
  -6.0944325541213526E-002  0.12869221216338231        0.0000000000000000     
  -6.2363183356141910E-002  0.13593393958859062        0.0000000000000000     
  -6.2179333278097271E-002  0.10828474444239425        0.0000000000000000     
  -6.3875909271086898E-002  0.11510098611803382        0.0000000000000000     
  -6.5526768544902844E-002  0.12204969510165699        0.0000000000000000     
  -6.7131911099545125E-002  0.12913087139326376        0.0000000000000000     
  -6.8691336935013725E-002  0.13634451499285413        0.0000000000000000     
  -4.4179942673045827E-002  0.13495201633759654        0.0000000000000000     
  -4.5137861411296804E-002  0.14238277868670660        0.0000000000000000     
  -4.6016550790282440E-002  0.14992094892391286        0.0000000000000000     
  -4.6816010810002751E-002  0.15756652704921523        0.0000000000000000     
  -4.7536241470457742E-002  0.16531951306261386        0.0000000000000000     
  -5.0107486225157968E-002  0.13523769026096186        0.0000000000000000     
  -5.1196551843560652E-002  0.14264359654168909        0.0000000000000000     
  -5.2211108157950485E-002  0.15014571491012851        0.0000000000000000     
  -5.3151155168327434E-002  0.15774404536628012        0.0000000000000000     
  -5.4016692874691526E-002  0.16543858791014387        0.0000000000000000     
  -5.6168566452856658E-002  0.13556499801129324        0.0000000000000000     
  -5.7387710238083235E-002  0.14294672195549421        0.0000000000000000     
  -5.8526965131928323E-002  0.15042152581030865        0.0000000000000000     
  -5.9586331134391955E-002  0.15798940957573665        0.0000000000000000     
  -6.0565808245474084E-002  0.16565037325177812        0.0000000000000000     
  -6.2363183356141910E-002  0.13593393958859062        0.0000000000000000     
  -6.3711336594864526E-002  0.14329215492812195        0.0000000000000000     
  -6.4964121712215994E-002  0.15074838162445336        0.0000000000000000     
  -6.6121538708196273E-002  0.15830261967758491        0.0000000000000000     
  -6.7183587582805418E-002  0.16595486908751653        0.0000000000000000     
  -6.8691336935013725E-002  0.13634451499285413        0.0000000000000000     
  -7.0167430913904524E-002  0.14367989545957235        0.0000000000000000     
  -7.1522577898813444E-002  0.15112628235256259        0.0000000000000000     
  -7.2756777889740443E-002  0.15868367567182484        0.0000000000000000     
  -7.3870030886685548E-002  0.16635207541735919        0.0000000000000000     
   0.0000000000000000        0.0000000000000000        0.0000000000000000     
  -2.8799616438304875E-003   1.7449333486841390E-003   0.0000000000000000     
  -5.8724324296521250E-003   3.8648413260364799E-003   0.0000000000000000     
  -8.9774123574649142E-003   6.3597239320570247E-003   0.0000000000000000     
  -1.2194901427268853E-002   9.2295811667457723E-003   0.0000000000000000     
   0.0000000000000000        0.0000000000000000        0.0000000000000000     
  -3.2831247721115484E-003   1.9994071902945426E-003   0.0000000000000000     
  -6.6767639790851693E-003   4.3310805093439578E-003   0.0000000000000000     
  -1.0180917620920863E-002   6.9950199571482460E-003   0.0000000000000000     
  -1.3795585697618627E-002   9.9912255337074075E-003   0.0000000000000000     
   0.0000000000000000        0.0000000000000000        0.0000000000000000     
  -3.9534842178932522E-003   2.4251756224818104E-003   0.0000000000000000     
  -7.9104220065945897E-003   5.0630304735766463E-003   0.0000000000000000     
  -1.1870813366104013E-002   7.9135645532845082E-003   0.0000000000000000     
  -1.5834658296421517E-002   1.0976777861605398E-002   0.0000000000000000     
   0.0000000000000000        0.0000000000000000        0.0000000000000000     
  -4.8910399811755989E-003   3.0222386452459413E-003   0.0000000000000000     
  -9.5734065121803897E-003   6.0606912187345461E-003   0.0000000000000000     
  -1.4047099593014369E-002   9.1153577204658130E-003   0.0000000000000000     
  -1.8312119223677537E-002   1.2186238150439739E-002   0.0000000000000000     
   0.0000000000000000        0.0000000000000000        0.0000000000000000     
  -6.0957920619585902E-003   3.7905962585869377E-003   0.0000000000000000     
  -1.1665717495842566E-002   7.3240627448176564E-003   0.0000000000000000     
  -1.6709776301651928E-002   1.0600399458692155E-002   0.0000000000000000     
  -2.1227968479386676E-002   1.3619606400210437E-002   0.0000000000000000     
  -1.2194901427268853E-002   9.2295811667457723E-003   0.0000000000000000     
  -1.5427126044365981E-002   1.2372269756574891E-002   0.0000000000000000     
  -1.8576312614058340E-002   1.5685646428016554E-002   0.0000000000000000     
  -2.1642461136345922E-002   1.9169711181070758E-002   0.0000000000000000     
  -2.4625571611228733E-002   2.2824464015737508E-002   0.0000000000000000     
  -1.3795585697618627E-002   9.9912255337074075E-003   0.0000000000000000     
  -1.7403685482350901E-002   1.3221630833294350E-002   0.0000000000000000     
  -2.0888134248290134E-002   1.6588169450181989E-002   0.0000000000000000     
  -2.4248931995436315E-002   2.0090841384370325E-002   0.0000000000000000     
  -2.7486078723789456E-002   2.3729646635859351E-002   0.0000000000000000     
  -1.5834658296421517E-002   1.0976777861605398E-002   0.0000000000000000     
  -1.9730187078497642E-002   1.4211449192774714E-002   0.0000000000000000     
  -2.3485629993282908E-002   1.7576357341027877E-002   0.0000000000000000     
  -2.7100987040777322E-002   2.1071502306364870E-002   0.0000000000000000     
  -3.0576258220980885E-002   2.4696884088785707E-002   0.0000000000000000     
  -1.8312119223677537E-002   1.2186238150439739E-002   0.0000000000000000     
  -2.2406630832806203E-002   1.5341724835015984E-002   0.0000000000000000     
  -2.6368799849036662E-002   1.8650210100554204E-002   0.0000000000000000     
  -3.0198626272368936E-002   2.2111693947054391E-002   0.0000000000000000     
  -3.3896110102803009E-002   2.5726176374516557E-002   0.0000000000000000     
  -2.1227968479386676E-002   1.3619606400210437E-002   0.0000000000000000     
  -2.5433016745276583E-002   1.6612457760018157E-002   0.0000000000000000     
  -2.9537643815551410E-002   1.9809727728760978E-002   0.0000000000000000     
  -3.3541849690211165E-002   2.3211416306438894E-002   0.0000000000000000     
  -3.7445634369255840E-002   2.6817523493051911E-002   0.0000000000000000     
  -2.4625571611228733E-002   2.2824464015737508E-002   0.0000000000000000     
  -2.7530062749755658E-002   2.6672793980313185E-002   0.0000000000000000     
  -3.0360353262975575E-002   3.0737590123094190E-002   0.0000000000000000     
  -3.3116443150888485E-002   3.5018852444080525E-002   0.0000000000000000     
  -3.5798332413494394E-002   3.9516580943272178E-002   0.0000000000000000     
  -2.7486078723789456E-002   2.3729646635859351E-002   0.0000000000000000     
  -3.0622754804864365E-002   2.7547297434299896E-002   0.0000000000000000     
  -3.3682140610175854E-002   3.1586506009342763E-002   0.0000000000000000     
  -3.6664236139723923E-002   3.5847272360987968E-002   0.0000000000000000     
  -3.9569041393508558E-002   4.0329596489235488E-002   0.0000000000000000     
  -3.0576258220980885E-002   2.4696884088785707E-002   0.0000000000000000     
  -3.3940944935608237E-002   2.8497163360478840E-002   0.0000000000000000     
  -3.7224548586374050E-002   3.2517000793632726E-002   0.0000000000000000     
  -4.0427069173278318E-002   3.6756396388247382E-002   0.0000000000000000     
  -4.3548506696321050E-002   4.1215350144322802E-002   0.0000000000000000     
  -3.3896110102803009E-002   2.5726176374516557E-002   0.0000000000000000     
  -3.7484633141987307E-002   2.9522391758850016E-002   0.0000000000000000     
  -4.0987577191570194E-002   3.3529074475964100E-002   0.0000000000000000     
  -4.4404942251551727E-002   3.7746224525858782E-002   0.0000000000000000     
  -4.7736728321931855E-002   4.2173841908534099E-002   0.0000000000000000     
  -3.7445634369255840E-002   2.6817523493051911E-002   0.0000000000000000     
  -4.1253819424001525E-002   3.0622982629413431E-002   0.0000000000000000     
  -4.4971226425764267E-002   3.4622727056336844E-002   0.0000000000000000     
  -4.8597855374544086E-002   3.8816756773822181E-002   0.0000000000000000     
  -5.2133706270340988E-002   4.3205071781869400E-002   0.0000000000000000     
  -3.5798332413494394E-002   3.9516580943272178E-002   0.0000000000000000     
  -3.8405055315120007E-002   4.4221055042413145E-002   0.0000000000000000     
  -4.0935646120092054E-002   4.9122554163247380E-002   0.0000000000000000     
  -4.3390104828410520E-002   5.4221078305774904E-002   0.0000000000000000     
  -4.5768431440075405E-002   5.9516627469995712E-002   0.0000000000000000     
  -3.9569041393508558E-002   4.0329596489235488E-002   0.0000000000000000     
  -4.2393000871850300E-002   4.5019690540943631E-002   0.0000000000000000     
  -4.5132559075069648E-002   4.9903766662970639E-002   0.0000000000000000     
  -4.7787716003166593E-002   5.4981824855316531E-002   0.0000000000000000     
  -5.0358471656141143E-002   6.0253865117981295E-002   0.0000000000000000     
  -4.3548506696321050E-002   4.1215350144322802E-002   0.0000000000000000     
  -4.6583913496439082E-002   4.5881263634092742E-002   0.0000000000000000     
  -4.9528341914569257E-002   5.0741538429790969E-002   0.0000000000000000     
  -5.2381791950711569E-002   5.5796174531417483E-002   0.0000000000000000     
  -5.5144263604866031E-002   6.1045171938972298E-002   0.0000000000000000     
  -4.7736728321931855E-002   4.2173841908534099E-002   0.0000000000000000     
  -5.0977793188886331E-002   4.6805774321860477E-002   0.0000000000000000     
  -5.4122994638590868E-002   5.1635869463708371E-002   0.0000000000000000     
  -5.7172332671045434E-002   5.6664127334077781E-002   0.0000000000000000     
  -6.0125807286250076E-002   6.1890547932968693E-002   0.0000000000000000     
  -5.2133706270340988E-002   4.3205071781869400E-002   0.0000000000000000     
  -5.5574639949192081E-002   4.7793222604246843E-002   0.0000000000000000     
  -5.8916517247134481E-002   5.2586759764722851E-002   0.0000000000000000     
  -6.2159338164168222E-002   5.7585683263297403E-002   0.0000000000000000     
  -6.5303102700293270E-002   6.2789993099970520E-002   0.0000000000000000     
  -4.5768431440075405E-002   5.9516627469995712E-002   0.0000000000000000     
  -4.8075269183189759E-002   6.5001430735022486E-002   0.0000000000000000     
  -5.0315261285856644E-002   7.0667717179967893E-002   0.0000000000000000     
  -5.2488407748076046E-002   7.6515486804831945E-002   0.0000000000000000     
  -5.4594708569847966E-002   8.2544739609614642E-002   0.0000000000000000     
  -5.0358471656141143E-002   6.0253865117981295E-002   0.0000000000000000     
  -5.2851542016191591E-002   6.5713853911049031E-002   0.0000000000000000     
  -5.5273643065516243E-002   7.1355757694603866E-002   0.0000000000000000     
  -5.7624774804115084E-002   7.7179576468645719E-002   0.0000000000000000     
  -5.9904937231988122E-002   8.3185310233174659E-002   0.0000000000000000     
  -5.5144263604866031E-002   6.1045171938972298E-002   0.0000000000000000     
  -5.7823551567704468E-002   6.6481833022349696E-002   0.0000000000000000     
  -6.0427450529898695E-002   7.2099460151443945E-002   0.0000000000000000     
  -6.2955960491448693E-002   7.7898053326255087E-002   0.0000000000000000     
  -6.5409081452354467E-002   8.3877612546783123E-002   0.0000000000000000     
  -6.0125807286250076E-002   6.1890547932968693E-002   0.0000000000000000     
  -6.2991297837728388E-002   6.7305368068924412E-002   0.0000000000000000     
  -6.5776683679003980E-002   7.2898824550488184E-002   0.0000000000000000     
  -6.8481964810076831E-002   7.8670917377660035E-002   0.0000000000000000     
  -7.1107141230947010E-002   8.4621646550439938E-002   0.0000000000000000     
  -6.5303102700293270E-002   6.2789993099970520E-002   0.0000000000000000     
  -6.8354780826263339E-002   6.8184459050773208E-002   0.0000000000000000     
  -7.1321342512832120E-002   7.3753850891736569E-002   0.0000000000000000     
  -7.4202787759999569E-002   7.9498168622860535E-002   0.0000000000000000     
  -7.6999116567765730E-002   8.5417412244145174E-002   0.0000000000000000     
  -5.4594708569847966E-002   8.2544739609614642E-002   0.0000000000000000     
  -5.6623406115274687E-002   8.8743485707719866E-002   0.0000000000000000     
  -5.8563742748458478E-002   9.5099735212551564E-002   0.0000000000000000     
  -6.0415718469399346E-002  0.10161348812410967        0.0000000000000000     
  -6.2179333278097271E-002  0.10828474444239425        0.0000000000000000     
  -5.9904937231988122E-002   8.3185310233174659E-002   0.0000000000000000     
  -6.2101475836367340E-002   8.9361109968840335E-002   0.0000000000000000     
  -6.4201736104484722E-002   9.5695126656292345E-002   0.0000000000000000     
  -6.6205718036340303E-002  0.10218736029553069        0.0000000000000000     
  -6.8113421631934040E-002  0.10883781088655539        0.0000000000000000     
  -6.5409081452354467E-002   8.3877612546783123E-002   0.0000000000000000     
  -6.7773101502636920E-002   9.0027302858673677E-002   0.0000000000000000     
  -7.0034308732316961E-002   9.6336289307572473E-002   0.0000000000000000     
  -7.2192703141394560E-002  0.10280457189347952        0.0000000000000000     
  -7.4248284729869773E-002  0.10943215061639480        0.0000000000000000     
  -7.1107141230947010E-002   8.4621646550439938E-002   0.0000000000000000     
  -7.3638283114083436E-002   9.0742064377219947E-002   0.0000000000000000     
  -7.6061460631955166E-002   9.7023223166392031E-002   0.0000000000000000     
  -7.8376673784562145E-002  0.10346512291795623        0.0000000000000000     
  -8.0583922571904470E-002  0.11006776363191249        0.0000000000000000     
  -7.6999116567765730E-002   8.5417412244145174E-002   0.0000000000000000     
  -7.9697020670706900E-002   9.1505394524479075E-002   0.0000000000000000     
  -8.2283191803399339E-002   9.7755928232750935E-002   0.0000000000000000     
  -8.4757629965843073E-002  0.10416901336896074        0.0000000000000000     
  -8.7120335158038090E-002  0.11074464993310849        0.0000000000000000     
  -6.2179333278097271E-002  0.10828474444239425        0.0000000000000000     
  -6.3875909271086898E-002  0.11510098611803382        0.0000000000000000     
  -6.5526768544902844E-002  0.12204969510165699        0.0000000000000000     
  -6.7131911099545125E-002  0.12913087139326376        0.0000000000000000     
  -6.8691336935013725E-002  0.13634451499285413        0.0000000000000000     
  -6.8113421631934040E-002  0.10883781088655539        0.0000000000000000     
  -6.9949643348270654E-002  0.11563251865242306        0.0000000000000000     
  -7.1739179642354850E-002  0.12255752381619035        0.0000000000000000     
  -7.3482030514186600E-002  0.12961282637785726        0.0000000000000000     
  -7.5178195963765890E-002  0.13679842633742378        0.0000000000000000     
  -7.4248284729869773E-002  0.10943215061639480        0.0000000000000000     
  -7.6226456393926667E-002  0.11620414727991216        0.0000000000000000     
  -7.8152621029749389E-002  0.12310568368762541        0.0000000000000000     
  -8.0026778637337884E-002  0.13013675983953460        0.0000000000000000     
  -8.1848929216692207E-002  0.13729737573563969        0.0000000000000000     
  -8.0583922571904470E-002  0.11006776363191249        0.0000000000000000     
  -8.2706348408054922E-002  0.11681587200050109        0.0000000000000000     
  -8.4767092707086447E-002  0.12369417471596217        0.0000000000000000     
  -8.6766155468999018E-002  0.13070267177829575        0.0000000000000000     
  -8.8703536693792703E-002  0.13784136318750181        0.0000000000000000     
  -8.7120335158038090E-002  0.11074464993310849        0.0000000000000000     
  -8.9389319390655420E-002  0.11746769281418991        0.0000000000000000     
  -9.1582594674366080E-002  0.12432299690120065        0.0000000000000000     
  -9.3700161009170044E-002  0.13131056219414078        0.0000000000000000     
  -9.5742018395067352E-002  0.13843038869301022        0.0000000000000000     
  -6.8691336935013725E-002  0.13634451499285413        0.0000000000000000     
  -7.0167430913904524E-002  0.14367989545957235        0.0000000000000000     
  -7.1522577898813444E-002  0.15112628235256259        0.0000000000000000     
  -7.2756777889740443E-002  0.15868367567182484        0.0000000000000000     
  -7.3870030886685548E-002  0.16635207541735919        0.0000000000000000     
  -7.5178195963765890E-002  0.13679842633742378        0.0000000000000000     
  -7.6779545892739137E-002  0.14411043821229180        0.0000000000000000     
  -7.8237950202752621E-002  0.15154497651986315        0.0000000000000000     
  -7.9553408893806396E-002  0.15910204126013788        0.0000000000000000     
  -8.0725921965900449E-002  0.16678163243311594        0.0000000000000000     
  -8.1848929216692207E-002  0.13729737573563969        0.0000000000000000     
  -8.3571234228904154E-002  0.14458427784872679        0.0000000000000000     
  -8.5145855135065451E-002  0.15199421265158197        0.0000000000000000     
  -8.6572791935176086E-002  0.15952718014420531        0.0000000000000000     
  -8.7852044629236153E-002  0.16718318032659671        0.0000000000000000     
  -8.8703536693792703E-002  0.13784136318750181        0.0000000000000000     
  -9.0542495922399588E-002  0.14510141436887733        0.0000000000000000     
  -9.2246292695751880E-002  0.15247399074771903        0.0000000000000000     
  -9.3814927013849525E-002  0.15995909232402714        0.0000000000000000     
  -9.5248398876692605E-002  0.16755671909780140        0.0000000000000000     
  -9.5742018395067352E-002  0.13843038869301022        0.0000000000000000     
  -9.7693330973225467E-002  0.14566184777274332        0.0000000000000000     
  -9.9539262884811935E-002  0.15298431080827435        0.0000000000000000     
 -0.10127981412982673       0.16039777779960329        0.0000000000000000     
 -0.10291498470826986       0.16790224874673015        0.0000000000000000     
 </DataArray>
 <DataArray  type="Float64" Name="stress" NumberOfComponents="3" format="ascii">
   13416534016.407173        4024960204.9221520        2893998017.4863043     
   11766632664.864428        1890381925.7529125        1715865246.2762358     
   10314033298.489582        413476930.47666359        810763556.42011845     
   9058735917.2826309       -405754780.90659857        178692947.91795161     
   8000740521.2435741       -567313208.39687157       -180346579.23026484     
   10540039067.566711        3162011720.2700133        2225710546.5310740     
   9667782380.8233662        1589554381.8830764        1446703335.6254570     
   8944184132.8001499        512625172.56325674        863133029.95412445     
   8369244323.4970741       -68775907.689442158        474999629.51707703     
   7942962952.9141331       -154648858.87502289        282303134.31431389     
   8338150979.0012970        2501445293.7003889        1712270608.9559412     
   8021841311.0011559        1424599602.2788963        1275638154.1657212     
   7805546535.2733889        681136885.09865260        956848428.49011981     
   7689266651.8179960        271057142.15965700        755901431.92913640     
   7673001660.6349773        194360373.46191072        672797164.48277104     
   6810869750.7109261        2043260925.2132778        1353678204.7609060     
   6828809455.3978033        1395517586.9403734        1202669701.8970282     
   6898120505.9092922        919012068.08284760        1091909752.0281029     
   7018802902.2453976        613744368.64070034        1021398355.1541296     
   7190856644.4061127        479714488.61393118        991135511.27510703     
   5958195382.6956015        1787458614.8086803        1149933333.9459682     
   6088686814.0133057        1502308335.8675072        1227797978.8193786     
   6221906044.7078619        1226250721.5158417        1268317000.5680742     
   6357853074.7792702        959285771.75368524        1271490399.1920562     
   6496527904.2275343        701413486.58103800        1237318174.6913235     
   8000740521.2435741       -567313208.39687157       -180346579.23026484     
   7918083782.9407139       -199971135.22613525       -78444054.519884557     
   7793926534.1997252        29035903.150846004       -9067923.8920013607     
   7628268775.0206127        119707906.73406839        27781812.653384317     
   7421110505.4033651        72044875.523525715        32105155.116269194     
   7942962952.9141331       -154648858.87502289        282303134.31431389     
   7740111627.6647387        16481728.354461670        281019920.53023237     
   7513859792.1446619        109610614.68166399        265085299.93314487     
   7264207446.3538990        124737800.10658503        234499272.52304810     
   6991154590.2924519        61863284.629221916        189261838.29994491     
   7673001660.6349773        194360373.46191072        672797164.48277104     
   7401027140.6375980        184600892.40970612        589444879.06624496     
   7123752110.5369740        157173044.34669638        509316174.10620284     
   6841176570.3331118        112076829.27288151        432411049.60264283     
   6553300520.0260029        49312247.188256502        358729505.55556971     
   7190856644.4061127        479714488.61393118        991135511.27510703     
   6900830321.8592873        304386356.93960142        846830821.08815348     
   6623603489.3766623        171723192.14594126        723624698.62717330     
   6359176146.9582405        81724994.232951880        621517143.89216828     
   6107548294.6040182        34391763.200632572        540508156.88313448     
   6496527904.2275343        701413486.58103800        1237318174.6913235     
   6239521171.3298082        375838121.94414592        1053177746.5959579     
   6013413928.6637278        153261058.07939959        908010873.49605691     
   5818206176.2292910        33682294.986801624        801817555.39162147     
   5653897914.0264969        17101832.666345596        734597792.28264868     
   7421110505.4033651        72044875.523525715        32105155.116269194     
   7219598203.1603937       -18392624.704856396        15157216.506578308     
   7030266679.9950352       -68227528.007872105        2401279.3494508951     
   6853115935.9072790       -77459834.385540962       -6162656.3551082388     
   6688145970.8971291       -46089543.837856293       -10534590.607102618     
   6991154590.2924519        61863284.629221916        189261838.29994491     
   6809172559.4436512        2662159.4688782692        180925412.06346533     
   6634999045.0764484       -30510577.419473648        176211875.81576797     
   6468634047.1908512       -37654926.035810232        175121229.55685940     
   6310077565.7868500       -18770886.380154610        177653473.28673783     
   6553300520.0260029        49312247.188256502        358729505.55556971     
   6389222727.8177137        20859687.269846439        353903618.66362447     
   6228581189.4950209        3861306.9700865746        352131510.29668278     
   6071375905.0579214       -1682893.7110264301        353413180.45475554     
   5917606874.5064182        4227085.2265036106        357748629.13783073     
   6107548294.6040182        34391763.200632572        540508156.88313448     
   5959748708.2825871        36199958.698063135        534091836.30705154     
   5811013113.2507439        34888125.160785198        530160182.79219919     
   5661341509.5084896        30456262.588798523        528713196.33857143     
   5510733897.0558224        22904370.982107878        529750876.94617403     
   5653897914.0264969        17101832.666345596        734597792.28264868     
   5520750500.8382702        48682973.753519773        721490064.99375379     
   5382294816.3436260        62569877.152633429        710297893.30230749     
   5238530860.5425587        58762542.863680124        701021277.20831120     
   5089458633.4350786        37260970.886669874        693660216.71176302     
   6688145970.8971291       -46089543.837856293       -10534590.607102618     
   6509772893.8437357       -7931978.8865635395       -4735043.9651839994     
   6326345328.7126827        13377292.472525358        2733472.0616833949     
   6137863275.5039568        17838270.239369392        11870957.473508533     
   5944326734.2175655        5450954.4140074253        22677412.270281170     
   6310077565.7868500       -18770886.380154610        177653473.28673783     
   6132284150.1104975        1485260.8882095814        174275705.89496344     
   5951392012.1686468        11412333.938230991        173805958.87355518     
   5767401151.9612865        11010332.769899607        176244232.22252238     
   5580311569.4884224        279257.38321304321        181590525.94185701     
   5917606874.5064182        4227085.2265036106        357748629.13783073     
   5743933265.8797312        7643858.5137243271        347475274.49321312     
   5569116700.7997065        7250776.9564685822        341348991.20438272     
   5393157179.2663326        3047840.5547306538        339369779.27134848     
   5216054701.2796173       -4964950.6914846897        341537638.69409692     
   5510733897.0558224        22904370.982107878        529750876.94617403     
   5344720241.1514320        10543813.989980936        514863661.82956731     
   5179519394.6058598        892621.52723884583        505362569.05417216     
   5015131357.4190989       -6049206.4061152935        501247598.61998308     
   4851556129.5911608       -10281669.810081005        502518750.52700347     
   5089458633.4350786        37260970.886669874        693660216.71176302     
   4934645075.9256039        10185127.316975355        676440867.90402567     
   4782600093.5871038       -7662132.3494682312        665846692.42291605     
   4633323686.4195843       -16280808.112641335        661877690.26843238     
   4486815854.4230385       -15670899.972568035        664533861.44058001     
   5944326734.2175655        5450954.4140074253        22677412.270281170     
   5776362466.5193262       -3167125.7615022659        14969423.718086831     
   5610879645.2988052       -3513717.6779372692        11400926.893336955     
   5447878270.5560064        4411178.6646909714        11971921.796034738     
   5287358342.2909250        20607563.266387939        16682408.426176982     
   5580311569.4884224        279257.38321304321        181590525.94185701     
   5424289962.1194210       -3260787.9636108875        176101966.10455477     
   5269963101.7469482       -1151676.6553535461        174488722.14030117     
   5117330988.3709822        6606591.3079478741        176750794.04908916     
   4966393621.9915400        20014015.926314354        182888181.83092454     
   5216054701.2796173       -4964950.6914846897        341537638.69409692     
   5071220966.0844326       -3653397.6562485695        337350691.51028991     
   4927295278.4045706        684980.43005824089        336774884.34512490     
   4784277638.2400255        8050183.5674247742        339810217.19860512     
   4642168045.5907955        18442211.755856752        346456690.07073659     
   4851556129.5911608       -10281669.810081005        502518750.52700347     
   4717155478.4143639       -4344954.8394100666        498715599.93529159     
   4582876175.2716799        1996253.5783176422        498259413.50781947     
   4448718220.1631193        8741955.4431104660        501150191.24459875     
   4314681613.0886803        15892150.754976273        507387933.14561659     
   4486815854.4230385       -15670899.972568035        664533861.44058001     
   4362093499.1091986       -5335459.5131072998        660196691.37955582     
   4236705792.3482761        2782142.7894206047        658942309.62838089     
   4110652734.1402745        8681906.9350187778        660770716.18704939     
   3983934324.4851913        12363832.923680067        665681911.05556178     
   5287358342.2909250        20607563.266387939        16682408.426176982     
   5076242534.2657232        21397081.920567036        15995907.099568380     
   4862494882.8269043        13413789.196002245        17006936.621260643     
   4646115387.9744558       -3342314.9073150158        19715496.991262097     
   4427104049.7083759       -28871230.389411926        24121588.209570818     
   4966393621.9915400        20014015.926314354        182888181.83092454     
   4759866961.9691582        16488913.212707281        179003542.22001079     
   4551476935.6717281        6752589.5822906494        177947167.46321133     
   4341223543.0992622       -9194954.9649236202        179719057.56052396     
   4129106784.2517467       -31353720.428960323        184319212.51195022     
   4642168045.5907955        18442211.755856752        346456690.07073659     
   4443461202.1592398        11571688.250854969        340270468.83720571     
   4243659469.5912304        1051534.2909953594        338043246.46359587     
   4042762847.8867583       -13118250.123712540        339775022.94990152     
   3840771337.0458283       -30937664.993301630        345465798.29613405     
   4314681613.0886803        15892150.754976273        507387933.14561659     
   4127025254.8359761        6645407.0349991322        499796686.95114583     
   3939042484.5853930       -3689376.6779046059        497295173.62240708     
   3750733302.3369451       -15112200.383694172        499883393.15939176     
   3562097708.0906177       -27623064.082407951        507561345.56210446     
   3983934324.4851913        12363832.923680067        665681911.05556178     
   3810559119.9993567        1710069.5651209354        657582196.56183958     
   3637625980.6542315       -7470143.3243935108        655702948.93965280     
   3465134906.4498124       -15176805.744882822        660044168.18899691     
   3293085897.3861103       -21409917.696326256        670605854.30988026     
   4427104049.7083759       -28871230.389411926        24121588.209570818     
   4279675768.8966813       -29384832.572136641        4606081.2517226050     
   4137213658.5731559       -13344533.127631664       -2822841.8821633155     
   3999717718.7377939        19249667.944080353        1834818.8078964024     
   3867187949.3905969        68397770.643020391        18579063.321923535     
   4129106784.2517467       -31353720.428960323        184319212.51195022     
   4011628558.0808821       -22805474.306564331        171446866.84493333     
   3897540369.6906376       -2957102.2487621307        167435245.16109437     
   3786842219.0810118        28191395.744420290        172284347.46045679     
   3679534106.2519870        70640019.672963619        185994173.74301443     
   3840771337.0458283       -30937664.993301630        345465798.29613405     
   3744026423.1136184       -16092593.286407709        337397792.42778277     
   3649095414.2544723        4798828.6640260220        334964650.70186543     
   3555978310.4683876        31736600.858000517        338166373.11837399     
   3464675111.7553601        64720723.295505166        347002959.67731994     
   3562097708.0906177       -27623064.082407951        507561345.56210446     
   3476869363.9948773       -9246189.5117025375        502458858.00029409     
   3391878792.2646422        9923259.6107013226        499765374.74014598     
   3307125992.8999233        29885283.284818769        499480895.78166270     
   3222610965.9007154        50639881.510639668        501605421.12484705     
   3293085897.3861103       -21409917.696326256        670605854.30988026     
   3210157380.7246609       -2266262.9824451208        666630063.56245279     
   3125890503.7211633        12416190.591291666        661837417.27593172     
   3040285266.3756309        22637443.024899483        656227915.45030665     
   2953341668.6880555        28397494.318363070        649801558.08558917     
   3867187949.3905969        68397770.643020391        18579063.321923535     
   3652433499.7662430        76775407.550717831        40759267.628078289     
   3422095476.3296771        33207798.417707205        42819526.848060399     
   3176173879.0809069       -62305056.755989432        24759840.981881406     
   2914668708.0199223       -209763157.97039068       -13419789.970470220     
   3679534106.2519870        70640019.672963619        185994173.74301443     
   3418123712.9949751        56977292.698603034        188502848.81708992     
   3146808556.6114988        10298688.636015773        180328519.38652065     
   2865588637.1015463       -69395792.514813900        161471185.45135021     
   2574463954.4651394       -182106150.75383508        131930847.01153503     
   3464675111.7553601        64720723.295505166        347002959.67731994     
   3183571462.2415366        37106438.651823640        336465384.65266645     
   2898241860.2869902       -4594354.1275939941        324681745.70492715     
   2608686305.8917270       -60381655.042762280        311652042.83412236     
   2314904799.0557299       -130255464.09365427        297376276.04022449     
   3222610965.9007154        50639881.510639668        501605421.12484705     
   2948776747.5059333        17162845.410414815        484646875.13483256     
   2676395387.3561735       -11471329.873079777        475879205.80328953     
   2405466885.4514427       -35262644.339830279        475302413.13021600     
   2135991241.7917123       -54211097.989862561        482916497.11560005     
   2953341668.6880555        28397494.318363070        649801558.08558917     
   2713739568.7881613       -2853487.0256679058        633047320.26358342     
   2481269137.8190441       -10332238.600447774        633920899.68158841     
   2255930375.7806749        5961239.5939313173        652422296.33962011     
   2037723282.6730728        46026947.557542682        688551510.23766112     
   5958195382.6956015        1787458614.8086803        1149933333.9459682     
   6088686814.0133057        1502308335.8675072        1227797978.8193786     
   6221906044.7078619        1226250721.5158417        1268317000.5680742     
   6357853074.7792702        959285771.75368524        1271490399.1920562     
   6496527904.2275343        701413486.58103800        1237318174.6913235     
   5434790514.9325476        1630437154.4797642        1033343934.7709781     
   5490097796.3475943        1372535476.2571969        1113743749.7756364     
   5547604732.0515337        1121965978.9976115        1167367087.8140557     
   5607311322.0443687        878728662.70100927        1194213948.8862345     
   5669217566.3260994        642823527.36738825        1194284332.9921751     
   4895317787.3989935        1468595336.2196980        936217945.49578512     
   4905638479.3641672        1247001526.8515723        1018536761.3624076     
   4917630680.5302763        1030979414.8199028        1084648246.4212651     
   4931294390.8973236        820529000.12468922        1134552400.6723585     
   4946629610.4653063        615650282.76593161        1168249224.1156874     
   4339777200.0949383        1301933160.0284815        858555366.12038946     
   4335308863.0630245        1125706487.6506331        942177013.57969141     
   4331983890.1440897        953291028.98271465        1020160476.3897039     
   4329802281.3381338        784686784.02472627        1092505754.5504265     
   4328764036.6451578        619893752.77666771        1159212848.0618608     
   3768168753.0203810        1130450625.9061143        800356196.64479113     
   3779108947.4441667        1008650358.6543791        884664506.42748833     
   3790664360.8929734        888900821.48604810        973903777.71937144     
   3802834993.3668013        771202014.40112078        1068074010.5204397     
   3815620844.8656492        655553937.39959669        1167175204.8306942     
   6496527904.2275343        701413486.58103800        1237318174.6913235     
   6239521171.3298082        375838121.94414592        1053177746.5959579     
   6013413928.6637278        153261058.07939959        908010873.49605691     
   5818206176.2292910        33682294.986801624        801817555.39162147     
   5653897914.0264969        17101832.666345596        734597792.28264868     
   5669217566.3260994        642823527.36738825        1194284332.9921751     
   5519080637.5801516        383245593.08371139        1073415034.5837364     
   5393078221.3309660        204116033.78924131        980549546.59968579     
   5291210317.5785427        105434849.48398161        915687869.04002810     
   5213476926.3228817        87202040.167927742        878830001.90476143     
   4946629610.4653063        615650282.76593161        1168249224.1156874     
   4872020358.5252123        412667140.63169074        1102758581.3701444     
   4814780641.3469992        267582447.70372176        1054302004.4779190     
   4774910458.9306679        180396203.98202324        1022879493.4390117     
   4752409811.2762136        151108409.46659374        1008491048.2534239     
   4328764036.6451578        619893752.77666771        1159212848.0618608     
   4298340334.1649914        464102764.58808661        1141208386.9551864     
   4278521188.7118287        343660299.82284141        1129268247.1307571     
   4269306600.2856622        258566358.48092580        1123392428.5885711     
   4270696568.8864956        208820940.56234479        1123580931.3286324     
   3815620844.8656492        655553937.39959669        1167175204.8306942     
   3798040564.4994912        537552464.95289874        1188764451.3388605     
   3784299863.4254522        432349590.14659834        1205448274.5581980     
   3774398741.6435328        339945312.98069346        1217226674.4887087     
   3768337199.1537304        260339633.45518196        1224099651.1303906     
   5653897914.0264969        17101832.666345596        734597792.28264868     
   5520750500.8382702        48682973.753519773        721490064.99375379     
   5382294816.3436260        62569877.152633429        710297893.30230749     
   5238530860.5425587        58762542.863680124        701021277.20831120     
   5089458633.4350786        37260970.886669874        693660216.71176302     
   5213476926.3228817        87202040.167927742        878830001.90476143     
   5077969036.3413696        85111054.216689825        855257668.88398743     
   4940397517.1483059        76141304.226947546        835724519.74133074     
   4800762368.7436905        60292790.198705673        820230554.47679174     
   4659063591.1275263        37565512.131959915        808775773.09037590     
   4752409811.2762136        151108409.46659374        1008491048.2534239     
   4620608953.8747616        117165549.28894925        978239525.27811241     
   4489989109.3566256        87159398.722360134        954150814.46159077     
   4360550277.7218037        61089957.766825676        936224915.80385816     
   4232292458.9703040        38957226.422349691        924461829.30491531     
   4270696568.8864956        208820940.56234479        1123580931.3286324     
   4148670253.4384484        144846458.97029614        1090435634.1761315     
   4031069592.9685841        95624160.638861418        1065576777.4630911     
   3917894587.4769025        61154045.568041801        1049004361.1895084     
   3809145236.9634047        41436113.757834435        1040718385.3553874     
   3768337199.1537304        260339633.45518196        1224099651.1303906     
   3662152935.0324287        168153783.26073146        1191845995.5780449     
   3563638967.9841771        101535589.97645307        1170002408.7458296     
   3472795298.0089784        60485053.602349043        1158568890.6337438     
   3389621925.1068335        45002174.138421893        1157545441.2417903     
   5089458633.4350786        37260970.886669874        693660216.71176302     
   4934645075.9256039        10185127.316975355        676440867.90402567     
   4782600093.5871038       -7662132.3494682312        665846692.42291605     
   4633323686.4195843       -16280808.112641335        661877690.26843238     
   4486815854.4230385       -15670899.972568035        664533861.44058001     
   4659063591.1275263        37565512.131959915        808775773.09037590     
   4522295664.0575466        16279515.371841908        795276367.91358662     
   4387566328.4910545        1788823.6233592033        787696925.09987688     
   4254875584.4280553       -5906563.1134893894        786037444.64925003     
   4124223431.8685455       -6806644.8387022018        790297926.56170559     
   4232292458.9703040        38957226.422349691        924461829.30491531     
   4111555273.8725438        22856609.931631088        913830720.14700603     
   3992126696.6107864        11118019.560920238        908414362.38862991     
   3874006727.1850319        3741455.3102219105        908212756.02979302     
   3757195365.5952821        726917.17953372002        913225901.07048845     
   3809145236.9634047        41436113.757834435        1040718385.3553874     
   3702423905.3705921        29916410.996331453        1032103924.6042889     
   3596281197.9462967        20325455.463213205        1027999004.2891781     
   3490717114.6905174        12663247.158482552        1028403624.4100577     
   3385731655.6032524        6929786.0821399689        1033317784.9669299     
   3389621925.1068335        45002174.138421893        1157545441.2417903     
   3294901558.5516958        37458918.565949202        1150095981.2854338     
   3200029832.4975863        29411131.330240965        1146450850.8015218     
   3105006746.9445043        20858812.431295395        1146610049.7900536     
   3009832301.8924537        11801961.869115353        1150573578.2510269     
   4486815854.4230385       -15670899.972568035        664533861.44058001     
   4362093499.1091986       -5335459.5131072998        660196691.37955582     
   4236705792.3482761        2782142.7894206047        658942309.62838089     
   4110652734.1402745        8681906.9350187778        660770716.18704939     
   3983934324.4851913        12363832.923680067        665681911.05556178     
   4124223431.8685455       -6806644.8387022018        790297926.56170559     
   4006731312.7499185       -1020767.0185809135        784107059.95018959     
   3889005843.5649972        3987277.2472250462        781445024.24961150     
   3771047024.3137774        8217487.9587094784        782311819.45996869     
   3652854854.9962654        11669865.115872860        786707445.58126366     
   3757195365.5952821        726917.17953372002        913225901.07048845     
   3648207890.1035633        2345554.5898311138        905685339.51939428     
   3539419065.9263277        4626363.0484161377        902119651.48032856     
   3430828893.0635834        7569342.5552949905        902528836.95328796     
   3322437371.5153217        11174493.110461950        906912895.93828011     
   3385731655.6032524        6929786.0821399689        1033317784.9669299     
   3286523231.1701283        4763505.3121151924        1024931530.0871680     
   3187945459.4322705        4699400.1929855347        1020966191.3205301     
   3089998340.3896852        6737470.7247689962        1021421768.6670107     
   2992681874.0423727        10877716.907449007        1026298262.1266085     
   3009832301.8924537        11801961.869115353        1150573578.2510269     
   2921677335.9496098        6233085.1482708454        1141845631.6535211     
   2834585024.0828209        4206388.6809409857        1137984643.7702198     
   2748555366.2920871        5721872.4671322107        1138990614.6011329     
   2663588362.5774055        10779536.506830454        1144863544.1462522     
   3983934324.4851913        12363832.923680067        665681911.05556178     
   3810559119.9993567        1710069.5651209354        657582196.56183958     
   3637625980.6542315       -7470143.3243935108        655702948.93965280     
   3465134906.4498124       -15176805.744882822        660044168.18899691     
   3293085897.3861103       -21409917.696326256        670605854.30988026     
   3652854854.9962654        11669865.115872860        786707445.58126366     
   3495787048.8922658        3457515.0788321495        779002543.14870906     
   3338951250.3326311       -3981476.4769785404        777057923.37183332     
   3182347459.3173695       -10647109.551552534        780873586.25064051     
   3025975675.8464751       -16539384.144901991        790449531.78513265     
   3322437371.5153217        11174493.110461950        906912895.93828011     
   3180362151.7478647        5009112.7813457251        899357738.37115645     
   3038308881.9284391       -1083101.0543313026        897102679.24386454     
   2896277562.0570359       -7102148.3965930939        900147718.55640173     
   2754268192.1336613       -13048029.245426655        908492856.30876827     
   2992681874.0423727        10877716.907449007        1026298262.1266085     
   2864284428.5661621        6364862.6726741791        1018647782.2291905     
   2735698875.4416418        1224982.9435263872        1015837216.5557458     
   2606925214.6688080       -4541922.2799977064        1017866565.1062826     
   2477963446.2476587       -10935852.997913361        1024735827.8807918     
   2663588362.5774055        10779536.506830454        1144863544.1462522     
   2547553879.3471551        7524764.7528049946        1136872674.7228048     
   2431121230.8722515        2942775.5166126490        1133261535.3074811     
   2314290417.1526890       -2966431.2017811537        1134030125.9002790     
   2197061438.1884713       -10202855.402352452        1139178446.5012062     
   3293085897.3861103       -21409917.696326256        670605854.30988026     
   3210157380.7246609       -2266262.9824451208        666630063.56245279     
   3125890503.7211633        12416190.591291666        661837417.27593172     
   3040285266.3756309        22637443.024899483        656227915.45030665     
   2953341668.6880555        28397494.318363070        649801558.08558917     
   3025975675.8464751       -16539384.144901991        790449531.78513265     
   2941683720.1555510       -1411982.4145617485        784472108.74986672     
   2856761335.8145604        11613990.482233405        779189569.61183894     
   2771208522.8235035        22538534.545464873        774601914.37105918     
   2685025281.1823730        31361649.775129914        770709143.02751482     
   2754268192.1336613       -13048029.245426655        908492856.30876827     
   2672932052.9456573       -641103.83891117573        901339721.29296565     
   2591673416.7995648        12024165.040637732        896393209.61074615     
   2510492283.6953840        24947777.393219352        893653321.26210511     
   2429388653.6331072        38129733.218831778        893120056.24704742     
   2477963446.2476587       -10935852.997913361        1024735827.8807918     
   2403902379.0949793        46372.744501233101        1017232901.1917574     
   2330626746.6761813        13646714.266527295        1013448337.2726474     
   2258136548.9912753        29865171.568183899        1013382136.1234576     
   2186431786.0402536        48701744.649455428        1017034297.7441871     
   2197061438.1884713       -10202855.402352452        1139178446.5012062     
   2134594698.6035147        650447.33567941189        1132151648.4462454     
   2073621325.4444182        16481638.159917831        1130354952.5975475     
   2014141318.7111840        37290717.070361495        1133788358.9551084     
   1956154678.4038084        63077684.066998482        1142451867.5189321     
   2953341668.6880555        28397494.318363070        649801558.08558917     
   2713739568.7881613       -2853487.0256679058        633047320.26358342     
   2481269137.8190441       -10332238.600447774        633920899.68158841     
   2255930375.7806749        5961239.5939313173        652422296.33962011     
   2037723282.6730728        46026947.557542682        688551510.23766112     
   2685025281.1823730        31361649.775129914        770709143.02751482     
   2487645863.7939372        11466935.402942181        762007057.87580991     
   2293956890.3010478        3873700.6825838089        765535465.03784907     
   2103958360.7037132        8581945.6140631437        781294364.51365447     
   1917650275.0019269        25591670.197387338        809283756.30321491     
   2429388653.6331072        38129733.218831778        893120056.24704742     
   2258810990.3953733        24965007.310225248        888455361.22455835     
   2088482546.0179851        12631010.936099648        890623833.58956945     
   1918403320.5009346        1127744.0964434147        899625473.34207010     
   1748573313.8442333       -9544793.2087188959        915460280.48207641     
   2186431786.0402536        48701744.649455428        1017034297.7441871     
   2027234948.5924845        37640728.696216941        1012392230.3098444     
   1864846104.9698474        15939692.160090923        1009186005.3367382     
   1699265255.1723502       -16401364.958914518        1007415622.8248651     
   1530492399.1999826       -59382442.660802364        1007081082.7742301     
   1956154678.4038084        63077684.066998482        1142451867.5189321     
   1792917738.3852630        49494099.560912132        1133817665.1316504     
   1623047567.1566386        13799744.354561746        1121221980.2793546     
   1446544164.7179444       -44005381.552022278        1104664812.9620249     
   1263407531.0691783       -123921278.15884525        1084146163.1796873     
   3768168753.0203810        1130450625.9061143        800356196.64479113     
   3779108947.4441667        1008650358.6543791        884664506.42748833     
   3790664360.8929734        888900821.48604810        973903777.71937144     
   3802834993.3668013        771202014.40112078        1068074010.5204397     
   3815620844.8656492        655553937.39959669        1167175204.8306942     
   3207661767.9306750        962298530.37920249        756477561.35356736     
   3235804992.5637307        868170370.62781715        852871548.84128654     
   3263672855.8382635        773124339.68135846        951181804.01917803     
   3291265357.7542748        677160437.53982651        1051408326.8872417     
   3318582498.3117652        580278664.20322168        1153551117.4454780     
   2685425566.5811715        805627669.97435141        721776584.53129590     
   2722158410.5120296        736587594.44987524        829217239.27657020     
   2757725312.7008228        663661046.45184946        935559467.89300323     
   2792126273.1475525        586848025.98027337        1040803270.3805954     
   2825361291.8522158        506148533.03514743        1144948646.7393463     
   2201460148.9718690        660438044.69156075        696253266.17797649     
   2238169201.2890649        613902030.12055457        813701577.73333895     
   2272821731.4806519        560510941.79752123        927036769.34084654     
   2305417739.5466304        500264779.72246075        1036258841.0005002     
   2335957225.4870024        433163543.89537382        1141367792.7122993     
   1755765515.1027689        526729654.53083068        679907606.29360926     
   1783837364.8948348        500113677.63985395        806324564.21159267     
   1808962112.1777487        463674025.71837348        925613708.36270833     
   1831139756.9515116        417410698.76638854        1037775038.7469563     
   1850370299.2161238        361323696.78390086        1142808555.3643363     
   3815620844.8656492        655553937.39959669        1167175204.8306942     
   3798040564.4994912        537552464.95289874        1188764451.3388605     
   3784299863.4254522        432349590.14659834        1205448274.5581980     
   3774398741.6435328        339945312.98069346        1217226674.4887087     
   3768337199.1537304        260339633.45518196        1224099651.1303906     
   3318582498.3117652        580278664.20322168        1153551117.4454780     
   3293811669.6201177        473010610.25320256        1181793528.4320171     
   3272771219.9757781        378177153.12754440        1206933228.9577749     
   3255461149.3787484        295778292.82625246        1228970219.0227492     
   3241881457.8290262        225814029.34932005        1247904498.6269426     
   2825361291.8522158        506148533.03514743        1144948646.7393463     
   2798550522.9152093        411159080.00584483        1179716821.9186471     
   2775360932.7807021        328240222.98487222        1213184999.4652123     
   2755792521.4486938        257391961.97222996        1245353179.3790402     
   2739845288.9191837        198614296.96791708        1276221361.6601319     
   2335957225.4870024        433163543.89537382        1141367792.7122993     
   2312257124.3847675        351997874.21082747        1182534331.7987497     
   2292069001.8402233        282538799.71857923        1224203586.0805113     
   2275392857.8533669        224786320.41862702        1266375555.5575809     
   2262228692.4242005        178740436.31097162        1309050240.2299607     
   1850370299.2161238        361323696.78390086        1142808555.3643363     
   1834931474.0287933        295526992.86815113        1190246058.0723259     
   1822895427.1543422        241072883.32866347        1239988988.8036711     
   1814262158.5927708        197961368.16544300        1292037347.5583718     
   1809031668.3440778        166192447.37848419        1346391134.3364277     
   3768337199.1537304        260339633.45518196        1224099651.1303906     
   3662152935.0324287        168153783.26073146        1191845995.5780449     
   3563638967.9841771        101535589.97645307        1170002408.7458296     
   3472795298.0089784        60485053.602349043        1158568890.6337438     
   3389621925.1068335        45002174.138421893        1157545441.2417903     
   3241881457.8290262        225814029.34932005        1247904498.6269426     
   3165045789.5742521        151691577.99943030        1230989056.8884203     
   3094250251.1547318        97702892.767062545        1222070912.7475843     
   3029494842.5704708        63847973.652217865        1221150066.2044313     
   2970779563.8214664        50126820.654898167        1228226517.2589610     
   2739845288.9191837        198614296.96791708        1276221361.6601319     
   2685464584.7525163        140487154.92906320        1272742271.9580076     
   2635493843.1833096        97059888.215079188        1274847708.7311203     
   2589933064.2115650        68332496.825968862        1282537671.9794693     
   2548782247.8372808        54304980.761728764        1295812161.7030544     
   2262228692.4242005        178740436.31097162        1309050240.2299607     
   2223409320.5672197        134540514.04962492        1317105640.7868047     
   2187369744.0699062        99606576.320500970        1328332796.6964400     
   2154109962.9322596        73938623.123597622        1342731707.9588628     
   2123629977.1542778        57536654.458914995        1360302374.5740771     
   1809031668.3440778        166192447.37848419        1346391134.3364277     
   1778879997.0183663        133851655.36112410        1364079163.3748116     
   1749877953.8145258        105342957.08333087        1382526176.6435399     
   1722025538.7325559        80666352.545109212        1401732174.1426120     
   1695322751.7724571        59821841.746456027        1421697155.8720257     
   3389621925.1068335        45002174.138421893        1157545441.2417903     
   3294901558.5516958        37458918.565949202        1150095981.2854338     
   3200029832.4975863        29411131.330240965        1146450850.8015218     
   3105006746.9445043        20858812.431295395        1146610049.7900536     
   3009832301.8924537        11801961.869115353        1150573578.2510269     
   2970779563.8214664        50126820.654898167        1228226517.2589610     
   2885251866.6631165        38144895.684593201        1220067262.2531548     
   2800134338.7133460        27530201.409556746        1216199270.2488604     
   2715426979.9721599        18282737.829795599        1216622541.2460713     
   2631129790.4395518        10402504.945302844        1221337075.2447908     
   2548782247.8372808        54304980.761728764        1295812161.7030544     
   2473838458.7301884        38301757.989931226        1287598228.4732807     
   2399866367.5392294        25537528.271913171        1284162491.7740779     
   2326865974.2644043        16012291.607672572        1285504951.6054473     
   2254837278.9057117        9726047.9972114563        1291625607.9673905     
   2123629977.1542778        57536654.458914995        1360302374.5740771     
   2060661334.7529120        37929505.481965542        1352688879.9458098     
   1999225918.9752328        23433111.917303085        1350340515.3771791     
   1939323729.8212407        14047473.764929533        1353257280.8681858     
   1880954767.2909327        9772591.0248395205        1361439176.4188280     
   1695322751.7724571        59821841.746456027        1421697155.8720257     
   1645720494.7312894        37028138.160696447        1415339216.6707423     
   1598212993.0213594        21216952.345731497        1414733341.0581613     
   1552800246.6426675        12388284.301559508        1419879529.0342803     
   1509482255.5952137        10542134.028182328        1430777780.5991037     
   3009832301.8924537        11801961.869115353        1150573578.2510269     
   2921677335.9496098        6233085.1482708454        1141845631.6535211     
   2834585024.0828209        4206388.6809409857        1137984643.7702198     
   2748555366.2920871        5721872.4671322107        1138990614.6011329     
   2663588362.5774055        10779536.506830454        1144863544.1462522     
   2631129790.4395518        10402504.945302844        1221337075.2447908     
   2555834043.8745956        6992014.3516312838        1214343598.7467659     
   2481294705.7277799        6102885.1517595053        1211876781.6420214     
   2407511775.9991035        7735117.3456900120        1213936623.9305534     
   2334485254.6885686        11888710.933420181        1220523125.6123657     
   2254837278.9057117        9726047.9972114563        1291625607.9673905     
   2191428467.9445524        8182258.3984864950        1286009314.9679515     
   2128469819.7436199        8139011.3338491917        1284579382.0408604     
   2065961334.3029099        9596306.8032915592        1287335809.1861160     
   2003903011.6224275        12554144.806818604        1294278596.4037154     
   1880954767.2909327        9772591.0248395205        1361439176.4188280     
   1828460608.1594791        9803817.2888315916        1356842780.3170750     
   1776110366.1303380        10314767.227195621        1356092444.9667361     
   1723904041.2035046        11305440.839921355        1359188170.3678112     
   1671841633.3789852        12775838.127025247        1366129956.5202992     
   1509482255.5952137        10542134.028182328        1430777780.5991037     
   1466930464.5193763        11856691.022664666        1426843994.7941339     
   1424216344.8879373        12630152.831810057        1426415970.4196470     
   1381339896.7008910        12862519.455596209        1429493707.4756432     
   1338301119.9582429        12553790.894044936        1436077205.9621232     
   2663588362.5774055        10779536.506830454        1144863544.1462522     
   2547553879.3471551        7524764.7528049946        1136872674.7228048     
   2431121230.8722515        2942775.5166126490        1133261535.3074811     
   2314290417.1526890       -2966431.2017811537        1134030125.9002790     
   2197061438.1884713       -10202855.402352452        1139178446.5012062     
   2334485254.6885686        11888710.933420181        1220523125.6123657     
   2230150047.1560593        7526053.0675488710        1211925941.3901684     
   2125636247.3018970        2568087.4628371000        1208204136.0300801     
   2020943855.1260738       -2985185.8807480335        1209357709.5320928     
   1916072870.6285987       -9133766.9631704092        1215386661.8962128     
   2003903011.6224275        12554144.806818604        1294278596.4037154     
   1912683219.3704622        7508442.7039427757        1285331265.7929392     
   1821504407.7198431        2599342.6055482626        1281754962.8982477     
   1730366576.6705637       -2173155.4883766174        1283549687.7196362     
   1639269726.2226317       -6809051.5778182745        1290715440.2571158     
   1671841633.3789852        12775838.127025247        1366129956.5202992     
   1595153395.9903693        7471933.6619927883        1357088647.9311063     
   1518725712.1260900        3036540.9447480440        1353914015.9119825     
   1442558581.7861564       -530340.02467119694        1356606060.4629169     
   1366652004.9705627       -3228709.2462975979        1365164781.5839231     
   1338301119.9582429        12553790.894044936        1436077205.9621232     
   1277560577.0157709        7416525.9416778088        1427198087.8046780     
   1217300160.5206401        3879682.4804488420        1424681295.0712841     
   1157519870.4728508        1943260.5103539228        1428526827.7619309     
   1098219706.8724024        1607260.0313990116        1438734685.8766265     
   2197061438.1884713       -10202855.402352452        1139178446.5012062     
   2134594698.6035147        650447.33567941189        1132151648.4462454     
   2073621325.4444182        16481638.159917831        1130354952.5975475     
   2014141318.7111840        37290717.070361495        1133788358.9551084     
   1956154678.4038084        63077684.066998482        1142451867.5189321     
   1916072870.6285987       -9133766.9631704092        1215386661.8962128     
   1866487035.4104424        2767480.6628489494        1210966432.4024954     
   1818045254.4422817        18482242.455520272        1210982655.2412910     
   1770747527.7241170        38010518.414849758        1215435330.4125972     
   1724593855.2559559        61352308.540848792        1224324457.9164143     
   1639269726.2226317       -6809051.5778182745        1290715440.2571158     
   1600297224.3034196        5459869.6158307791        1288494248.4528005     
   1562119464.4583385        20377931.056585014        1289915859.1072516     
   1524736446.6873925        37945132.744457841        1294980272.2204611     
   1488148170.9905851        58161474.679448545        1303687487.7924354     
   1366652004.9705627       -3228709.2462975979        1365164781.5839231     
   1336025265.2824409        8727614.1946171522        1364735096.5971665     
   1305843955.4925885        22168703.963102221        1367154564.1954293     
   1276108075.6010094        37094560.059166551        1372423184.3787045     
   1246817625.6076987        53505182.482787728        1380540957.1469891     
   1098219706.8724024        1607260.0313990116        1438734685.8766265     
   1073671158.3475158        12570714.399234593        1439688976.8355925     
   1049218727.5450335        23854561.175084651        1442698770.5058253     
   1024862414.4649597        35458800.358963609        1447764066.8873227     
   1000602219.1072967        47383431.950878978        1454884865.9800832     
   1956154678.4038084        63077684.066998482        1142451867.5189321     
   1792917738.3852630        49494099.560912132        1133817665.1316504     
   1623047567.1566386        13799744.354561746        1121221980.2793546     
   1446544164.7179444       -44005381.552022278        1104664812.9620249     
   1263407531.0691783       -123921278.15884525        1084146163.1796873     
   1724593855.2559559        61352308.540848792        1224324457.9164143     
   1557292002.5863833        44953002.082118571        1210860348.8322670     
   1386606551.1452920        17275033.051660597        1198880648.3168118     
   1212537500.9326768       -21681598.550534189        1188385356.3700385     
   1035084851.9485545       -71916892.724440396        1179374472.9919608     
   1488148170.9905851        58161474.679448545        1303687487.7924354     
   1332341094.3377323        43614352.868401945        1289184709.8563995     
   1176400051.3519115        28620676.614135563        1281612231.5227635     
   1020325042.0331337        13180445.916672826        1280970052.7915242     
   864116066.38139212       -2706339.2240103483        1287258173.6626890     
   1246817625.6076987        53505182.482787728        1380540957.1469891     
   1118065013.6393137        45478151.919757724        1368790748.2040486     
   992428067.77651668        47836675.042016387        1369416729.8972147     
   869906788.01931453        60580751.849596322        1382418902.2264876     
   750501174.36770284        83710382.342471600        1407797265.1918800     
   1000602219.1072967        47383431.950878978        1454884865.9800832     
   914463760.49112320        50544399.236175030        1449678463.8752096     
   834690600.41909111        74923028.335274696        1462294143.4401596     
   761282738.89121473        120519319.24822724        1492731904.6749282     
   694240175.90748227        187333271.97498748        1540991747.5795207     
   1755765515.1027689        526729654.53083068        679907606.29360926     
   1783837364.8948348        500113677.63985395        806324564.21159267     
   1808962112.1777487        463674025.71837348        925613708.36270833     
   1831139756.9515116        417410698.76638854        1037775038.7469563     
   1850370299.2161238        361323696.78390086        1142808555.3643363     
   1326093636.4314919        397828090.92944753        669622369.81814623     
   1339300498.1580975        375528982.36754179        791766942.83230388     
   1350301405.7546835        345876693.37223625        908608523.02549767     
   1359096359.2212491        308871223.94353074        1020147110.3977275     
   1365685358.5577950        264512574.08142555        1126382704.9489937     
   890196484.41565824        267058945.32469749        662280321.69153953     
   893752132.20795858        250640837.33120897        781017182.91085780     
   895842974.24936998        229340043.50142467        896275872.25511599     
   896469010.53989244        203156563.83534440        1008056389.7243142     
   895630241.07952654        172090398.33296868        1116358735.3184528     
   448074059.05526859        134422217.71658057        657881461.91378927     
   447192267.04441708        125449242.53085545        774075284.44725430     
   445586817.66180813        114064076.10593852        888615756.05156338     
   443257710.90744168        100266718.44183013        1001502876.7267169     
   440204946.78131777        84057169.538529873        1112736646.4727139     
  -273639.64967751032       -82091.894903253095        656425790.48489535     
  -379097.33252642752       -45802.033518761105        770941247.44149375     
  -467064.00800170080        48791.185778007348        885628174.41484010     
  -537539.67610321427        201687.76298724313        1000486571.4049345     
  -590524.33683113265        412887.69810863666        1115516438.4117768     
   1850370299.2161238        361323696.78390086        1142808555.3643363     
   1834931474.0287933        295526992.86815113        1190246058.0723259     
   1822895427.1543422        241072883.32866347        1239988988.8036711     
   1814262158.5927708        197961368.16544300        1292037347.5583718     
   1809031668.3440778        166192447.37848419        1346391134.3364277     
   1365685358.5577950        264512574.08142555        1126382704.9489937     
   1359942412.4725111        216963614.58556432        1181726528.2494445     
   1356741205.5674396        177887119.02374485        1238012274.1235240     
   1356081737.8425803        147283087.39596814        1295239942.5712314     
   1357964009.2979341        125151519.70223308        1353409533.5925679     
   895630241.07952654        172090398.33296868        1116358735.3184528     
   895687444.23992598        141620464.30008668        1178604333.5565867     
   897425347.44787157        116752863.75902569        1240428348.9186234     
   900843950.70336342        97487596.709785640        1301830781.4045610     
   905943254.00640178        83824663.152366996        1362811631.0144012     
   440204946.78131777        84057169.538529873        1112736646.4727139     
   442166569.33103824        69497542.011718497        1180879473.9937544     
   444947852.79563868        57670117.534507111        1247237213.1889703     
   448548797.17511892        48574896.106895119        1311809864.0583599     
   452969402.46947902        42211877.728882581        1374597426.6019261     
  -590524.33683113265        412887.69810863666        1115516438.4117768     
  -620212.25415202428        594847.72045932070        1188551949.5609462     
  -691278.38925892627        638880.35018958035        1258438866.9345636     
  -803722.74215294793        544985.58729612944        1325177190.5326290     
  -957545.31283295690        313163.43178306759        1388766920.3551424     
   1809031668.3440778        166192447.37848419        1346391134.3364277     
   1778879997.0183663        133851655.36112410        1364079163.3748116     
   1749877953.8145258        105342957.08333087        1382526176.6435399     
   1722025538.7325559        80666352.545109212        1401732174.1426120     
   1695322751.7724571        59821841.746456027        1421697155.8720257     
   1357964009.2979341        125151519.70223308        1353409533.5925679     
   1332726554.7359633        100114514.40196615        1372251991.8334889     
   1308396029.2566354        78100606.043844223        1392430143.3429985     
   1284972432.8599503        59109794.627865672        1413943988.1210966     
   1262455765.5459089        43142080.154029846        1436793526.1677835     
   905943254.00640178        83824663.152366996        1362811631.0144012     
   887267756.31744349        66585766.601975501        1382525369.5787594     
   869256488.67190015        51560970.196300745        1404151510.4499516     
   851909451.06977355        38750273.935348243        1427690053.6279774     
   835226643.51106262        28153677.819113404        1453140999.1128397     
   452969402.46947902        42211877.728882581        1374597426.6019261     
   442503601.76280677        33265411.961148173        1394899296.6106229     
   432459332.06032264        25724049.540707946        1417690277.9643991     
   422836593.36202693        19587790.467562318        1442970370.6632555     
   413635385.66791868        14856634.741708145        1470739574.7071927     
  -957545.31283295690        313163.43178306759        1388766920.3551424     
  -1565908.9279468146        153450.47948620631        1409373772.9290793     
  -1995440.5780999716        589844.07705782726        1433046445.8863416     
  -2246140.2632912099        1622344.2245027716        1459784939.2269292     
  -2318007.9835223984        3250950.9218145455        1489589252.9508429     
   1695322751.7724571        59821841.746456027        1421697155.8720257     
   1645720494.7312894        37028138.160696447        1415339216.6707423     
   1598212993.0213594        21216952.345731497        1414733341.0581613     
   1552800246.6426675        12388284.301559508        1419879529.0342803     
   1509482255.5952137        10542134.028182328        1430777780.5991037     
   1262455765.5459089        43142080.154029846        1436793526.1677835     
   1228752306.7283993        27290621.250486553        1433999065.9669580     
   1196431342.7983582        16047478.638502657        1436080330.4997339     
   1165492873.7557821        9412652.3180711269        1443037319.7661109     
   1135936899.6006761        7386142.2892047167        1454870033.7660909     
   835226643.51106262        28153677.819113404        1453140999.1128397     
   814918157.61692727        18493316.007703394        1453079047.3947387     
   795279906.16648841        11067069.008614987        1457016481.5551381     
   776311889.15974414        5874936.8218418658        1464953301.5940397     
   758014106.59669638        2916919.4473904073        1476889507.5114431     
   413635385.66791868        14856634.741708145        1470739574.7071927     
   404218047.39687169        10636222.432344526        1472579160.9540827     
   394758683.12574869        6275723.4560613334        1477541794.2243724     
   385257292.85455137        1775137.8128637075        1485627474.5180664     
   375713876.58327758       -2865534.4972561151        1496836201.8351610     
  -2318007.9835223984        3250950.9218145455        1489589252.9508429     
  -3348023.9317671861        3719340.5244110553        1492499406.6449902     
  -5132326.3238569852        1673441.9808568337        1497656268.5074396     
  -7670915.1597961364       -2886744.7088615475        1505059838.5381896     
  -10963790.439580631       -9961219.5447310731        1514710116.7372422     
   1509482255.5952137        10542134.028182328        1430777780.5991037     
   1466930464.5193763        11856691.022664666        1426843994.7941339     
   1424216344.8879373        12630152.831810057        1426415970.4196470     
   1381339896.7008910        12862519.455596209        1429493707.4756432     
   1338301119.9582429        12553790.894044936        1436077205.9621232     
   1135936899.6006761        7386142.2892047167        1454870033.7660909     
   1102276113.4447293        6247516.8019800186        1449515039.5712979     
   1068630191.6157551        5158439.0713335276        1448059637.5340259     
   1034999134.1137521        4118909.0972551107        1450503827.6542709     
   1001382940.9387245        3128926.8797625899        1456847609.9320343     
   758014106.59669638        2916919.4473904073        1476889507.5114431     
   734369556.00931060       -337319.32694366574        1470320029.9565029     
   710917062.63147438       -2951367.4027760625        1468043975.2861152     
   687656626.46318674       -4925224.7801139951        1470061343.5002818     
   664588247.50445127       -6258891.4589462280        1476372134.5989997     
   375713876.58327758       -2865534.4972561151        1496836201.8351610     
   363210792.21312356       -7897817.3640957922        1489258965.9497440     
   351076957.93509567       -11699266.590515032        1486368983.6759160     
   339312373.74919522       -14269882.176509261        1488166255.0136762     
   327917039.65542024       -15609664.122085735        1494650779.9630239     
  -10963790.439580631       -9961219.5447310731        1514710116.7372422     
  -11200177.943832159       -16433977.309478536        1506331847.5510225     
  -10890122.473379910       -21085258.491880082        1503034662.7034276     
  -10033624.028224826       -23915063.091939006        1504818562.1944549     
  -8630682.6083638128       -24923391.109644495        1511683546.0241063     
   1338301119.9582429        12553790.894044936        1436077205.9621232     
   1277560577.0157709        7416525.9416778088        1427198087.8046780     
   1217300160.5206401        3879682.4804488420        1424681295.0712841     
   1157519870.4728508        1943260.5103539228        1428526827.7619309     
   1098219706.8724024        1607260.0313990116        1438734685.8766265     
   1001382940.9387245        3128926.8797625899        1456847609.9320343     
   957118182.92713332       -552315.52173036337        1448283207.4522333     
   913170412.85251033       -3176931.4666647315        1445694155.0604043     
   869539630.71485174       -4744920.9550523162        1449080452.7565427     
   826225836.51416218       -5256283.9868748188        1458442100.5406489     
   664588247.50445127       -6258891.4589462280        1476372134.5989997     
   635693630.60637999       -8815804.4547682106        1467932119.5347395     
   606952863.13489878       -10859886.028622806        1465080479.2223706     
   578365945.09001267       -12391136.180493921        1467817213.6618927     
   549932876.47171450       -13409554.910404176        1476142322.8533087     
   327917039.65542024       -15609664.122085735        1494650779.9630239     
   313286920.05350578       -17373940.857446492        1486144824.0521989     
   298647511.36780638       -19169181.205423474        1482840267.5571890     
   283998813.59832603       -20995385.166004851        1484737110.4779952     
   269340826.74506134       -22852552.739198536        1491835352.8146136     
  -8630682.6083638128       -24923391.109644495        1511683546.0241063     
  -10101948.731485907       -26226724.729756676        1502921321.0046132     
  -11745642.448767927       -28104816.997070346        1498973520.0648572     
  -13561763.760200050       -30557667.911550503        1499840143.2048368     
  -15550312.665799763       -33585277.473255269        1505521190.4245589     
   1098219706.8724024        1607260.0313990116        1438734685.8766265     
   1073671158.3475158        12570714.399234593        1439688976.8355925     
   1049218727.5450335        23854561.175084651        1442698770.5058253     
   1024862414.4649597        35458800.358963609        1447764066.8873227     
   1000602219.1072967        47383431.950878978        1454884865.9800832     
   826225836.51416218       -5256283.9868748188        1458442100.5406489     
   805767245.48666811        1067046.0306861401        1457807415.2480392     
   784977248.12490845        6285688.2673576176        1459334146.3229978     
   763855844.42887509        10399642.723118514        1463022293.7655206     
   742403034.39857888        13408909.398001581        1468871857.5756047     
   549932876.47171450       -13409554.910404176        1476142322.8533087     
   533866853.38818485       -11635566.109150440        1473419883.2430060     
   517041899.91371202       -12391345.277704000        1472964773.6565647     
   499458016.04829240       -15676892.416082680        1474776994.0939882     
   481115201.79193002       -21492207.524268478        1478856544.5552750     
   269340826.74506134       -22852552.739198536        1491835352.8146136     
   257969982.05206758       -25537122.020268500        1486526380.8204923     
   245412682.91145101       -32176539.460081741        1483590652.5065308     
   231668929.32321408       -42770805.058629185        1483028167.8727331     
   216738721.28735673       -57319918.815912515        1484838926.9190991     
  -15550312.665799763       -33585277.473255269        1505521190.4245589     
  -21923368.521692932       -40637621.702697851        1497126907.9804945     
  -29910402.881877229       -53069894.279779620        1491211782.8728931     
  -39511415.746362701       -70882095.204530254        1487775815.1017523     
  -50726407.115141742       -94074224.476927459        1486819004.6670768     
   1000602219.1072967        47383431.950878978        1454884865.9800832     
   914463760.49112320        50544399.236175030        1449678463.8752096     
   834690600.41909111        74923028.335274696        1462294143.4401596     
   761282738.89121473        120519319.24822724        1492731904.6749282     
   694240175.90748227        187333271.97498748        1540991747.5795207     
   742403034.39857888        13408909.398001581        1468871857.5756047     
   695590715.89659846        13476465.314009994        1465945798.7186427     
   652186380.72843730        24903965.676079273        1476162399.3649254     
   612190028.89409733        47691410.484222174        1499521659.5144320     
   575601660.39357507        81838799.738421351        1536023579.1671946     
   481115201.79193002       -21492207.524268478        1478856544.5552750     
   460259245.78534144       -28528996.263168126        1474760627.8675115     
   439853957.90223998       -34063557.923779160        1479127948.5164030     
   419899338.14262599       -38095892.506092429        1491958506.5019505     
   400395386.50650394       -40626000.010107279        1513252301.8241606     
   216738721.28735673       -57319918.815912515        1484838926.9190991     
   208469350.15735066       -75471985.495363012        1476122951.3218145     
   197693331.94049805       -101979542.46430437        1471190790.8945997     
   184410666.63680810       -136842589.72270262        1470042445.6374576     
   168621354.24627641       -180061127.27057284        1472677915.5503933     
  -50726407.115141742       -94074224.476927459        1486819004.6670768     
  -59778970.987376019       -127352502.38258199        1470032769.0815530     
  -74295497.156786084       -178843987.94549057        1452350926.4995127     
  -94275985.623367116       -248548681.16563463        1433773476.9209723     
  -119720436.38711236       -336466582.04299349        1414300420.3459170     
  -273639.64967751032       -82091.894903253095        656425790.48489535     
  -379097.33252642752       -45802.033518761105        770941247.44149375     
  -467064.00800170080        48791.185778007348        885628174.41484010     
  -537539.67610321427        201687.76298724313        1000486571.4049345     
  -590524.33683113265        412887.69810863666        1115516438.4117768     
  -448618262.35174340       -134585478.70552301        657920640.96691883     
  -447928134.72427869       -125521611.52658691        774152875.11225021     
  -446496245.21380454       -113985204.73761991        888742340.86779392     
  -444322593.82032144       -99976258.338622466        1001689038.2335498     
  -441407180.54382890       -83494772.329594016        1112992967.2095180     
  -890731459.70349264       -267219437.91104779        662373346.92192066     
  -894429285.07010198       -250683054.90587634        781167340.94422650     
  -896661077.67806649       -229259896.03855574        896504328.17020857     
  -897426837.52738643       -202949961.30908614        1008384308.5998673     
  -896726564.61806178       -171753250.71746743        1116807282.2332025     
  -1326613231.7049251       -397983969.51147753        669783908.34990060     
  -1339882548.3699965       -375530132.17138720        791984644.93742251     
  -1350961561.4007878       -345775282.71702951        908914136.32208478     
  -1359850270.7972984       -308719421.14840376        1020572382.5038879     
  -1366548676.5595291       -264362547.46551126        1126959383.4828317     
  -1756263578.3560407       -526879073.50681227        680152325.25085914     
  -1784287924.6239624       -500062843.32311940        806604787.09183812     
  -1809397696.3819675       -463531364.77304059        925971765.32342207     
  -1831592893.6300576       -417284637.85657585        1038253259.9456109     
  -1850873516.3682320       -361322662.57372552        1143449270.9584048     
  -590524.33683113265        412887.69810863666        1115516438.4117768     
  -620212.25415202428        594847.72045932070        1188551949.5609462     
  -691278.38925892627        638880.35018958035        1258438866.9345636     
  -803722.74215294793        544985.58729612944        1325177190.5326290     
  -957545.31283295690        313163.43178306759        1388766920.3551424     
  -441407180.54382890       -83494772.329594016        1112992967.2095180     
  -443463300.44559062       -68695092.476051331        1181105018.6799319     
  -446386685.22069734       -56786295.533658788        1247433550.1306684     
  -450177334.86914831       -47768381.502414539        1311978561.5617273     
  -454835249.39094496       -41641350.382320657        1374740052.9731085     
  -896726564.61806178       -171753250.71746743        1116807282.2332025     
  -896908905.77319515       -141165787.81341177        1179032339.5933771     
  -898784398.45723176       -116222163.33903384        1240838950.6897476     
  -902353042.67017210       -96922377.294334114        1302227115.5223150     
  -907614838.41201532       -83266429.679311424        1363196834.0910783     
  -1366548676.5595291       -264362547.46551126        1126959383.4828317     
  -1360957028.2369657       -216817238.29162261        1182333912.3012810     
  -1357884418.0988636       -177668723.06593940        1238655068.6118014     
  -1357330846.1452229       -146917001.78846270        1295922852.4143918     
  -1359296312.3760445       -124562074.45919096        1354137263.7090535     
  -1850873516.3682320       -361322662.57372552        1143449270.9584048     
  -1835607667.8369017       -295649443.91068190        1191009736.8036447     
  -1823686744.1455915       -241125974.71437252        1240881903.8968289     
  -1815110745.2943015       -197752254.98479730        1293065772.2379582     
  -1809879671.2830319       -165528284.72195584        1347561341.8270326     
  -957545.31283295690        313163.43178306759        1388766920.3551424     
  -1565908.9279468146        153450.47948620631        1409373772.9290793     
  -1995440.5780999716        589844.07705782726        1433046445.8863416     
  -2246140.2632912099        1622344.2245027716        1459784939.2269292     
  -2318007.9835223984        3250950.9218145455        1489589252.9508429     
  -454835249.39094496       -41641350.382320657        1374740052.9731085     
  -445478702.76348424       -32945584.138340592        1395457442.1519771     
  -436333310.96876174       -24953667.336821049        1418730754.3965142     
  -427399074.00677508       -17665599.977753878        1444559989.7067187     
  -418675991.87752581       -11081382.061145365        1472945148.0825911     
  -907614838.41201532       -83266429.679311424        1363196834.0910783     
  -889750231.02100360       -66152239.082763433        1383569775.2775660     
  -872486765.26042688       -51041853.920999259        1405988742.2120636     
  -855824441.13028526       -37935274.194017589        1430453734.8945713     
  -839763258.63057899       -26832499.901822299        1456964753.3250885     
  -1359296312.3760445       -124562074.45919096        1354137263.7090535     
  -1334380493.7005033       -99466514.353778422        1373710772.3058453     
  -1310455803.4530962       -77674715.675480425        1394820409.3329883     
  -1287522241.6338212       -59186678.424290299        1417466174.7904828     
  -1265579808.2426805       -44002402.600213587        1441648068.6783304     
  -1809879671.2830319       -165528284.72195584        1347561341.8270326     
  -1779369490.8019853       -132888409.95139074        1365880433.2368138     
  -1750240425.5467689       -104852252.60026121        1385225755.7592885     
  -1722492475.5173838       -81419812.668570697        1405597309.3944578     
  -1696125640.7138305       -62591090.156317711        1426995094.1423211     
  -2318007.9835223984        3250950.9218145455        1489589252.9508429     
  -3348023.9317671861        3719340.5244110553        1492499406.6449902     
  -5132326.3238569852        1673441.9808568337        1497656268.5074396     
  -7670915.1597961364       -2886744.7088615475        1505059838.5381896     
  -10963790.439580631       -9961219.5447310731        1514710116.7372422     
  -418675991.87752581       -11081382.061145365        1472945148.0825911     
  -411319797.72381526       -6518833.8946798295        1473769732.9020512     
  -404815044.35768282       -4794421.6868092567        1477853734.5784361     
  -399161731.77913171       -5908145.4375426322        1485197153.1117477     
  -394359859.98815852       -9860005.1468690187        1495799988.5019817     
  -839763258.63057899       -26832499.901822299        1456964753.3250885     
  -821127400.97884512       -17307757.152665436        1455590422.5355060     
  -803440138.45842421       -10944998.174551576        1458488217.2914722     
  -786701471.06931353       -7744222.9674725831        1465658137.5929863     
  -770911398.81151581       -7705431.5314366519        1477100183.4400508     
  -1265579808.2426805       -44002402.600213587        1441648068.6783304     
  -1232770833.6968584       -28647429.249549329        1437961475.5453532     
  -1201007608.6260793       -16778287.482363939        1439559716.6465464     
  -1170290133.0303452       -8394977.2986607552        1446442791.9819129     
  -1140618406.9096546       -3497498.6984383464        1458610701.5514500     
  -1696125640.7138305       -62591090.156317711        1426995094.1423211     
  -1646250095.8778510       -40537850.185321271        1420882891.9315927     
  -1597517454.8606501       -22294289.610253870        1421068232.6436586     
  -1549927717.6622233       -7860408.4310995340        1427551116.2785201     
  -1503480884.2825768        2763793.3521217704        1440331542.8361769     
  -10963790.439580631       -9961219.5447310731        1514710116.7372422     
  -11200177.943832159       -16433977.309478536        1506331847.5510225     
  -10890122.473379910       -21085258.491880082        1503034662.7034276     
  -10033624.028224826       -23915063.091939006        1504818562.1944549     
  -8630682.6083638128       -24923391.109644495        1511683546.0241063     
  -394359859.98815852       -9860005.1468690187        1495799988.5019817     
  -380859960.89503622       -12086517.106166378        1490004865.3929870     
  -367091518.00814700       -13417883.086241663        1488715129.3728590     
  -353054531.32748944       -13854103.087088481        1491930780.4416010     
  -338749000.85306829       -13395177.108723596        1499651818.5992095     
  -770911398.81151581       -7705431.5314366519        1477100183.4400508     
  -745320062.40603340       -6179152.4707871675        1473563990.6971853     
  -719738081.38772178       -4684058.0340436399        1473957487.7934349     
  -694165455.75657856       -3220148.2211935818        1478280674.7287974     
  -668602185.51260650       -1787423.0322461724        1486533551.5032744     
  -1140618406.9096546       -3497498.6984383464        1458610701.5514500     
  -1104580482.4768274        1288116.5966455340        1457009223.4636226     
  -1068829812.6121054        5116216.6647123694        1458761737.9651551     
  -1033366397.3154895        7986801.5057572126        1463868245.0560465     
  -998190236.58698165        9899871.1197785139        1472328744.7362964     
  -1503480884.2825768        2763793.3521217704        1440331542.8361769     
  -1458641221.1074152        10315290.096147537        1440340563.6922960     
  -1414366711.6812985        15982941.010023594        1443127879.8880196     
  -1370657356.0042224        19766746.093763411        1448693491.4233453     
  -1327513154.0761917        21666705.347352803        1457037398.2982776     
  -8630682.6083638128       -24923391.109644495        1511683546.0241063     
  -10101948.731485907       -26226724.729756676        1502921321.0046132     
  -11745642.448767927       -28104816.997070346        1498973520.0648572     
  -13561763.760200050       -30557667.911550503        1499840143.2048368     
  -15550312.665799763       -33585277.473255269        1505521190.4245589     
  -338749000.85306829       -13395177.108723596        1499651818.5992095     
  -326640383.03205007       -13380374.051038325        1491064345.9513690     
  -314658583.15293235       -13788297.466355368        1487804328.4090195     
  -302803601.21571219       -14618947.354664847        1489871765.9721692     
  -291075437.22038907       -15872323.715962932        1497266658.6408060     
  -668602185.51260650       -1787423.0322461724        1486533551.5032744     
  -641447880.81671667       -14742.417544037104        1478174042.4880540     
  -614374784.41046941        1487243.8983477354        1475655019.6040850     
  -587382896.29385948        2718535.9154502451        1478976482.8513660     
  -560472216.46689057        3679133.6337490976        1488138432.2298954     
  -998190236.58698165        9899871.1197785139        1472328744.7362964     
  -954524442.08548880        13870170.170715272        1464250410.6146653     
  -910894246.22138083        17721807.097035289        1462525593.6500425     
  -867299648.99464917        21454781.898769259        1467154293.8424256     
  -823740650.40530074        25069094.575890183        1478136511.1918147     
  -1327513154.0761917        21666705.347352803        1457037398.2982776     
  -1265870066.8383663        28274363.713741302        1449293450.3312080     
  -1204216968.5856640        34915392.129715383        1448416050.5468996     
  -1142553859.3180819        41589790.595291495        1454405198.9453533     
  -1080880739.0356212        48297559.110461533        1467260895.5265701     
  -15550312.665799763       -33585277.473255269        1505521190.4245589     
  -21923368.521692932       -40637621.702697851        1497126907.9804945     
  -29910402.881877229       -53069894.279779620        1491211782.8728931     
  -39511415.746362701       -70882095.204530254        1487775815.1017523     
  -50726407.115141742       -94074224.476927459        1486819004.6670768     
  -291075437.22038907       -15872323.715962932        1497266658.6408060     
  -290307426.79011512       -21960635.707190543        1489711001.3340068     
  -290432525.60062689       -31025978.501038969        1484946845.6251338     
  -291450733.65192485       -43068352.097507104        1482974191.5141830     
  -293362050.94400883       -58087756.496595316        1483793039.0011566     
  -560472216.46689057        3679133.6337490976        1488138432.2298954     
  -551670727.57484424       -1177422.4665827751        1482262414.2011206     
  -543041478.66007423       -6608111.8245042562        1479490242.0317318     
  -534584469.72258151       -12612934.440015644        1479821915.7217340     
  -526299700.76236552       -19191890.313116759        1483257435.2711160     
  -823740650.40530074        25069094.575890183        1478136511.1918147     
  -806013270.87587655        21712018.019136101        1474781146.5818264     
  -787737262.06021678        20183705.749830157        1474841972.0926883     
  -768912623.95833111        20484157.767946303        1478318987.7243989     
  -749539356.57020617        22613374.073526680        1485212193.4769566     
  -1080880739.0356212        48297559.110461533        1467260895.5265701     
  -1053335056.6932130        46707685.749963701        1467267198.4761336     
  -1024519875.8010654        49349474.221932888        1471002035.8080046     
  -994435196.35917330        56222924.526383758        1478465407.5221877     
  -963081018.36753738        67328036.663309574        1489657313.6186821     
  -50726407.115141742       -94074224.476927459        1486819004.6670768     
  -59778970.987376019       -127352502.38258199        1470032769.0815530     
  -74295497.156786084       -178843987.94549057        1452350926.4995127     
  -94275985.623367116       -248548681.16563463        1433773476.9209723     
  -119720436.38711236       -336466582.04299349        1414300420.3459170     
  -293362050.94400883       -58087756.496595316        1483793039.0011566     
  -294346095.25694704       -77821254.967910647        1468250688.8135819     
  -297728640.85610574       -105549757.72663280        1456684780.7986674     
  -303509687.74148792       -141273264.77275857        1449095314.9564102     
  -311689235.91309583       -184991776.10631442        1445482291.2868173     
  -526299700.76236552       -19191890.313116759        1483257435.2711160     
  -505295085.03265834       -21204567.205063015        1472535341.6609285     
  -483623509.57823431       -20994045.014618546        1470661739.3925757     
  -461284974.39908135       -18560323.741744518        1477636628.4660439     
  -438279479.49520391       -13903403.386459485        1493460008.8813446     
  -749539356.57020617        22613374.073526680        1485212193.4769566     
  -692625940.31452286        42497560.905919462        1482886727.6235981     
  -631980103.32316470        74823150.190562218        1494281802.2812426     
  -567601845.59614086        119590141.92742985        1519397417.4498773     
  -499491167.13343912        176798536.11654738        1558233573.1295159     
  -963081018.36753738        67328036.663309574        1489657313.6186821     
  -856338661.10253060        113285129.36507231        1499304846.7015908     
  -742798422.09090877        181901827.88888556        1527544969.4646671     
  -622460301.33266616        273178132.23477280        1574377681.9079065     
  -495324298.82780141        387114042.40272266        1639802984.0313158     
  -1756263578.3560407       -526879073.50681227        680152325.25085914     
  -1784287924.6239624       -500062843.32311940        806604787.09183812     
  -1809397696.3819675       -463531364.77304059        925971765.32342207     
  -1831592893.6300576       -417284637.85657585        1038253259.9456109     
  -1850873516.3682320       -361322662.57372552        1143449270.9584048     
  -2201903391.3152518       -660571017.39457548        696574078.18716574     
  -2238490766.1668849       -613875332.13836586        814036648.88830388     
  -2273046133.2161417       -560406287.54090488        927410191.57924759     
  -2305569492.4630246       -500163883.60219359        1036694706.2599968     
  -2336060843.9075313       -433148120.32223058        1141890192.9305515     
  -2685753562.2409706       -805726068.67229128        722144647.72119021     
  -2722342663.9643126       -736582537.82996392        829587666.12369025     
  -2757782324.5928206       -663607536.67152071        935938112.11519659     
  -2792072544.1264935       -586801065.19696128        1041195985.6957090     
  -2825213322.5653315       -506163123.40628576        1145361286.8652275     
  -3207814091.1331959       -962344227.33995879        756864033.85293269     
  -3235843618.0162463       -868184460.39791369        853257838.79799759     
  -3263606270.5120034       -773135112.16488767        951555526.93126953     
  -3291102048.6204653       -677196182.64088011        1051757098.2527473     
  -3318330952.3416324       -580367671.82589126        1153862552.7624326     
  -3768084977.9919286       -1130425493.3975787        800732236.58239305     
  -3778993628.3226862       -1008681099.8422153        885047166.91122568     
  -3790517970.9736891       -888989014.02100563        974262436.02746546     
  -3802658005.9449387       -771349235.93394947        1068378043.9311121     
  -3815413733.2364340       -655761765.58104682        1167393990.6221664     
  -1850873516.3682320       -361322662.57372552        1143449270.9584048     
  -1835607667.8369017       -295649443.91068190        1191009736.8036447     
  -1823686744.1455915       -241125974.71437252        1240881903.8968289     
  -1815110745.2943015       -197752254.98479730        1293065772.2379582     
  -1809879671.2830319       -165528284.72195584        1347561341.8270326     
  -2336060843.9075313       -433148120.32223058        1141890192.9305515     
  -2312502925.7339668       -352101791.01477897        1183189965.0530427     
  -2292417157.0273495       -282629293.26381320        1225008910.1190591     
  -2275803537.7876782       -224730627.06933504        1267347028.1285999     
  -2262662068.0149512       -178405792.43134189        1310204319.0816672     
  -2825213322.5653315       -506163123.40628576        1145361286.8652275     
  -2798484844.1907330       -411280136.28678519        1180251936.5335562     
  -2775355739.9100065       -328395062.81352377        1213869230.8409908     
  -2755826009.7231517       -257507902.98650146        1246213169.7875309     
  -2739895653.6301680       -198618656.80571747        1277283753.3731766     
  -3318330952.3416324       -580367671.82589126        1153862552.7624326     
  -3293553423.2071991       -473184479.72670245        1182195651.2451861     
  -3272502492.7935615       -378423283.36350322        1207462866.0626254     
  -3255178161.1007237       -296084082.73629689        1229664197.2147505     
  -3241580428.1286812       -226166877.84508228        1248799644.7015624     
  -3815413733.2364340       -655761765.58104682        1167393990.6221664     
  -3797708662.7833633       -537814821.33452833        1189021109.1879313     
  -3783857415.6780162       -432713954.91375268        1205789815.7839625     
  -3773859991.9203920       -340459166.31872261        1217700110.4102592     
  -3767716391.5104918       -261050455.54943466        1224751993.0668237     
  -1809879671.2830319       -165528284.72195584        1347561341.8270326     
  -1779369490.8019853       -132888409.95139074        1365880433.2368138     
  -1750240425.5467689       -104852252.60026121        1385225755.7592885     
  -1722492475.5173838       -81419812.668570697        1405597309.3944578     
  -1696125640.7138305       -62591090.156317711        1426995094.1423211     
  -2262662068.0149512       -178405792.43134189        1310204319.0816672     
  -2222935250.5099874       -133856916.35992169        1318579176.9925907     
  -2186165885.4410958       -99166215.075408816        1330269293.5090201     
  -2152353972.8082747       -74333688.577799916        1345274668.6309559     
  -2121499512.6115267       -59359336.867095947        1363595302.3583984     
  -2739895653.6301680       -198618656.80571747        1277283753.3731766     
  -2684412120.5503955       -140198755.86817622        1273875317.7066286     
  -2633462377.1169338       -96891487.085008025        1276071168.1383989     
  -2587046423.3297863       -68696850.456217766        1283871304.6684890     
  -2545164259.1889472       -55614845.981794953        1297275727.2968962     
  -3241580428.1286812       -226166877.84508228        1248799644.7015624     
  -3163800100.9232068       -151913928.47615278        1231768855.3789289     
  -3092129900.5742836       -98028068.629061103        1222631379.6474261     
  -3026569827.0819144       -64509298.303816080        1221387217.5070546     
  -2967119880.4460974       -51357617.500412941        1228036368.9578149     
  -3767716391.5104918       -261050455.54943466        1224751993.0668237     
  -3661099191.6284218       -169002434.18384588        1192259790.0094903     
  -3562168455.8131447       -102575959.70756936        1169949928.0361016     
  -3470924184.0646629       -61771032.120606661        1157822407.1466556     
  -3387366376.3829718       -46587651.422945380        1155877227.3411531     
  -1696125640.7138305       -62591090.156317711        1426995094.1423211     
  -1646250095.8778510       -40537850.185321271        1420882891.9315927     
  -1597517454.8606501       -22294289.610253870        1421068232.6436586     
  -1549927717.6622233       -7860408.4310995340        1427551116.2785201     
  -1503480884.2825768        2763793.3521217704        1440331542.8361769     
  -2121499512.6115267       -59359336.867095947        1363595302.3583984     
  -2057027871.8817093       -40071770.115854144        1356555260.3728485     
  -1993404452.8604686       -23611609.059862256        1355083673.8181658     
  -1930629255.5477977       -9978853.6991106272        1359180542.6943521     
  -1868702279.9437044        826495.96638858318        1368845867.0014071     
  -2545164259.1889472       -55614845.981794953        1297275727.2968962     
  -2468179629.6850824       -39717884.586238384        1289651641.3317587     
  -2391748539.7795892       -25666055.185256600        1286866923.3055637     
  -2315870989.4724679       -13459357.778849125        1288921573.2183127     
  -2240546978.7637181       -3097792.3670145273        1295815591.0700009     
  -2967119880.4460974       -51357617.500412941        1228036368.9578149     
  -2879705369.2879710       -39476193.596476436        1220172034.8083272     
  -2792549715.6180172       -28457627.986444712        1216417981.1058547     
  -2705652919.4362302       -18301920.670310736        1216774207.8503990     
  -2619014980.7426186       -9009071.6480840445        1221240715.0419590     
  -3387366376.3829718       -46587651.422945380        1155877227.3411531     
  -3291605090.6903772       -39346697.146573067        1148116440.8025506     
  -3195807980.3757501       -31986327.463424921        1143736847.2190363     
  -3099975045.4390936       -24506542.373510122        1142738446.5906131     
  -3004106285.8804035       -16907341.876815557        1145121238.9172788     
  -1503480884.2825768        2763793.3521217704        1440331542.8361769     
  -1458641221.1074152        10315290.096147537        1440340563.6922960     
  -1414366711.6812985        15982941.010023594        1443127879.8880196     
  -1370657356.0042224        19766746.093763411        1448693491.4233453     
  -1327513154.0761917        21666705.347352803        1457037398.2982776     
  -1868702279.9437044        826495.96638858318        1368845867.0014071     
  -1816353062.0292645        6501962.2262804508        1366160408.5370946     
  -1764643461.5922122        10045370.228207827        1366906165.4135766     
  -1713573478.6325486        11456719.972171307        1371083137.6308544     
  -1663143113.1502733        10736011.458180308        1378691325.1889286     
  -2240546978.7637181       -3097792.3670145273        1295815591.0700009     
  -2178822720.3923073        1261289.1240532398        1290348778.9355175     
  -2117812543.2266304        3240099.9293409586        1288966102.1430221     
  -2057516447.2666895        2838640.0488395691        1291667560.6925132     
  -1997934432.5124822        56909.482561469078        1298453154.5839920     
  -2619014980.7426186       -9009071.6480840445        1221240715.0419590     
  -2546050196.1965470       -5406729.2105312347        1212905674.8875687     
  -2473873956.5845532       -4432869.8865791559        1209307690.0763576     
  -2402486261.9066439       -6087493.6762386560        1210446760.6083252     
  -2331887112.1628132       -10370600.579491496        1216322886.4834707     
  -3004106285.8804035       -16907341.876815557        1145121238.9172788     
  -2918035489.4419804       -13502092.777475476        1133831096.3932457     
  -2832827701.6659827       -12973539.219550610        1127930929.2135818     
  -2748482922.5524144       -15321681.203062296        1127420737.3782885     
  -2665001152.1012721       -20546518.727982759        1132300520.8873651     
  -1327513154.0761917        21666705.347352803        1457037398.2982776     
  -1265870066.8383663        28274363.713741302        1449293450.3312080     
  -1204216968.5856640        34915392.129715383        1448416050.5468996     
  -1142553859.3180819        41589790.595291495        1454405198.9453533     
  -1080880739.0356212        48297559.110461533        1467260895.5265701     
  -1663143113.1502733        10736011.458180308        1378691325.1889286     
  -1584575563.2201874        17392642.703110278        1370847901.0664165     
  -1506069812.6756172        23843275.996320069        1369145444.7832170     
  -1427625861.5165706        30087911.337789237        1373583956.3393333     
  -1349243709.7430396        36126548.727530420        1384163435.7347584     
  -1997934432.5124822        56909.482561469078        1298453154.5839920     
  -1904515506.5856998        6140587.5973762274        1290426475.5055730     
  -1811230190.4448328        11778899.759138823        1287815183.9230223     
  -1718078484.0898836        16971845.967839479        1290619279.8363333     
  -1625060387.5208526        21719426.223481178        1298838763.2455099     
  -2331887112.1628132       -10370600.579491496        1216322886.4834707     
  -2225689896.9349041       -5481801.6034657955        1208029173.6486840     
  -2119698101.8933077       -1277736.5818250179        1204425267.9663107     
  -2013911727.0380278        2241594.4854388237        1205511169.4363546     
  -1908330772.3690603        5076191.5983165503        1211286878.0588117     
  -2665001152.1012721       -20546518.727982759        1132300520.8873651     
  -2548098734.2678013       -17474524.899420857        1123655995.4957409     
  -2431473547.0210390       -15326633.026548266        1118975696.9130874     
  -2315125590.3609967       -14102843.109409094        1118259625.1393955     
  -2199054864.2876630       -13803155.147973061        1121507780.1746728     
  -1080880739.0356212        48297559.110461533        1467260895.5265701     
  -1053335056.6932130        46707685.749963701        1467267198.4761336     
  -1024519875.8010654        49349474.221932888        1471002035.8080046     
  -994435196.35917330        56222924.526383758        1478465407.5221877     
  -963081018.36753738        67328036.663309574        1489657313.6186821     
  -1349243709.7430396        36126548.727530420        1384163435.7347584     
  -1312886730.9794536        30945149.431540310        1382946023.9892552     
  -1275553107.6321621        29019232.081242144        1385606811.8628454     
  -1237242839.7011609        30348796.676639676        1392145799.3555293     
  -1197955927.1864488        34933843.217739165        1402562986.4673040     
  -1625060387.5208526        21719426.223481178        1298838763.2455099     
  -1579464497.3738520        13074785.480677903        1296055973.8445640     
  -1533184816.6091783        6709446.7967822552        1297301049.2994978     
  -1486221345.2268298        2623410.1718012691        1302573989.6103044     
  -1438574083.2268090        816675.60572749376        1311874794.7769902     
  -1908330772.3690603        5076191.5983165503        1211286878.0588117     
  -1853068355.8764043       -6903406.1026264429        1206597048.0420551     
  -1797415002.7321119       -17579881.631447792        1206084748.1179538     
  -1741370712.9361806       -26953234.988143444        1209749978.2865119     
  -1684935486.4886134       -35023466.172717392        1217592738.5477328     
  -2199054864.2876630       -13803155.147973061        1121507780.1746728     
  -2133698306.4871185       -28989425.318392873        1114569246.5817258     
  -2068243666.0009704       -43848753.203470349        1111957908.3182199     
  -2002690942.8292193       -58381138.803200841        1113673765.3841565     
  -1937040136.9718654       -72586582.117596626        1119716817.7795343     
  -963081018.36753738        67328036.663309574        1489657313.6186821     
  -856338661.10253060        113285129.36507231        1499304846.7015908     
  -742798422.09090877        181901827.88888556        1527544969.4646671     
  -622460301.33266616        273178132.23477280        1574377681.9079065     
  -495324298.82780141        387114042.40272266        1639802984.0313158     
  -1197955927.1864488        34933843.217739165        1402562986.4673040     
  -1052443779.0507951        76945668.330797434        1412508353.1104975     
  -904242863.70609713        127920050.80733073        1434594492.4944932     
  -753353181.15235972        187856990.64733917        1468821404.6192780     
  -599774731.38957644        256756487.85081756        1515189089.4848876     
  -1438574083.2268090        816675.60572749376        1311874794.7769902     
  -1272725906.9044089        33353104.324900925        1317324028.0199564     
  -1108298077.9105341        61155041.948978007        1328462217.0643644     
  -945290596.24519873        84222488.477938712        1345289361.9102154     
  -783703461.90838420        102555443.91181588        1367805462.5574861     
  -1684935486.4886134       -35023466.172717392        1217592738.5477328     
  -1517185044.6633589       -17492562.652584612        1213751871.4299755     
  -1354964064.7042103       -18393198.686141551        1209148143.1742921     
  -1198272546.6111743       -37725374.273384511        1203781553.7806835     
  -1047110490.3842301       -75489089.414307147        1197652103.2491465     
  -1937040136.9718654       -72586582.117596626        1119716817.7795343     
  -1785821192.3276577       -75591332.601681530        1101791883.3405476     
  -1644240824.0871296       -110724671.09803396        1076652270.8242717     
  -1512299032.2502902       -177986597.60666484        1044297980.2307017     
  -1389995816.8171148       -277377112.12753522        1004729011.5598453     
  -3768084977.9919286       -1130425493.3975787        800732236.58239305     
  -3778993628.3226862       -1008681099.8422153        885047166.91122568     
  -3790517970.9736891       -888989014.02100563        974262436.02746546     
  -3802658005.9449387       -771349235.93394947        1068378043.9311121     
  -3815413733.2364340       -655761765.58104682        1167393990.6221664     
  -4339468692.8864937       -1301840607.8659480        858900554.72954249     
  -4335043485.9176788       -1125713562.0498142        942509899.48656440     
  -4331755629.6957150       -953377685.38984966        1020464337.4725956     
  -4329605124.2206011       -784832977.88605464        1092763868.6876361     
  -4328591969.4923372       -620079439.53842878        1159408493.1316857     
  -4894867705.8862162       -1468460311.7658651        936520287.11435175     
  -4905266486.0703926       -1246997967.0247297        1018815444.8018576     
  -4917324275.4280281       -1031065652.8617804        1084900450.1599748     
  -4931041073.9591179       -820663369.27701604        1134775303.1887035     
  -4946416881.6636620       -615791116.27043629        1168440003.8880432     
  -5434282016.9910955       -1630284605.0973287        1033591433.7368212     
  -5489662628.7808323       -1372534314.7669625        1113963802.8571057     
  -5547223908.1706314       -1122052916.4367981        1167570774.0896032     
  -5606965855.1604872       -878840410.10683310        1194412347.4343138     
  -5668888469.7504044       -642896795.77706981        1194488522.8912382     
  -5957711626.2011318       -1787313487.8603396        1150113994.5969505     
  -6088231914.0489931       -1502322605.2765119        1227954973.6523077     
  -6221454527.9235201       -1226339476.1149011        1268475309.2614806     
  -6357379467.8247108       -959364100.37550688        1271675001.4244683     
  -6496006733.7525682       -701396478.05832934        1237554050.1412714     
  -3815413733.2364340       -655761765.58104682        1167393990.6221664     
  -3797708662.7833633       -537814821.33452833        1189021109.1879313     
  -3783857415.6780162       -432713954.91375268        1205789815.7839625     
  -3773859991.9203920       -340459166.31872261        1217700110.4102592     
  -3767716391.5104918       -261050455.54943466        1224751993.0668237     
  -4328591969.4923372       -620079439.53842878        1159408493.1316857     
  -4297933493.6004086       -464273145.99203682        1141434908.6559818     
  -4277900858.9288802       -343886323.18032110        1129547121.2645483     
  -4268494065.4777575       -258918971.10328341        1123745130.9573846     
  -4269713113.2470369       -209371089.76091933        1124028937.7344911     
  -4946416881.6636620       -615791116.27043629        1168440003.8880432     
  -4871535831.6071482       -412744722.80645633        1102965028.8527443     
  -4814052640.6437159       -267691192.98608232        1054520059.9557199     
  -4773967308.7733679       -180630526.80931711        1023105097.1969684     
  -4751279835.9961014       -151562724.27616072        1008720140.5764922     
  -5668888469.7504044       -642896795.77706981        1194488522.8912382     
  -5518515676.8035822       -383229551.77778125        1073611469.7782183     
  -5392312760.8225203       -204128564.33103323        980708631.85747683     
  -5290279721.8072214       -105593833.43682528        915780009.12901282     
  -5212416559.7576866       -87625359.095158577        878825601.59282577     
  -6496006733.7525682       -701396478.05832934        1237554050.1412714     
  -6238873029.1897116       -375727632.90601683        1053374231.4324046     
  -6012681219.4652939       -153198437.21517467        908112836.96981931     
  -5817431304.5793209       -33808890.985805035        801769866.75351536     
  -5653123284.5317888       -17558994.217909098        734345320.78349376     
  -3767716391.5104918       -261050455.54943466        1224751993.0668237     
  -3661099191.6284218       -169002434.18384588        1192259790.0094903     
  -3562168455.8131447       -102575959.70756936        1169949928.0361016     
  -3470924184.0646629       -61771032.120606661        1157822407.1466556     
  -3387366376.3829718       -46587651.422945380        1155877227.3411531     
  -4269713113.2470369       -209371089.76091933        1124028937.7344911     
  -4147775802.3824863       -145662583.64875150        1090617869.4264495     
  -4030236573.0362248       -96614349.264205694        1065349048.9256225     
  -3917095425.2082472       -62226386.607281446        1048222476.2320102     
  -3808352358.8985562       -42498695.677975893        1039238151.3456125     
  -4751279835.9961014       -151562724.27616072        1008720140.5764922     
  -4619851252.0825825       -117942384.79746771        978226653.32433295     
  -4489532367.1388435       -88021041.884707212        953835320.60265994     
  -4360323181.1648846       -61798695.537875414        935546142.41147208     
  -4232223694.1607032       -39275345.756976128        923359118.75077164     
  -5212416559.7576866       -87625359.095158577        878825601.59282577     
  -5077325540.7287102       -85841837.629993439        855086141.70313978     
  -4940055838.1210051       -76796037.569067955        835408743.06721270     
  -4800607451.9345722       -60487958.912386179        819793405.68504024     
  -4658980382.1694126       -36917601.659944534        808240129.55662799     
  -5653123284.5317888       -17558994.217909098        734345320.78349376     
  -5520198668.3208647       -49360942.146325588        721196334.56287253     
  -5381806985.9827061       -62939336.317293644        710069316.31928122     
  -5237948237.5173120       -58294176.730809689        700964266.05271840     
  -5088622422.9246836       -35425463.386882544        693881183.76318324     
  -3387366376.3829718       -46587651.422945380        1155877227.3411531     
  -3291605090.6903772       -39346697.146573067        1148116440.8025506     
  -3195807980.3757501       -31986327.463424921        1143736847.2190363     
  -3099975045.4390936       -24506542.373510122        1142738446.5906131     
  -3004106285.8804035       -16907341.876815557        1145121238.9172788     
  -3808352358.8985562       -42498695.677975893        1039238151.3456125     
  -3701463234.7783084       -31097831.301922083        1030483982.6781143     
  -3595299530.6099448       -22115033.432146788        1025948517.5153326     
  -3489861246.3934598       -15550302.068633795        1025631755.8572699     
  -3385148382.1288562       -11403637.211395502        1029533697.7039219     
  -4232223694.1607032       -39275345.756976128        923359118.75077164     
  -4111813844.3281536       -22996705.095849991        912723449.28481436     
  -3992890659.0213990       -11673612.854041815        907143993.87319839     
  -3875454138.2404375       -5306069.0315427780        906620752.51592863     
  -3759504281.9852729       -3894073.6283636093        911153725.21300387     
  -4658980382.1694126       -36917601.659944534        808240129.55662799     
  -4522656919.3399105       -15043318.528350830        794834840.62264442     
  -4388581365.6101160       -662065.72911620140        787323276.29263258     
  -4256753720.9800305        6226156.7377612591        785705436.56659257     
  -4127173985.4496508        5621348.8722777367        789981321.44452369     
  -5088622422.9246836       -35425463.386882544        693881183.76318324     
  -4933992459.8135777       -7237671.5994234085        676818156.69161057     
  -4782371650.3760958        10919607.942627430        666486364.77363288     
  -4633759994.6122313        19046375.239287138        662885808.00925970     
  -4488157492.5219879        17142630.290536404        666016486.39848280     
  -3004106285.8804035       -16907341.876815557        1145121238.9172788     
  -2918035489.4419804       -13502092.777475476        1133831096.3932457     
  -2832827701.6659827       -12973539.219550610        1127930929.2135818     
  -2748482922.5524144       -15321681.203062296        1127420737.3782885     
  -2665001152.1012721       -20546518.727982759        1132300520.8873651     
  -3385148382.1288562       -11403637.211395502        1029533697.7039219     
  -3286750969.4152684       -10964175.256268501        1019499559.6383570     
  -3188823236.1586814       -12090311.491150618        1014241871.1656772     
  -3091365182.3590956       -14782045.916042805        1013760632.2858820     
  -2994376808.0165181       -19039378.530953884        1018055842.9989680     
  -3759504281.9852729       -3894073.6283636093        911153725.21300387     
  -3650533183.7150497       -6946278.0330145359        902834475.67890429     
  -3541638435.6964059       -10252983.276261806        898678149.98620141     
  -3432820037.9293389       -13814189.358105659        898684748.13489473     
  -3324077990.4138560       -17629896.278550625        902854270.12498999     
  -4127173985.4496508        5621348.8722777367        789981321.44452369     
  -4009382132.3413272       -1448401.1077084541        783835844.51488245     
  -3891273300.2791581       -7461554.5748817921        781239765.67515206     
  -3772847489.2631397       -12418111.529233694        782193084.92533290     
  -3654104699.2932873       -16318071.970777750        786695802.26542914     
  -4488157492.5219879        17142630.290536404        666016486.39848280     
  -4363297815.2940931        5529455.5196523666        662503666.14629424     
  -4237727829.9069300       -3716025.3870007992        661926718.23253131     
  -4111447536.3604970       -10593812.429419518        664285642.65719414     
  -3984456934.6547971       -15103905.607621908        669580439.42028213     
  -2665001152.1012721       -20546518.727982759        1132300520.8873651     
  -2548098734.2678013       -17474524.899420857        1123655995.4957409     
  -2431473547.0210390       -15326633.026548266        1118975696.9130874     
  -2315125590.3609967       -14102843.109409094        1118259625.1393955     
  -2199054864.2876630       -13803155.147973061        1121507780.1746728     
  -2994376808.0165181       -19039378.530953884        1018055842.9989680     
  -2866036896.1112924       -14791572.850971580        1009362505.8869677     
  -2737820924.2922902       -10956900.791739225        1005231673.1324090     
  -2609728892.5595202       -7535362.3532869816        1005663344.7352897     
  -2481760800.9129744       -4526957.5355783701        1010657520.6956139     
  -3324077990.4138560       -17629896.278550625        902854270.12498999     
  -3182591220.0126615       -11693469.419886589        894290960.20984399     
  -3041075099.1972075       -5659207.8470339775        890888432.20061243     
  -2899529627.9675035        472888.43999731541        892646686.09729826     
  -2757954806.3235397        6702819.4412235022        899565721.89989603     
  -3654104699.2932873       -16318071.970777750        786695802.26542914     
  -3497761705.9719076       -8180214.6061692238        778441358.46436810     
  -3341236071.7357907        566445.80757355690        775945974.11769927     
  -3184527796.5849314        9921909.2704497576        779209649.22542155     
  -3027636880.5193372        19886175.782461047        788232383.78753090     
  -3984456934.6547971       -15103905.607621908        669580439.42028213     
  -3811548353.9890299       -4251808.4098045826        661813700.65054309     
  -3638303841.9080405        7720060.1720800400        660404298.88366747     
  -3464723398.4118214        20811700.138061762        665352234.11965632     
  -3290807023.5003777        35023111.488128424        676657506.35850918     
  -2199054864.2876630       -13803155.147973061        1121507780.1746728     
  -2133698306.4871185       -28989425.318392873        1114569246.5817258     
  -2068243666.0009704       -43848753.203470349        1111957908.3182199     
  -2002690942.8292193       -58381138.803200841        1113673765.3841565     
  -1937040136.9718654       -72586582.117596626        1119716817.7795343     
  -2481760800.9129744       -4526957.5355783701        1010657520.6956139     
  -2406351630.5445094       -18052885.029670954        1005180424.7652872     
  -2331324007.5151067       -32850636.987318277        1002725756.4016924     
  -2256677931.8247676       -48920213.408508658        1003293515.6048270     
  -2182413403.4734931       -66261614.293241382        1006883702.3746890     
  -2757954806.3235397        6702819.4412235022        899565721.89989603     
  -2676220931.2806067       -6281137.7445696592        894990495.27008438     
  -2595348233.6014099       -22135686.142807245        892132928.44428420     
  -2515336713.2859473       -40860825.753489375        890993021.42250586     
  -2436186370.3342180       -62456556.576618791        891570774.20474505     
  -3027636880.5193372        19886175.782461047        788232383.78753090     
  -2943306208.6954122        6325816.5369153023        783999458.09611189     
  -2860316344.2598801       -11703900.669945717        780179424.44600058     
  -2778667287.2127576       -34202975.838170767        776772282.83719218     
  -2698359037.5540352       -61171408.967725396        773778033.26969075     
  -3290807023.5003777        35023111.488128424        676657506.35850918     
  -3207607462.7889166        19767977.814807057        672207313.24337554     
  -3126228339.4905252       -1555280.5687482357        666865244.40683579     
  -3046669653.6052074       -28946663.662541270        660631299.84888828     
  -2968931405.1329522       -62406171.466558576        653505479.56953526     
  -1937040136.9718654       -72586582.117596626        1119716817.7795343     
  -1785821192.3276577       -75591332.601681530        1101791883.3405476     
  -1644240824.0871296       -110724671.09803396        1076652270.8242717     
  -1512299032.2502902       -177986597.60666484        1044297980.2307017     
  -1389995816.8171148       -277377112.12753522        1004729011.5598453     
  -2182413403.4734931       -66261614.293241382        1006883702.3746890     
  -2040726806.6703179       -70832503.965003729        981480303.64808118     
  -1903574778.5649562       -90518622.629494250        956320424.47204733     
  -1770957319.1574125       -125319970.28670633        931404064.84659719     
  -1642874428.4476807       -175236546.93661851        906731224.77171910     
  -2436186370.3342180       -62456556.576618791        891570774.20474505     
  -2282722985.2924538       -62200844.612185478        864643586.84735382     
  -2128690161.2426417       -60047002.620922208        845418116.66840935     
  -1974087898.1847830       -55995030.602827191        833894363.66791141     
  -1818916196.1188660       -50044928.557894230        830072327.84585571     
  -2698359037.5540352       -61171408.967725396        773778033.26969075     
  -2511809728.1940694       -49696354.543212533        751281732.93836737     
  -2319586972.1201773       -19309811.072303653        743945347.41335666     
  -2121690769.3323712        29988221.444988966        751768876.69465637     
  -1918121119.8306656        98197743.008642435        774752320.78226614     
  -2968931405.1329522       -62406171.466558576        653505479.56953526     
  -2727987035.3751507       -33319033.758066177        641394741.92111707     
  -2476265211.1975670        31692952.016362906        651902116.70687759     
  -2213765932.6002030        132629785.85672498        685027603.92681468     
  -1940489199.5830595        269491467.76301408        740771203.58093488     
  -5957711626.2011318       -1787313487.8603396        1150113994.5969505     
  -6088231914.0489931       -1502322605.2765119        1227954973.6523077     
  -6221454527.9235201       -1226339476.1149011        1268475309.2614806     
  -6357379467.8247108       -959364100.37550688        1271675001.4244683     
  -6496006733.7525682       -701396478.05832934        1237554050.1412714     
  -6810445829.6555882       -2043133748.8966763        1353802431.4464784     
  -6828333675.8989372       -1395467519.9239168        1202790622.2576711     
  -6897585341.0608492       -919014020.67969513        1092045485.5056882     
  -7018200825.1413212       -613773251.16401148        1021567021.1905293     
  -7190180128.1403570       -479745211.37686753        991355229.31219518     
  -8337773923.4937181       -2501332177.0481157        1712371206.0371428     
  -8021351282.7525311       -1424487188.0724158        1275734866.8969581     
  -7804953953.8218012       -681059905.13157606        956952516.07660723     
  -7688581936.7015314       -271050328.22559643        756024153.57608998     
  -7672235231.3917170       -194458457.35447454        672949779.39540613     
  -10539695907.715528       -3161908772.3146586        2225820318.3689432     
  -9667284734.6097775       -1589381609.7220113        1446787707.5701694     
  -8943560366.2063828       -512477129.47054529        863196400.97423792     
  -8368522802.5053387        68804668.439738750        475046398.58114904     
  -7942172043.5066509        154463784.00884199        282337700.39090240     
  -13416211782.321012       -4024863534.6963038        2894149768.4418812     
  -11766134031.470673       -1890150784.8727009        1715949144.2773046     
  -10313404578.214584       -413265693.69660044        810777140.19857991     
  -9058023422.5527477        405791738.83199453        178633756.20570695     
  -7999990564.4851599        567021512.71308994       -180481007.70131493     
  -6496006733.7525682       -701396478.05832934        1237554050.1412714     
  -6238873029.1897116       -375727632.90601683        1053374231.4324046     
  -6012681219.4652939       -153198437.21517467        908112836.96981931     
  -5817431304.5793209       -33808890.985805035        801769866.75351536     
  -5653123284.5317888       -17558994.217909098        734345320.78349376     
  -7190180128.1403570       -479745211.37686753        991355229.31219518     
  -6900179045.0759315       -304441454.77094698        846972141.17277241     
  -6622980120.4557581       -171811559.64585900        723652863.45282567     
  -6358583354.2798319       -81855526.001602411        621397396.15235472     
  -6106988746.5481548       -34573353.838175535        540205739.27136087     
  -7672235231.3917170       -194458457.35447454        672949779.39540613     
  -7400379952.1880264       -184823744.00364017        589526447.61865032     
  -7123187095.0343933       -157397104.15299368        509312312.43456709     
  -6840656659.9308167       -112178537.80253983        432307373.84315425     
  -6552788646.8772964       -49168044.952273607        358511631.84441262     
  -7942172043.5066509        154463784.00884199        282337700.39090240     
  -7739475750.5259953       -16874500.604095459        281037150.77004093     
  -7513302143.2012024       -109955070.73658514        265091183.91504481     
  -7263651221.5322762       -124777926.38862181        234499799.82591301     
  -6990522985.5192137       -61343067.560207367        189262998.50264969     
  -7999990564.4851599        567021512.71308994       -180481007.70131493     
  -7917466440.0898380        199406275.42768764       -78495749.373061121     
  -7793325264.9561872       -29485459.396623135       -9010522.1057439093     
  -7627567039.0842075       -119653691.75984144        27974674.100629773     
  -7420191762.4739037       -71098421.661968708        32459839.246068221     
  -5653123284.5317888       -17558994.217909098        734345320.78349376     
  -5520198668.3208647       -49360942.146325588        721196334.56287253     
  -5381806985.9827061       -62939336.317293644        710069316.31928122     
  -5237948237.5173120       -58294176.730809689        700964266.05271840     
  -5088622422.9246836       -35425463.386882544        693881183.76318324     
  -6106988746.5481548       -34573353.838175535        540205739.27136087     
  -5959122010.3771744       -36341998.154125452        533899269.27907413     
  -5810276712.4726057       -34848770.024786472        530134007.36846322     
  -5660452852.8344469       -30093669.450144291        528909953.53952891     
  -5509650431.4627047       -22076696.430217028        530227107.79226989     
  -6552788646.8772964       -49168044.952273607        358511631.84441262     
  -6388496247.5901241       -20458322.708917618        353811089.62120366     
  -6227713790.9630070       -3448409.3324286938        352170995.58431965     
  -6070441276.9959497        1861695.1772079468        353591349.73376006     
  -5916678705.6889486       -4528009.1800186634        358072152.06952405     
  -6990522985.5192137       -61343067.560207367        189262998.50264969     
  -6808321379.9597082       -1709915.8107023239        180931795.58926353     
  -6634118221.4539127        31261745.759778500        176180280.96685269     
  -6467913510.0018187        37571917.151248932        175008454.63541275     
  -6309707245.6034279        17220598.363702774        177416316.59494510     
  -7420191762.4739037       -71098421.661968708        32459839.246068221     
  -7218597407.4859362        19903222.540519714        15261387.183255929     
  -7029490003.9453192        69281695.251830578        2161863.5160614764     
  -6852869551.8520470        77036996.471993446       -6838731.7555126976     
  -6688736051.2061319        43169126.200966358       -11740398.631466553     
  -5088622422.9246836       -35425463.386882544        693881183.76318324     
  -4933992459.8135777       -7237671.5994234085        676818156.69161057     
  -4782371650.3760958        10919607.942627430        666486364.77363288     
  -4633759994.6122313        19046375.239287138        662885808.00925970     
  -4488157492.5219879        17142630.290536404        666016486.39848280     
  -5509650431.4627047       -22076696.430217028        530227107.79226989     
  -5343776813.0713367       -9332795.9089860916        515192120.27670699     
  -5178746216.8121862        601030.83818316460        505638838.11533892     
  -5014558642.6852493        7724783.8113024235        501567261.30816311     
  -4851214090.6905346        12038463.010360956        502977389.85518187     
  -5916678705.6889486       -4528009.1800186634        358072152.06952405     
  -5743131517.1584787       -8299025.4673674107        347592357.57494354     
  -5568261219.2188196       -7659677.0574195385        341344738.63514990     
  -5392067811.8699799       -2609963.9501953125        339329295.25014311     
  -5214551295.1119461        6850113.8543217182        341546027.41992742     
  -6309707245.6034279        17220598.363702774        177416316.59494510     
  -6132056572.0750122       -4136360.2745621204        174018868.58631492     
  -5950916657.5960064       -13862515.744193554        173604066.33307227     
  -5766287502.1664143       -11957868.045198202        176171909.83520061     
  -5578169105.7862329        1577582.8224256039        181722399.09271786     
  -6688736051.2061319        43169126.200966358       -11740398.631466553     
  -6510551977.8209324        3155199.6694240570       -5528346.6891743205     
  -6326712531.9437380       -18007485.222127199        2416821.2090946995     
  -6137217713.5745573       -20318928.473721266        12095105.063335383     
  -5942067522.7133760       -3779130.0853278637        23506504.873560540     
  -4488157492.5219879        17142630.290536404        666016486.39848280     
  -4363297815.2940931        5529455.5196523666        662503666.14629424     
  -4237727829.9069300       -3716025.3870007992        661926718.23253131     
  -4111447536.3604970       -10593812.429419518        664285642.65719414     
  -3984456934.6547971       -15103905.607621908        669580439.42028213     
  -4851214090.6905346        12038463.010360956        502977389.85518187     
  -4716712850.8240223        6172340.5869092941        499794532.47059023     
  -4582375275.4081755       -239330.00543212891        499766146.54325497     
  -4448201364.4430008       -7196548.7666723728        502892232.07317734     
  -4314191117.9284925       -14699315.696816683        509172789.06035727     
  -5214551295.1119461        6850113.8543217182        341546027.41992742     
  -5069783923.6958666        6918414.4515855312        337673498.19133580     
  -4926054189.3403883        3527924.8468496799        337174039.53883487     
  -4783362092.0455198       -3321354.9599368572        340047651.46242636     
  -4641707631.8112602       -13629424.968721151        346294333.96210432     
  -5578169105.7862329        1577582.8224256039        181722399.09271786     
  -5422511033.9096298        7767677.1137006283        176140563.30853260     
  -5268764571.7035704        7585739.1698358059        174150397.21927181     
  -5116929719.1680603        1031768.9908115864        175751900.82493567     
  -4967006476.3030949       -11894233.423365116        180945074.12552038     
  -5942067522.7133760       -3779130.0853278637        23506504.873560540     
  -5774894181.4653120        8720128.5732233524        15195727.822194291     
  -5610506422.4977169        11934112.963547468        10695219.584572416     
  -5448904245.8106203        5862823.0855407715        10004980.160714928     
  -5290087651.4039936       -9493741.0607013702        13125009.550606616     
  -3984456934.6547971       -15103905.607621908        669580439.42028213     
  -3811548353.9890299       -4251808.4098045826        661813700.65054309     
  -3638303841.9080405        7720060.1720800400        660404298.88366747     
  -3464723398.4118214        20811700.138061762        665352234.11965632     
  -3290807023.5003777        35023111.488128424        676657506.35850918     
  -4314191117.9284925       -14699315.696816683        509172789.06035727     
  -4126579756.1780777       -5509461.9377658367        502198536.27892494     
  -3938401024.8439703        5571623.7669119835        500560372.73791832     
  -3749654923.9261813        18543941.417202473        504258298.43734288     
  -3560341453.4246964        33407491.013136148        513292313.37719154     
  -4641707631.8112602       -13629424.968721151        346294333.96210432     
  -4442311339.7260084       -6977169.8733887672        340382578.36551803     
  -4242116239.8886137        2337777.7291169167        338785664.24692351     
  -4041122332.2990637        14315417.838793278        341503591.60631603     
  -3839329616.9573674        28955750.455632687        348536360.44370526     
  -4967006476.3030949       -11894233.423365116        180945074.12552038     
  -4758743104.6328344       -8654932.2166767120        176365826.91031647     
  -4549449487.0419607       -1981477.9412794113        175080173.41066834     
  -4339125623.5304747        8126129.4028255939        177088113.62657684     
  -4127771514.0983820        21667889.815625429        182389647.55803418     
  -5290087651.4039936       -9493741.0607013702        13125009.550606616     
  -5075875050.8985424       -10542748.967636108        10148281.913329000     
  -4860400766.3040180       -7386143.2442939281        9443900.2291707005     
  -4643664797.6204233       -23923.890722990036        11011864.498128192     
  -4425667144.8477392        11543909.093121767        14852174.720201796     
  -3290807023.5003777        35023111.488128424        676657506.35850918     
  -3207607462.7889166        19767977.814807057        672207313.24337554     
  -3126228339.4905252       -1555280.5687482357        666865244.40683579     
  -3046669653.6052074       -28946663.662541270        660631299.84888828     
  -2968931405.1329522       -62406171.466558576        653505479.56953526     
  -3560341453.4246964        33407491.013136148        513292313.37719154     
  -3475843159.7615390        16281767.474741936        505538144.04745734     
  -3392271391.7806458       -3932375.0045218468        500106550.37083602     
  -3309626149.4819937       -27234936.424605012        496997532.34732604     
  -3227907432.8656082       -53625916.785562873        496211089.97692955     
  -3839329616.9573674        28955750.455632687        348536360.44370526     
  -3744348443.5581756        12714681.087472439        338521111.91865122     
  -3649399884.1104264       -3635101.4521758556        334042890.42122787     
  -3554483938.6141167       -20093597.163269520        335101695.95144045     
  -3459600607.0692506       -36660806.045854568        341697528.50928217     
  -4127771514.0983820        21667889.815625429        182389647.55803418     
  -4013123314.1788139        9066718.6529941559        171156216.85695279     
  -3897613816.4798856       -663459.91174888611        168674264.55801976     
  -3781243021.0015769       -7522645.8785617352        174943790.66123405     
  -3664010927.7438846       -11510839.247437954        189964795.16659638     
  -4425667144.8477392        11543909.093121767        14852174.720201796     
  -4282167771.6234598        5337880.1713271141        3443458.8623651811     
  -4136913188.8889999        4982549.6168062687        4000672.7812005659     
  -3989903396.6443491        10477917.429593325        16523816.476705387     
  -3841138394.8895135        21823983.609653234        41012889.948877081     
  -2968931405.1329522       -62406171.466558576        653505479.56953526     
  -2727987035.3751507       -33319033.758066177        641394741.92111707     
  -2476265211.1975670        31692952.016362906        651902116.70687759     
  -2213765932.6002030        132629785.85672498        685027603.92681468     
  -1940489199.5830595        269491467.76301408        740771203.58093488     
  -3227907432.8656082       -53625916.785562873        496211089.97692955     
  -2941650485.0008564       -14288051.911979556        495783458.74699068     
  -2651587422.9747186        37736860.166229010        505227991.97320139     
  -2357718246.7872000        102448819.44905078        524544689.65555376     
  -2060042956.4382796        179847825.93650651        553733551.79405642     
  -3459600607.0692506       -36660806.045854568        341697528.50928217     
  -3164448075.3205094        2002687.7259228230        344819773.39637411     
  -2872460769.6687789        30115427.841015458        345068234.76157492     
  -2583638690.1140375        47677414.299434185        342442912.60488516     
  -2297981836.6563244        54688647.101158261        336943806.92630637     
  -3664010927.7438846       -11510839.247437954        189964795.16659638     
  -3396379806.3341055        15553185.155659199        188503685.86924988     
  -3138885251.2797298        8828655.0407482386        171422845.07199189     
  -2891527262.5807514       -31684429.592153430        138722272.77479330     
  -2654305840.2371593       -105986068.74302375        90401968.977680460     
  -3841138394.8895135        21823983.609653234        41012889.948877081     
  -3637445678.0416560        26363440.377169132        26835196.165641263     
  -3450860867.8075881       -26123458.234603167       -15708177.095559118     
  -3281383964.1873116       -135636712.22568953       -86617229.834702447     
  -3129014967.1808257       -302176321.59606862       -185891962.05181640     
 </DataArray>
 <DataArray  type="Float64" Name="VM" NumberOfComponents="1" format="ascii">
   12935545900.202223     
   11340914381.502495     
   10210663242.833530     
   9273443388.3865128     
   8304829534.9915628     
   10130369041.255440     
   9322236055.4387417     
   8826731915.9844551     
   8444019007.0258493     
   8036294673.3307104     
   7982491697.2266922     
   7735196714.0849905     
   7669454691.3286886     
   7669955925.3954191     
   7666770574.6391459     
   6491826552.4767313     
   6587080343.8474350     
   6757661905.0548840     
   6961486146.9724369     
   7171892076.5896921     
   5657924784.7666435     
   5891045419.1388292     
   6116540928.2088146     
   6331949970.1549950     
   6537046137.0449219     
   8304829534.9915628     
   8021090191.5232954     
   7779465077.3619146     
   7569277765.2276363     
   7385560969.7466030     
   8036294673.3307104     
   7747189543.6993475     
   7473775171.9684629     
   7214091613.8141966     
   6968144223.2029190     
   7666770574.6391459     
   7381421259.3100863     
   7101485378.9530134     
   6827038790.8002329     
   6558283464.6591644     
   7171892076.5896921     
   6911219783.9808960     
   6658459567.9397602     
   6409754074.0065975     
   6161958033.9842997     
   6537046137.0449219     
   6328931894.1106396     
   6143001309.3890314     
   5965351728.5897779     
   5786973632.9237814     
   7385560969.7466030     
   7228859736.3365393     
   7064628766.0899916     
   6892180585.0797081     
   6711334241.6985989     
   6968144223.2029190     
   6815050472.4734135     
   6657306719.0177088     
   6494630289.8360329     
   6326970780.0156517     
   6558283464.6591644     
   6408203205.1211805     
   6256450901.3891773     
   6102993390.2417488     
   5947859027.0625648     
   6161958033.9842997     
   6013313122.9484930     
   5865966645.7539673     
   5719956721.8243818     
   5575338624.3065109     
   5786973632.9237814     
   5636837172.9509382     
   5490884468.4438200     
   5349029978.6373920     
   5211317768.1057568     
   6711334241.6985989     
   6513747668.4920826     
   6319669074.7176647     
   6128998098.2015781     
   5941732960.7673664     
   6326970780.0156517     
   6138967268.7585125     
   5953310287.9700775     
   5769984606.3353243     
   5589028923.2280893     
   5947859027.0625648     
   5771580301.5646000     
   5596810732.8405685     
   5423581077.8196249     
   5251960836.4692450     
   5575338624.3065109     
   5413413494.5479403     
   5252520593.3877268     
   5092706957.5195656     
   4934081472.1071272     
   5211317768.1057568     
   5066880945.6237612     
   4923415758.5739975     
   4780965794.9348631     
   4639707996.2063646     
   5941732960.7673664     
   5778004853.9797602     
   5612672066.9072514     
   5445713500.1423893     
   5277163845.1121721     
   5589028923.2280893     
   5434487592.4694996     
   5279196970.7593555     
   5123185972.2982855     
   4966529265.9467058     
   5251960836.4692450     
   5106587812.6345758     
   4961362322.7017355     
   4816355049.5298166     
   4671675197.0636797     
   4934081472.1071272     
   4797730949.3705292     
   4662445363.6889648     
   4528325769.0111208     
   4395507701.7600107     
   4639707996.2063646     
   4512066150.8095570     
   4386400744.6903448     
   4262828496.4133844     
   4141500463.3500581     
   5277163845.1121721     
   5065653652.9435835     
   4855891230.4141722     
   4647912892.1085787     
   4441806536.6378565     
   4966529265.9467058     
   4761748329.2427816     
   4558535863.7288857     
   4356962310.1742468     
   4157149199.5809302     
   4671675197.0636797     
   4476652207.5280018     
   4283340303.4971490     
   4091879605.4662962     
   3902479462.2017670     
   4395507701.7600107     
   4213590634.8016930     
   4033919853.8728137     
   3856755208.3818069     
   3682465848.7810254     
   4141500463.3500581     
   3976316190.3797674     
   3814366426.7283554     
   3656084633.3975210     
   3502072878.4068823     
   4441806536.6378565     
   4294450996.2452993     
   4143904924.4982042     
   3990128975.4875636     
   3833581797.9178004     
   4157149199.5809302     
   4034024411.6923823     
   3909790120.6049747     
   3784608046.8825636     
   3658937057.0969195     
   3902479462.2017670     
   3797335346.5315375     
   3692561839.5738945     
   3588342762.3041658     
   3484990571.7087140     
   3682465848.7810254     
   3588627672.4261098     
   3495794331.4845843     
   3404054136.1246700     
   3313520362.5721631     
   3502072878.4068823     
   3412561725.5581651     
   3323645626.6426277     
   3235263188.8795681     
   3147362724.7438979     
   3833581797.9178004     
   3615346707.6638093     
   3406420479.9005895     
   3208066905.9782085     
   3025099113.2312551     
   3658937057.0969195     
   3405680646.5056210     
   3157159685.2458506     
   2914359730.5052371     
   2679938482.3470011     
   3484990571.7087140     
   3218384689.4116268     
   2954555338.1592321     
   2694028205.2825480     
   2437740277.8404818     
   3313520362.5721631     
   3057714383.5160365     
   2805941683.4242153     
   2559311365.6068568     
   2319658787.0265813     
   3147362724.7438979     
   2928204388.2427421     
   2718088938.0906906     
   2520470950.7457857     
   2341570844.6965046     
   5657924784.7666435     
   5891045419.1388292     
   6116540928.2088146     
   6331949970.1549950     
   6537046137.0449219     
   5151464639.8992710     
   5311398015.0172920     
   5467974021.5142822     
   5618295116.2033443     
   5760893044.6910973     
   4643401743.7336588     
   4755545649.7629642     
   4868821163.0697346     
   4980591290.5469160     
   5088928630.3033714     
   4133999057.3038111     
   4224325424.9792399     
   4320577394.6311665     
   4421095903.5147858     
   4524424366.4203796     
   3624775271.3791919     
   3719561029.7762833     
   3825600868.8538384     
   3942828781.7656407     
   4071149960.9388542     
   6537046137.0449219     
   6328931894.1106396     
   6143001309.3890314     
   5965351728.5897779     
   5786973632.9237814     
   5760893044.6910973     
   5652311425.0645456     
   5559727921.4185982     
   5474084214.6823559     
   5389837339.8007593     
   5088928630.3033714     
   5054164945.7398758     
   5029912559.0192204     
   5010966407.2278109     
   4994123172.4129944     
   4524424366.4203796     
   4539087917.1428299     
   4558423895.5315065     
   4579952837.5231924     
   4601950328.0762300     
   4071149960.9388542     
   4112409449.0971708     
   4151027313.4953008     
   4186105809.2762542     
   4216912889.0460591     
   5786973632.9237814     
   5636837172.9509382     
   5490884468.4438200     
   5349029978.6373920     
   5211317768.1057568     
   5389837339.8007593     
   5249306541.6475220     
   5111992100.3450222     
   4977935081.0245485     
   4847228007.5760403     
   4994123172.4129944     
   4867569865.0236816     
   4744203362.2198820     
   4623991366.1348171     
   4506975456.9625835     
   4601950328.0762300     
   4494293580.7130604     
   4390849576.4664059     
   4291302035.6438003     
   4195563428.8252144     
   4216912889.0460591     
   4133439920.3342361     
   4056440914.7062616     
   3985067005.3168993     
   3919024876.2063279     
   5211317768.1057568     
   5066880945.6237612     
   4923415758.5739975     
   4780965794.9348631     
   4639707996.2063646     
   4847228007.5760403     
   4719660561.7439137     
   4593940818.2884083     
   4470201048.1410608     
   4348683686.8996229     
   4506975456.9625835     
   4395075964.6304903     
   4285844676.4705253     
   4179473522.8694959     
   4076239812.9844069     
   4195563428.8252144     
   4098022701.8675175     
   4003860809.7657957     
   3913298425.0038285     
   3826617488.5623350     
   3919024876.2063279     
   3834386300.3704557     
   3753663291.4750061     
   3677074795.8306699     
   3604880930.4424930     
   4639707996.2063646     
   4512066150.8095570     
   4386400744.6903448     
   4262828496.4133844     
   4141500463.3500581     
   4348683686.8996229     
   4231129688.1688170     
   4115925750.4140668     
   4003237440.0952563     
   3893273978.1288104     
   4076239812.9844069     
   3970096603.7289338     
   3866858374.2696552     
   3766742621.1360893     
   3670021989.8356805     
   3826617488.5623350     
   3733236691.2953968     
   3643508308.8457985     
   3557699207.6741605     
   3476143545.1171017     
   3604880930.4424930     
   3525544012.3078899     
   3450796101.5496664     
   3380940892.4988890     
   3316360131.2006006     
   4141500463.3500581     
   3976316190.3797674     
   3814366426.7283554     
   3656084633.3975210     
   3502072878.4068823     
   3893273978.1288104     
   3745528960.7578735     
   3601855398.1161699     
   3462747780.0018568     
   3328855884.9935789     
   3670021989.8356805     
   3539114400.4513021     
   3413062038.9887576     
   3292391485.7892022     
   3177763223.8855238     
   3476143545.1171017     
   3361378427.8003378     
   3252149197.8127341     
   3148980341.1156106     
   3052502519.0211272     
   3316360131.2006006     
   3216886084.7437997     
   3123467620.6600623     
   3036591361.5912290     
   2956819568.4748468     
   3502072878.4068823     
   3412561725.5581651     
   3323645626.6426277     
   3235263188.8795681     
   3147362724.7438979     
   3328855884.9935789     
   3240964081.4152803     
   3154275031.0953226     
   3068822259.5527859     
   2984646585.5437403     
   3177763223.8855238     
   3095726033.9410129     
   3016009835.8102531     
   2938777206.8086877     
   2864217427.2078090     
   3052502519.0211272     
   2980423376.0690947     
   2912290243.9181676     
   2848414125.1484900     
   2789166373.8052492     
   2956819568.4748468     
   2898345834.1254168     
   2845893062.9862127     
   2799906284.8548732     
   2760927203.3268666     
   3147362724.7438979     
   2928204388.2427421     
   2718088938.0906906     
   2520470950.7457857     
   2341570844.6965046     
   2984646585.5437403     
   2811041093.3657198     
   2647923858.8820868     
   2497983392.4992681     
   2365117805.1114926     
   2864217427.2078090     
   2722961236.5399675     
   2591364829.6706061     
   2471049793.2567639     
   2363999171.5475483     
   2789166373.8052492     
   2666384414.2440000     
   2550205712.5398283     
   2441372645.2869473     
   2340823478.4982648     
   2760927203.3268666     
   2642894687.0341749     
   2526557417.4912295     
   2412246933.6646724     
   2300920871.7902827     
   3624775271.3791919     
   3719561029.7762833     
   3825600868.8538384     
   3942828781.7656407     
   4071149960.9388542     
   3137699663.1728783     
   3255317704.7919326     
   3382350854.9275055     
   3518328812.5400434     
   3662792793.5854115     
   2694434558.1429057     
   2830265583.0590615     
   2973401179.1090941     
   3122758441.1891861     
   3277426201.2798920     
   2298474057.7444816     
   2449202162.4556818     
   2604638401.9370332     
   2762859689.2820325     
   2922436760.5831642     
   1955036053.1373198     
   2119090814.1562765     
   2284480464.3117199     
   2448243915.2551327     
   2608424161.0191798     
   4071149960.9388542     
   4112409449.0971708     
   4151027313.4953008     
   4186105809.2762542     
   4216912889.0460591     
   3662792793.5854115     
   3702004094.5362325     
   3739842987.6304321     
   3775410010.8770504     
   3807955089.1366210     
   3277426201.2798920     
   3320464229.5591817     
   3363753615.9078760     
   3406469994.5317054     
   3447934206.4758267     
   2922436760.5831642     
   2975178693.4490042     
   3030154009.0246744     
   3086678717.0897932     
   3144218925.4597392     
   2608424161.0191798     
   2676209067.6041083     
   2748514379.4146185     
   2824829833.2322316     
   2904802121.6856270     
   4216912889.0460591     
   4133439920.3342361     
   4056440914.7062616     
   3985067005.3168993     
   3919024876.2063279     
   3807955089.1366210     
   3755850978.0359783     
   3709714978.1208644     
   3669074939.3526793     
   3633833968.9178901     
   3447934206.4758267     
   3422543216.6697211     
   3402228346.6747961     
   3386761676.6564221     
   3376124387.8364406     
   3144218925.4597392     
   3141148409.5393105     
   3141661266.3212185     
   3145658920.8545437     
   3153124772.8398099     
   2904802121.6856270     
   2919993179.6162219     
   2936489155.6035476     
   2954239117.1604104     
   2973205167.0050282     
   3919024876.2063279     
   3834386300.3704557     
   3753663291.4750061     
   3677074795.8306699     
   3604880930.4424930     
   3633833968.9178901     
   3561147021.5280175     
   3493113791.3578291     
   3429977219.4719663     
   3372028261.9950471     
   3376124387.8364406     
   3316672877.5246735     
   3262812285.1344905     
   3214789595.1316071     
   3172908008.1564631     
   3153124772.8398099     
   3107877979.6391497     
   3069342571.8769956     
   3037737162.1025486     
   3013346052.4335403     
   2973205167.0050282     
   2942513272.4730229     
   2919800849.3941216     
   2905215856.9638767     
   2898984274.6491961     
   3604880930.4424930     
   3525544012.3078899     
   3450796101.5496664     
   3380940892.4988890     
   3316360131.2006006     
   3372028261.9950471     
   3307318739.8903122     
   3247715136.3554392     
   3193505406.0195289     
   3145033994.3947220     
   3172908008.1564631     
   3121851168.7838044     
   3076289801.5908251     
   3036472160.5787578     
   3002681943.4100661     
   3013346052.4335403     
   2974643744.7529502     
   2941651648.3074150     
   2914560156.9571738     
   2893577658.4297080     
   2898984274.6491961     
   2870937823.0863423     
   2848605134.0453777     
   2832111336.5236273     
   2821588197.6975327     
   3316360131.2006006     
   3216886084.7437997     
   3123467620.6600623     
   3036591361.5912290     
   2956819568.4748468     
   3145033994.3947220     
   3059924036.4663944     
   2981970646.0795746     
   2911682345.1027098     
   2849633984.9335546     
   3002681943.4100661     
   2932623670.1091390     
   2870860098.4120564     
   2817877387.4002934     
   2774212052.7752700     
   2893577658.4297080     
   2838612354.8676295     
   2793058328.0507822     
   2757332152.5622239     
   2731883103.6209469     
   2821588197.6975327     
   2780903471.3812704     
   2750683982.6144114     
   2731240259.8550997     
   2722902214.9612184     
   2956819568.4748468     
   2898345834.1254168     
   2845893062.9862127     
   2799906284.8548732     
   2760927203.3268666     
   2849633984.9335546     
   2806765958.6690526     
   2769741063.9235430     
   2738892787.6399560     
   2714607041.8739324     
   2774212052.7752700     
   2744612156.0224171     
   2720376534.4698277     
   2701726569.1417708     
   2688906476.8550110     
   2731883103.6209469     
   2713095099.5689654     
   2698908265.6996317     
   2689447406.1428075     
   2684843718.8370228     
   2722902214.9612184     
   2712479311.5714760     
   2705649562.1670718     
   2702465963.4241996     
   2702981306.4689469     
   2760927203.3268666     
   2642894687.0341749     
   2526557417.4912295     
   2412246933.6646724     
   2300920871.7902827     
   2714607041.8739324     
   2599177284.4889917     
   2492181154.5653958     
   2394532584.8504734     
   2307332923.3307385     
   2688906476.8550110     
   2589385536.6071434     
   2505724764.3103795     
   2439352661.0489707     
   2391682108.6087503     
   2684843718.8370228     
   2611906285.3760390     
   2562349292.8513956     
   2537903525.3095670     
   2540298037.6777916     
   2702981306.4689469     
   2664072189.3408213     
   2656067920.2374878     
   2680871622.2718472     
   2740615914.5834761     
   1955036053.1373198     
   2119090814.1562765     
   2284480464.3117199     
   2448243915.2551327     
   2608424161.0191798     
   1653607141.1384408     
   1820023725.9697788     
   1988118490.5499477     
   2155193488.1252460     
   2319490557.1856751     
   1393513903.9075589     
   1570848955.3064108     
   1749174131.1088507     
   1926483523.7067711     
   2101525576.0407934     
   1207076070.5457227     
   1398998264.1039286     
   1590486297.5076439     
   1780761312.8336263     
   1969363388.0745068     
   1136962846.5325060     
   1335309458.3163576     
   1533953074.0117381     
   1732893700.3540742     
   1932131345.4618359     
   2608424161.0191798     
   2676209067.6041083     
   2748514379.4146185     
   2824829833.2322316     
   2904802121.6856270     
   2319490557.1856751     
   2406427085.2371144     
   2495809871.4288034     
   2587249815.7170825     
   2680471971.6545219     
   2101525576.0407934     
   2205173282.8038034     
   2308725616.5504675     
   2411947904.3925686     
   2514674132.0525942     
   1969363388.0745068     
   2086394183.7415783     
   2200555892.7431517     
   2311774792.4656987     
   2419999315.8728170     
   1932131345.4618359     
   2058632633.0490038     
   2179680360.3080745     
   2295274523.8687034     
   2405415139.2328634     
   2904802121.6856270     
   2919993179.6162219     
   2936489155.6035476     
   2954239117.1604104     
   2973205167.0050282     
   2680471971.6545219     
   2702218403.6652679     
   2726242554.0437984     
   2752527287.6128812     
   2781064138.3695168     
   2514674132.0525942     
   2542976115.6105275     
   2574562110.6776729     
   2609432168.0472503     
   2647590935.8671956     
   2419999315.8728170     
   2453452282.7341681     
   2491203598.2699003     
   2533255317.4650140     
   2579611290.8461738     
   2405415139.2328634     
   2441107537.8541479     
   2482110363.1588116     
   2528423921.6438484     
   2580048818.3546157     
   2973205167.0050282     
   2942513272.4730229     
   2919800849.3941216     
   2905215856.9638767     
   2898984274.6491961     
   2781064138.3695168     
   2765158866.8767910     
   2756716510.6571293     
   2755823284.6669617     
   2762599762.6967144     
   2647590935.8671956     
   2642665173.8868294     
   2644330212.7638774     
   2652621045.0014162     
   2667581428.9955425     
   2579611290.8461738     
   2581603021.7355995     
   2588973863.7769651     
   2601732005.2519684     
   2619885798.0439854     
   2580048818.3546157     
   2585092054.7837777     
   2594024021.7913890     
   2606848746.0921965     
   2623575886.2877326     
   2898984274.6491961     
   2870937823.0863423     
   2848605134.0453777     
   2832111336.5236273     
   2821588197.6975327     
   2762599762.6967144     
   2740701866.8633013     
   2725273339.2741842     
   2716405928.3910952     
   2714195867.3389273     
   2667581428.9955425     
   2650484757.0012312     
   2640638047.5325308     
   2638090941.9836707     
   2642896202.5797715     
   2619885798.0439854     
   2605480729.2678008     
   2599110908.1872039     
   2600787356.1280184     
   2610523852.3123164     
   2623575886.2877326     
   2609083816.3932991     
   2603396464.9491658     
   2606505201.3140345     
   2618404473.7565942     
   2821588197.6975327     
   2780903471.3812704     
   2750683982.6144114     
   2731240259.8550997     
   2722902214.9612184     
   2714195867.3389273     
   2684991042.6917853     
   2665874367.9230714     
   2657019016.8978724     
   2658604844.8325582     
   2642896202.5797715     
   2621881458.7672591     
   2610456585.7156005     
   2608694967.9964433     
   2616671322.8542323     
   2610523852.3123164     
   2594180581.7424073     
   2586837528.5439663     
   2588511475.4416971     
   2599219114.5205383     
   2618404473.7565942     
   2603236915.9990730     
   2596413405.6983924     
   2597934687.8120933     
   2607801696.0600028     
   2722902214.9612184     
   2712479311.5714760     
   2705649562.1670718     
   2702465963.4241996     
   2702981306.4689469     
   2658604844.8325582     
   2650284811.4121542     
   2645801035.5173888     
   2645173486.1682830     
   2648422332.4921637     
   2616671322.8542323     
   2608497556.7592287     
   2604374855.8355513     
   2604310959.0180202     
   2608318235.6187778     
   2599219114.5205383     
   2589028873.8784018     
   2583076250.9293814     
   2581380665.7107391     
   2583974575.9178014     
   2607801696.0600028     
   2593339174.2358470     
   2583265655.7345152     
   2577637561.6962361     
   2576537082.7134390     
   2702981306.4689469     
   2664072189.3408213     
   2656067920.2374878     
   2680871622.2718472     
   2740615914.5834761     
   2648422332.4921637     
   2630901976.3848848     
   2635695646.9536514     
   2663372020.2419605     
   2714592716.9373326     
   2608318235.6187778     
   2598180120.7357244     
   2602512878.9846029     
   2621370585.5178709     
   2654812797.0380764     
   2583974575.9178014     
   2569378521.8566017     
   2561806039.8386397     
   2561453258.8852353     
   2568571208.0140638     
   2576537082.7134390     
   2548561988.6930456     
   2520354604.2245893     
   2492860081.4823761     
   2467386847.3874259     
   1136962846.5325060     
   1335309458.3163576     
   1533953074.0117381     
   1732893700.3540742     
   1932131345.4618359     
   1207299797.9914546     
   1399324354.6986537     
   1590926272.1186442     
   1781330653.5107131     
   1970080333.1771548     
   1393916551.8240316     
   1571398968.4682004     
   1749900795.4703772     
   1927419937.3896558     
   2102707189.6232257     
   1654132569.7221873     
   1820675942.2153029     
   1988945271.3198678     
   2156244933.9816747     
   2320816862.3564782     
   1955644738.7994127     
   2119746211.2279224     
   2285243946.8704696     
   2449178008.0327339     
   2609588664.6801691     
   1932131345.4618359     
   2058632633.0490038     
   2179680360.3080745     
   2295274523.8687034     
   2405415139.2328634     
   1970080333.1771548     
   2087089398.5623403     
   2201228860.3978310     
   2312423068.2161551     
   2420619712.3690419     
   2102707189.6232257     
   2206379905.1942554     
   2309958056.6849613     
   2413205987.8897285     
   2515957267.4285412     
   2320816862.3564782     
   2407877746.8478432     
   2497391001.5113630     
   2588969828.1731143     
   2682340133.8485637     
   2609588664.6801691     
   2677625869.5261035     
   2750200089.2579389     
   2826808802.0071969     
   2907102074.2288990     
   2405415139.2328634     
   2441107537.8541479     
   2482110363.1588116     
   2528423921.6438484     
   2580048818.3546157     
   2420619712.3690419     
   2454946954.3390007     
   2493694485.6770520     
   2536866664.2921109     
   2584468050.1715102     
   2515957267.4285412     
   2545578243.0551982     
   2578704735.7282009     
   2615339803.4002018     
   2655490207.7275634     
   2682340133.8485637     
   2705361818.8263454     
   2730954121.7670059     
   2759101935.5490417     
   2789800597.1741161     
   2907102074.2288990     
   2923054157.1522741     
   2940641099.1720057     
   2959810110.1185799     
   2980527214.5844016     
   2580048818.3546157     
   2585092054.7837777     
   2594024021.7913890     
   2606848746.0921965     
   2623575886.2877326     
   2584468050.1715102     
   2585060313.1475487     
   2591160422.4771767     
   2602775141.9530454     
   2619920102.8714137     
   2655490207.7275634     
   2648880580.1658306     
   2649227404.0098019     
   2656563214.9167495     
   2670935867.6778750     
   2789800597.1741161     
   2772801562.2894335     
   2763972950.1854744     
   2763406441.9555955     
   2771221537.0348725     
   2980527214.5844016     
   2949876579.3627491     
   2928352489.4767179     
   2916138065.9809256     
   2913465733.1597981     
   2623575886.2877326     
   2609083816.3932991     
   2603396464.9491658     
   2606505201.3140345     
   2618404473.7565942     
   2619920102.8714137     
   2607861311.4889054     
   2603618412.9746056     
   2607205504.9953580     
   2618636944.0169911     
   2670935867.6778750     
   2658026944.0100284     
   2651853234.7631559     
   2652467152.1986132     
   2659921615.6951599     
   2771221537.0348725     
   2755022715.2855062     
   2744421456.9474888     
   2739506143.2761149     
   2740368498.6313920     
   2913465733.1597981     
   2892495417.9251075     
   2875960469.5414562     
   2863970014.5138378     
   2856640928.9302487     
   2618404473.7565942     
   2603236915.9990730     
   2596413405.6983924     
   2597934687.8120933     
   2607801696.0600028     
   2618636944.0169911     
   2602368354.9862957     
   2595293180.7123098     
   2597427708.6666102     
   2608788825.9650431     
   2659921615.6951599     
   2639401717.6598053     
   2628886746.0222464     
   2628447676.7244148     
   2638157060.1609263     
   2740368498.6313920     
   2712312021.7922306     
   2695019187.0574064     
   2688661726.4809313     
   2693416081.4955692     
   2856640928.9302487     
   2817866684.5618734     
   2790543041.4437761     
   2774988478.5409656     
   2771534472.8585730     
   2607801696.0600028     
   2593339174.2358470     
   2583265655.7345152     
   2577637561.6962361     
   2576537082.7134390     
   2608788825.9650431     
   2595400149.9603176     
   2586794176.7696791     
   2582998929.2243381     
   2584051099.4895530     
   2638157060.1609263     
   2625832824.4840384     
   2618782802.1186128     
   2617024201.1233921     
   2620575676.3369064     
   2693416081.4955692     
   2681896207.9385238     
   2676249868.9510055     
   2676504780.4740329     
   2682691932.4710989     
   2771534472.8585730     
   2760346769.4397497     
   2755753405.4722672     
   2757816584.8567114     
   2766611140.4800029     
   2576537082.7134390     
   2548561988.6930456     
   2520354604.2245893     
   2492860081.4823761     
   2467386847.3874259     
   2584051099.4895530     
   2556769376.4973536     
   2536562548.1866040     
   2523654127.8275323     
   2518326697.4198632     
   2620575676.3369064     
   2598102998.4126792     
   2590891176.8640962     
   2598999178.9370008     
   2622490614.8080840     
   2682691932.4710989     
   2666051535.4827137     
   2674120119.0065918     
   2707408129.3561106     
   2766465987.6552887     
   2766611140.4800029     
   2754433685.7267213     
   2778513102.8648772     
   2840443788.7492023     
   2941736207.3728123     
   1955644738.7994127     
   2119746211.2279224     
   2285243946.8704696     
   2449178008.0327339     
   2609588664.6801691     
   2299100995.9348302     
   2449795209.4517889     
   2605231962.0821743     
   2763486881.7734046     
   2923127919.7484078     
   2694988629.3634405     
   2830745561.5375214     
   2973818021.7682786     
   3123120343.6094546     
   3277738558.5502448     
   3138102257.6400895     
   3255651371.1551042     
   3382606828.0356636     
   3518494649.9014263     
   3662852891.7516108     
   3624955616.4438462     
   3719725314.8239150     
   3825723592.2688203     
   3942880310.2315302     
   4071096804.4078851     
   2609588664.6801691     
   2677625869.5261035     
   2750200089.2579389     
   2826808802.0071969     
   2907102074.2288990     
   2923127919.7484078     
   2976108954.8423433     
   3031351511.7684608     
   3088178801.5488086     
   3146061397.1724982     
   3277738558.5502448     
   3320947371.8545542     
   3364441291.8851171     
   3407401081.8897333     
   3449151276.6177936     
   3662852891.7516108     
   3702120880.4995522     
   3740051513.9973688     
   3775747120.5470767     
   3808458830.2576895     
   4071096804.4078851     
   4112260383.0198984     
   4150816502.9709301     
   4185865159.3875422     
   4216671957.8807635     
   2907102074.2288990     
   2923054157.1522741     
   2940641099.1720057     
   2959810110.1185799     
   2980527214.5844016     
   3146061397.1724982     
   3142889861.5942020     
   3143439294.8252749     
   3147610603.8990288     
   3155396861.6472692     
   3449151276.6177936     
   3423105002.7354889     
   3402120639.3249683     
   3385968560.5913072     
   3374637482.3044791     
   3808458830.2576895     
   3755508907.8934174     
   3708401781.5842056     
   3666661243.8602257     
   3630189217.1573157     
   4216671957.8807635     
   4132544574.3692899     
   4054691306.3068199     
   3982258901.9480858     
   3914941688.8617754     
   2980527214.5844016     
   2949876579.3627491     
   2928352489.4767179     
   2916138065.9809256     
   2913465733.1597981     
   3155396861.6472692     
   3109866104.4794526     
   3071792086.5958395     
   3041427078.8441730     
   3019074426.3564682     
   3374637482.3044791     
   3314371944.8860230     
   3260032593.2126985     
   3211888217.8086071     
   3170257678.6779194     
   3630189217.1573157     
   3556267841.5289378     
   3486931677.5814672     
   3422424937.7204757     
   3363036186.4460945     
   3914941688.8617754     
   3828996282.5692310     
   3746517254.6068735     
   3667700867.7242641     
   3592778442.7270422     
   2913465733.1597981     
   2892495417.9251075     
   2875960469.5414562     
   2863970014.5138378     
   2856640928.9302487     
   3019074426.3564682     
   2984991351.0791793     
   2955857125.7813849     
   2931843134.5296788     
   2913140077.4309154     
   3170257678.6779194     
   3121701151.1433315     
   3078360477.2977114     
   3040466707.4767756     
   3008288132.0145798     
   3363036186.4460945     
   3298796077.1817017     
   3239811863.3449774     
   3186360974.0744028     
   3138780985.6600609     
   3592778442.7270422     
   3511756355.9693012     
   3435842522.8735538     
   3365340147.3785014     
   3300637849.3946590     
   2856640928.9302487     
   2817866684.5618734     
   2790543041.4437761     
   2774988478.5409656     
   2771534472.8585730     
   2913140077.4309154     
   2859442966.6906352     
   2815741850.3101902     
   2782476202.6948032     
   2760114578.2203717     
   3008288132.0145798     
   2938454241.9437780     
   2877052604.3053851     
   2824594671.9656162     
   2781642459.8585167     
   3138780985.6600609     
   3052790236.8456392     
   2973606217.7633419     
   2901746264.1271787     
   2837796127.2786551     
   3300637849.3946590     
   3199436527.3372841     
   3103441967.1745825     
   3013116211.4992161     
   2928996078.9911566     
   2771534472.8585730     
   2760346769.4397497     
   2755753405.4722672     
   2757816584.8567114     
   2766611140.4800029     
   2760114578.2203717     
   2739137777.2093120     
   2724814145.7951097     
   2717250357.4795914     
   2716563412.5581250     
   2781642459.8585167     
   2748602093.7872863     
   2722123722.0329733     
   2702379827.6170044     
   2689557089.8877034     
   2837796127.2786551     
   2790832638.1567850     
   2750151388.6006851     
   2715998507.4763193     
   2688646162.4188538     
   2928996078.9911566     
   2866783559.7504854     
   2810376458.5282531     
   2760084737.6592798     
   2716263506.5897212     
   2766611140.4800029     
   2754433685.7267213     
   2778513102.8648772     
   2840443788.7492023     
   2941736207.3728123     
   2716563412.5581250     
   2679566956.9387579     
   2669058553.6319733     
   2686384723.3776073     
   2732589176.3458166     
   2689557089.8877034     
   2620957994.3257222     
   2567932664.7334924     
   2531737124.4013405     
   2513514897.8911328     
   2688646162.4188538     
   2587508031.1466236     
   2489470124.2570658     
   2395693032.7551517     
   2307857284.4760880     
   2716263506.5897212     
   2588767050.0452595     
   2451789173.7962842     
   2306779887.0070910     
   2156829749.3249841     
   3624955616.4438462     
   3719725314.8239150     
   3825723592.2688203     
   3942880310.2315302     
   4071096804.4078851     
   4133958324.9728508     
   4224309474.4937272     
   4320564671.7351923     
   4421066055.8590975     
   4524358543.3844814     
   4643209809.2215471     
   4755390691.0983963     
   4868687421.2789364     
   4980469317.5570698     
   5088814716.7138968     
   5151189802.1170540     
   5311143186.8080702     
   5467730937.7746429     
   5618065589.0509777     
   5760686680.7374687     
   5657632506.6472149     
   5890727702.9990196     
   6116198042.7279701     
   6331594070.1261721     
   6536696745.3720303     
   4071096804.4078851     
   4112260383.0198984     
   4150816502.9709301     
   4185865159.3875422     
   4216671957.8807635     
   4524358543.3844814     
   4538831095.9165049     
   4557983332.8193541     
   4579333563.6392918     
   4601158005.7381144     
   5088814716.7138968     
   5053821764.0707235     
   5029325956.6035662     
   5010119673.4438696     
   4993001440.9776773     
   5760686680.7374687     
   5651897614.0143089     
   5559078033.3445511     
   5473166154.2663631     
   5388620235.0170650     
   6536696745.3720303     
   6328458165.1108952     
   6142367509.0138359     
   5964517908.5586681     
   5785899859.1227827     
   4216671957.8807635     
   4132544574.3692899     
   4054691306.3068199     
   3982258901.9480858     
   3914941688.8617754     
   4601158005.7381144     
   4493264733.6509085     
   4389495218.2885456     
   4289530636.1075048     
   4193274570.8293338     
   4993001440.9776773     
   4866502016.7716875     
   4743193093.1977291     
   4623041725.0980387     
   4506086338.2575321     
   5388620235.0170650     
   5248263850.2804155     
   5111202980.2563629     
   4977478823.5059376     
   4847186714.9861765     
   5785899859.1227827     
   5635860190.9733868     
   5490143507.8217392     
   5348664391.8398218     
   5211475761.3133783     
   3914941688.8617754     
   3828996282.5692310     
   3746517254.6068735     
   3667700867.7242641     
   3592778442.7270422     
   4193274570.8293338     
   4095409795.1182156     
   4000608541.4553499     
   3909074881.6418066     
   3821069943.3585944     
   4506086338.2575321     
   4394562100.2655077     
   4285490789.3117824     
   4179054088.1238976     
   4075518513.8216987     
   4847186714.9861765     
   4720371109.8234968     
   4595255720.3888302     
   4471967500.0067730     
   4350748033.9888687     
   5211475761.3133783     
   5067827129.2509127     
   4925041287.8375101     
   4783158325.5297909     
   4642361926.0564213     
   3592778442.7270422     
   3511756355.9693012     
   3435842522.8735538     
   3365340147.3785014     
   3300637849.3946590     
   3821069943.3585944     
   3726251962.8639297     
   3635415472.8942695     
   3548829716.4322600     
   3466836741.3541293     
   4075518513.8216987     
   3968175075.4148469     
   3863918066.5490632     
   3762967638.4725113     
   3665602221.8255744     
   4350748033.9888687     
   4232320389.6823578     
   4116313318.8063822     
   4002893804.7547169     
   3892273159.1326485     
   4642361926.0564213     
   4514339196.8248301     
   4388284904.8282528     
   4264315116.6646247     
   4142578692.6994424     
   3300637849.3946590     
   3199436527.3372841     
   3103441967.1745825     
   3013116211.4992161     
   2928996078.9911566     
   3466836741.3541293     
   3350885120.6550651     
   3239947157.7358141     
   3134509963.3481731     
   3035161974.7468762     
   3665602221.8255744     
   3534271783.8842945     
   3407639403.6653233     
   3286198070.6781521     
   3170567958.3723259     
   3892273159.1326485     
   3744823663.6698899     
   3601670154.4342752     
   3463295447.9383655     
   3330333246.3934751     
   4142578692.6994424     
   3978153476.4802213     
   3817565177.4275961     
   3661274221.5160728     
   3509912809.2107420     
   2928996078.9911566     
   2866783559.7504854     
   2810376458.5282531     
   2760084737.6592798     
   2716263506.5897212     
   3035161974.7468762     
   2962866103.3109312     
   2894121998.3528872     
   2829202174.5732107     
   2768420668.9633398     
   3170567958.3723259     
   3090050513.0633225     
   3011075574.3375826     
   2933839693.2694354     
   2858573836.1707220     
   3330333246.3934751     
   3244329779.7962804     
   3158181361.9771638     
   3072010511.8062253     
   2985970252.1808205     
   3509912809.2107420     
   3421714824.0878711     
   3332052167.9491782     
   3241009735.9931488     
   3148710341.0385160     
   2716263506.5897212     
   2588767050.0452595     
   2451789173.7962842     
   2306779887.0070910     
   2156829749.3249841     
   2768420668.9633398     
   2629628132.0375338     
   2490607928.6773758     
   2352147784.1862597     
   2215476728.6220784     
   2858573836.1707220     
   2704723917.8483434     
   2559551006.9887633     
   2423996450.1235623     
   2299346276.8049178     
   2985970252.1808205     
   2807152076.0814610     
   2645076528.8833938     
   2502312146.5205708     
   2382836559.1306386     
   3148710341.0385160     
   2930237392.4230804     
   2736110944.9753385     
   2572887486.9376750     
   2450978415.9869142     
   5657632506.6472149     
   5890727702.9990196     
   6116198042.7279701     
   6331594070.1261721     
   6536696745.3720303     
   6491552916.2999983     
   6586719090.0805416     
   6757217082.3049469     
   6960967894.2257805     
   7171314163.3584127     
   7982245291.9736719     
   7734819090.8927345     
   7668949209.0107269     
   7669321050.9564180     
   7666006830.5900230     
   10130159338.944935     
   9321861803.3381653     
   8826202964.3812675     
   8443323318.3162212     
   8035413959.9341288     
   12935383725.700100     
   11340558053.236338     
   10210142258.721977     
   9272748049.5485039     
   8303929754.1416197     
   6536696745.3720303     
   6328458165.1108952     
   6142367509.0138359     
   5964517908.5586681     
   5785899859.1227827     
   7171314163.3584127     
   6910610706.0514917     
   6657815012.7749500     
   6409071819.4764147     
   6161236443.0093422     
   7666006830.5900230     
   7380693844.1183634     
   7100816594.7976866     
   6826453083.2722054     
   6557809124.3218756     
   8035413959.9341288     
   7746361435.7878847     
   7473051154.0708647     
   7213516876.6631002     
   6967769794.3484697     
   8303929754.1416197     
   8020181727.0109119     
   7778640104.1944065     
   7568604701.8903408     
   7385113254.2567692     
   5785899859.1227827     
   5635860190.9733868     
   5490143507.8217392     
   5348664391.8398218     
   5211475761.3133783     
   6161236443.0093422     
   6012573056.8118992     
   5865251496.1121674     
   5719311632.3444767     
   5574811452.8604183     
   6557809124.3218756     
   6407663520.5041847     
   6255799587.3999872     
   6102183429.1041832     
   5946844846.8064737     
   6967769794.3484697     
   6814676090.9247971     
   6656802119.9641247     
   6493859608.1177578     
   6325803400.0970840     
   7385113254.2567692     
   7228617900.4065533     
   7064386645.2831450     
   6891721162.7989883     
   6710455568.5706692     
   5211475761.3133783     
   5067827129.2509127     
   4925041287.8375101     
   4783158325.5297909     
   4642361926.0564213     
   5574811452.8604183     
   5413172278.1567173     
   5252574343.0622587     
   5093064263.0430861     
   4934752577.7701111     
   5946844846.8064737     
   5770478961.3699255     
   5595756363.9940586     
   5422708005.1349831     
   5251406808.6583433     
   6325803400.0970840     
   6137395067.7197542     
   5951598245.4026756     
   5768394201.9102802     
   5587829827.0682383     
   6710455568.5706692     
   6512137190.6995745     
   6317729423.7747011     
   6127119332.0856209     
   5940318387.7195711     
   4642361926.0564213     
   4514339196.8248301     
   4388284904.8282528     
   4264315116.6646247     
   4142578692.6994424     
   4934752577.7701111     
   4798532598.3205767     
   4663299810.8360491     
   4529154144.2240801     
   4396227496.6196566     
   5251406808.6583433     
   5106848532.8948240     
   4962303907.4970036     
   4817839132.5782766     
   4673556567.7274237     
   5587829827.0682383     
   5434968542.5643682     
   5281182652.7607021     
   5126491636.2748232     
   4970959608.9217997     
   5940318387.7195711     
   5779319111.9677343     
   5616513537.8217545     
   5451865562.6486998     
   5285396065.1906319     
   4142578692.6994424     
   3978153476.4802213     
   3817565177.4275961     
   3661274221.5160728     
   3509912809.2107420     
   4396227496.6196566     
   4214565898.6059089     
   4035425507.2425337     
   3859095567.8966966     
   3685986489.0494895     
   4673556567.7274237     
   4477808041.6733198     
   4283666649.2269268     
   4091283307.1982079     
   3900883720.0165334     
   4970959608.9217997     
   4764224906.4711809     
   4558556693.6215878     
   4354011725.6425924     
   4150687318.8680091     
   5285396065.1906319     
   5070642362.4936066     
   4856739452.5206642     
   4643692005.5255041     
   4431525042.1610155     
   3509912809.2107420     
   3421714824.0878711     
   3332052167.9491782     
   3241009735.9931488     
   3148710341.0385160     
   3685986489.0494895     
   3592359960.0513215     
   3499214291.9530430     
   3406647791.4226332     
   3314790940.0386114     
   3900883720.0165334     
   3796275115.9361229     
   3693185717.9422169     
   3591687193.2304258     
   3491936458.6501327     
   4150687318.8680091     
   4028586619.6357832     
   3908217114.5738316     
   3789620879.6552634     
   3673035884.3148713     
   4431525042.1610155     
   4284843356.2921066     
   4139412512.6129436     
   3995255171.9737167     
   3852751687.7880073     
   3148710341.0385160     
   2930237392.4230804     
   2736110944.9753385     
   2572887486.9376750     
   2450978415.9869142     
   3314790940.0386114     
   3057594640.1375723     
   2810368034.2104774     
   2576105187.5174217     
   2359338680.4491796     
   3491936458.6501327     
   3221300212.9346700     
   2948840358.0458059     
   2674405480.5315189     
   2397911231.5746541     
   3673035884.3148713     
   3419804546.0505953     
   3157300757.9869566     
   2885835932.3171325     
   2607636985.2840776     
   3852751687.7880073     
   3650994666.8285389     
   3437981236.8256569     
   3219209458.7319531     
   3006692273.2197971     
 </DataArray>
 <DataArray  type="Float64" Name="strain" NumberOfComponents="3" format="ascii">
  0.20348409924884214        0.0000000000000000       0.12540658075773986     
  0.18665863478564257       -2.7326797895106933E-002   7.4354160671970218E-002
  0.16983317032244305       -4.4678884317836849E-002   3.5133087444871799E-002
  0.15300770585924350       -5.2056259268189797E-002   7.7433610764445701E-003
  0.13618224139604393       -4.9458922746165729E-002  -7.8150184333114769E-003
  0.15985725919142846        0.0000000000000000        9.6447457016346536E-002
  0.15318193443764069       -2.1846338872732216E-002   6.2690477877103135E-002
  0.14650660968385290       -3.6177167787946475E-002   3.7402431298012059E-002
  0.13983128493006511       -4.2992486745642745E-002   2.0583317279073338E-002
  0.13315596017627734       -4.2292295745821044E-002   1.2233135820286935E-002
  0.12646195651485301        0.0000000000000000        7.4198393054757450E-002
  0.12657435717195811       -1.6365879850357503E-002   5.5277653347181252E-002
  0.12668675782906322       -2.7675451258056066E-002   4.1463431901238523E-002
  0.12679915848616832       -3.3928714223095700E-002   3.2755728716929243E-002
  0.12691155914327340       -3.5125668745476374E-002   2.9154543794253411E-002
  0.10329819121911571        0.0000000000000000        5.8659388872972590E-002
  0.10683590298859486       -1.0885420827982792E-002   5.2115687082204556E-002
  0.11037361475807397       -1.9173734728165671E-002   4.7316089254551129E-002
  0.11391132652755312       -2.4864941700548648E-002   4.4260595390012286E-002
  0.11744903829703222       -2.7959041745131714E-002   4.2949205488587973E-002
   9.0365963304216618E-002   0.0000000000000000        4.9830444470991955E-002
   9.3966571887550893E-002  -5.4049618056080757E-003   5.3204579082173076E-002
   9.7567180470885154E-002  -1.0672018198275280E-002   5.4960403357949883E-002
  0.10116778905421941       -1.5801169178001600E-002   5.5097917298322439E-002
  0.10476839763755372       -2.0792414744787040E-002   5.3617120903290690E-002
  0.13618224139604393       -4.9458922746165729E-002  -7.8150184333114769E-003
  0.13296791872514258       -4.2923271168472492E-002  -3.3992423625283305E-003
  0.12975359605424119       -3.8485700951817865E-002  -3.9294336865339230E-004
  0.12653927338333987       -3.6146212096201925E-002   1.2038785483133203E-003
  0.12332495071243846       -3.5904804601624735E-002   1.3912233883716651E-003
  0.13315596017627734       -4.2292295745821044E-002   1.2233135820286935E-002
  0.12891945181930667       -3.8425862665749336E-002   1.2177529889643404E-002
  0.12468294346233605       -3.5742455382695576E-002   1.1487029663769611E-002
  0.12044643510536540       -3.4242073896659744E-002   1.0161635142665418E-002
  0.11620992674839475       -3.3924718207641896E-002   8.2013463263309466E-003
  0.12691155914327340       -3.5125668745476374E-002   2.9154543794253411E-002
  0.12242744788191143       -3.3928454163026214E-002   2.5542611426203947E-002
  0.11794333662054943       -3.2999209813573266E-002   2.2070367544602124E-002
  0.11345922535918745       -3.2337935697117536E-002   1.8737812149447856E-002
  0.10897511409782543       -3.1944631813659072E-002   1.5544945240741355E-002
  0.11744903829703222       -2.7959041745131714E-002   4.2949205488587973E-002
  0.11349190691295680       -2.9431045660303086E-002   3.6696002247153317E-002
  0.10953477552888133       -3.0255964244450956E-002   3.1357070273844177E-002
  0.10557764414480592       -3.0433797497575337E-002   2.6932409568660626E-002
  0.10162051276073047       -2.9964545419676213E-002   2.3422020131602495E-002
  0.10476839763755372       -2.0792414744787040E-002   5.3617120903290690E-002
  0.10211282891244274       -2.4933637157579944E-002   4.5637702352491510E-002
   9.9457260187331795E-002  -2.7512718675328646E-002   3.9347137851495802E-002
   9.6801691462220840E-002  -2.8529659298033094E-002   3.4745427400303598E-002
   9.4146122737109900E-002  -2.7984459025693395E-002   3.1832570998914775E-002
  0.12332495071243846       -3.5904804601624735E-002   1.3912233883716651E-003
  0.12041859984286418       -3.6404534760882915E-002   6.5681271528506002E-004
  0.11751224897328995       -3.6288458866773045E-002   1.0405543847620546E-004
  0.11460589810371569       -3.5556576919295417E-002  -2.6704844205469036E-004
  0.11169954723414144       -3.4208888918449920E-002  -4.5649892630778011E-004
  0.11620992674839475       -3.3924718207641896E-002   8.2013463263309466E-003
  0.11347289852671646       -3.4001493472736954E-002   7.8401011894168315E-003
  0.11073587030503818       -3.3683504849040133E-002   7.6358479520166125E-003
  0.10799884208335991       -3.2970752336551098E-002   7.5885866141305741E-003
  0.10526181386168160       -3.1863235935270157E-002   7.6983171757586399E-003
  0.10897511409782543       -3.1944631813659072E-002   1.5544945240741355E-002
  0.10638274702727933       -3.1598452184591126E-002   1.5335823475423727E-002
  0.10379037995673325       -3.1078550831306995E-002   1.5259032112856254E-002
  0.10119801288618716       -3.0384927753806714E-002   1.5314571153039408E-002
   9.8605645815641116E-002  -2.9517582952090365E-002   1.5502440595972666E-002
  0.10162051276073047       -2.9964545419676213E-002   2.3422020131602495E-002
   9.9148145344552810E-002  -2.9195410896445218E-002   2.3143979573305568E-002
   9.6675777928375145E-002  -2.8473596813573969E-002   2.2973607920995297E-002
   9.4203410512197508E-002  -2.7799103171062475E-002   2.2910905174671429E-002
   9.1731043096019829E-002  -2.7171929968910644E-002   2.2955871334334209E-002
   9.4146122737109900E-002  -2.7984459025693395E-002   3.1832570998914775E-002
   9.1769093478536901E-002  -2.6792369608299352E-002   3.1264569483062665E-002
   8.9392064219963929E-002  -2.5868642795840908E-002   3.0779575376433325E-002
   8.7015034961390916E-002  -2.5213278588318126E-002   3.0377588679026821E-002
   8.4638005702817959E-002  -2.4826276985730894E-002   3.0058609390843066E-002
  0.11169954723414144       -3.4208888918449920E-002  -4.5649892630778011E-004
  0.10853587479182841       -3.2681064117328074E-002  -2.0518523849130665E-004
  0.10537220234951541       -3.1408771769021321E-002   1.1845045600628046E-004
  0.10220852990720243       -3.0392011873530293E-002   5.1440815718536981E-004
   9.9044857464889391E-002  -2.9630784430854373E-002   9.8268786504551731E-004
  0.10526181386168160       -3.1863235935270157E-002   7.6983171757586399E-003
  0.10219730953073392       -3.0636666402415663E-002   7.5519472554484157E-003
   9.9132805199786289E-002  -2.9566754495206050E-002   7.5315915511873915E-003
   9.6068300868838621E-002  -2.8653500213641443E-002   7.6372500629759699E-003
   9.3003796537890981E-002  -2.7896903557721897E-002   7.8689227908138037E-003
   9.8605645815641116E-002  -2.9517582952090365E-002   1.5502440595972666E-002
   9.5694001805426906E-002  -2.8592268687503253E-002   1.5057261894705902E-002
   9.2782357795212766E-002  -2.7724737221390724E-002   1.4791789618856584E-002
   8.9870713784998557E-002  -2.6914988553752819E-002   1.4706023768425100E-002
   8.6959069774784389E-002  -2.6163022684589504E-002   1.4799964343410868E-002
   9.1731043096019829E-002  -2.7171929968910644E-002   2.2955871334334209E-002
   8.9025951615907303E-002  -2.6547870972590815E-002   2.2310758679281249E-002
   8.6320860135794791E-002  -2.5882719947575315E-002   2.1899044659014127E-002
   8.3615768655682224E-002  -2.5176476893864083E-002   2.1720729273532600E-002
   8.0910677175569753E-002  -2.4429141811457153E-002   2.1775812522836818E-002
   8.4638005702817959E-002  -2.4826276985730894E-002   3.0058609390843066E-002
   8.2193158962175189E-002  -2.4503473257678432E-002   2.9312437609174444E-002
   7.9748312221532405E-002  -2.4040702673759989E-002   2.8853356671659697E-002
   7.7303465480889622E-002  -2.3437965233975282E-002   2.8681366578298735E-002
   7.4858618740246824E-002  -2.2695260938324663E-002   2.8796467329091802E-002
   9.9044857464889391E-002  -2.9630784430854373E-002   9.8268786504551731E-004
   9.6288543404129623E-002  -2.8934597761955005E-002   6.4867502778376274E-004
   9.3532229343369772E-002  -2.8112960187792982E-002   4.9404016537793471E-004
   9.0775915282609990E-002  -2.7165871708368514E-002   5.1878327782817202E-004
   8.8019601221850152E-002  -2.6093332323681495E-002   7.2290436513433587E-004
   9.3003796537890981E-002  -2.7896903557721897E-002   7.8689227908138037E-003
   9.0421136641808397E-002  -2.7175796276657282E-002   7.6310851978640404E-003
   8.7838476745725896E-002  -2.6369010119657296E-002   7.5611779594130513E-003
   8.5255816849643298E-002  -2.5476545086722448E-002   7.6592010754605311E-003
   8.2673156953560756E-002  -2.4498401177852458E-002   7.9251545460067296E-003
   8.6959069774784389E-002  -2.6163022684589504E-002   1.4799964343410868E-002
   8.4538616423021795E-002  -2.5416994791359643E-002   1.4618529965445895E-002
   8.2118163071259215E-002  -2.4625060051521881E-002   1.4593578321622079E-002
   7.9697709719496634E-002  -2.3787218465076379E-002   1.4725109411939555E-002
   7.7277256367733971E-002  -2.2903470032023032E-002   1.5013123236398584E-002
   8.0910677175569753E-002  -2.4429141811457153E-002   2.1775812522836818E-002
   7.8640982747769789E-002  -2.3658193306061989E-002   2.1611009330529302E-002
   7.6371288319969755E-002  -2.2881109983386442E-002   2.1591241252005511E-002
   7.4101593892169776E-002  -2.2097891843430424E-002   2.1716508287265946E-002
   7.1831899464369797E-002  -2.1308538886193801E-002   2.1986810436310053E-002
   7.4858618740246824E-002  -2.2695260938324663E-002   2.8796467329091802E-002
   7.2728235616052184E-002  -2.1899391820764447E-002   2.8608523293114085E-002
   7.0597852491857502E-002  -2.1137159915251037E-002   2.8554166750563173E-002
   6.8467469367662820E-002  -2.0408565221784393E-002   2.8633397701438808E-002
   6.6337086243468124E-002  -1.9713607740364625E-002   2.8846216145741010E-002
   8.8019601221850152E-002  -2.6093332323681495E-002   7.2290436513433587E-004
   8.4497056828159223E-002  -2.5024594639319164E-002   6.9315597431462983E-004
   8.0974512434468404E-002  -2.4088911260867818E-002   7.3696725358796122E-004
   7.7451968040777502E-002  -2.3286282188327526E-002   8.5433820295469087E-004
   7.3929423647086656E-002  -2.2616707421698745E-002   1.0452688224147355E-003
   8.2673156953560756E-002  -2.4498401177852458E-002   7.9251545460067296E-003
   7.9248671466755766E-002  -2.3524519589634002E-002   7.7568201628671340E-003
   7.5824185979950692E-002  -2.2644841518653799E-002   7.7110439234058248E-003
   7.2399700493145661E-002  -2.1859366964911708E-002   7.7878258276227047E-003
   6.8975215006340573E-002  -2.1168095928408071E-002   7.9871658755178432E-003
   7.7277256367733971E-002  -2.2903470032023032E-002   1.5013123236398584E-002
   7.3999828261399725E-002  -2.2024444539948618E-002   1.4745053649612247E-002
   7.0722400155065521E-002  -2.1200771776439559E-002   1.4648540680089153E-002
   6.7444972048731205E-002  -2.0432451741495668E-002   1.4723584327829067E-002
   6.4167543942396987E-002  -1.9719484435117507E-002   1.4970184592832475E-002
   7.1831899464369797E-002  -2.1308538886193801E-002   2.1986810436310053E-002
   6.8750527212091281E-002  -2.0524369490263233E-002   2.1657856434549653E-002
   6.5669154959812737E-002  -1.9756702034225374E-002   2.1549457523637641E-002
   6.2587782707534220E-002  -1.9005536518079628E-002   2.1661613703573643E-002
   5.9506410455255669E-002  -1.8270872941826555E-002   2.1994324974357861E-002
   6.6337086243468124E-002  -1.9713607740364625E-002   2.8846216145741010E-002
   6.3500768318830336E-002  -1.9024294440578099E-002   2.8495228517679716E-002
   6.0664450394192493E-002  -1.8312632292011050E-002   2.8413794454051622E-002
   5.7828132469554622E-002  -1.7578621294663775E-002   2.8601913954856534E-002
   5.4991814544916806E-002  -1.6822261448535991E-002   2.9059587020094813E-002
   7.3929423647086656E-002  -2.2616707421698745E-002   1.0452688224147355E-003
   7.1474853644472036E-002  -2.1888126054019019E-002   1.9959685424131290E-004
   6.9020283641857416E-002  -2.0908477178326307E-002  -1.2232314822707702E-004
   6.6565713639242824E-002  -1.9677760794620962E-002   7.9508815008844103E-005
   6.4111143636628176E-002  -1.8195976902902644E-002   8.0509274395001995E-004
   6.8975215006340573E-002  -2.1168095928408071E-002   7.9871658755178432E-003
   6.6974503339547520E-002  -2.0438234028847146E-002   7.4293642299471108E-003
   6.4973791672754438E-002  -1.9536986885932556E-002   7.2555272903140899E-003
   6.2973080005961427E-002  -1.8464354499664722E-002   7.4656550566197938E-003
   6.0972368339168304E-002  -1.7220336870043873E-002   8.0597475288639586E-003
   6.4167543942396987E-002  -1.9719484435117507E-002   1.4970184592832475E-002
   6.2480903351659012E-002  -1.8988342003674885E-002   1.4620571005203920E-002
   6.0794262760921078E-002  -1.8165496593538596E-002   1.4515134863747503E-002
   5.9107622170183123E-002  -1.7250948204708596E-002   1.4653876168462872E-002
   5.7420981579445141E-002  -1.6244696837185046E-002   1.5036794919350532E-002
   5.9506410455255669E-002  -1.8270872941826555E-002   2.1994324974357861E-002
   5.7994053680806470E-002  -1.7538449978502763E-002   2.1773217180012745E-002
   5.6481696906357196E-002  -1.6794006301144852E-002   2.1656499572072992E-002
   5.4969340131907955E-002  -1.6037541909752637E-002   2.1644172150538717E-002
   5.3456983357458722E-002  -1.5269056804326248E-002   2.1736234915410040E-002
   5.4991814544916806E-002  -1.6822261448535991E-002   2.9059587020094813E-002
   5.3513954326989910E-002  -1.6088557953330723E-002   2.8887302754372957E-002
   5.2036094109062930E-002  -1.5422516008750956E-002   2.8679621415290374E-002
   5.0558233891136020E-002  -1.4824135614796497E-002   2.8436543002846620E-002
   4.9080373673209110E-002  -1.4293416771467560E-002   2.8158067517042196E-002
   6.4111143636628176E-002  -1.8195976902902644E-002   8.0509274395001995E-004
   6.0490014625017130E-002  -1.6982577372985919E-002   1.7662349305500591E-003
   5.6868885613406084E-002  -1.6557014074686599E-002   1.8555128300826174E-003
   5.3247756601795065E-002  -1.6919287008004359E-002   1.0729264425481944E-003
   4.9626627590183992E-002  -1.8069396172939456E-002  -5.8152423205370951E-004
   6.0972368339168304E-002  -1.7220336870043873E-002   8.0597475288639586E-003
   5.6683842086423242E-002  -1.6140997019998160E-002   8.1684567820738962E-003
   5.2395315833678235E-002  -1.5562397972457231E-002   7.8142358400825618E-003
   4.8106789580933174E-002  -1.5484539727421295E-002   6.9970847028918426E-003
   4.3818263328188167E-002  -1.5907422284889616E-002   5.7170033704998513E-003
   5.7420981579445141E-002  -1.6244696837185046E-002   1.5036794919350532E-002
   5.2873992177433160E-002  -1.5299416667010624E-002   1.4580166668282213E-002
   4.8327002775421138E-002  -1.4567781870228183E-002   1.4069542313880176E-002
   4.3780013373409261E-002  -1.4049792446838006E-002   1.3504921856145304E-002
   3.9233023971397107E-002  -1.3745448396839555E-002   1.2886305295076395E-002
   5.3456983357458722E-002  -1.5269056804326248E-002   2.1736234915410040E-002
   4.9060464898046816E-002  -1.4457836314022754E-002   2.1001364589176078E-002
   4.4663946438634958E-002  -1.3573165767998864E-002   2.0621432251475880E-002
   4.0267427979223197E-002  -1.2615045166254385E-002   2.0596437902309361E-002
   3.5870909519811187E-002  -1.1583474508789604E-002   2.0926381541676004E-002
   4.9080373673209110E-002  -1.4293416771467560E-002   2.8158067517042196E-002
   4.5243260248264361E-002  -1.3616255961035273E-002   2.7432050544755282E-002
   4.1406146823319639E-002  -1.2578549665769351E-002   2.7469905652868831E-002
   3.7569033398374932E-002  -1.1180297885671188E-002   2.8271632841383537E-002
   3.3731919973430169E-002  -9.4215006207396534E-003   2.9837232110298650E-002
   9.0365963304216618E-002   0.0000000000000000        4.9830444470991955E-002
   9.3966571887550893E-002  -5.4049618056080757E-003   5.3204579082173076E-002
   9.7567180470885154E-002  -1.0672018198275280E-002   5.4960403357949883E-002
  0.10116778905421941       -1.5801169178001600E-002   5.5097917298322439E-002
  0.10476839763755372       -2.0792414744787040E-002   5.3617120903290690E-002
   8.2427656143143638E-002   0.0000000000000000        4.4778237173409050E-002
   8.4638952557840583E-002  -4.5748977107846860E-003   4.8262229156944246E-002
   8.6850248972537514E-002  -9.0385906769641453E-003   5.0585907138609082E-002
   8.9061545387234445E-002  -1.3391078898538361E-002   5.1749271118403502E-002
   9.1272841801931390E-002  -1.7632362375507363E-002   5.1752321096327589E-002
   7.4245653108884729E-002   0.0000000000000000        4.0569444304817355E-002
   7.5525633688478255E-002  -3.7448336159612941E-003   4.4136592992370993E-002
   7.6805614268071767E-002  -7.4051631556530054E-003   4.7001424011588161E-002
   7.8085594847665279E-002  -1.0980988619075130E-002   4.9163937362468865E-002
   7.9365575427258792E-002  -1.4472310006227673E-002   5.0624133045013120E-002
   6.5819954201439893E-002   0.0000000000000000        3.7204065865216879E-002
   6.6626615279463910E-002  -2.9147695211379030E-003   4.0827670588453296E-002
   6.7433276357487915E-002  -5.7717356343418682E-003   4.4206953976887169E-002
   6.8239937435511933E-002  -8.5708983396118980E-003   4.7341916030518481E-002
   6.9046598513535951E-002  -1.1312257636947990E-002   5.0232556749347304E-002
   5.7150559420809113E-002   0.0000000000000000        3.4682101854607614E-002
   5.7941897330797548E-002  -2.0847054263145124E-003   3.8335461945191163E-002
   5.8733235240785983E-002  -4.1383081130307326E-003   4.2202497034506098E-002
   5.9524573150774418E-002  -6.1608080601486589E-003   4.6283207122552392E-002
   6.0315911060762839E-002  -8.1522052676683034E-003   5.0577592209330086E-002
  0.10476839763755372       -2.0792414744787040E-002   5.3617120903290690E-002
  0.10211282891244274       -2.4933637157579944E-002   4.5637702352491510E-002
   9.9457260187331795E-002  -2.7512718675328646E-002   3.9347137851495802E-002
   9.6801691462220840E-002  -2.8529659298033094E-002   3.4745427400303598E-002
   9.4146122737109900E-002  -2.7984459025693395E-002   3.1832570998914775E-002
   9.1272841801931390E-002  -1.7632362375507363E-002   5.1752321096327589E-002
   9.0068449327583969E-002  -2.1207976636505567E-002   4.6514651498628580E-002
   8.8864056853236562E-002  -2.3563457210167473E-002   4.2490480352653050E-002
   8.7659664378889127E-002  -2.4698804096493016E-002   3.9679807658401220E-002
   8.6455271904541720E-002  -2.4614017295482279E-002   3.8082633415872993E-002
   7.9365575427258792E-002  -1.4472310006227673E-002   5.0624133045013120E-002
   7.9137003605595072E-002  -1.7482316115431211E-002   4.7786205192706259E-002
   7.8908431783931379E-002  -1.9614195745006301E-002   4.5686420194043155E-002
   7.8679859962267673E-002  -2.0867948894952949E-002   4.4324778049023843E-002
   7.8451288140603925E-002  -2.1243575565271171E-002   4.3701278757648371E-002
   6.9046598513535951E-002  -1.1312257636947990E-002   5.0232556749347304E-002
   6.9318491746476099E-002  -1.3756655594356850E-002   4.9452363434724741E-002
   6.9590384979416275E-002  -1.5664934279845121E-002   4.8934957375666138E-002
   6.9862278212356410E-002  -1.7037093693412882E-002   4.8680338572171411E-002
   7.0134171445296545E-002  -1.7873133835060066E-002   4.8688507024240733E-002
   6.0315911060762839E-002  -8.1522052676683034E-003   5.0577592209330086E-002
   6.0612913750227031E-002  -1.0030995073282480E-002   5.1513126224683951E-002
   6.0909916439691215E-002  -1.1715672814683956E-002   5.2236091897521916E-002
   6.1206919129155407E-002  -1.3206238491872774E-002   5.2746489227844043E-002
   6.1503921818619599E-002  -1.4502692104848953E-002   5.3044318215650262E-002
   9.4146122737109900E-002  -2.7984459025693395E-002   3.1832570998914775E-002
   9.1769093478536901E-002  -2.6792369608299352E-002   3.1264569483062665E-002
   8.9392064219963929E-002  -2.5868642795840908E-002   3.0779575376433325E-002
   8.7015034961390916E-002  -2.5213278588318126E-002   3.0377588679026821E-002
   8.4638005702817959E-002  -2.4826276985730894E-002   3.0058609390843066E-002
   8.6455271904541720E-002  -2.4614017295482279E-002   3.8082633415872993E-002
   8.4207262001272709E-002  -2.3971327611428686E-002   3.7061165651639458E-002
   8.1959252098003699E-002  -2.3432965848625739E-002   3.6214729188790998E-002
   7.9711242194734661E-002  -2.2998932007073359E-002   3.5543324027327641E-002
   7.7463232291465636E-002  -2.2669226086771632E-002   3.5046950167249624E-002
   7.8451288140603925E-002  -2.1243575565271171E-002   4.3701278757648371E-002
   7.6424321484801272E-002  -2.1150285614557986E-002   4.2390379428718206E-002
   7.4397354828998619E-002  -2.0997288901410456E-002   4.1346535293335603E-002
   7.2370388173195938E-002  -2.0784585425828592E-002   4.0569746351500520E-002
   7.0343421517393312E-002  -2.0512175187812356E-002   4.0060012603212999E-002
   7.0134171445296545E-002  -1.7873133835060066E-002   4.8688507024240733E-002
   6.8420271929122659E-002  -1.8329243617687303E-002   4.7252210814299034E-002
   6.6706372412948758E-002  -1.8561611954195232E-002   4.6174993690067286E-002
   6.4992472896774831E-002  -1.8570238844583815E-002   4.5456855651545364E-002
   6.3278573380600903E-002  -1.8355124288853115E-002   4.5097796698733456E-002
   6.1503921818619599E-002  -1.4502692104848953E-002   5.3044318215650262E-002
   6.0195113334236820E-002  -1.5508201620816620E-002   5.1646659808381942E-002
   5.8886304849854021E-002  -1.6125935006980001E-002   5.0700104378985950E-002
   5.7577496365471229E-002  -1.6355892263339073E-002   5.0204651927462228E-002
   5.6268687881088450E-002  -1.6198073389893805E-002   5.0160302453810909E-002
   8.4638005702817959E-002  -2.4826276985730894E-002   3.0058609390843066E-002
   8.2193158962175189E-002  -2.4503473257678432E-002   2.9312437609174444E-002
   7.9748312221532405E-002  -2.4040702673759989E-002   2.8853356671659697E-002
   7.7303465480889622E-002  -2.3437965233975282E-002   2.8681366578298735E-002
   7.4858618740246824E-002  -2.2695260938324663E-002   2.8796467329091802E-002
   7.7463232291465636E-002  -2.2669226086771632E-002   3.5046950167249624E-002
   7.5290196824099903E-002  -2.2340153064090366E-002   3.4461975942922086E-002
   7.3117161356734128E-002  -2.1908017915399293E-002   3.4133533420994663E-002
   7.0944125889368367E-002  -2.1372820640698433E-002   3.4061622601467501E-002
   6.8771090422002606E-002  -2.0734561239987764E-002   3.4246243484340577E-002
   7.0343421517393312E-002  -2.0512175187812356E-002   4.0060012603212999E-002
   6.8411638181550910E-002  -2.0176832870502204E-002   3.9599331206370263E-002
   6.6479854845708508E-002  -1.9775333157038597E-002   3.9364622370173963E-002
   6.4548071509866092E-002  -1.9307676047421462E-002   3.9355886094624364E-002
   6.2616288174023704E-002  -1.8773861541650852E-002   3.9573122379721166E-002
   6.3278573380600903E-002  -1.8355124288853115E-002   4.5097796698733456E-002
   6.1557483034528210E-002  -1.8013512676914104E-002   4.4724503399519187E-002
   5.9836392688455545E-002  -1.7642648398677928E-002   4.4546623519197720E-002
   5.8115302342382873E-002  -1.7242531454144540E-002   4.4564157057769165E-002
   5.6394211996310180E-002  -1.6813161843313933E-002   4.4777104015233632E-002
   5.6268687881088450E-002  -1.6198073389893805E-002   5.0160302453810909E-002
   5.4727731383031844E-002  -1.5850192483325989E-002   4.9837492522368798E-002
   5.3186774884975231E-002  -1.5509963640317249E-002   4.9679536868065942E-002
   5.1645818386918591E-002  -1.5177386860867597E-002   4.9686435490902320E-002
   5.0104861888861985E-002  -1.4852462144977013E-002   4.9858188390877828E-002
   7.4858618740246824E-002  -2.2695260938324663E-002   2.8796467329091802E-002
   7.2728235616052184E-002  -2.1899391820764447E-002   2.8608523293114085E-002
   7.0597852491857502E-002  -2.1137159915251037E-002   2.8554166750563173E-002
   6.8467469367662820E-002  -2.0408565221784393E-002   2.8633397701438808E-002
   6.6337086243468124E-002  -1.9713607740364625E-002   2.8846216145741010E-002
   6.8771090422002606E-002  -2.0734561239987764E-002   3.4246243484340577E-002
   6.6783959047591546E-002  -2.0050669347392608E-002   3.3977972597841549E-002
   6.4796827673180499E-002  -1.9378574597037901E-002   3.3862617717483168E-002
   6.2809696298769410E-002  -1.8718276988923727E-002   3.3900178843265308E-002
   6.0822564924358391E-002  -1.8069776523050113E-002   3.4090655975188094E-002
   6.2616288174023704E-002  -1.8773861541650852E-002   3.9573122379721166E-002
   6.0791737062110232E-002  -1.8201946874020630E-002   3.9246364712507087E-002
   5.8967185950196718E-002  -1.7619989278824705E-002   3.9091851564147573E-002
   5.7142634838283253E-002  -1.7027988756063001E-002   3.9109582934642478E-002
   5.5318083726369718E-002  -1.6425945305735573E-002   3.9299558823992137E-002
   5.6394211996310180E-002  -1.6813161843313933E-002   4.4777104015233632E-002
   5.4751569659608229E-002  -1.6353224400648722E-002   4.4413699637110615E-002
   5.3108927322906244E-002  -1.5861403960611593E-002   4.4241868290556305E-002
   5.1466284986204244E-002  -1.5337700523202278E-002   4.4261609975570465E-002
   4.9823642649502300E-002  -1.4782114088421047E-002   4.4472924692153033E-002
   5.0104861888861985E-002  -1.4852462144977013E-002   4.9858188390877828E-002
   4.8663456840085481E-002  -1.4504501927276869E-002   4.9479977371652578E-002
   4.7222051791308978E-002  -1.4102818642398422E-002   4.9312667896709531E-002
   4.5780646742532460E-002  -1.3647412290341566E-002   4.9356259966049094E-002
   4.4339241693755943E-002  -1.3138282871106521E-002   4.9610753579670930E-002
   6.6337086243468124E-002  -1.9713607740364625E-002   2.8846216145741010E-002
   6.3500768318830336E-002  -1.9024294440578099E-002   2.8495228517679716E-002
   6.0664450394192493E-002  -1.8312632292011050E-002   2.8413794454051622E-002
   5.7828132469554622E-002  -1.7578621294663775E-002   2.8601913954856534E-002
   5.4991814544916806E-002  -1.6822261448535991E-002   2.9059587020094813E-002
   6.0822564924358391E-002  -1.8069776523050113E-002   3.4090655975188094E-002
   5.8245829906143604E-002  -1.7421309993147463E-002   3.3756776869777391E-002
   5.5669094887928747E-002  -1.6761114192946132E-002   3.3672510012779447E-002
   5.3092359869713925E-002  -1.6089189122446057E-002   3.3837855404194421E-002
   5.0515624851499102E-002  -1.5405534781647412E-002   3.4252813044022418E-002
   5.5318083726369718E-002  -1.6425945305735573E-002   3.9299558823992137E-002
   5.2980990298557684E-002  -1.5818325545716896E-002   3.8972168662750113E-002
   5.0643896870745636E-002  -1.5209596093881048E-002   3.8874449433900796E-002
   4.8306803442933560E-002  -1.4599756950228398E-002   3.9006401137444073E-002
   4.5969710015121484E-002  -1.3988808114758750E-002   3.9368023773379959E-002
   4.9823642649502300E-002  -1.4782114088421047E-002   4.4472924692153033E-002
   4.7706249496072661E-002  -1.4215341098286240E-002   4.4141403896598257E-002
   4.5588856342643064E-002  -1.3658077994816102E-002   4.4019612717415654E-002
   4.3471463189213452E-002  -1.3110324778010668E-002   4.4107551154605580E-002
   4.1354070035783883E-002  -1.2572081447870184E-002   4.4405219208167646E-002
   4.4339241693755943E-002  -1.3138282871106521E-002   4.9610753579670930E-002
   4.2421607498688563E-002  -1.2612356650855694E-002   4.9264482571321544E-002
   4.0503973303621127E-002  -1.2106559895751046E-002   4.9107999863324175E-002
   3.8586339108553726E-002  -1.1620892605793132E-002   4.9141305455678755E-002
   3.6668704913486283E-002  -1.1155354780981563E-002   4.9364399348385601E-002
   5.4991814544916806E-002  -1.6822261448535991E-002   2.9059587020094813E-002
   5.3513954326989910E-002  -1.6088557953330723E-002   2.8887302754372957E-002
   5.2036094109062930E-002  -1.5422516008750956E-002   2.8679621415290374E-002
   5.0558233891136020E-002  -1.4824135614796497E-002   2.8436543002846620E-002
   4.9080373673209110E-002  -1.4293416771467560E-002   2.8158067517042196E-002
   5.0515624851499102E-002  -1.5405534781647412E-002   3.4252813044022418E-002
   4.9035121914665331E-002  -1.4731951641020452E-002   3.3993791379160893E-002
   4.7554618977831503E-002  -1.4090240171035578E-002   3.3764881349846357E-002
   4.6074116040997731E-002  -1.3480400371693103E-002   3.3566082956079234E-002
   4.4593613104163904E-002  -1.2902432242993034E-002   3.3397396197858975E-002
   4.5969710015121484E-002  -1.3988808114758750E-002   3.9368023773379959E-002
   4.4552073068288844E-002  -1.3375345328710139E-002   3.9058054589361846E-002
   4.3134436121456225E-002  -1.2757964333320528E-002   3.8843705749799000E-002
   4.1716799174623634E-002  -1.2136665128589930E-002   3.8724977254691220E-002
   4.0299162227790966E-002  -1.1511447714518341E-002   3.8701869104038722E-002
   4.1354070035783883E-002  -1.2572081447870184E-002   4.4405219208167646E-002
   4.0064807787860479E-002  -1.2018739016399875E-002   4.4080092384976156E-002
   3.8775545539937055E-002  -1.1425688495605452E-002   4.3916094615148053E-002
   3.7486283292013665E-002  -1.0792929885486646E-002   4.3913225898683163E-002
   3.6197021044090283E-002  -1.0120463186043677E-002   4.4071486235581443E-002
   3.6668704913486283E-002  -1.1155354780981563E-002   4.9364399348385601E-002
   3.5573326073380179E-002  -1.0662132704089583E-002   4.9059904766003970E-002
   3.4477947233274048E-002  -1.0093412657890127E-002   4.8982047945893725E-002
   3.3382568393167930E-002  -9.4491946423832310E-003   4.9130828888054701E-002
   3.2287189553061812E-002  -8.7294786575690675E-003   4.9506247592487063E-002
   4.9080373673209110E-002  -1.4293416771467560E-002   2.8158067517042196E-002
   4.5243260248264361E-002  -1.3616255961035273E-002   2.7432050544755282E-002
   4.1406146823319639E-002  -1.2578549665769351E-002   2.7469905652868831E-002
   3.7569033398374932E-002  -1.1180297885671188E-002   2.8271632841383537E-002
   3.3731919973430169E-002  -9.4215006207396534E-003   2.9837232110298650E-002
   4.4593613104163904E-002  -1.2902432242993034E-002   3.3397396197858975E-002
   4.1403429719550910E-002  -1.2247113728920650E-002   3.3020305841285097E-002
   3.8213246334937875E-002  -1.1405222773462176E-002   3.3173203484973462E-002
   3.5023062950324903E-002  -1.0376759376617514E-002   3.3856089128925029E-002
   3.1832879565711847E-002  -9.1617235383865125E-003   3.5068962773139312E-002
   4.0299162227790966E-002  -1.1511447714518341E-002   3.8701869104038722E-002
   3.7522024803371759E-002  -1.0877971496806443E-002   3.8499732319730862E-002
   3.4744887378952587E-002  -1.0231895881154932E-002   3.8593699455548011E-002
   3.1967749954533359E-002  -9.5732208675639481E-003   3.8983770511489706E-002
   2.9190612530114152E-002  -8.9019464560331496E-003   3.9669945487556646E-002
   3.6197021044090283E-002  -1.0120463186043677E-002   4.4071486235581443E-002
   3.3599045499726990E-002  -9.5088292646921396E-003   4.3870329980093256E-002
   3.1001069955363669E-002  -9.0585689888477219E-003   4.3731393564591992E-002
   2.8403094411000411E-002  -8.7696823585103282E-003   4.3654676989077490E-002
   2.5805118866637056E-002  -8.6421693736799532E-003   4.3640180253549973E-002
   3.2287189553061812E-002  -8.7294786575690675E-003   4.9506247592487063E-002
   2.9634491808616492E-002  -8.1396870325777804E-003   4.9132098822371517E-002
   2.6981794064171172E-002  -7.8852420965404985E-003   4.8586285812105362E-002
   2.4329096319725851E-002  -7.9661438494567603E-003   4.7868808561687751E-002
   2.1676398575280531E-002  -8.3823922913266458E-003   4.6979667071119779E-002
   5.7150559420809113E-002   0.0000000000000000        3.4682101854607614E-002
   5.7941897330797548E-002  -2.0847054263145124E-003   3.8335461945191163E-002
   5.8733235240785983E-002  -4.1383081130307326E-003   4.2202497034506098E-002
   5.9524573150774418E-002  -6.1608080601486589E-003   4.6283207122552392E-002
   6.0315911060762839E-002  -8.1522052676683034E-003   5.0577592209330086E-002
   4.8649536813615238E-002   0.0000000000000000        3.2780694325321255E-002
   4.9589231356256425E-002  -1.7095187856883669E-003   3.6957767116455750E-002
   5.0528925898897604E-002  -3.4329586178353452E-003   4.1217878174164384E-002
   5.1468620441538784E-002  -5.1703194964409331E-003   4.5561027498447142E-002
   5.2408314984179978E-002  -6.9216014215051315E-003   4.9987215089304045E-002
   4.0728954426481098E-002   0.0000000000000000        3.1276985329689491E-002
   4.1686368869617782E-002  -1.3343321450622258E-003   3.5932747035318041E-002
   4.2643783312754473E-002  -2.7276091226399587E-003   4.0540910275363475E-002
   4.3601197755891170E-002  -4.1798309327332047E-003   4.5101475049825805E-002
   4.4558612199027861E-002  -5.6909975753419561E-003   4.9614441358705005E-002
   3.3388812259406681E-002   0.0000000000000000        3.0170974867712315E-002
   3.4233309870881641E-002  -9.5914550443608210E-004   3.5260401701778021E-002
   3.5077807482356595E-002  -2.0222596274445735E-003   4.0171593338103349E-002
   3.5922305093831541E-002  -3.1893423690254751E-003   4.4904549776688341E-002
   3.6766802705306502E-002  -4.4603937291787807E-003   4.9459271017532967E-002
   2.6629110312391995E-002   0.0000000000000000        2.9462662939389733E-002
   2.7230054360047974E-002  -5.8395886380994012E-004   3.4940731115835684E-002
   2.7830998407703946E-002  -1.3169101322491866E-003   4.0109927362384029E-002
   2.8431942455359918E-002  -2.1988538053177489E-003   4.4970251679034776E-002
   2.9032886503015894E-002  -3.2297898830156062E-003   4.9521704065787910E-002
   6.0315911060762839E-002  -8.1522052676683034E-003   5.0577592209330086E-002
   6.0612913750227031E-002  -1.0030995073282480E-002   5.1513126224683951E-002
   6.0909916439691215E-002  -1.1715672814683956E-002   5.2236091897521916E-002
   6.1206919129155407E-002  -1.3206238491872774E-002   5.2746489227844043E-002
   6.1503921818619599E-002  -1.4502692104848953E-002   5.3044318215650262E-002
   5.2408314984179978E-002  -6.9216014215051315E-003   4.9987215089304045E-002
   5.2531808109069281E-002  -8.5855481772138791E-003   5.1211052898720737E-002
   5.2655301233958583E-002  -1.0060903547753151E-002   5.2300439921503579E-002
   5.2778794358847879E-002  -1.1347667533122868E-002   5.3255376157652468E-002
   5.2902287483737168E-002  -1.2445840133323130E-002   5.4075861607167514E-002
   4.4558612199027861E-002  -5.6909975753419561E-003   4.9614441358705005E-002
   4.4586713315224263E-002  -7.1401012811452983E-003   5.1121062283141373E-002
   4.4614814431420673E-002  -8.4061342808223055E-003   5.2571349976825867E-002
   4.4642915547617075E-002  -9.4890965743729683E-003   5.3965304439758409E-002
   4.4671016663813484E-002  -1.0388988161797303E-002   5.5302925671939056E-002
   3.6766802705306502E-002  -4.4603937291787807E-003   4.9459271017532967E-002
   3.6777629368691993E-002  -5.6946543850767140E-003   5.1243154377945820E-002
   3.6788456032077491E-002  -6.7513650138914631E-003   5.3048822063488828E-002
   3.6799282695462981E-002  -7.6305256156230516E-003   5.4876274074161846E-002
   3.6810109358848486E-002  -8.3321361902714778E-003   5.6725510409964965E-002
   2.9032886503015894E-002  -3.2297898830156062E-003   4.9521704065787910E-002
   2.9104556269472469E-002  -4.2492074890081149E-003   5.1577329183134124E-002
   2.9176226035929051E-002  -5.0965957469606528E-003   5.3732856181492414E-002
   2.9247895802385633E-002  -5.7719546568731376E-003   5.5988285060862779E-002
   2.9319565568842208E-002  -6.2752842187456526E-003   5.8343615821245198E-002
   6.1503921818619599E-002  -1.4502692104848953E-002   5.3044318215650262E-002
   6.0195113334236820E-002  -1.5508201620816620E-002   5.1646659808381942E-002
   5.8886304849854021E-002  -1.6125935006980001E-002   5.0700104378985950E-002
   5.7577496365471229E-002  -1.6355892263339073E-002   5.0204651927462228E-002
   5.6268687881088450E-002  -1.6198073389893805E-002   5.0160302453810909E-002
   5.2902287483737168E-002  -1.2445840133323130E-002   5.4075861607167514E-002
   5.1992305269573713E-002  -1.3297035981214088E-002   5.3342859131831545E-002
   5.1082323055410224E-002  -1.3842869709655953E-002   5.2956406219061988E-002
   5.0172340841246763E-002  -1.4083341318648725E-002   5.2916502868858691E-002
   4.9262358627083280E-002  -1.4018450808192362E-002   5.3223149081221638E-002
   4.4671016663813484E-002  -1.0388988161797303E-002   5.5302925671939056E-002
   4.4055307304563286E-002  -1.1085870341611528E-002   5.5152165118180330E-002
   4.3439597945313095E-002  -1.1559804412331894E-002   5.5243400711681878E-002
   4.2823888586062911E-002  -1.1810790373958347E-002   5.5576632452443674E-002
   4.2208179226812706E-002  -1.1838828226490926E-002   5.6151860340465695E-002
   3.6810109358848486E-002  -8.3321361902714778E-003   5.6725510409964965E-002
   3.6384119439205539E-002  -8.8747047020090175E-003   5.7074577767428199E-002
   3.5958129519562600E-002  -9.2767391150078479E-003   5.7561087856845737E-002
   3.5532139599919674E-002  -9.5382394292680053E-003   5.8185040678217392E-002
   3.5106149680276720E-002  -9.6592056447894724E-003   5.8946436231543345E-002
   2.9319565568842208E-002  -6.2752842187456526E-003   5.8343615821245198E-002
   2.8978741673500487E-002  -6.6635390624064303E-003   5.9110097079575173E-002
   2.8637917778158776E-002  -6.9936738176837807E-003   5.9909467654553392E-002
   2.8297093882817051E-002  -7.2656884845776256E-003   6.0741727546179854E-002
   2.7956269987475336E-002  -7.4795830630880189E-003   6.1606876754454448E-002
   5.6268687881088450E-002  -1.6198073389893805E-002   5.0160302453810909E-002
   5.4727731383031844E-002  -1.5850192483325989E-002   4.9837492522368798E-002
   5.3186774884975231E-002  -1.5509963640317249E-002   4.9679536868065942E-002
   5.1645818386918591E-002  -1.5177386860867597E-002   4.9686435490902320E-002
   5.0104861888861985E-002  -1.4852462144977013E-002   4.9858188390877828E-002
   4.9262358627083280E-002  -1.4018450808192362E-002   5.3223149081221638E-002
   4.7896806632628970E-002  -1.3790511071905695E-002   5.2869581364303378E-002
   4.6531254638174646E-002  -1.3541835003407450E-002   5.2701968377450621E-002
   4.5165702643720350E-002  -1.3272422602697538E-002   5.2720310120663097E-002
   4.3800150649266012E-002  -1.2982273869776045E-002   5.2924606593940937E-002
   4.2208179226812706E-002  -1.1838828226490926E-002   5.6151860340465695E-002
   4.1039132188886815E-002  -1.1730829660485421E-002   5.5795923233842158E-002
   3.9870085150960924E-002  -1.1573706366497594E-002   5.5647041310210039E-002
   3.8701038113035040E-002  -1.1367458344527478E-002   5.5705214569569381E-002
   3.7531991075109142E-002  -1.1112085594575036E-002   5.5970443011920258E-002
   3.5106149680276720E-002  -9.6592056447894724E-003   5.8946436231543345E-002
   3.4154708051805378E-002  -9.6711482490651375E-003   5.8616518130985090E-002
   3.3203266423334037E-002  -9.6055777295877796E-003   5.8514755666344426E-002
   3.2251824794862695E-002  -9.4624940863573780E-003   5.8641148837621386E-002
   3.1300383166391346E-002  -9.2418973193740053E-003   5.8995697644815881E-002
   2.7956269987475336E-002  -7.4795830630880189E-003   6.1606876754454448E-002
   2.7243534221384674E-002  -7.6114668376448397E-003   6.1331366055732167E-002
   2.6530798455294002E-002  -7.6374490926779393E-003   6.1305111445853655E-002
   2.5818062689203329E-002  -7.5575298281873454E-003   6.1528112924818815E-002
   2.5105326923112653E-002  -7.3717090441730304E-003   6.2000370492627827E-002
   5.0104861888861985E-002  -1.4852462144977013E-002   4.9858188390877828E-002
   4.8663456840085481E-002  -1.4504501927276869E-002   4.9479977371652578E-002
   4.7222051791308978E-002  -1.4102818642398422E-002   4.9312667896709531E-002
   4.5780646742532460E-002  -1.3647412290341566E-002   4.9356259966049094E-002
   4.4339241693755943E-002  -1.3138282871106521E-002   4.9610753579670930E-002
   4.3800150649266012E-002  -1.2982273869776045E-002   5.2924606593940937E-002
   4.2562273992818436E-002  -1.2662636646845790E-002   5.2621555945693191E-002
   4.1324397336370861E-002  -1.2304758776109571E-002   5.2514660537820931E-002
   4.0086520679923271E-002  -1.1908640257567349E-002   5.2603920370323978E-002
   3.8848644023475709E-002  -1.1474281091219174E-002   5.2889335443202512E-002
   3.7531991075109142E-002  -1.1112085594575036E-002   5.5970443011920258E-002
   3.6482896507083445E-002  -1.0820771366414655E-002   5.5727070315277898E-002
   3.5433801939057749E-002  -1.0506698909820613E-002   5.5665106555103955E-002
   3.4384707371032039E-002  -1.0169868224793023E-002   5.5784551731398360E-002
   3.3335612803006363E-002  -9.8102793113318265E-003   5.6085405844160996E-002
   3.1300383166391346E-002  -9.2418973193740053E-003   5.8995697644815881E-002
   3.0425324382880491E-002  -8.9789060859835346E-003   5.8796520480406587E-002
   2.9550265599369657E-002  -8.7086390435317639E-003   5.8764005948558566E-002
   2.8675206815858802E-002  -8.4310961920188339E-003   5.8898154049271824E-002
   2.7800148032347961E-002  -8.1462775314445068E-003   5.9198964782546298E-002
   2.5105326923112653E-002  -7.3717090441730304E-003   6.2000370492627827E-002
   2.4389557620209612E-002  -7.1370408055524692E-003   6.1829906441079135E-002
   2.3673788317306571E-002  -6.9105791772428524E-003   6.1811358718184703E-002
   2.2958019014403537E-002  -6.6923241592445181E-003   6.1944727323944536E-002
   2.2242249711500489E-002  -6.4822757515571316E-003   6.2230012258358669E-002
   4.4339241693755943E-002  -1.3138282871106521E-002   4.9610753579670930E-002
   4.2421607498688563E-002  -1.2612356650855694E-002   4.9264482571321544E-002
   4.0503973303621127E-002  -1.2106559895751046E-002   4.9107999863324175E-002
   3.8586339108553726E-002  -1.1620892605793132E-002   4.9141305455678755E-002
   3.6668704913486283E-002  -1.1155354780981563E-002   4.9364399348385601E-002
   3.8848644023475709E-002  -1.1474281091219174E-002   5.2889335443202512E-002
   3.7131537187263239E-002  -1.1025316017987813E-002   5.2516790793573964E-002
   3.5414430351050769E-002  -1.0585379778795534E-002   5.2355512561303469E-002
   3.3697323514838305E-002  -1.0154472373642837E-002   5.2405500746390693E-002
   3.1980216678625828E-002  -9.7325938025291658E-003   5.2666755348835886E-002
   3.3335612803006363E-002  -9.8102793113318265E-003   5.6085405844160996E-002
   3.1840511442654658E-002  -9.4382753851199319E-003   5.5697688184360702E-002
   3.0345410082302977E-002  -9.0641996618400777E-003   5.5542715058924066E-002
   2.8850308721951282E-002  -8.6880521414924305E-003   5.5620486467850908E-002
   2.7355207361599618E-002  -8.3098328240767960E-003   5.5931002411141684E-002
   2.7800148032347961E-002  -8.1462775314445068E-003   5.9198964782546298E-002
   2.6548530264862862E-002  -7.8512347522519677E-003   5.8807174743681273E-002
   2.5296912497377758E-002  -7.5430195448846493E-003   5.8669607356185913E-002
   2.4045294729892631E-002  -7.2216319093419690E-003   5.8786262620059732E-002
   2.2793676962407531E-002  -6.8870718456244401E-003   5.9157140535303333E-002
   2.2242249711500489E-002  -6.4822757515571316E-003   6.2230012258358669E-002
   2.1255593653887794E-002  -6.2641941193842254E-003   6.1845250471536051E-002
   2.0268937596275093E-002  -6.0218394279290544E-003   6.1736189453088980E-002
   1.9282281538662408E-002  -5.7552116771916878E-003   6.1902829203017012E-002
   1.8295625481049710E-002  -5.4643108671720286E-003   6.2345169721320481E-002
   3.6668704913486283E-002  -1.1155354780981563E-002   4.9364399348385601E-002
   3.5573326073380179E-002  -1.0662132704089583E-002   4.9059904766003970E-002
   3.4477947233274048E-002  -1.0093412657890127E-002   4.8982047945893725E-002
   3.3382568393167930E-002  -9.4491946423832310E-003   4.9130828888054701E-002
   3.2287189553061812E-002  -8.7294786575690675E-003   4.9506247592487063E-002
   3.1980216678625828E-002  -9.7325938025291658E-003   5.2666755348835886E-002
   3.1094279853526460E-002  -9.2863104993380630E-003   5.2475212070774796E-002
   3.0208343028427093E-002  -8.7821888979527363E-003   5.2475915060455944E-002
   2.9322406203327704E-002  -8.2202289983730886E-003   5.2668864317879212E-002
   2.8436469378228357E-002  -7.6004308005989674E-003   5.3054059843044621E-002
   2.7355207361599618E-002  -8.3098328240767960E-003   5.5931002411141684E-002
   2.6644321056977838E-002  -7.9104882945865845E-003   5.5834750766288022E-002
   2.5933434752356051E-002  -7.4709651380152758E-003   5.5896353894647574E-002
   2.5222548447734253E-002  -6.9912633543626652E-003   5.6115811796219987E-002
   2.4511662143112511E-002  -6.4713829436287840E-003   5.6493124471005532E-002
   2.2793676962407531E-002  -6.8870718456244401E-003   5.9157140535303333E-002
   2.2223449683734263E-002  -6.5346660898352518E-003   5.9138520852543883E-002
   2.1653222405060964E-002  -6.1597413780779056E-003   5.9243364448468602E-002
   2.1082995126387657E-002  -5.7622977103522714E-003   5.9471671323077201E-002
   2.0512767847714372E-002  -5.3423350866586977E-003   5.9823441476369532E-002
   1.8295625481049710E-002  -5.4643108671720286E-003   6.2345169721320481E-002
   1.7831665733795757E-002  -5.1588438850836693E-003   6.2386522329542338E-002
   1.7367705986541804E-002  -4.8485176181404244E-003   6.2516946721919098E-002
   1.6903746239287844E-002  -4.5333320663420718E-003   6.2736442898450651E-002
   1.6439786492033884E-002  -4.2132872296885004E-003   6.3045010859136941E-002
   3.2287189553061812E-002  -8.7294786575690675E-003   4.9506247592487063E-002
   2.9634491808616492E-002  -8.1396870325777804E-003   4.9132098822371517E-002
   2.6981794064171172E-002  -7.8852420965404985E-003   4.8586285812105362E-002
   2.4329096319725851E-002  -7.9661438494567603E-003   4.7868808561687751E-002
   2.1676398575280531E-002  -8.3823922913266458E-003   4.6979667071119779E-002
   2.8436469378228357E-002  -7.6004308005989674E-003   5.3054059843044621E-002
   2.5730101699362462E-002  -7.0372433115632738E-003   5.2470615116064906E-002
   2.3023734020496567E-002  -6.6451155381987842E-003   5.1951494760395178E-002
   2.0317366341630616E-002  -6.4240474805056201E-003   5.1496698776035008E-002
   1.7610998662764776E-002  -6.3740391384834449E-003   5.1106227162984963E-002
   2.4511662143112511E-002  -6.4713829436287840E-003   5.6493124471005532E-002
   2.1987613141286860E-002  -5.9347995905486284E-003   5.5864670760443977E-002
   1.9463564139461181E-002  -5.4049889798572989E-003   5.5536530032653082E-002
   1.6939515137635530E-002  -4.8819511115544539E-003   5.5508702287632716E-002
   1.4415466135809921E-002  -4.3656859856404662E-003   5.5781187525383191E-002
   2.0512767847714372E-002  -5.3423350866586977E-003   5.9823441476369532E-002
   1.8407026134389777E-002  -4.8323558695339414E-003   5.9314265755508772E-002
   1.6301284421065196E-002  -4.1648624215156436E-003   5.9341391628879303E-002
   1.4195542707740594E-002  -3.3398547426033006E-003   5.9904819096481127E-002
   1.2089800994416023E-002  -2.3573328327973209E-003   6.1004548158314797E-002
   1.6439786492033884E-002  -4.2132872296885004E-003   6.3045010859136941E-002
   1.4988340678671178E-002  -3.7299121485193654E-003   6.2819400101259082E-002
   1.3536894865308478E-002  -2.9247358631742104E-003   6.3366079549073584E-002
   1.2085449051945776E-002  -1.7977583736522862E-003   6.4685049202580225E-002
   1.0634003238583101E-002  -3.4897967995428658E-004   6.6776309061779227E-002
   2.6629110312391995E-002   0.0000000000000000        2.9462662939389733E-002
   2.7230054360047974E-002  -5.8395886380994012E-004   3.4940731115835684E-002
   2.7830998407703946E-002  -1.3169101322491866E-003   4.0109927362384029E-002
   2.8431942455359918E-002  -2.1988538053177489E-003   4.4970251679034776E-002
   2.9032886503015894E-002  -3.2297898830156062E-003   4.9521704065787910E-002
   2.0112420152544292E-002   0.0000000000000000        2.9016969358786338E-002
   2.0444030057463917E-002  -4.3768611799812479E-004   3.4309900856066500E-002
   2.0775639962383543E-002  -9.8689547256947986E-004   3.9373035997771567E-002
   2.1107249867303165E-002  -1.6476280637140669E-003   4.4206374783901527E-002
   2.1438859772222794E-002  -2.4198838914318843E-003   4.8809917214456398E-002
   1.3501313346970818E-002   0.0000000000000000        2.8698813939966716E-002
   1.3642664683476597E-002  -2.9141337218630990E-004   3.3844077926137174E-002
   1.3784016019982376E-002  -6.5688081288977230E-004   3.8838621131055025E-002
   1.3925367356488152E-002  -1.0964023221103894E-003   4.3682443554720285E-002
   1.4066718692993932E-002  -1.6099778998481550E-003   4.8375545197132962E-002
   6.7957898956715734E-003   0.0000000000000000        2.8508196682930871E-002
   6.8259582380860075E-003  -1.4514062637449479E-004   3.3543262326047686E-002
   6.8561265805004434E-003  -3.2686615321006517E-004   3.8506682762234415E-002
   6.8862949229148776E-003  -5.4517658050670615E-004   4.3398457991491064E-002
   6.9164632653293135E-003  -8.0007190826442425E-004   4.8218588013817607E-002
  -4.1502013534422399E-006   0.0000000000000000        2.8445117587678800E-002
  -6.0892787078466529E-006   1.1321194373194524E-006   3.3407454055798064E-002
  -8.0283560622517163E-006   3.1485064696419596E-006   3.8377220891309738E-002
  -9.9674334166564545E-006   6.0491610969701237E-006   4.3354418094213830E-002
  -1.1906510771062060E-005   9.8340833192996080E-006   4.8339045664510333E-002
   2.9032886503015894E-002  -3.2297898830156062E-003   4.9521704065787910E-002
   2.9104556269472469E-002  -4.2492074890081149E-003   5.1577329183134124E-002
   2.9176226035929051E-002  -5.0965957469606528E-003   5.3732856181492414E-002
   2.9247895802385633E-002  -5.7719546568731376E-003   5.5988285060862779E-002
   2.9319565568842208E-002  -6.2752842187456526E-003   5.8343615821245198E-002
   2.1438859772222794E-002  -2.4198838914318843E-003   4.8809917214456398E-002
   2.1580888801614028E-002  -3.1836518192698165E-003   5.1208149557475928E-002
   2.1722917831005269E-002  -3.8189207107747845E-003   5.3647198545352701E-002
   2.1864946860396500E-002  -4.3256905659467670E-003   5.6127064178086696E-002
   2.2006975889787738E-002  -4.7039613847857861E-003   5.8647746455677947E-002
   1.4066718692993932E-002  -1.6099778998481550E-003   4.8375545197132962E-002
   1.4220021749164998E-002  -2.1180961495315181E-003   5.1072854454118764E-002
   1.4373324805336065E-002  -2.5412456745889296E-003   5.3751895119807019E-002
   1.4526627861507128E-002  -2.8794264750203898E-003   5.6412667194197651E-002
   1.4679930917678193E-002  -3.1326385508258919E-003   5.9055170677290721E-002
   6.9164632653293135E-003  -8.0007190826442425E-004   4.8218588013817607E-002
   7.0219551121253774E-003  -1.0525404797932163E-003   5.1171443873062689E-002
   7.1274469589214422E-003  -1.2635706384030749E-003   5.4046945904855384E-002
   7.2329388057175061E-003  -1.4331623840940090E-003   5.6845094109195596E-002
   7.3384306525135709E-003  -1.5613157168660186E-003   5.9565888486083469E-002
  -1.1906510771062060E-005   9.8340833192996080E-006   4.8339045664510333E-002
  -1.3311109504830342E-005   1.3015189945082134E-005   5.1503917814307673E-002
  -1.4715708238596673E-005   1.4104397782787638E-005   5.4532350900497760E-002
  -1.6120306972363112E-005   1.3101706832366897E-005   5.7424344923080586E-002
  -1.7524905706131286E-005   1.0007117093882578E-005   6.0179899882056173E-002
   2.9319565568842208E-002  -6.2752842187456526E-003   5.8343615821245198E-002
   2.8978741673500487E-002  -6.6635390624064303E-003   5.9110097079575173E-002
   2.8637917778158776E-002  -6.9936738176837807E-003   5.9909467654553392E-002
   2.8297093882817051E-002  -7.2656884845776256E-003   6.0741727546179854E-002
   2.7956269987475336E-002  -7.4795830630880189E-003   6.1606876754454448E-002
   2.2006975889787738E-002  -4.7039613847857861E-003   5.8647746455677947E-002
   2.1711536673589559E-002  -4.9950575336470474E-003   5.9464252979451189E-002
   2.1416097457391370E-002  -5.2403033788857734E-003   6.0338639544863265E-002
   2.1120658241193177E-002  -5.4396989205019904E-003   6.1270906151914190E-002
   2.0825219024995002E-002  -5.5932441584957138E-003   6.2261052800603955E-002
   1.4679930917678193E-002  -3.1326385508258919E-003   5.9055170677290721E-002
   1.4454867105614182E-002  -3.3265760048876263E-003   5.9909432681746241E-002
   1.4229803293550166E-002  -3.4869329400878217E-003   6.0846565452831236E-002
   1.4004739481486152E-002  -3.6137093564263976E-003   6.1866568990545691E-002
   1.3779675669422143E-002  -3.7069052539034225E-003   6.2969443294889724E-002
   7.3384306525135709E-003  -1.5613157168660186E-003   5.9565888486083469E-002
   7.2087329695743729E-003  -1.6580944761282312E-003   6.0445636186460323E-002
   7.0790352866351713E-003  -1.7335625012898145E-003   6.1433245378457291E-002
   6.9493376036959707E-003  -1.7877197923507628E-003   6.2528716062074399E-002
   6.8196399207567700E-003  -1.8205663493111243E-003   6.3732048237311684E-002
  -1.7524905706131286E-005   1.0007117093882578E-005   6.0179899882056173E-002
  -2.6865734529877942E-005   1.0387052631170846E-005   6.1072863493593442E-002
  -3.6206563353621997E-005   1.9807937508130313E-005   6.2098679321741471E-002
  -4.5547392177367352E-005   3.8269771724835575E-005   6.3257347366500266E-002
  -5.4888221001112708E-005   6.5772555281187750E-005   6.4548867627869863E-002
   2.7956269987475336E-002  -7.4795830630880189E-003   6.1606876754454448E-002
   2.7243534221384674E-002  -7.6114668376448397E-003   6.1331366055732167E-002
   2.6530798455294002E-002  -7.6374490926779393E-003   6.1305111445853655E-002
   2.5818062689203329E-002  -7.5575298281873454E-003   6.1528112924818815E-002
   2.5105326923112653E-002  -7.3717090441730304E-003   6.2000370492627827E-002
   2.0825219024995002E-002  -5.5932441584957138E-003   6.2261052800603955E-002
   2.0342752005887556E-002  -5.6889178461338868E-003   6.2139959525234850E-002
   1.9860284986780122E-002  -5.7146987366834129E-003   6.2230147654988473E-002
   1.9377817967672680E-002  -5.6705868301443925E-003   6.2531617189864802E-002
   1.8895350948565245E-002  -5.5565821265166349E-003   6.3044368129863942E-002
   1.3779675669422143E-002  -3.7069052539034225E-003   6.2969443294889724E-002
   1.3489502713576938E-002  -3.7663688546229132E-003   6.2966758720438679E-002
   1.3199329757731731E-002  -3.7919483806888588E-003   6.3137380867389320E-002
   1.2909156801886526E-002  -3.7836438321013563E-003   6.3481309735741717E-002
   1.2618983846041321E-002  -3.7414552088603087E-003   6.3998545325495870E-002
   6.8196399207567700E-003  -1.8205663493111243E-003   6.3732048237311684E-002
   6.6837863444528063E-003  -1.8438198631119500E-003   6.3811763641343583E-002
   6.5479327681488382E-003  -1.8691980246943879E-003   6.4026811083056134E-002
   6.4120791918448709E-003  -1.8967008340583617E-003   6.4377190562449546E-002
   6.2762256155409063E-003  -1.9263282912039895E-003   6.4862902079523638E-002
  -5.4888221001112708E-005   6.5772555281187750E-005   6.4548867627869863E-002
  -7.4397101484841716E-005   7.8729128399020187E-005   6.4674974287949577E-002
  -9.3905981968567254E-005   5.3552331300232153E-005   6.4898438301989048E-002
  -1.1341486245229453E-004  -9.7578360153784474E-006   6.5219259669988219E-002
  -1.3292374293602180E-004  -1.1120137354761472E-004   6.5637438391947162E-002
   2.5105326923112653E-002  -7.3717090441730304E-003   6.2000370492627827E-002
   2.4389557620209612E-002  -7.1370408055524692E-003   6.1829906441079135E-002
   2.3673788317306571E-002  -6.9105791772428524E-003   6.1811358718184703E-002
   2.2958019014403537E-002  -6.6923241592445181E-003   6.1944727323944536E-002
   2.2242249711500489E-002  -6.4822757515571316E-003   6.2230012258358669E-002
   1.8895350948565245E-002  -5.5565821265166349E-003   6.3044368129863942E-002
   1.8340030973402255E-002  -5.4072552871906460E-003   6.2812318381422913E-002
   1.7784710998239250E-002  -5.2571769735565502E-003   6.2749250959807795E-002
   1.7229391023076260E-002  -5.1063471856145088E-003   6.2855165865018409E-002
   1.6674071047913262E-002  -4.9547659233642460E-003   6.3130063097054823E-002
   1.2618983846041321E-002  -3.7414552088603087E-003   6.3998545325495870E-002
   1.2241179196789895E-002  -3.6774697688289476E-003   6.3713867964781790E-002
   1.1863374547538455E-002  -3.6037747698703070E-003   6.3615238929064996E-002
   1.1485569898287015E-002  -3.5203702119845004E-003   6.3702658218345545E-002
   1.1107765249035586E-002  -3.4272560951713604E-003   6.3976125832623326E-002
   6.2762256155409063E-003  -1.9263282912039895E-003   6.4862902079523638E-002
   6.0930022903725387E-003  -1.9476842504672146E-003   6.4534555191155571E-002
   5.9097789652041693E-003  -1.9503725661840620E-003   6.4409322625956361E-002
   5.7265556400357999E-003  -1.9343932383544637E-003   6.4487204383925967E-002
   5.5433323148674331E-003  -1.8997462669785303E-003   6.4768200465064374E-002
  -1.3292374293602180E-004  -1.1120137354761472E-004   6.5637438391947162E-002
  -1.0449974584980995E-004  -2.1789873210548150E-004   6.5274380060544313E-002
  -7.6075748763598100E-005  -2.9697036249776848E-004   6.5131502050481863E-002
  -4.7651751677385383E-005  -3.4841626472452598E-004   6.5208804361759715E-002
  -1.9227754591174401E-005  -3.7223643878558921E-004   6.5506286994377938E-002
   2.2242249711500489E-002  -6.4822757515571316E-003   6.2230012258358669E-002
   2.1255593653887794E-002  -6.2641941193842254E-003   6.1845250471536051E-002
   2.0268937596275093E-002  -6.0218394279290544E-003   6.1736189453088980E-002
   1.9282281538662408E-002  -5.7552116771916878E-003   6.1902829203017012E-002
   1.8295625481049710E-002  -5.4643108671720286E-003   6.2345169721320481E-002
   1.6674071047913262E-002  -4.9547659233642460E-003   6.3130063097054823E-002
   1.5954731293060874E-002  -4.7947961733311728E-003   6.2758938989596780E-002
   1.5235391538208496E-002  -4.6188009220402976E-003   6.2646746719284191E-002
   1.4516051783356123E-002  -4.4267801694917973E-003   6.2793486286116848E-002
   1.3796712028503744E-002  -4.2187339156853909E-003   6.3199157690094793E-002
   1.1107765249035586E-002  -3.4272560951713604E-003   6.3976125832623326E-002
   1.0638972865713508E-002  -3.3253982272780369E-003   6.3610391846505382E-002
   1.0170180482391428E-002  -3.2157624161515408E-003   6.3486820766302729E-002
   9.7013880990693482E-003  -3.0983486617916292E-003   6.3605412592015353E-002
   9.2325957157472632E-003  -2.9731569641986422E-003   6.3966167323643380E-002
   5.5433323148674331E-003  -1.8997462669785303E-003   6.4768200465064374E-002
   5.3083183718456621E-003  -1.8560002812249704E-003   6.4399609042261954E-002
   5.0733044288238903E-003  -1.8127239102627563E-003   6.4256411594144858E-002
   4.8382904858021245E-003  -1.7699171540917109E-003   6.4338608120713126E-002
   4.6032765427803483E-003  -1.7275800127119489E-003   6.4646198621966591E-002
  -1.9227754591174401E-005  -3.7223643878558921E-004   6.5506286994377938E-002
  -3.7232188542648398E-005  -3.8660233517184839E-004   6.5126590576866566E-002
  -5.5236622494113721E-005  -4.0968540437399947E-004   6.4955519202810480E-002
  -7.3241056445581647E-005  -4.4148564639150817E-004   6.4993072872209595E-002
  -9.1245490397053042E-005  -4.8200306122525571E-004   6.5239251585064217E-002
   1.8295625481049710E-002  -5.4643108671720286E-003   6.2345169721320481E-002
   1.7831665733795757E-002  -5.1588438850836693E-003   6.2386522329542338E-002
   1.7367705986541804E-002  -4.8485176181404244E-003   6.2516946721919098E-002
   1.6903746239287844E-002  -4.5333320663420718E-003   6.2736442898450651E-002
   1.6439786492033884E-002  -4.2132872296885004E-003   6.3045010859136941E-002
   1.3796712028503744E-002  -4.2187339156853909E-003   6.3199157690094793E-002
   1.3424118861291037E-002  -4.0110521269219046E-003   6.3171654660748366E-002
   1.3051525694078352E-002  -3.8201247695019147E-003   6.3237813007329904E-002
   1.2678932526865659E-002  -3.6459518434257335E-003   6.3397632729839226E-002
   1.2306339359652974E-002  -3.4885333486928682E-003   6.3651113828276207E-002
   9.2325957157472632E-003  -2.9731569641986422E-003   6.3966167323643380E-002
   8.9559587203488326E-003  -2.8632603687600983E-003   6.3848194940530262E-002
   8.6793217249503882E-003  -2.7917319208636271E-003   6.3828473525117807E-002
   8.4026847295519524E-003  -2.7585716205095062E-003   6.3907003077406155E-002
   8.1260477341535096E-003  -2.7637794676974581E-003   6.4083783597395250E-002
   4.6032765427803483E-003  -1.7275800127119489E-003   6.4646198621966591E-002
   4.4271853109691351E-003  -1.7154686105981462E-003   6.4416143168887996E-002
   4.2510940791579254E-003  -1.7633390722252840E-003   6.4288928275283000E-002
   4.0750028473467139E-003  -1.8711913975932234E-003   6.4264553941151770E-002
   3.8989116155355085E-003  -2.0390255867019924E-003   6.4343020166494291E-002
  -9.1245490397053042E-005  -4.8200306122525571E-004   6.5239251585064217E-002
  -1.6220136684805958E-004  -5.6767685243649946E-004   6.4875499345821430E-002
  -2.3315724329905571E-004  -7.3494622358694084E-004   6.4619177257825372E-002
  -3.0411311975006051E-004  -9.8381117467702395E-004   6.4470285321075932E-002
  -3.7506899620105838E-004  -1.3142717057064157E-003   6.4428823535573332E-002
   1.6439786492033884E-002  -4.2132872296885004E-003   6.3045010859136941E-002
   1.4988340678671178E-002  -3.7299121485193654E-003   6.2819400101259082E-002
   1.3536894865308478E-002  -2.9247358631742104E-003   6.3366079549073584E-002
   1.2085449051945776E-002  -1.7977583736522862E-003   6.4685049202580225E-002
   1.0634003238583101E-002  -3.4897967995428658E-004   6.6776309061779227E-002
   1.2306339359652974E-002  -3.4885333486928682E-003   6.3651113828276207E-002
   1.1525796271706593E-002  -3.2533458242494928E-003   6.3524317944474523E-002
   1.0745253183760226E-002  -2.8458658090408651E-003   6.3967037305813435E-002
   9.9647100958138446E-003  -2.2660933030667837E-003   6.4979271912292053E-002
   9.1841670078674775E-003  -1.5140283063275195E-003   6.6561021763911765E-002
   8.1260477341535096E-003  -2.7637794676974581E-003   6.4083783597395250E-002
   7.8136324110715319E-003  -2.7767794999795092E-003   6.3906293874258835E-002
   7.5012170879895628E-003  -2.7669957549075197E-003   6.4095544435710791E-002
   7.1888017649075616E-003  -2.7344282324813368E-003   6.4651535281751188E-002
   6.8763864418256021E-003  -2.6790769327009745E-003   6.5574266412380289E-002
   3.8989116155355085E-003  -2.0390255867019924E-003   6.4343020166494291E-002
   3.8518490967659929E-003  -2.3002131757094701E-003   6.3965327890611962E-002
   3.8047865779964898E-003  -2.6881257007742299E-003   6.3751600938765987E-002
   3.7577240592269814E-003  -3.2027631618957511E-003   6.3701839310956493E-002
   3.7106615404574710E-003  -3.8441255590742629E-003   6.3816043007183715E-002
  -3.7506899620105838E-004  -1.3142717057064157E-003   6.4428823535573332E-002
  -3.5955367121002363E-004  -1.8236468514394866E-003   6.3701419993533959E-002
  -3.4403834621898194E-004  -2.6092556466409123E-003   6.2935206814978883E-002
  -3.2852302122794545E-004  -3.6710980913104083E-003   6.2130183999908800E-002
  -3.1300769623690550E-004  -5.0091741854476624E-003   6.1286351548323070E-002
  -4.1502013534422399E-006   0.0000000000000000        2.8445117587678800E-002
  -6.0892787078466529E-006   1.1321194373194524E-006   3.3407454055798064E-002
  -8.0283560622517163E-006   3.1485064696419596E-006   3.8377220891309738E-002
  -9.9674334166564545E-006   6.0491610969701237E-006   4.3354418094213830E-002
  -1.1906510771062060E-005   9.8340833192996080E-006   4.8339045664510333E-002
  -6.8040436456681085E-003   0.0000000000000000        2.8509894441899816E-002
  -6.8378608544383762E-003   1.4761381484494455E-004   3.3546624588197509E-002
  -6.8716780632086432E-003   3.3272781377535754E-004   3.8512168104271070E-002
  -6.9054952719789118E-003   5.5534199679123288E-004   4.3406524990120494E-002
  -6.9393124807491779E-003   8.1545636389257752E-004   4.8229695245745774E-002
  -1.3509427138836304E-002   0.0000000000000000        2.8702845033283228E-002
  -1.3653739476638985E-002   2.9409551025257096E-004   3.3850584774249813E-002
  -1.3798051814441662E-002   6.6230712108106965E-004   3.8848520887375705E-002
  -1.3942364152244344E-002   1.1046348324854974E-003   4.3696653372660918E-002
  -1.4086676490047027E-002   1.6210786444658520E-003   4.8394982230105445E-002
  -2.0120300680858030E-002   0.0000000000000000        2.9023969361829029E-002
  -2.0453725145309673E-002   4.4057720566019584E-004   3.4319334613954977E-002
  -2.0787149609761316E-002   9.9188642838678089E-004   3.9386279240623677E-002
  -2.1120574074212955E-002   1.6539276681797627E-003   4.4224803241835142E-002
  -2.1453998538664597E-002   2.4267009250391247E-003   4.8834906617589373E-002
  -2.6636664271733286E-002   0.0000000000000000        2.9473267427537229E-002
  -2.7237817860450445E-002   5.8705890106782160E-004   3.4952874107312987E-002
  -2.7838971449167593E-002   1.3214657356924956E-003   4.0125443164014958E-002
  -2.8440125037884748E-002   2.2032205038740229E-003   4.4990974597643139E-002
  -2.9041278626601906E-002   3.2323232056124009E-003   4.9549468408197545E-002
  -1.1906510771062060E-005   9.8340833192996080E-006   4.8339045664510333E-002
  -1.3311109504830342E-005   1.3015189945082134E-005   5.1503917814307673E-002
  -1.4715708238596673E-005   1.4104397782787638E-005   5.4532350900497760E-002
  -1.6120306972363112E-005   1.3101706832366897E-005   5.7424344923080586E-002
  -1.7524905706131286E-005   1.0007117093882578E-005   6.0179899882056173E-002
  -6.9393124807491779E-003   8.1545636389257752E-004   4.8229695245745774E-002
  -7.0475795450462538E-003   1.0723982942937643E-003   5.1181217476130386E-002
  -7.1558466093433288E-003   1.2854951672091736E-003   5.4055453838995633E-002
  -7.2641136736403995E-003   1.4547469826388327E-003   5.6852404334341515E-002
  -7.3723807379374798E-003   1.5801537405827140E-003   5.9572068962168039E-002
  -1.4086676490047027E-002   1.6210786444658520E-003   4.8394982230105445E-002
  -1.4242652823819526E-002   2.1317813986424464E-003   5.1091401382379671E-002
  -1.4398629157592026E-002   2.5568859366355942E-003   5.3769687863222393E-002
  -1.4554605491364531E-002   2.8963922584452914E-003   5.6429841672633652E-002
  -1.4710581825137030E-002   3.1503003640715524E-003   5.9071862810613392E-002
  -2.1453998538664597E-002   2.4267009250391247E-003   4.8834906617589373E-002
  -2.1598530945824649E-002   3.1911645029911182E-003   5.1234469533055514E-002
  -2.1743063352984694E-002   3.8282767060619938E-003   5.3675052973178060E-002
  -2.1887595760144738E-002   4.3380375342517369E-003   5.6156656937956975E-002
  -2.2032128167304786E-002   4.7204469875603734E-003   5.8679281427392323E-002
  -2.9041278626601906E-002   3.2323232056124009E-003   4.9549468408197545E-002
  -2.9115213911061616E-002   4.2505476073398090E-003   5.1610421928157936E-002
  -2.9189149195521329E-002   5.0996674754884156E-003   5.3771549168862585E-002
  -2.9263084479981039E-002   5.7796828100582197E-003   5.6032850130311521E-002
  -2.9337019764440753E-002   6.2905936110492292E-003   5.8394324812504748E-002
  -1.7524905706131286E-005   1.0007117093882578E-005   6.0179899882056173E-002
  -2.6865734529877942E-005   1.0387052631170846E-005   6.1072863493593442E-002
  -3.6206563353621997E-005   1.9807937508130313E-005   6.2098679321741471E-002
  -4.5547392177367352E-005   3.8269771724835575E-005   6.3257347366500266E-002
  -5.4888221001112708E-005   6.5772555281187750E-005   6.4548867627869863E-002
  -7.3723807379374798E-003   1.5801537405827140E-003   5.9572068962168039E-002
  -7.2599171253663677E-003   1.6783004448450781E-003   6.0469822493252341E-002
  -7.1474535127952574E-003   1.7657720992301246E-003   6.1478332690515614E-002
  -7.0349899002241489E-003   1.8425687037379773E-003   6.2597599553957814E-002
  -6.9225262876530368E-003   1.9086902583685394E-003   6.3827623083578949E-002
  -1.4710581825137030E-002   3.1503003640715524E-003   5.9071862810613392E-002
  -1.4498409321602910E-002   3.3462138370589610E-003   5.9954690262027863E-002
  -1.4286236818068785E-002   3.5117362609521467E-003   6.0926178829189423E-002
  -1.4074064314534666E-002   3.6468676357511330E-003   6.1986328512098086E-002
  -1.3861891811000539E-002   3.7516079614558565E-003   6.3135139310753832E-002
  -2.2032128167304786E-002   4.7204469875603734E-003   5.8679281427392323E-002
  -2.1742342323239499E-002   5.0141272292728769E-003   5.9527466799919958E-002
  -2.1452556479174201E-002   5.2577004226741410E-003   6.0442217737762823E-002
  -2.1162770635108904E-002   5.4511665677642682E-003   6.1423534240920917E-002
  -2.0872984791043610E-002   5.5945256645431769E-003   6.2471416309394318E-002
  -2.9337019764440753E-002   6.2905936110492292E-003   5.8394324812504748E-002
  -2.8991716130276134E-002   6.6820406214867477E-003   5.9188152106928599E-002
  -2.8646412496111509E-002   7.0036645843961579E-003   6.0026449416235833E-002
  -2.8301108861946877E-002   7.2554654997774078E-003   6.0909216740426507E-002
  -2.7955805227782255E-002   7.4374433676305252E-003   6.1836454079500586E-002
  -5.4888221001112708E-005   6.5772555281187750E-005   6.4548867627869863E-002
  -7.4397101484841716E-005   7.8729128399020187E-005   6.4674974287949577E-002
  -9.3905981968567254E-005   5.3552331300232153E-005   6.4898438301989048E-002
  -1.1341486245229453E-004  -9.7578360153784474E-006   6.5219259669988219E-002
  -1.3292374293602180E-004  -1.1120137354761472E-004   6.5637438391947162E-002
  -6.9225262876530368E-003   1.9086902583685394E-003   6.3827623083578949E-002
  -6.8227357925901887E-003   1.9479517570410790E-003   6.3863355092422219E-002
  -6.7229452975273336E-003   1.9441681936749264E-003   6.4040328498398899E-002
  -6.6231548024644820E-003   1.8973395682699481E-003   6.4358543301509072E-002
  -6.5233643074016304E-003   1.8074658808263089E-003   6.4817999501752543E-002
  -1.3861891811000539E-002   3.7516079614558565E-003   6.3135139310753832E-002
  -1.3598917897217424E-002   3.8171743856831343E-003   6.3075584976538590E-002
  -1.3335943983434313E-002   3.8347840560495946E-003   6.3201156082630466E-002
  -1.3072970069651198E-002   3.8044369725553583E-003   6.3511852629029406E-002
  -1.2809996155868081E-002   3.7261331352003019E-003   6.4007674615735533E-002
  -2.0872984791043610E-002   5.5945256645431769E-003   6.2471416309394318E-002
  -2.0402943415366560E-002   5.6863970143251358E-003   6.2311663940298641E-002
  -1.9932902039689504E-002   5.7253999184243313E-003   6.2380921054683673E-002
  -1.9462860664012448E-002   5.7115343768407130E-003   6.2679187652549553E-002
  -1.8992819288335388E-002   5.6448003895743018E-003   6.3206463733896170E-002
  -2.7955805227782255E-002   7.4374433676305252E-003   6.1836454079500586E-002
  -2.7234812347037580E-002   7.5556196429672345E-003   6.1571591983702351E-002
  -2.6513819466292901E-002   7.6160157807990195E-003   6.1579623414558540E-002
  -2.5792826585548226E-002   7.6186317811261246E-003   6.1860548372069203E-002
  -2.5071833704803554E-002   7.5634676439482462E-003   6.2414366856234332E-002
  -1.3292374293602180E-004  -1.1120137354761472E-004   6.5637438391947162E-002
  -1.0449974584980995E-004  -2.1789873210548150E-004   6.5274380060544313E-002
  -7.6075748763598100E-005  -2.9697036249776848E-004   6.5131502050481863E-002
  -4.7651751677385383E-005  -3.4841626472452598E-004   6.5208804361759715E-002
  -1.9227754591174401E-005  -3.7223643878558921E-004   6.5506286994377938E-002
  -6.5233643074016304E-003   1.8074658808263089E-003   6.4817999501752543E-002
  -6.2872334293864384E-003   1.7028578527057414E-003   6.4566877500362774E-002
  -6.0511025513712421E-003   1.6118262052700408E-003   6.4510988939490560E-002
  -5.8149716733560484E-003   1.5343709385193059E-003   6.4650333819136041E-002
  -5.5788407953408538E-003   1.4704920524532816E-003   6.4984912139299078E-002
  -1.2809996155868081E-002   3.7261331352003019E-003   6.4007674615735533E-002
  -1.2391105277746620E-002   3.6236144375170476E-003   6.3854439596878032E-002
  -1.1972214399625144E-002   3.5206227730378813E-003   6.3871491137715508E-002
  -1.1553323521503674E-002   3.4171581417629998E-003   6.4058829238247891E-002
  -1.1134432643382212E-002   3.3132205436922635E-003   6.4416453898475223E-002
  -1.8992819288335388E-002   5.6448003895743018E-003   6.3206463733896170E-002
  -1.8416115290930350E-002   5.5443710223282289E-003   6.3137066350090310E-002
  -1.7839411293525318E-002   5.4294193408057339E-003   6.3213008645156721E-002
  -1.7262707296120280E-002   5.2999453450067353E-003   6.3434290619095349E-002
  -1.6686003298715255E-002   5.1559490349312176E-003   6.3800912271906179E-002
  -2.5071833704803554E-002   7.5634676439482462E-003   6.2414366856234332E-002
  -2.4362263468937658E-002   7.4651276071395350E-003   6.2414757759999495E-002
  -2.3652693233071759E-002   7.3382159085735518E-003   6.2535541461814184E-002
  -2.2943122997205859E-002   7.1827325482505030E-003   6.2776717961678302E-002
  -2.2233552761339960E-002   6.9986775261701717E-003   6.3138287259592030E-002
  -1.9227754591174401E-005  -3.7223643878558921E-004   6.5506286994377938E-002
  -3.7232188542648398E-005  -3.8660233517184839E-004   6.5126590576866566E-002
  -5.5236622494113721E-005  -4.0968540437399947E-004   6.4955519202810480E-002
  -7.3241056445581647E-005  -4.4148564639150817E-004   6.4993072872209595E-002
  -9.1245490397053042E-005  -4.8200306122525571E-004   6.5239251585064217E-002
  -5.5788407953408538E-003   1.4704920524532816E-003   6.4984912139299078E-002
  -5.3771045136123095E-003   1.4101956809762783E-003   6.4612788324559328E-002
  -5.1753682318837618E-003   1.3434879579920719E-003   6.4471520897724177E-002
  -4.9736319501552124E-003   1.2703688835008133E-003   6.4561109858794000E-002
  -4.7718956684266699E-003   1.1908384575025632E-003   6.4881555207768254E-002
  -1.1134432643382212E-002   3.3132205436922635E-003   6.4416453898475223E-002
  -1.0690724301524224E-002   3.2069936971245161E-003   6.4054208507815680E-002
  -1.0247015959666230E-002   3.0966613203581433E-003   6.3945050849510354E-002
  -9.8033076178082428E-003   2.9822234133934679E-003   6.4088980923559191E-002
  -9.3595992759502554E-003   2.8636799762302712E-003   6.4485998729962135E-002
  -1.6686003298715255E-002   5.1559490349312176E-003   6.3800912271906179E-002
  -1.5978091552278390E-002   5.0037917132726983E-003   6.3450851126635496E-002
  -1.5270179805841524E-002   4.8498346827241592E-003   6.3376109058168512E-002
  -1.4562268059404667E-002   4.6940779432860669E-003   6.3576686066505114E-002
  -1.3854356312967797E-002   4.5365214949580068E-003   6.4052582151645304E-002
  -2.2233552761339960E-002   6.9986775261701717E-003   6.3138287259592030E-002
  -2.1239206265874812E-002   6.8005897294208528E-003   6.2802716181019014E-002
  -2.0244859770409646E-002   6.6030080450902445E-003   6.2764695523698982E-002
  -1.9250513274944488E-002   6.4059324731786001E-003   6.3024225287631977E-002
  -1.8256166779479326E-002   6.2093630136857980E-003   6.3581305472818039E-002
  -9.1245490397053042E-005  -4.8200306122525571E-004   6.5239251585064217E-002
  -1.6220136684805958E-004  -5.6767685243649946E-004   6.4875499345821430E-002
  -2.3315724329905571E-004  -7.3494622358694084E-004   6.4619177257825372E-002
  -3.0411311975006051E-004  -9.8381117467702395E-004   6.4470285321075932E-002
  -3.7506899620105838E-004  -1.3142717057064157E-003   6.4428823535573332E-002
  -4.7718956684266699E-003   1.1908384575025632E-003   6.4881555207768254E-002
  -4.7286539346326328E-003   1.0855265388307334E-003   6.4554143391140295E-002
  -4.6854122008385870E-003   9.3506298631915175E-004   6.4347696643755795E-002
  -4.6421704670445455E-003   7.3944779996783921E-004   6.4262214965614600E-002
  -4.5989287332505041E-003   4.9868097977678882E-004   6.4297698356716781E-002
  -9.3595992759502554E-003   2.8636799762302712E-003   6.4485998729962135E-002
  -9.1886250139144900E-003   2.7387299300978413E-003   6.4231371282048561E-002
  -9.0176507518787159E-003   2.6050721962252998E-003   6.4111243821375050E-002
  -8.8466764898429470E-003   2.4627067746126469E-003   6.4125616347941811E-002
  -8.6757022278071763E-003   2.3116336652598823E-003   6.4274488861748358E-002
  -1.3854356312967797E-002   4.5365214949580068E-003   6.4052582151645304E-002
  -1.3542114604693622E-002   4.3919333213649839E-003   6.3907183018545810E-002
  -1.3229872896419430E-002   4.2750814061315867E-003   6.3909818790683165E-002
  -1.2917631188145250E-002   4.1859657492574268E-003   6.4060489468057286E-002
  -1.2605389479871070E-002   4.1245863507431424E-003   6.4359195050668117E-002
  -1.8256166779479326E-002   6.2093630136857980E-003   6.3581305472818039E-002
  -1.7789122706970036E-002   6.0451367126321265E-003   6.3581578600632460E-002
  -1.7322078634460752E-002   5.9450906160375405E-003   6.3743421551680196E-002
  -1.6855034561951473E-002   5.9092247239022622E-003   6.4066834325961469E-002
  -1.6387990489442172E-002   5.9375390362261804E-003   6.4551816923476224E-002
  -3.7506899620105838E-004  -1.3142717057064157E-003   6.4428823535573332E-002
  -3.5955367121002363E-004  -1.8236468514394866E-003   6.3701419993533959E-002
  -3.4403834621898194E-004  -2.6092556466409123E-003   6.2935206814978883E-002
  -3.2852302122794545E-004  -3.6710980913104083E-003   6.2130183999908800E-002
  -3.1300769623690550E-004  -5.0091741854476624E-003   6.1286351548323070E-002
  -4.5989287332505041E-003   4.9868097977678882E-004   6.4297698356716781E-002
  -4.5166619794428983E-003   1.7470956015289141E-004   6.3624196515255221E-002
  -4.4343952256352646E-003  -2.7051942449668465E-004   6.3123007167942252E-002
  -4.3521284718276727E-003  -8.3700597417186995E-004   6.2794130314777777E-002
  -4.2698617180200252E-003  -1.5247500888730947E-003   6.2637565955762087E-002
  -8.6757022278071763E-003   2.3116336652598823E-003   6.4274488861748358E-002
  -8.3155619145189909E-003   2.1730659717455747E-003   6.3809864805306898E-002
  -7.9554216012308124E-003   2.0682167976475291E-003   6.3728675373678281E-002
  -7.5952812879426339E-003   1.9970861429663318E-003   6.4030920566861910E-002
  -7.2351409746544346E-003   1.9596740077016950E-003   6.4716600384858269E-002
  -1.2605389479871070E-002   4.1245863507431424E-003   6.4359195050668117E-002
  -1.1756253476438312E-002   4.1714223833379388E-003   6.4258424863689254E-002
  -1.0907117473005556E-002   4.4069530197918608E-003   6.4752211432187179E-002
  -1.0057981469572831E-002   4.8311782601045353E-003   6.5840554756161351E-002
  -9.2088454661400556E-003   5.4440981042763181E-003   6.7523454835612354E-002
  -1.6387990489442172E-002   5.9375390362261804E-003   6.4551816923476224E-002
  -1.4838736665200872E-002   6.1697787949305249E-003   6.4969876690402273E-002
  -1.3289482840959575E-002   6.7456892419359704E-003   6.6193615343468903E-002
  -1.1740229016718300E-002   7.6652703772428776E-003   6.8223032882675949E-002
  -1.0190975192476970E-002   8.9285222008510523E-003   7.1058129308023688E-002
  -2.6636664271733286E-002   0.0000000000000000        2.9473267427537229E-002
  -2.7237817860450445E-002   5.8705890106782160E-004   3.4952874107312987E-002
  -2.7838971449167593E-002   1.3214657356924956E-003   4.0125443164014958E-002
  -2.8440125037884748E-002   2.2032205038740229E-003   4.4990974597643139E-002
  -2.9041278626601906E-002   3.2323232056124009E-003   4.9549468408197545E-002
  -3.3395534768281318E-002   0.0000000000000000        3.0184876721443848E-002
  -3.4238802775422919E-002   9.6119829519499336E-004   3.5274921451826501E-002
  -3.5082070782564506E-002   2.0251258737322940E-003   4.0187774968434065E-002
  -3.5925338789706107E-002   3.1917827356118958E-003   4.4923437271266527E-002
  -3.6768606796847701E-002   4.4611688808338127E-003   4.9481908360323901E-002
  -4.0733929027321390E-002   0.0000000000000000        3.1292934734584908E-002
  -4.1689465043588725E-002   1.3353376893221647E-003   3.5948798865359913E-002
  -4.2645001059856073E-002   2.7287860117720898E-003   4.0557318191658517E-002
  -4.3600537076123415E-002   4.1803449673497783E-003   4.5118492713480722E-002
  -4.4556073092390763E-002   5.6900145560552281E-003   4.9632322430826527E-002
  -4.8651847048853475E-002   0.0000000000000000        3.2797441466960418E-002
  -4.9589804664947869E-002   1.7094770834493371E-003   3.6974506347913230E-002
  -5.0527762281042284E-002   3.4324461498118882E-003   4.1234072833688344E-002
  -5.1465719897136684E-002   5.1689071990876582E-003   4.5576140924285719E-002
  -5.2403677513231085E-002   6.9188602312766417E-003   5.0000710619705409E-002
  -5.7149288832877586E-002   0.0000000000000000        3.4698396918570365E-002
  -5.7939821639500358E-002   2.0836164775765078E-003   3.8352043899486446E-002
  -5.8730354446123123E-002   4.1361062878516840E-003   4.2218038894523503E-002
  -5.9520887252745895E-002   6.1574694308255337E-003   4.6296381903681523E-002
  -6.0311420059368667E-002   8.1477059064980571E-003   5.0587072926960540E-002
  -2.9041278626601906E-002   3.2323232056124009E-003   4.9549468408197545E-002
  -2.9115213911061616E-002   4.2505476073398090E-003   5.1610421928157936E-002
  -2.9189149195521329E-002   5.0996674754884156E-003   5.3771549168862585E-002
  -2.9263084479981039E-002   5.7796828100582197E-003   5.6032850130311521E-002
  -2.9337019764440753E-002   6.2905936110492292E-003   5.8394324812504748E-002
  -3.6768606796847701E-002   4.4611688808338127E-003   4.9481908360323901E-002
  -3.6781206473825559E-002   5.6941514450901867E-003   5.1271565152298512E-002
  -3.6793806150803424E-002   6.7515975640731933E-003   5.3083719438492556E-002
  -3.6806405827781302E-002   7.6335072377828094E-003   5.4918371218905998E-002
  -3.6819005504759146E-002   8.3398804662190573E-003   5.6775520493538914E-002
  -4.4556073092390763E-002   5.6900145560552281E-003   4.9632322430826527E-002
  -4.4585013388411622E-002   7.1377552828405791E-003   5.1144250583120769E-002
  -4.4613953684432488E-002   8.4035276526579702E-003   5.2601000003109598E-002
  -4.4642893980453353E-002   9.4873316655073991E-003   5.4002570690793006E-002
  -4.4671834276474212E-002   1.0389167321388882E-002   5.5348962646170986E-002
  -5.2403677513231085E-002   6.9188602312766417E-003   5.0000710619705409E-002
  -5.2526634654819805E-002   8.5813591205909541E-003   5.1228478220624735E-002
  -5.2649591796408511E-002   1.0055457741242755E-002   5.2323390862713766E-002
  -5.2772548937997245E-002   1.1341156093232004E-002   5.3285448545972523E-002
  -5.2895506079585944E-002   1.2438454176558702E-002   5.4114651270401042E-002
  -6.0311420059368667E-002   8.1477059064980571E-003   5.0587072926960540E-002
  -6.0606070273050081E-002   1.0024962958341346E-002   5.1524248064810353E-002
  -6.0900720486731508E-002   1.1707387829827534E-002   5.2250892017305046E-002
  -6.1195370700412921E-002   1.3194980520956584E-002   5.2767004784444571E-002
  -6.1490020914094355E-002   1.4487741031728549E-002   5.3072586366229024E-002
  -2.9337019764440753E-002   6.2905936110492292E-003   5.8394324812504748E-002
  -2.8991716130276134E-002   6.6820406214867477E-003   5.9188152106928599E-002
  -2.8646412496111509E-002   7.0036645843961579E-003   6.0026449416235833E-002
  -2.8301108861946877E-002   7.2554654997774078E-003   6.0909216740426507E-002
  -2.7955805227782255E-002   7.4374433676305252E-003   6.1836454079500586E-002
  -3.6819005504759146E-002   8.3398804662190573E-003   5.6775520493538914E-002
  -3.6379636260033515E-002   8.8837276465512406E-003   5.7138431003012261E-002
  -3.5940267015307892E-002   9.2780591759486671E-003   5.7645002718724206E-002
  -3.5500897770582247E-002   9.5228750544113748E-003   5.8295235640674757E-002
  -3.5061528525856631E-002   9.6181752819393673E-003   5.9089129768863935E-002
  -4.4671834276474212E-002   1.0389167321388882E-002   5.5348962646170986E-002
  -4.4039208229832379E-002   1.1085414671615708E-002   5.5201263767287234E-002
  -4.3406582183190524E-002   1.1552453767501202E-002   5.5296417285997289E-002
  -4.2773956136548684E-002   1.1790284609045302E-002   5.5634423202301192E-002
  -4.2141330089906816E-002   1.1798907196248154E-002   5.6215281516198833E-002
  -5.2895506079585944E-002   1.2438454176558702E-002   5.4114651270401042E-002
  -5.1970432039672679E-002   1.3287101696680154E-002   5.3376650399753582E-002
  -5.1045357999759421E-002   1.3826848359053732E-002   5.2980693118055137E-002
  -5.0120283959846156E-002   1.4057694163679304E-002   5.2926779425305701E-002
  -4.9195209919932897E-002   1.3979639110556941E-002   5.3214909321505313E-002
  -6.1490020914094355E-002   1.4487741031728549E-002   5.3072586366229024E-002
  -6.0173307689554471E-002   1.5488788721744678E-002   5.1664590900411242E-002
  -5.8856594465014567E-002   1.6101242950606234E-002   5.0697830214897738E-002
  -5.7539881240474683E-002   1.6325103718313205E-002   5.0172304309688408E-002
  -5.6223168015934799E-002   1.6160371024865769E-002   5.0088013184783300E-002
  -2.7955805227782255E-002   7.4374433676305252E-003   6.1836454079500586E-002
  -2.7234812347037580E-002   7.5556196429672345E-003   6.1571591983702351E-002
  -2.6513819466292901E-002   7.6160157807990195E-003   6.1579623414558540E-002
  -2.5792826585548226E-002   7.6186317811261246E-003   6.1860548372069203E-002
  -2.5071833704803554E-002   7.5634676439482462E-003   6.2414366856234332E-002
  -3.5061528525856631E-002   9.6181752819393673E-003   5.9089129768863935E-002
  -3.4083439014115889E-002   9.6172765241443123E-003   5.8784061282823437E-002
  -3.3105349502375161E-002   9.5734954466379710E-003   5.8720292532120515E-002
  -3.2127259990634406E-002   9.4868320494204770E-003   5.8897823516755266E-002
  -3.1149170478893685E-002   9.3572863324916655E-003   5.9316654236727648E-002
  -4.2141330089906816E-002   1.1798907196248154E-002   5.6215281516198833E-002
  -4.0937737738486850E-002   1.1678933405321439E-002   5.5884904457709543E-002
  -3.9734145387066870E-002   1.1530975112477002E-002   5.5764233343241099E-002
  -3.8530553035646890E-002   1.1355032317714855E-002   5.5853268172793548E-002
  -3.7326960684226897E-002   1.1151105021035015E-002   5.6152008946366704E-002
  -4.9195209919932897E-002   1.3979639110556941E-002   5.3214909321505313E-002
  -4.7797708520150473E-002   1.3740590286498582E-002   5.2874121508360843E-002
  -4.6400207120368062E-002   1.3488454778316008E-002   5.2711445847920368E-002
  -4.5002705720585616E-002   1.3223232586009305E-002   5.2726882340183960E-002
  -4.3605204320803226E-002   1.2944923709578358E-002   5.2920430985151555E-002
  -5.6223168015934799E-002   1.6160371024865769E-002   5.0088013184783300E-002
  -5.4663351359106757E-002   1.5802247167675670E-002   4.9751712434777190E-002
  -5.3103534702278715E-002   1.5445934444155002E-002   4.9561930046158241E-002
  -5.1543718045450673E-002   1.5091432854303633E-002   4.9518666018926571E-002
  -4.9983901388622645E-002   1.4738742398121757E-002   4.9621920353082077E-002
  -2.5071833704803554E-002   7.5634676439482462E-003   6.2414366856234332E-002
  -2.4362263468937658E-002   7.4651276071395350E-003   6.2414757759999495E-002
  -2.3652693233071759E-002   7.3382159085735518E-003   6.2535541461814184E-002
  -2.2943122997205859E-002   7.1827325482505030E-003   6.2776717961678302E-002
  -2.2233552761339960E-002   6.9986775261701717E-003   6.3138287259592030E-002
  -3.1149170478893685E-002   9.3572863324916655E-003   5.9316654236727648E-002
  -3.0305060844952478E-002   9.1901313472509960E-003   5.9200284369940764E-002
  -2.9460951211011242E-002   8.9906401450978585E-003   5.9232600501254985E-002
  -2.8616841577069996E-002   8.7588127260322633E-003   5.9413602630670359E-002
  -2.7772731943128792E-002   8.4946490900543736E-003   5.9743290758186907E-002
  -3.7326960684226897E-002   1.1151105021035015E-002   5.6152008946366704E-002
  -3.6320018452158716E-002   1.0915135087362422E-002   5.5915113753872425E-002
  -3.5313076220090549E-002   1.0643064381622169E-002   5.5855197759530961E-002
  -3.4306133988022361E-002   1.0334892903814109E-002   5.5972260963342242E-002
  -3.3299191755954180E-002   9.9906206539384368E-003   5.6266303365306317E-002
  -4.3605204320803226E-002   1.2944923709578358E-002   5.2920430985151555E-002
  -4.2407136290556459E-002   1.2640138827473880E-002   5.2559245911794644E-002
  -4.1209068260309664E-002   1.2295488618146449E-002   5.2403333236642168E-002
  -4.0011000230062876E-002   1.1910973081595911E-002   5.2452692959694097E-002
  -3.8812932199816096E-002   1.1486592217822542E-002   5.2707325080950398E-002
  -4.9983901388622645E-002   1.4738742398121757E-002   4.9621920353082077E-002
  -4.8566414360145624E-002   1.4365142567585309E-002   4.9132680843707310E-002
  -4.7148927331668623E-002   1.3947912854670737E-002   4.8877006932588549E-002
  -4.5731440303191595E-002   1.3487053259377700E-002   4.8854898619725841E-002
  -4.4313953274714615E-002   1.2982563781706646E-002   4.9066355905119152E-002
  -2.2233552761339960E-002   6.9986775261701717E-003   6.3138287259592030E-002
  -2.1239206265874812E-002   6.8005897294208528E-003   6.2802716181019014E-002
  -2.0244859770409646E-002   6.6030080450902445E-003   6.2764695523698982E-002
  -1.9250513274944488E-002   6.4059324731786001E-003   6.3024225287631977E-002
  -1.8256166779479326E-002   6.2093630136857980E-003   6.3581305472818039E-002
  -2.7772731943128792E-002   8.4946490900543736E-003   5.9743290758186907E-002
  -2.6496555933852011E-002   8.2127551944861099E-003   5.9403409046211386E-002
  -2.5220379924575220E-002   7.9277369966500866E-003   5.9329635940606071E-002
  -2.3944203915298452E-002   7.6395944965460053E-003   5.9521971441371106E-002
  -2.2668027906021647E-002   7.3483276941740394E-003   5.9980415548506194E-002
  -3.3299191755954180E-002   9.9906206539384368E-003   5.6266303365306317E-002
  -3.1772628047748545E-002   9.6249206595514364E-003   5.5918480605241502E-002
  -3.0246064339542907E-002   9.2524659482098107E-003   5.5805324636664301E-002
  -2.8719500631337255E-002   8.8732565199134087E-003   5.5926835459574442E-002
  -2.7192936923131614E-002   8.4872923746622808E-003   5.6283013073972099E-002
  -3.8812932199816096E-002   1.1486592217822542E-002   5.2707325080950398E-002
  -3.7067422607564404E-002   1.1037086124616756E-002   5.2347930858109647E-002
  -3.5321913015312671E-002   1.0577194899769455E-002   5.2191761611873465E-002
  -3.3576403423060987E-002   1.0106918543280784E-002   5.2238817342242033E-002
  -3.1830893830809254E-002   9.6262570551505777E-003   5.2489098049215172E-002
  -4.4313953274714615E-002   1.2982563781706646E-002   4.9066355905119152E-002
  -4.2380939613299584E-002   1.2449251589681992E-002   4.8691759804815438E-002
  -4.0447925951884574E-002   1.1901923851329391E-002   4.8488946866233784E-002
  -3.8514912290469563E-002   1.1340580566648165E-002   4.8457917089373803E-002
  -3.6581898629054518E-002   1.0765221735638764E-002   4.8598670474235828E-002
  -1.8256166779479326E-002   6.2093630136857980E-003   6.3581305472818039E-002
  -1.7789122706970036E-002   6.0451367126321265E-003   6.3581578600632460E-002
  -1.7322078634460752E-002   5.9450906160375405E-003   6.3743421551680196E-002
  -1.6855034561951473E-002   5.9092247239022622E-003   6.4066834325961469E-002
  -1.6387990489442172E-002   5.9375390362261804E-003   6.4551816923476224E-002
  -2.2668027906021647E-002   7.3483276941740394E-003   5.9980415548506194E-002
  -2.2036171263481927E-002   7.0801861454229398E-003   5.9927661039534397E-002
  -2.1404314620942246E-002   6.8614194061815126E-003   6.0042961847389970E-002
  -2.0772457978402548E-002   6.6920274764497995E-003   6.0326317972072940E-002
  -2.0140601335862846E-002   6.5720103562278975E-003   6.0777729413583170E-002
  -2.7192936923131614E-002   8.4872923746622808E-003   5.6283013073972099E-002
  -2.6389782216967590E-002   8.1152355782138919E-003   5.6162425533264435E-002
  -2.5586627510803549E-002   7.7777481963255957E-003   5.6216378802978237E-002
  -2.4783472804639502E-002   7.4748302289975033E-003   5.6444872883113187E-002
  -2.3980318098475457E-002   7.2064816762295036E-003   5.6847907773669576E-002
  -3.1830893830809254E-002   9.6262570551505777E-003   5.2489098049215172E-002
  -3.0849955567426937E-002   9.1502850110049133E-003   5.2285872081822393E-002
  -2.9869017304044624E-002   8.6940769864697620E-003   5.2263672418444665E-002
  -2.8888079040662294E-002   8.2576329815451793E-003   5.2422499059082188E-002
  -2.7907140777279970E-002   7.8409529962311098E-003   5.2762352003735094E-002
  -3.6581898629054518E-002   1.0765221735638764E-002   4.8598670474235828E-002
  -3.5416691314860013E-002   1.0185334443795713E-002   4.8298000685208120E-002
  -3.4251484000665487E-002   9.6104057766136786E-003   4.8184842693789531E-002
  -3.3086276686470989E-002   9.0404357340927513E-003   4.8259196499980117E-002
  -3.1921069372276442E-002   8.4754243162327159E-003   4.8521062103779822E-002
  -1.6387990489442172E-002   5.9375390362261804E-003   6.4551816923476224E-002
  -1.4838736665200872E-002   6.1697787949305249E-003   6.4969876690402273E-002
  -1.3289482840959575E-002   6.7456892419359704E-003   6.6193615343468903E-002
  -1.1740229016718300E-002   7.6652703772428776E-003   6.8223032882675949E-002
  -1.0190975192476970E-002   8.9285222008510523E-003   7.1058129308023688E-002
  -2.0140601335862846E-002   6.5720103562278975E-003   6.0777729413583170E-002
  -1.7925457992500570E-002   6.5446467007672648E-003   6.1208695301454896E-002
  -1.5710314649138274E-002   6.6532151653193317E-003   6.2165761341428039E-002
  -1.3495171305776026E-002   6.8977157498841188E-003   6.3648927533502042E-002
  -1.1280027962413695E-002   7.2781484544615083E-003   6.5658193877678461E-002
  -2.3980318098475457E-002   7.2064816762295036E-003   5.6847907773669576E-002
  -2.1378863970031321E-002   6.9195146066037272E-003   5.7084041214198106E-002
  -1.8777409841587125E-002   6.5607410887023043E-003   5.7566696072789122E-002
  -1.6175955713143005E-002   6.1301611225249714E-003   5.8295872349442668E-002
  -1.3574501584698816E-002   5.6277747080721863E-003   5.9271570044157729E-002
  -2.7907140777279970E-002   7.8409529962311098E-003   5.2762352003735094E-002
  -2.5198954597793057E-002   7.2943825124403838E-003   5.2595914428632269E-002
  -2.2490768418306134E-002   6.4682670120853603E-003   5.2396419537552655E-002
  -1.9782582238819315E-002   5.3626064951661293E-003   5.2163867330496286E-002
  -1.7074396059332298E-002   3.9774009616826977E-003   5.1898257807463016E-002
  -3.1921069372276442E-002   8.4754243162327159E-003   4.8521062103779822E-002
  -2.9385729875785888E-002   7.6692504182769294E-003   4.7744314944757060E-002
  -2.6850390379295326E-002   6.3757929354684162E-003   4.6654931735718441E-002
  -2.4315050882804844E-002   4.5950518678070373E-003   4.5252912476663743E-002
  -2.1779711386314238E-002   2.3270272152933202E-003   4.3538257167593297E-002
  -5.7149288832877586E-002   0.0000000000000000        3.4698396918570365E-002
  -5.7939821639500358E-002   2.0836164775765078E-003   3.8352043899486446E-002
  -5.8730354446123123E-002   4.1361062878516840E-003   4.2218038894523503E-002
  -5.9520887252745895E-002   6.1574694308255337E-003   4.6296381903681523E-002
  -6.0311420059368667E-002   8.1477059064980571E-003   5.0587072926960540E-002
  -6.5815275175445151E-002   0.0000000000000000        3.7219024038280174E-002
  -6.6622156955045572E-002   2.9133247287581564E-003   4.0842095644417792E-002
  -6.7429038734645994E-002   5.7691500586477427E-003   4.4220121290479142E-002
  -6.8235920514246415E-002   8.5674759896687616E-003   4.7353100976464231E-002
  -6.9042802293846822E-002   1.1308302521821210E-002   5.0241034702373052E-002
  -7.4238826872607619E-002   0.0000000000000000        4.0582545774955243E-002
  -7.5519451599382906E-002   3.7430329799398041E-003   4.4148669274747164E-002
  -7.6800076326158234E-002   7.4021938294437980E-003   4.7012352840265580E-002
  -7.8080701052933549E-002   1.0977482548511988E-002   4.9173596471510483E-002
  -7.9361325779708849E-002   1.4468899137144369E-002   5.0632400168481868E-002
  -8.2419943924364955E-002   0.0000000000000000        4.4788962128595587E-002
  -8.4631705572512386E-002   4.5727412311214501E-003   4.8271764790474583E-002
  -8.6843467220659859E-002   9.0352376002398559E-003   5.0594733543882810E-002
  -8.9055228868807290E-002   1.3387489107355217E-002   5.1757868388820266E-002
  -9.1266990516954735E-002   1.7629495752467531E-002   5.1761169325286994E-002
  -9.0358626330717173E-002   0.0000000000000000        4.9838273099201191E-002
  -9.3958918874434000E-002   5.4024494823031004E-003   5.3211382191600008E-002
  -9.7559211418150826E-002   1.0668281371035912E-002   5.4967263401330825E-002
 -0.10115950396186765        1.5797495666198442E-002   5.5105916728393628E-002
 -0.10475979650558449        2.0790092367790686E-002   5.3627342172788431E-002
  -6.0311420059368667E-002   8.1477059064980571E-003   5.0587072926960540E-002
  -6.0606070273050081E-002   1.0024962958341346E-002   5.1524248064810353E-002
  -6.0900720486731508E-002   1.1707387829827534E-002   5.2250892017305046E-002
  -6.1195370700412921E-002   1.3194980520956584E-002   5.2767004784444571E-002
  -6.1490020914094355E-002   1.4487741031728549E-002   5.3072586366229024E-002
  -6.9042802293846822E-002   1.1308302521821210E-002   5.0241034702373052E-002
  -6.9310859163379951E-002   1.3751781701468093E-002   4.9462179375092549E-002
  -6.9578916032913066E-002   1.5658065574972384E-002   4.8947041921463756E-002
  -6.9846972902446208E-002   1.7027154142334067E-002   4.8695622341486666E-002
  -7.0115029771979351E-002   1.7859047403553194E-002   4.8707920635161286E-002
  -7.9361325779708849E-002   1.4468899137144369E-002   5.0632400168481868E-002
  -7.9128540246086870E-002   1.7478600444594809E-002   4.7795151250285592E-002
  -7.8895754712464863E-002   1.9608743320117212E-002   4.5695869264747863E-002
  -7.8662969178842884E-002   2.0859327763711553E-002   4.4334554211868632E-002
  -7.8430183645220891E-002   2.1230353775377832E-002   4.3711206091647997E-002
  -9.1266990516954735E-002   1.7629495752467531E-002   5.1761169325286994E-002
  -9.0059113521170797E-002   2.1205419187721557E-002   4.6523163690389460E-002
  -8.8851236525386845E-002   2.3559421065262050E-002   4.2497374047157331E-002
  -8.7643359529602907E-002   2.4691501385089021E-002   3.9683800395590559E-002
  -8.6435482533818983E-002   2.4601660147202456E-002   3.8082442735689115E-002
 -0.10475979650558449        2.0790092367790686E-002   5.3627342172788431E-002
 -0.10210257898863177        2.4932237930848276E-002   4.5646216695404203E-002
  -9.9445361471679039E-002   2.7510098810406895E-002   3.9351556268692169E-002
  -9.6788143954726319E-002   2.8523675006466520E-002   3.4743360892652335E-002
  -9.4130926437773599E-002   2.7972966519027122E-002   3.1821630567284730E-002
  -6.1490020914094355E-002   1.4487741031728549E-002   5.3072586366229024E-002
  -6.0173307689554471E-002   1.5488788721744678E-002   5.1664590900411242E-002
  -5.8856594465014567E-002   1.6101242950606234E-002   5.0697830214897738E-002
  -5.7539881240474683E-002   1.6325103718313205E-002   5.0172304309688408E-002
  -5.6223168015934799E-002   1.6160371024865769E-002   5.0088013184783300E-002
  -7.0115029771979351E-002   1.7859047403553194E-002   4.8707920635161286E-002
  -6.8401283788131026E-002   1.8311169284433243E-002   4.7260107675146143E-002
  -6.6687537804282715E-002   1.8540943710777694E-002   4.6165125453443638E-002
  -6.4973791820434376E-002   1.8548370682586544E-002   4.5422973970053779E-002
  -6.3260045836586065E-002   1.8333450199859852E-002   4.5033653224976544E-002
  -7.8430183645220891E-002   2.1230353775377832E-002   4.3711206091647997E-002
  -7.6407808944055702E-002   2.1133549847121784E-002   4.2389821644054429E-002
  -7.4385434242890527E-002   2.0980644470949099E-002   4.1332863892781929E-002
  -7.2363059541725366E-002   2.0771637646859832E-002   4.0540332837830456E-002
  -7.0340684840560178E-002   2.0506529374853914E-002   4.0012228479200107E-002
  -8.6435482533818983E-002   2.4601660147202456E-002   3.8082442735689115E-002
  -8.4192883157328521E-002   2.3955930409810321E-002   3.7053732807136058E-002
  -8.1950283780838074E-002   2.3420345231120559E-002   3.6201045532912549E-002
  -7.9707684404347598E-002   2.2994904611133089E-002   3.5524380913018412E-002
  -7.7465085027857150E-002   2.2679608549847987E-002   3.5023738947453878E-002
  -9.4130926437773599E-002   2.7972966519027122E-002   3.1821630567284730E-002
  -9.1756506427949455E-002   2.6778310972498897E-002   3.1251841164391142E-002
  -8.9382086418125298E-002   2.5860045991291970E-002   3.0769670373835521E-002
  -8.7007666408301154E-002   2.5218171575406401E-002   3.0375118195617799E-002
  -8.4633246398476983E-002   2.4852687724842046E-002   3.0068184629737940E-002
  -5.6223168015934799E-002   1.6160371024865769E-002   5.0088013184783300E-002
  -5.4663351359106757E-002   1.5802247167675670E-002   4.9751712434777190E-002
  -5.3103534702278715E-002   1.5445934444155002E-002   4.9561930046158241E-002
  -5.1543718045450673E-002   1.5091432854303633E-002   4.9518666018926571E-002
  -4.9983901388622645E-002   1.4738742398121757E-002   4.9621920353082077E-002
  -6.3260045836586065E-002   1.8333450199859852E-002   4.5033653224976544E-002
  -6.1535564756462199E-002   1.7989018985526177E-002   4.4654305916051622E-002
  -5.9811083676338347E-002   1.7607913762513944E-002   4.4457769092331081E-002
  -5.8086602596214496E-002   1.7190134530823402E-002   4.4444042753815027E-002
  -5.6362121516090630E-002   1.6735681290454357E-002   4.4613126900503286E-002
  -7.0340684840560178E-002   2.0506529374853914E-002   4.0012228479200107E-002
  -6.8415247213323316E-002   2.0175790803376600E-002   3.9551349469008623E-002
  -6.6489809586086440E-002   1.9769893080872965E-002   3.9309573067838596E-002
  -6.4564371958849578E-002   1.9288836207343143E-002   3.9286899275690242E-002
  -6.2638934331612731E-002   1.8732620182786971E-002   3.9483328092563504E-002
  -7.7465085027857150E-002   2.2679608549847987E-002   3.5023738947453878E-002
  -7.5302398729690093E-002   2.2362562621227038E-002   3.4442843093647924E-002
  -7.3139712431523021E-002   2.1931872399231975E-002   3.4117341972680744E-002
  -7.0977026133355978E-002   2.1387537883862839E-002   3.4047235584552346E-002
  -6.8814339835188906E-002   2.0729559075119551E-002   3.4232523929262695E-002
  -8.4633246398476983E-002   2.4852687724842046E-002   3.0068184629737940E-002
  -8.2197019305562516E-002   2.4549334439077503E-002   2.9328786789969793E-002
  -7.9760792212648063E-002   2.4093851717590934E-002   2.8881075806857427E-002
  -7.7324565119733624E-002   2.3486239560382607E-002   2.8725051680401254E-002
  -7.4888338026819157E-002   2.2726497967452214E-002   2.8860714410600924E-002
  -4.9983901388622645E-002   1.4738742398121757E-002   4.9621920353082077E-002
  -4.8566414360145624E-002   1.4365142567585309E-002   4.9132680843707310E-002
  -4.7148927331668623E-002   1.3947912854670737E-002   4.8877006932588549E-002
  -4.5731440303191595E-002   1.3487053259377700E-002   4.8854898619725841E-002
  -4.4313953274714615E-002   1.2982563781706646E-002   4.9066355905119152E-002
  -5.6362121516090630E-002   1.6735681290454357E-002   4.4613126900503286E-002
  -5.4724361947306462E-002   1.6251018592805200E-002   4.4178314250995471E-002
  -5.3086602378522266E-002   1.5742610989274229E-002   4.3950481083846013E-002
  -5.1448842809738042E-002   1.5210458479861430E-002   4.3929627399054885E-002
  -4.9811083240953874E-002   1.4654561064566696E-002   4.4115753196621948E-002
  -6.2638934331612731E-002   1.8732620182786971E-002   3.9483328092563504E-002
  -6.0807488338419091E-002   1.8136894618025007E-002   3.9122827279419188E-002
  -5.8976042345225452E-002   1.7537309123877663E-002   3.8942719832735395E-002
  -5.7144596352031785E-002   1.6933863700344935E-002   3.8943005752512104E-002
  -5.5313150358838187E-002   1.6326558347426773E-002   3.9123685038749564E-002
  -6.8814339835188906E-002   2.0729559075119551E-002   3.4232523929262695E-002
  -6.6815793533483575E-002   2.0022770643244828E-002   3.3966219928978240E-002
  -6.4817247231778230E-002   1.9332007258481096E-002   3.3853723179256591E-002
  -6.2818700930072829E-002   1.8657268920828470E-002   3.3895033680097761E-002
  -6.0820154628367561E-002   1.7998555630286808E-002   3.4090151431501931E-002
  -7.4888338026819157E-002   2.2726497967452214E-002   2.8860714410600924E-002
  -7.2749277532499823E-002   2.1908646668464676E-002   2.8708492199672753E-002
  -7.0610217038180489E-002   2.1126705393084637E-002   2.8683491123409691E-002
  -6.8471156543861184E-002   2.0380674141312158E-002   2.8785711181811745E-002
  -6.6332096049541850E-002   1.9670552913146955E-002   2.9015152374878894E-002
  -4.4313953274714615E-002   1.2982563781706646E-002   4.9066355905119152E-002
  -4.2380939613299584E-002   1.2449251589681992E-002   4.8691759804815438E-002
  -4.0447925951884574E-002   1.1901923851329391E-002   4.8488946866233784E-002
  -3.8514912290469563E-002   1.1340580566648165E-002   4.8457917089373803E-002
  -3.6581898629054518E-002   1.0765221735638764E-002   4.8598670474235828E-002
  -4.9811083240953874E-002   1.4654561064566696E-002   4.4115753196621948E-002
  -4.7693323737600019E-002   1.4083658266373603E-002   4.3739041921768598E-002
  -4.5575564234246135E-002   1.3506489608265795E-002   4.3560039169071058E-002
  -4.3457804730892238E-002   1.2923055090242819E-002   4.3578744938529222E-002
  -4.1340045227538348E-002   1.2333354712305233E-002   4.3795159230143266E-002
  -5.5313150358838187E-002   1.6326558347426773E-002   3.9123685038749564E-002
  -5.2984719653111592E-002   1.5718064943065199E-002   3.8752608275759909E-002
  -5.0656288947384956E-002   1.5111055365202138E-002   3.8605165395359874E-002
  -4.8327858241658375E-002   1.4505529613837472E-002   3.8681356397549591E-002
  -4.5999427535931781E-002   1.3901487688971426E-002   3.8981181282328831E-002
  -6.0820154628367561E-002   1.7998555630286808E-002   3.4090151431501931E-002
  -5.8255127359834277E-002   1.7352471619756719E-002   3.3732458866789286E-002
  -5.5690100091301042E-002   1.6715621122138511E-002   3.3624325545100302E-002
  -5.3125072822767773E-002   1.6088004137432152E-002   3.3765751466434936E-002
  -5.0560045554234587E-002   1.5469620665637701E-002   3.4156736630793008E-002
  -6.6332096049541850E-002   1.9670552913146955E-002   2.9015152374878894E-002
  -6.3504546857768143E-002   1.8986878296448406E-002   2.8678593694856869E-002
  -6.0676997665994409E-002   1.8320186879074871E-002   2.8617519618292259E-002
  -5.7849448474220660E-002   1.7670478661026803E-002   2.8831930145185106E-002
  -5.5021899282446940E-002   1.7037753642304032E-002   2.9321825275535396E-002
  -3.6581898629054518E-002   1.0765221735638764E-002   4.8598670474235828E-002
  -3.5416691314860013E-002   1.0185334443795713E-002   4.8298000685208120E-002
  -3.4251484000665487E-002   9.6104057766136786E-003   4.8184842693789531E-002
  -3.3086276686470989E-002   9.0404357340927513E-003   4.8259196499980117E-002
  -3.1921069372276442E-002   8.4754243162327159E-003   4.8521062103779822E-002
  -4.1340045227538348E-002   1.2333354712305233E-002   4.3795159230143266E-002
  -4.0015596083926797E-002   1.1730876735561363E-002   4.3557818406495780E-002
  -3.8691146940315183E-002   1.1109109421120228E-002   4.3451449444073337E-002
  -3.7366697796703589E-002   1.0468052768982029E-002   4.3476052342875840E-002
  -3.6042248653092010E-002   9.8077067791467742E-003   4.3631627102903192E-002
  -4.5999427535931781E-002   1.3901487688971426E-002   3.8981181282328831E-002
  -4.4572276499287265E-002   1.3276419027326875E-002   3.8782921461703659E-002
  -4.3145125462642799E-002   1.2607813065626930E-002   3.8659093565918984E-002
  -4.1717974425998346E-002   1.1895669803871581E-002   3.8609697594975255E-002
  -4.0290823389353872E-002   1.1139989242060777E-002   3.8634733548872285E-002
  -5.0560045554234587E-002   1.5469620665637701E-002   3.4156736630793008E-002
  -4.9086732560941447E-002   1.4821961319092317E-002   3.3973309850831516E-002
  -4.7613419567648273E-002   1.4106516710133639E-002   3.3807775059326695E-002
  -4.6140106574355105E-002   1.3323286838760941E-002   3.3660132256278327E-002
  -4.4666793581061959E-002   1.2472271704974752E-002   3.3530381441686602E-002
  -5.5021899282446940E-002   1.7037753642304032E-002   2.9321825275535396E-002
  -5.3558964268889314E-002   1.6367503610858036E-002   2.9128983573879608E-002
  -5.2096029255331675E-002   1.5605220354640154E-002   2.8897493924296219E-002
  -5.0633094241774083E-002   1.4750903873650349E-002   2.8627356326785161E-002
  -4.9170159228216409E-002   1.3804554167888783E-002   2.8318570781346530E-002
  -3.1921069372276442E-002   8.4754243162327159E-003   4.8521062103779822E-002
  -2.9385729875785888E-002   7.6692504182769294E-003   4.7744314944757060E-002
  -2.6850390379295326E-002   6.3757929354684162E-003   4.6654931735718441E-002
  -2.4315050882804844E-002   4.5950518678070373E-003   4.5252912476663743E-002
  -2.1779711386314238E-002   2.3270272152933202E-003   4.3538257167593297E-002
  -3.6042248653092010E-002   9.8077067791467742E-003   4.3631627102903192E-002
  -3.3657950924680276E-002   9.0230923006015262E-003   4.2530813158083519E-002
  -3.1273653196268465E-002   8.0092301823332102E-003   4.1440551727122049E-002
  -2.8889355467856679E-002   6.7661204243419579E-003   4.0360842810019212E-002
  -2.6505057739444920E-002   5.2937630266280955E-003   3.9291686406774495E-002
  -4.0290823389353872E-002   1.1139989242060777E-002   3.8634733548872285E-002
  -3.7734378865146641E-002   1.0376934182925845E-002   3.7467888763385332E-002
  -3.5177934340939417E-002   9.6426674291978376E-003   3.6634785055631072E-002
  -3.2621489816732248E-002   8.9371889808767951E-003   3.6135422425609492E-002
  -3.0065045292524961E-002   8.2604988379627597E-003   3.5969800873320412E-002
  -4.4666793581061959E-002   1.2472271704974752E-002   3.3530381441686602E-002
  -4.1615013697185094E-002   1.1730776065250137E-002   3.2555541760662589E-002
  -3.8563233813308104E-002   1.1276104676062493E-002   3.2237631721245455E-002
  -3.5511453929431135E-002   1.1108257537411674E-002   3.2576651323435110E-002
  -3.2459674045554304E-002   1.1227234649297368E-002   3.3572600567231534E-002
  -4.9170159228216409E-002   1.3804554167888783E-002   2.8318570781346530E-002
  -4.5299855420795510E-002   1.3084617947574650E-002   2.7793772149915075E-002
  -4.1429551613374596E-002   1.2909541922927217E-002   2.8249091723964698E-002
  -3.7559247805953676E-002   1.3279326093946432E-002   2.9684529503495302E-002
  -3.3688943998532728E-002   1.4193970460632199E-002   3.2100085488507180E-002
  -9.0358626330717173E-002   0.0000000000000000        4.9838273099201191E-002
  -9.3958918874434000E-002   5.4024494823031004E-003   5.3211382191600008E-002
  -9.7559211418150826E-002   1.0668281371035912E-002   5.4967263401330825E-002
 -0.10115950396186765        1.5797495666198442E-002   5.5105916728393628E-002
 -0.10475979650558449        2.0790092367790686E-002   5.3627342172788431E-002
 -0.10329176174977642        0.0000000000000000        5.8664772029347396E-002
 -0.10682822366536271        1.0883876380762741E-002   5.2120926964499083E-002
 -0.11036468558094902        1.9171026360642662E-002   4.7321971038579824E-002
 -0.11390114749653529        2.4861449939639745E-002   4.4267904251589607E-002
 -0.11743760941212161        2.7955147117753994E-002   4.2958726603528459E-002
 -0.12645623783965473        0.0000000000000000        7.4202752261609523E-002
 -0.12656675210551344        1.6365303279222389E-002   5.5281844232201519E-002
 -0.12667726637137214        2.7673771350249406E-002   4.1467942363319646E-002
 -0.12678778063723087        3.3925404213081045E-002   3.2761046654963898E-002
 -0.12689829490308957        3.5120201867717339E-002   2.9161157107134263E-002
 -0.15985205460035218        0.0000000000000000        9.6452213795987549E-002
 -0.15317450419488624        2.1846730177682034E-002   6.2694133994707343E-002
 -0.14649695378942029        3.6176516339856149E-002   3.7405177375550311E-002
 -0.13981940338395435        4.2989358486522342E-002   2.0585343938516458E-002
 -0.13314185297848841        4.2285256617680629E-002   1.2234633683605771E-002
 -0.20347921203186869        0.0000000000000000       0.12541315663248151     
 -0.18665147993348105        2.7328157076141682E-002   7.4357796252016536E-002
 -0.16982374783509341        4.4679261329462913E-002   3.5133676075271798E-002
 -0.15299601573670576        5.2053312759963652E-002   7.7407961022473021E-003
 -0.13616828363831812        4.9450311367643968E-002  -7.8208436670569800E-003
 -0.10475979650558449        2.0790092367790686E-002   5.3627342172788431E-002
 -0.10210257898863177        2.4932237930848276E-002   4.5646216695404203E-002
  -9.9445361471679039E-002   2.7510098810406895E-002   3.9351556268692169E-002
  -9.6788143954726319E-002   2.8523675006466520E-002   3.4743360892652335E-002
  -9.4130926437773599E-002   2.7972966519027122E-002   3.1821630567284730E-002
 -0.11743760941212161        2.7955147117753994E-002   4.2958726603528459E-002
 -0.11348077681074413        2.9426870979197214E-002   3.6702126117486807E-002
 -0.10952394420936666        3.0251374608181138E-002   3.1358290749622444E-002
 -0.10556711160798918        3.0428658004705782E-002   2.6927220499935373E-002
 -0.10161027900661171        2.9958721168771185E-002   2.3408915368425636E-002
 -0.12689829490308957        3.5120201867717339E-002   2.9161157107134263E-002
 -0.12241554714978226        3.3921504027546137E-002   2.5546146063474846E-002
 -0.11793279939647493        3.2992650405955407E-002   2.2070200205497909E-002
 -0.11345005164316757        3.2333641002945085E-002   1.8733319533203351E-002
 -0.10896730388986024        3.1944475818515256E-002   1.5535504046591214E-002
 -0.13314185297848841        4.2285256617680629E-002   1.2234633683605771E-002
 -0.12890689000574612        3.8416137075895057E-002   1.2178276533368441E-002
 -0.12467192703300378        3.5733926203729595E-002   1.1487284636318609E-002
 -0.12043696406026150        3.4238624001184353E-002   1.0161657992456231E-002
 -0.11620200108751919        3.3930230468259277E-002   8.2013966017814872E-003
 -0.13616828363831812        4.9450311367643968E-002  -7.8208436670569800E-003
 -0.13295480537863574        4.2910770124243984E-002  -3.4014824728326488E-003
 -0.12974132711895334        3.8475202001503887E-002  -3.9045595791556940E-004
 -0.12652784885927093        3.6143606999423684E-002   1.2122358776939569E-003
 -0.12331437059958855        3.5915985118003368E-002   1.4065930339962895E-003
  -9.4130926437773599E-002   2.7972966519027122E-002   3.1821630567284730E-002
  -9.1756506427949455E-002   2.6778310972498897E-002   3.1251841164391142E-002
  -8.9382086418125298E-002   2.5860045991291970E-002   3.0769670373835521E-002
  -8.7007666408301154E-002   2.5218171575406401E-002   3.0375118195617799E-002
  -8.4633246398476983E-002   2.4852687724842046E-002   3.0068184629737940E-002
 -0.10161027900661171        2.9958721168771185E-002   2.3408915368425636E-002
  -9.9136990182182277E-002   2.9189910082650445E-002   2.3135635002093213E-002
  -9.6663701357752832E-002   2.8470570728616588E-002   2.2972473652633406E-002
  -9.4190412533323387E-002   2.7800703106669829E-002   2.2919431320046254E-002
  -9.1717123708893983E-002   2.7180307216809904E-002   2.2976508004331694E-002
 -0.10896730388986024        3.1944475818515256E-002   1.5535504046591214E-002
 -0.10637264584629080        3.1601509192801990E-002   1.5331813883585493E-002
 -0.10377798780272131        3.1081095465941223E-002   1.5260743141987186E-002
 -0.10118332975915187        3.0383234637933215E-002   1.5322291821796270E-002
  -9.8588671715582388E-002   2.9507926708777769E-002   1.5516459923012708E-002
 -0.11620200108751919        3.3930230468259277E-002   8.2013966017814872E-003
 -0.11346347342027496        3.4013108302953503E-002   7.8403778088680862E-003
 -0.11072494575303077        3.3691620203265875E-002   7.6344788418969507E-003
 -0.10798641808578656        3.2965766169196574E-002   7.5836997008678856E-003
 -0.10524789041854232        3.1835546200745524E-002   7.6880403857809551E-003
 -0.12331437059958855        3.5915985118003368E-002   1.4065930339962895E-003
 -0.12040947290413487        3.6424707413105009E-002   6.6132677794109029E-004
 -0.11750457520868113        3.6302144940590433E-002   9.3680752362663988E-005
 -0.11459967751322742        3.5548297700460127E-002  -2.9634504273888355E-004
 -0.11169477981777370        3.4163165692713438E-002  -5.0875060736355060E-004
  -8.4633246398476983E-002   2.4852687724842046E-002   3.0068184629737940E-002
  -8.2197019305562516E-002   2.4549334439077503E-002   2.9328786789969793E-002
  -7.9760792212648063E-002   2.4093851717590934E-002   2.8881075806857427E-002
  -7.7324565119733624E-002   2.3486239560382607E-002   2.8725051680401254E-002
  -7.4888338026819157E-002   2.2726497967452214E-002   2.8860714410600924E-002
  -9.1717123708893983E-002   2.7180307216809904E-002   2.2976508004331694E-002
  -8.9016282904977359E-002   2.6563337466873588E-002   2.2324991878657302E-002
  -8.6315442101060680E-002   2.5903748264697313E-002   2.1911016318331353E-002
  -8.3614601297144001E-002   2.5201539610281289E-002   2.1734581323353735E-002
  -8.0913760493227377E-002   2.4456711503625356E-002   2.1795686893724547E-002
  -9.8588671715582388E-002   2.9507926708777769E-002   1.5516459923012708E-002
  -9.5677363491971146E-002   2.8577340494669604E-002   1.5062335494914220E-002
  -9.2766055268359904E-002   2.7713644811803773E-002   1.4791605340856497E-002
  -8.9854747044748676E-002   2.6916839660179971E-002   1.4704269460839536E-002
  -8.6943438821137378E-002   2.6186925039798428E-002   1.4800327854863522E-002
 -0.10524789041854232        3.1835546200745524E-002   7.6880403857809551E-003
 -0.10218026106654407        3.0591343522465696E-002   7.5408176387403133E-003
  -9.9112631714545804E-002   2.9523541358910138E-002   7.5228428744331319E-003
  -9.6045002362547566E-002   2.8632139710078764E-002   7.6341160928586928E-003
  -9.2977373010549341E-002   2.7917138575971591E-002   7.8746372940177740E-003
 -0.11169477981777370        3.4163165692713438E-002  -5.0875060736355060E-004
 -0.10852497562869601        3.2605346550261732E-002  -2.3956168986422055E-004
 -0.10535517143961834        3.1333437906016573E-002   1.0472891906077031E-004
 -0.10218536725054068        3.0347439759977436E-002   5.2412121941119993E-004
  -9.9015563061462974E-002   2.9647352112144754E-002   1.0186152111876234E-003
  -7.4888338026819157E-002   2.2726497967452214E-002   2.8860714410600924E-002
  -7.2749277532499823E-002   2.1908646668464676E-002   2.8708492199672753E-002
  -7.0610217038180489E-002   2.1126705393084637E-002   2.8683491123409691E-002
  -6.8471156543861184E-002   2.0380674141312158E-002   2.8785711181811745E-002
  -6.6332096049541850E-002   1.9670552913146955E-002   2.9015152374878894E-002
  -8.0913760493227377E-002   2.4456711503625356E-002   2.1795686893724547E-002
  -7.8642742550001588E-002   2.3686436597235266E-002   2.1657763073725578E-002
  -7.6371724606775757E-002   2.2907887543617007E-002   2.1656533016874382E-002
  -7.4100706663549981E-002   2.2121064342770461E-002   2.1791996723171017E-002
  -7.1829688720324136E-002   2.1325966994695522E-002   2.2064154192615482E-002
  -8.6943438821137378E-002   2.6186925039798428E-002   1.4800327854863522E-002
  -8.4530990800522371E-002   2.5464226526005759E-002   1.4632518254957885E-002
  -8.2118542779907391E-002   2.4689069694149437E-002   1.4610875046682844E-002
  -7.9706094759292329E-002   2.3861454544228659E-002   1.4735398230038476E-002
  -7.7293646738677405E-002   2.2981381076244284E-002   1.5006087805024521E-002
  -9.2977373010549341E-002   2.7917138575971591E-002   7.8746372940177740E-003
  -9.0414022284062340E-002   2.7242016454776495E-002   7.6327577433697464E-003
  -8.7850671557575352E-002   2.6470251844681783E-002   7.5465172128351124E-003
  -8.5287320831088392E-002   2.5601844745687160E-002   7.6159157024138797E-003
  -8.2723970104601433E-002   2.4636795157792726E-002   7.8409532121058827E-003
  -9.9015563061462974E-002   2.9647352112144754E-002   1.0186152111876234E-003
  -9.6291837000621328E-002   2.9019806383546953E-002   6.5848153896175265E-004
  -9.3568110939779681E-002   2.8251433995214376E-002   4.6345951533147134E-004
  -9.0844384878938034E-002   2.7342234947145445E-002   4.3354914029764685E-004
  -8.8120658818096387E-002   2.6292209239341613E-002   5.6875041385962000E-004
  -6.6332096049541850E-002   1.9670552913146955E-002   2.9015152374878894E-002
  -6.3504546857768143E-002   1.8986878296448406E-002   2.8678593694856869E-002
  -6.0676997665994409E-002   1.8320186879074871E-002   2.8617519618292259E-002
  -5.7849448474220660E-002   1.7670478661026803E-002   2.8831930145185106E-002
  -5.5021899282446940E-002   1.7037753642304032E-002   2.9321825275535396E-002
  -7.1829688720324136E-002   2.1325966994695522E-002   2.2064154192615482E-002
  -6.8748781959945798E-002   2.0541074415260957E-002   2.1761936572086749E-002
  -6.5667875199567405E-002   1.9784865520335052E-002   2.1690949485309793E-002
  -6.2586968439189039E-002   1.9057340309917615E-002   2.1851192932284859E-002
  -5.9506061678810618E-002   1.8358498784009081E-002   2.2242666913011633E-002
  -7.7293646738677405E-002   2.2981381076244284E-002   1.5006087805024521E-002
  -7.4003636479399865E-002   2.2095270534073563E-002   1.4749911729172449E-002
  -7.0713626220122477E-002   2.1249544161595017E-002   1.4680712117366684E-002
  -6.7423615960845035E-002   2.0444201958808542E-002   1.4798488969607029E-002
  -6.4133605701567620E-002   1.9679243925714046E-002   1.5103242285893895E-002
  -8.2723970104601433E-002   2.4636795157792726E-002   7.8409532121058827E-003
  -7.9269110416130523E-002   2.3649466652886225E-002   7.6425191661137135E-003
  -7.5814250727659613E-002   2.2714222802855146E-002   7.5868075144622949E-003
  -7.2359391039188703E-002   2.1831063607699465E-002   7.6738182571516626E-003
  -6.8904531350717821E-002   2.0999989067418998E-002   7.9035513941814808E-003
  -8.8120658818096387E-002   2.6292209239341613E-002   5.6875041385962000E-004
  -8.4545203770137523E-002   2.5203662771698776E-002   4.3975888291092335E-004
  -8.0969748722178825E-002   2.4178901444115192E-002   4.0923567659739701E-004
  -7.7394293674220099E-002   2.3217925256590062E-002   4.7718079491888832E-004
  -7.3818838626261263E-002   2.2320734209124060E-002   6.4359423787541115E-004
  -5.5021899282446940E-002   1.7037753642304032E-002   2.9321825275535396E-002
  -5.3558964268889314E-002   1.6367503610858036E-002   2.9128983573879608E-002
  -5.2096029255331675E-002   1.5605220354640154E-002   2.8897493924296219E-002
  -5.0633094241774083E-002   1.4750903873650349E-002   2.8627356326785161E-002
  -4.9170159228216409E-002   1.3804554167888783E-002   2.8318570781346530E-002
  -5.9506061678810618E-002   1.8358498784009081E-002   2.2242666913011633E-002
  -5.8012128166732693E-002   1.7650578590053395E-002   2.1906652908723151E-002
  -5.6518194654654824E-002   1.6895817375494532E-002   2.1671283849402895E-002
  -5.5024261142576872E-002   1.6094215140333219E-002   2.1536559735050795E-002
  -5.3530327630498989E-002   1.5245771884568660E-002   2.1502480565666948E-002
  -6.4133605701567620E-002   1.9679243925714046E-002   1.5103242285893895E-002
  -6.2469380798073626E-002   1.8933653569248754E-002   1.4669248183141553E-002
  -6.0805155894579563E-002   1.8186414396349201E-002   1.4475191918253208E-002
  -5.9140930991085604E-002   1.7437526407016093E-002   1.4521073491229088E-002
  -5.7476706087591568E-002   1.6686989601248675E-002   1.4806892902068894E-002
  -6.8904531350717821E-002   2.0999989067418998E-002   7.9035513941814808E-003
  -6.6930722162911876E-002   2.0216728548443974E-002   7.4167693971346205E-003
  -6.4956912975106015E-002   1.9477011417203614E-002   7.3092181308475231E-003
  -6.2983103787300140E-002   1.8780837673698522E-002   7.5808975953201418E-003
  -6.1009294599494217E-002   1.8128207317928788E-002   8.2318077905525096E-003
  -7.3818838626261263E-002   2.2320734209124060E-002   6.4359423787541115E-004
  -7.1396152261247625E-002   2.1499803527639416E-002   1.4921655070249118E-004
  -6.8973465896234043E-002   2.0767608438058444E-002   1.7336248718535785E-004
  -6.6550779531220461E-002   2.0124148940381635E-002   7.1603204732390013E-004
  -6.4128093166206823E-002   1.9569425034608456E-002   1.7772252311180070E-003
  -4.9170159228216409E-002   1.3804554167888783E-002   2.8318570781346530E-002
  -4.5299855420795510E-002   1.3084617947574650E-002   2.7793772149915075E-002
  -4.1429551613374596E-002   1.2909541922927217E-002   2.8249091723964698E-002
  -3.7559247805953676E-002   1.3279326093946432E-002   2.9684529503495302E-002
  -3.3688943998532728E-002   1.4193970460632199E-002   3.2100085488507180E-002
  -5.3530327630498989E-002   1.5245771884568660E-002   2.1502480565666948E-002
  -4.8956067823787711E-002   1.4470118226471290E-002   2.1483949879036263E-002
  -4.4381808017076453E-002   1.3886884784310743E-002   2.1893212985505395E-002
  -3.9807548210365251E-002   1.3496071558086846E-002   2.2730269885073998E-002
  -3.5233288403653862E-002   1.3297678547799840E-002   2.3995120577742446E-002
  -5.7476706087591568E-002   1.6686989601248675E-002   1.4806892902068894E-002
  -5.2750814693971443E-002   1.5855618505367930E-002   1.4942190180509546E-002
  -4.8024923300351394E-002   1.4864227645694152E-002   1.4952956839668248E-002
  -4.3299031906731129E-002   1.3712817022227425E-002   1.4839192879545025E-002
  -3.8573140513111198E-002   1.2401386634967593E-002   1.4600898300139942E-002
  -6.1009294599494217E-002   1.8128207317928788E-002   8.2318077905525096E-003
  -5.6684096031346720E-002   1.7241118784264847E-002   8.1684930543341611E-003
  -5.2358897463199237E-002   1.5841570507077785E-002   7.4283232864529817E-003
  -4.8033698895051755E-002   1.3929562486367866E-002   6.0112984869077095E-003
  -4.3708500326904202E-002   1.1505094722135401E-002   3.9174186556994867E-003
  -6.4128093166206823E-002   1.9569425034608456E-002   1.7772252311180070E-003
  -6.0755911835913445E-002   1.8626619063161098E-002   1.1628585005111214E-003
  -5.7383730505620123E-002   1.6818913368461225E-002  -6.8068767414089515E-004
  -5.4011549175326745E-002   1.4146307950508398E-002  -3.7534132928371058E-003
  -5.0639367845033423E-002   1.0608802809302986E-002  -8.0553183555787111E-003
 </DataArray>
 </PointData>
 </Piece>
 <Piece  NumberOfPoints="          1600 "  NumberOfCells="         1024 ">
 <Points>
 <DataArray  type="Float64" NumberOfComponents="3"  format="ascii" >
  0.50000000000000000        0.0000000000000000        0.0000000000000000     
  0.53125000000000000        0.0000000000000000        0.0000000000000000     
  0.56250000000000000        0.0000000000000000        0.0000000000000000     
  0.59375000000000000        0.0000000000000000        0.0000000000000000     
  0.62500000000000000        0.0000000000000000        0.0000000000000000     
  0.50000000000000000        3.1250000000000000E-002   0.0000000000000000     
  0.53125000000000000        3.1250000000000000E-002   0.0000000000000000     
  0.56250000000000000        3.1250000000000000E-002   0.0000000000000000     
  0.59375000000000000        3.1250000000000000E-002   0.0000000000000000     
  0.62500000000000000        3.1250000000000000E-002   0.0000000000000000     
  0.50000000000000000        6.2500000000000000E-002   0.0000000000000000     
  0.53125000000000000        6.2500000000000000E-002   0.0000000000000000     
  0.56250000000000000        6.2500000000000000E-002   0.0000000000000000     
  0.59375000000000000        6.2500000000000000E-002   0.0000000000000000     
  0.62500000000000000        6.2500000000000000E-002   0.0000000000000000     
  0.50000000000000000        9.3750000000000000E-002   0.0000000000000000     
  0.53125000000000000        9.3750000000000000E-002   0.0000000000000000     
  0.56250000000000000        9.3750000000000000E-002   0.0000000000000000     
  0.59375000000000000        9.3750000000000000E-002   0.0000000000000000     
  0.62500000000000000        9.3750000000000000E-002   0.0000000000000000     
  0.50000000000000000       0.12500000000000000        0.0000000000000000     
  0.53125000000000000       0.12500000000000000        0.0000000000000000     
  0.56250000000000000       0.12500000000000000        0.0000000000000000     
  0.59375000000000000       0.12500000000000000        0.0000000000000000     
  0.62500000000000000       0.12500000000000000        0.0000000000000000     
  0.62500000000000000        0.0000000000000000        0.0000000000000000     
  0.65625000000000000        0.0000000000000000        0.0000000000000000     
  0.68750000000000000        0.0000000000000000        0.0000000000000000     
  0.71875000000000000        0.0000000000000000        0.0000000000000000     
  0.75000000000000000        0.0000000000000000        0.0000000000000000     
  0.62500000000000000        3.1250000000000000E-002   0.0000000000000000     
  0.65625000000000000        3.1250000000000000E-002   0.0000000000000000     
  0.68750000000000000        3.1250000000000000E-002   0.0000000000000000     
  0.71875000000000000        3.1250000000000000E-002   0.0000000000000000     
  0.75000000000000000        3.1250000000000000E-002   0.0000000000000000     
  0.62500000000000000        6.2500000000000000E-002   0.0000000000000000     
  0.65625000000000000        6.2500000000000000E-002   0.0000000000000000     
  0.68750000000000000        6.2500000000000000E-002   0.0000000000000000     
  0.71875000000000000        6.2500000000000000E-002   0.0000000000000000     
  0.75000000000000000        6.2500000000000000E-002   0.0000000000000000     
  0.62500000000000000        9.3750000000000000E-002   0.0000000000000000     
  0.65625000000000000        9.3750000000000000E-002   0.0000000000000000     
  0.68750000000000000        9.3750000000000000E-002   0.0000000000000000     
  0.71875000000000000        9.3750000000000000E-002   0.0000000000000000     
  0.75000000000000000        9.3750000000000000E-002   0.0000000000000000     
  0.62500000000000000       0.12500000000000000        0.0000000000000000     
  0.65625000000000000       0.12500000000000000        0.0000000000000000     
  0.68750000000000000       0.12500000000000000        0.0000000000000000     
  0.71875000000000000       0.12500000000000000        0.0000000000000000     
  0.75000000000000000       0.12500000000000000        0.0000000000000000     
  0.75000000000000000        0.0000000000000000        0.0000000000000000     
  0.78125000000000000        0.0000000000000000        0.0000000000000000     
  0.81250000000000000        0.0000000000000000        0.0000000000000000     
  0.84375000000000000        0.0000000000000000        0.0000000000000000     
  0.87500000000000000        0.0000000000000000        0.0000000000000000     
  0.75000000000000000        3.1250000000000000E-002   0.0000000000000000     
  0.78125000000000000        3.1250000000000000E-002   0.0000000000000000     
  0.81250000000000000        3.1250000000000000E-002   0.0000000000000000     
  0.84375000000000000        3.1250000000000000E-002   0.0000000000000000     
  0.87500000000000000        3.1250000000000000E-002   0.0000000000000000     
  0.75000000000000000        6.2500000000000000E-002   0.0000000000000000     
  0.78125000000000000        6.2500000000000000E-002   0.0000000000000000     
  0.81250000000000000        6.2500000000000000E-002   0.0000000000000000     
  0.84375000000000000        6.2500000000000000E-002   0.0000000000000000     
  0.87500000000000000        6.2500000000000000E-002   0.0000000000000000     
  0.75000000000000000        9.3750000000000000E-002   0.0000000000000000     
  0.78125000000000000        9.3750000000000000E-002   0.0000000000000000     
  0.81250000000000000        9.3750000000000000E-002   0.0000000000000000     
  0.84375000000000000        9.3750000000000000E-002   0.0000000000000000     
  0.87500000000000000        9.3750000000000000E-002   0.0000000000000000     
  0.75000000000000000       0.12500000000000000        0.0000000000000000     
  0.78125000000000000       0.12500000000000000        0.0000000000000000     
  0.81250000000000000       0.12500000000000000        0.0000000000000000     
  0.84375000000000000       0.12500000000000000        0.0000000000000000     
  0.87500000000000000       0.12500000000000000        0.0000000000000000     
  0.87500000000000000        0.0000000000000000        0.0000000000000000     
  0.90625000000000000        0.0000000000000000        0.0000000000000000     
  0.93750000000000000        0.0000000000000000        0.0000000000000000     
  0.96875000000000000        0.0000000000000000        0.0000000000000000     
   1.0000000000000000        0.0000000000000000        0.0000000000000000     
  0.87500000000000000        3.1250000000000000E-002   0.0000000000000000     
  0.90625000000000000        3.1250000000000000E-002   0.0000000000000000     
  0.93750000000000000        3.1250000000000000E-002   0.0000000000000000     
  0.96875000000000000        3.1250000000000000E-002   0.0000000000000000     
   1.0000000000000000        3.1250000000000000E-002   0.0000000000000000     
  0.87500000000000000        6.2500000000000000E-002   0.0000000000000000     
  0.90625000000000000        6.2500000000000000E-002   0.0000000000000000     
  0.93750000000000000        6.2500000000000000E-002   0.0000000000000000     
  0.96875000000000000        6.2500000000000000E-002   0.0000000000000000     
   1.0000000000000000        6.2500000000000000E-002   0.0000000000000000     
  0.87500000000000000        9.3750000000000000E-002   0.0000000000000000     
  0.90625000000000000        9.3750000000000000E-002   0.0000000000000000     
  0.93750000000000000        9.3750000000000000E-002   0.0000000000000000     
  0.96875000000000000        9.3750000000000000E-002   0.0000000000000000     
   1.0000000000000000        9.3750000000000000E-002   0.0000000000000000     
  0.87500000000000000       0.12500000000000000        0.0000000000000000     
  0.90625000000000000       0.12500000000000000        0.0000000000000000     
  0.93750000000000000       0.12500000000000000        0.0000000000000000     
  0.96875000000000000       0.12500000000000000        0.0000000000000000     
   1.0000000000000000       0.12500000000000000        0.0000000000000000     
   1.0000000000000000        0.0000000000000000        0.0000000000000000     
   1.0312500000000000        0.0000000000000000        0.0000000000000000     
   1.0625000000000000        0.0000000000000000        0.0000000000000000     
   1.0937500000000000        0.0000000000000000        0.0000000000000000     
   1.1250000000000000        0.0000000000000000        0.0000000000000000     
   1.0000000000000000        3.1250000000000000E-002   0.0000000000000000     
   1.0312500000000000        3.1250000000000000E-002   0.0000000000000000     
   1.0625000000000000        3.1250000000000000E-002   0.0000000000000000     
   1.0937500000000000        3.1250000000000000E-002   0.0000000000000000     
   1.1250000000000000        3.1250000000000000E-002   0.0000000000000000     
   1.0000000000000000        6.2500000000000000E-002   0.0000000000000000     
   1.0312500000000000        6.2500000000000000E-002   0.0000000000000000     
   1.0625000000000000        6.2500000000000000E-002   0.0000000000000000     
   1.0937500000000000        6.2500000000000000E-002   0.0000000000000000     
   1.1250000000000000        6.2500000000000000E-002   0.0000000000000000     
   1.0000000000000000        9.3750000000000000E-002   0.0000000000000000     
   1.0312500000000000        9.3750000000000000E-002   0.0000000000000000     
   1.0625000000000000        9.3750000000000000E-002   0.0000000000000000     
   1.0937500000000000        9.3750000000000000E-002   0.0000000000000000     
   1.1250000000000000        9.3750000000000000E-002   0.0000000000000000     
   1.0000000000000000       0.12500000000000000        0.0000000000000000     
   1.0312500000000000       0.12500000000000000        0.0000000000000000     
   1.0625000000000000       0.12500000000000000        0.0000000000000000     
   1.0937500000000000       0.12500000000000000        0.0000000000000000     
   1.1250000000000000       0.12500000000000000        0.0000000000000000     
   1.1250000000000000        0.0000000000000000        0.0000000000000000     
   1.1562500000000000        0.0000000000000000        0.0000000000000000     
   1.1875000000000000        0.0000000000000000        0.0000000000000000     
   1.2187500000000000        0.0000000000000000        0.0000000000000000     
   1.2500000000000000        0.0000000000000000        0.0000000000000000     
   1.1250000000000000        3.1250000000000000E-002   0.0000000000000000     
   1.1562500000000000        3.1250000000000000E-002   0.0000000000000000     
   1.1875000000000000        3.1250000000000000E-002   0.0000000000000000     
   1.2187500000000000        3.1250000000000000E-002   0.0000000000000000     
   1.2500000000000000        3.1250000000000000E-002   0.0000000000000000     
   1.1250000000000000        6.2500000000000000E-002   0.0000000000000000     
   1.1562500000000000        6.2500000000000000E-002   0.0000000000000000     
   1.1875000000000000        6.2500000000000000E-002   0.0000000000000000     
   1.2187500000000000        6.2500000000000000E-002   0.0000000000000000     
   1.2500000000000000        6.2500000000000000E-002   0.0000000000000000     
   1.1250000000000000        9.3750000000000000E-002   0.0000000000000000     
   1.1562500000000000        9.3750000000000000E-002   0.0000000000000000     
   1.1875000000000000        9.3750000000000000E-002   0.0000000000000000     
   1.2187500000000000        9.3750000000000000E-002   0.0000000000000000     
   1.2500000000000000        9.3750000000000000E-002   0.0000000000000000     
   1.1250000000000000       0.12500000000000000        0.0000000000000000     
   1.1562500000000000       0.12500000000000000        0.0000000000000000     
   1.1875000000000000       0.12500000000000000        0.0000000000000000     
   1.2187500000000000       0.12500000000000000        0.0000000000000000     
   1.2500000000000000       0.12500000000000000        0.0000000000000000     
   1.2500000000000000        0.0000000000000000        0.0000000000000000     
   1.2812500000000000        0.0000000000000000        0.0000000000000000     
   1.3125000000000000        0.0000000000000000        0.0000000000000000     
   1.3437500000000000        0.0000000000000000        0.0000000000000000     
   1.3750000000000000        0.0000000000000000        0.0000000000000000     
   1.2500000000000000        3.1250000000000000E-002   0.0000000000000000     
   1.2812500000000000        3.1250000000000000E-002   0.0000000000000000     
   1.3125000000000000        3.1250000000000000E-002   0.0000000000000000     
   1.3437500000000000        3.1250000000000000E-002   0.0000000000000000     
   1.3750000000000000        3.1250000000000000E-002   0.0000000000000000     
   1.2500000000000000        6.2500000000000000E-002   0.0000000000000000     
   1.2812500000000000        6.2500000000000000E-002   0.0000000000000000     
   1.3125000000000000        6.2500000000000000E-002   0.0000000000000000     
   1.3437500000000000        6.2500000000000000E-002   0.0000000000000000     
   1.3750000000000000        6.2500000000000000E-002   0.0000000000000000     
   1.2500000000000000        9.3750000000000000E-002   0.0000000000000000     
   1.2812500000000000        9.3750000000000000E-002   0.0000000000000000     
   1.3125000000000000        9.3750000000000000E-002   0.0000000000000000     
   1.3437500000000000        9.3750000000000000E-002   0.0000000000000000     
   1.3750000000000000        9.3750000000000000E-002   0.0000000000000000     
   1.2500000000000000       0.12500000000000000        0.0000000000000000     
   1.2812500000000000       0.12500000000000000        0.0000000000000000     
   1.3125000000000000       0.12500000000000000        0.0000000000000000     
   1.3437500000000000       0.12500000000000000        0.0000000000000000     
   1.3750000000000000       0.12500000000000000        0.0000000000000000     
   1.3750000000000000        0.0000000000000000        0.0000000000000000     
   1.4062500000000000        0.0000000000000000        0.0000000000000000     
   1.4375000000000000        0.0000000000000000        0.0000000000000000     
   1.4687500000000000        0.0000000000000000        0.0000000000000000     
   1.5000000000000000        0.0000000000000000        0.0000000000000000     
   1.3750000000000000        3.1250000000000000E-002   0.0000000000000000     
   1.4062500000000000        3.1250000000000000E-002   0.0000000000000000     
   1.4375000000000000        3.1250000000000000E-002   0.0000000000000000     
   1.4687500000000000        3.1250000000000000E-002   0.0000000000000000     
   1.5000000000000000        3.1250000000000000E-002   0.0000000000000000     
   1.3750000000000000        6.2500000000000000E-002   0.0000000000000000     
   1.4062500000000000        6.2500000000000000E-002   0.0000000000000000     
   1.4375000000000000        6.2500000000000000E-002   0.0000000000000000     
   1.4687500000000000        6.2500000000000000E-002   0.0000000000000000     
   1.5000000000000000        6.2500000000000000E-002   0.0000000000000000     
   1.3750000000000000        9.3750000000000000E-002   0.0000000000000000     
   1.4062500000000000        9.3750000000000000E-002   0.0000000000000000     
   1.4375000000000000        9.3750000000000000E-002   0.0000000000000000     
   1.4687500000000000        9.3750000000000000E-002   0.0000000000000000     
   1.5000000000000000        9.3750000000000000E-002   0.0000000000000000     
   1.3750000000000000       0.12500000000000000        0.0000000000000000     
   1.4062500000000000       0.12500000000000000        0.0000000000000000     
   1.4375000000000000       0.12500000000000000        0.0000000000000000     
   1.4687500000000000       0.12500000000000000        0.0000000000000000     
   1.5000000000000000       0.12500000000000000        0.0000000000000000     
  0.50000000000000000       0.12500000000000000        0.0000000000000000     
  0.53125000000000000       0.12500000000000000        0.0000000000000000     
  0.56250000000000000       0.12500000000000000        0.0000000000000000     
  0.59375000000000000       0.12500000000000000        0.0000000000000000     
  0.62500000000000000       0.12500000000000000        0.0000000000000000     
  0.50000000000000000       0.15625000000000000        0.0000000000000000     
  0.53125000000000000       0.15625000000000000        0.0000000000000000     
  0.56250000000000000       0.15625000000000000        0.0000000000000000     
  0.59375000000000000       0.15625000000000000        0.0000000000000000     
  0.62500000000000000       0.15625000000000000        0.0000000000000000     
  0.50000000000000000       0.18750000000000000        0.0000000000000000     
  0.53125000000000000       0.18750000000000000        0.0000000000000000     
  0.56250000000000000       0.18750000000000000        0.0000000000000000     
  0.59375000000000000       0.18750000000000000        0.0000000000000000     
  0.62500000000000000       0.18750000000000000        0.0000000000000000     
  0.50000000000000000       0.21875000000000000        0.0000000000000000     
  0.53125000000000000       0.21875000000000000        0.0000000000000000     
  0.56250000000000000       0.21875000000000000        0.0000000000000000     
  0.59375000000000000       0.21875000000000000        0.0000000000000000     
  0.62500000000000000       0.21875000000000000        0.0000000000000000     
  0.50000000000000000       0.25000000000000000        0.0000000000000000     
  0.53125000000000000       0.25000000000000000        0.0000000000000000     
  0.56250000000000000       0.25000000000000000        0.0000000000000000     
  0.59375000000000000       0.25000000000000000        0.0000000000000000     
  0.62500000000000000       0.25000000000000000        0.0000000000000000     
  0.62500000000000000       0.12500000000000000        0.0000000000000000     
  0.65625000000000000       0.12500000000000000        0.0000000000000000     
  0.68750000000000000       0.12500000000000000        0.0000000000000000     
  0.71875000000000000       0.12500000000000000        0.0000000000000000     
  0.75000000000000000       0.12500000000000000        0.0000000000000000     
  0.62500000000000000       0.15625000000000000        0.0000000000000000     
  0.65625000000000000       0.15625000000000000        0.0000000000000000     
  0.68750000000000000       0.15625000000000000        0.0000000000000000     
  0.71875000000000000       0.15625000000000000        0.0000000000000000     
  0.75000000000000000       0.15625000000000000        0.0000000000000000     
  0.62500000000000000       0.18750000000000000        0.0000000000000000     
  0.65625000000000000       0.18750000000000000        0.0000000000000000     
  0.68750000000000000       0.18750000000000000        0.0000000000000000     
  0.71875000000000000       0.18750000000000000        0.0000000000000000     
  0.75000000000000000       0.18750000000000000        0.0000000000000000     
  0.62500000000000000       0.21875000000000000        0.0000000000000000     
  0.65625000000000000       0.21875000000000000        0.0000000000000000     
  0.68750000000000000       0.21875000000000000        0.0000000000000000     
  0.71875000000000000       0.21875000000000000        0.0000000000000000     
  0.75000000000000000       0.21875000000000000        0.0000000000000000     
  0.62500000000000000       0.25000000000000000        0.0000000000000000     
  0.65625000000000000       0.25000000000000000        0.0000000000000000     
  0.68750000000000000       0.25000000000000000        0.0000000000000000     
  0.71875000000000000       0.25000000000000000        0.0000000000000000     
  0.75000000000000000       0.25000000000000000        0.0000000000000000     
  0.75000000000000000       0.12500000000000000        0.0000000000000000     
  0.78125000000000000       0.12500000000000000        0.0000000000000000     
  0.81250000000000000       0.12500000000000000        0.0000000000000000     
  0.84375000000000000       0.12500000000000000        0.0000000000000000     
  0.87500000000000000       0.12500000000000000        0.0000000000000000     
  0.75000000000000000       0.15625000000000000        0.0000000000000000     
  0.78125000000000000       0.15625000000000000        0.0000000000000000     
  0.81250000000000000       0.15625000000000000        0.0000000000000000     
  0.84375000000000000       0.15625000000000000        0.0000000000000000     
  0.87500000000000000       0.15625000000000000        0.0000000000000000     
  0.75000000000000000       0.18750000000000000        0.0000000000000000     
  0.78125000000000000       0.18750000000000000        0.0000000000000000     
  0.81250000000000000       0.18750000000000000        0.0000000000000000     
  0.84375000000000000       0.18750000000000000        0.0000000000000000     
  0.87500000000000000       0.18750000000000000        0.0000000000000000     
  0.75000000000000000       0.21875000000000000        0.0000000000000000     
  0.78125000000000000       0.21875000000000000        0.0000000000000000     
  0.81250000000000000       0.21875000000000000        0.0000000000000000     
  0.84375000000000000       0.21875000000000000        0.0000000000000000     
  0.87500000000000000       0.21875000000000000        0.0000000000000000     
  0.75000000000000000       0.25000000000000000        0.0000000000000000     
  0.78125000000000000       0.25000000000000000        0.0000000000000000     
  0.81250000000000000       0.25000000000000000        0.0000000000000000     
  0.84375000000000000       0.25000000000000000        0.0000000000000000     
  0.87500000000000000       0.25000000000000000        0.0000000000000000     
  0.87500000000000000       0.12500000000000000        0.0000000000000000     
  0.90625000000000000       0.12500000000000000        0.0000000000000000     
  0.93750000000000000       0.12500000000000000        0.0000000000000000     
  0.96875000000000000       0.12500000000000000        0.0000000000000000     
   1.0000000000000000       0.12500000000000000        0.0000000000000000     
  0.87500000000000000       0.15625000000000000        0.0000000000000000     
  0.90625000000000000       0.15625000000000000        0.0000000000000000     
  0.93750000000000000       0.15625000000000000        0.0000000000000000     
  0.96875000000000000       0.15625000000000000        0.0000000000000000     
   1.0000000000000000       0.15625000000000000        0.0000000000000000     
  0.87500000000000000       0.18750000000000000        0.0000000000000000     
  0.90625000000000000       0.18750000000000000        0.0000000000000000     
  0.93750000000000000       0.18750000000000000        0.0000000000000000     
  0.96875000000000000       0.18750000000000000        0.0000000000000000     
   1.0000000000000000       0.18750000000000000        0.0000000000000000     
  0.87500000000000000       0.21875000000000000        0.0000000000000000     
  0.90625000000000000       0.21875000000000000        0.0000000000000000     
  0.93750000000000000       0.21875000000000000        0.0000000000000000     
  0.96875000000000000       0.21875000000000000        0.0000000000000000     
   1.0000000000000000       0.21875000000000000        0.0000000000000000     
  0.87500000000000000       0.25000000000000000        0.0000000000000000     
  0.90625000000000000       0.25000000000000000        0.0000000000000000     
  0.93750000000000000       0.25000000000000000        0.0000000000000000     
  0.96875000000000000       0.25000000000000000        0.0000000000000000     
   1.0000000000000000       0.25000000000000000        0.0000000000000000     
   1.0000000000000000       0.12500000000000000        0.0000000000000000     
   1.0312500000000000       0.12500000000000000        0.0000000000000000     
   1.0625000000000000       0.12500000000000000        0.0000000000000000     
   1.0937500000000000       0.12500000000000000        0.0000000000000000     
   1.1250000000000000       0.12500000000000000        0.0000000000000000     
   1.0000000000000000       0.15625000000000000        0.0000000000000000     
   1.0312500000000000       0.15625000000000000        0.0000000000000000     
   1.0625000000000000       0.15625000000000000        0.0000000000000000     
   1.0937500000000000       0.15625000000000000        0.0000000000000000     
   1.1250000000000000       0.15625000000000000        0.0000000000000000     
   1.0000000000000000       0.18750000000000000        0.0000000000000000     
   1.0312500000000000       0.18750000000000000        0.0000000000000000     
   1.0625000000000000       0.18750000000000000        0.0000000000000000     
   1.0937500000000000       0.18750000000000000        0.0000000000000000     
   1.1250000000000000       0.18750000000000000        0.0000000000000000     
   1.0000000000000000       0.21875000000000000        0.0000000000000000     
   1.0312500000000000       0.21875000000000000        0.0000000000000000     
   1.0625000000000000       0.21875000000000000        0.0000000000000000     
   1.0937500000000000       0.21875000000000000        0.0000000000000000     
   1.1250000000000000       0.21875000000000000        0.0000000000000000     
   1.0000000000000000       0.25000000000000000        0.0000000000000000     
   1.0312500000000000       0.25000000000000000        0.0000000000000000     
   1.0625000000000000       0.25000000000000000        0.0000000000000000     
   1.0937500000000000       0.25000000000000000        0.0000000000000000     
   1.1250000000000000       0.25000000000000000        0.0000000000000000     
   1.1250000000000000       0.12500000000000000        0.0000000000000000     
   1.1562500000000000       0.12500000000000000        0.0000000000000000     
   1.1875000000000000       0.12500000000000000        0.0000000000000000     
   1.2187500000000000       0.12500000000000000        0.0000000000000000     
   1.2500000000000000       0.12500000000000000        0.0000000000000000     
   1.1250000000000000       0.15625000000000000        0.0000000000000000     
   1.1562500000000000       0.15625000000000000        0.0000000000000000     
   1.1875000000000000       0.15625000000000000        0.0000000000000000     
   1.2187500000000000       0.15625000000000000        0.0000000000000000     
   1.2500000000000000       0.15625000000000000        0.0000000000000000     
   1.1250000000000000       0.18750000000000000        0.0000000000000000     
   1.1562500000000000       0.18750000000000000        0.0000000000000000     
   1.1875000000000000       0.18750000000000000        0.0000000000000000     
   1.2187500000000000       0.18750000000000000        0.0000000000000000     
   1.2500000000000000       0.18750000000000000        0.0000000000000000     
   1.1250000000000000       0.21875000000000000        0.0000000000000000     
   1.1562500000000000       0.21875000000000000        0.0000000000000000     
   1.1875000000000000       0.21875000000000000        0.0000000000000000     
   1.2187500000000000       0.21875000000000000        0.0000000000000000     
   1.2500000000000000       0.21875000000000000        0.0000000000000000     
   1.1250000000000000       0.25000000000000000        0.0000000000000000     
   1.1562500000000000       0.25000000000000000        0.0000000000000000     
   1.1875000000000000       0.25000000000000000        0.0000000000000000     
   1.2187500000000000       0.25000000000000000        0.0000000000000000     
   1.2500000000000000       0.25000000000000000        0.0000000000000000     
   1.2500000000000000       0.12500000000000000        0.0000000000000000     
   1.2812500000000000       0.12500000000000000        0.0000000000000000     
   1.3125000000000000       0.12500000000000000        0.0000000000000000     
   1.3437500000000000       0.12500000000000000        0.0000000000000000     
   1.3750000000000000       0.12500000000000000        0.0000000000000000     
   1.2500000000000000       0.15625000000000000        0.0000000000000000     
   1.2812500000000000       0.15625000000000000        0.0000000000000000     
   1.3125000000000000       0.15625000000000000        0.0000000000000000     
   1.3437500000000000       0.15625000000000000        0.0000000000000000     
   1.3750000000000000       0.15625000000000000        0.0000000000000000     
   1.2500000000000000       0.18750000000000000        0.0000000000000000     
   1.2812500000000000       0.18750000000000000        0.0000000000000000     
   1.3125000000000000       0.18750000000000000        0.0000000000000000     
   1.3437500000000000       0.18750000000000000        0.0000000000000000     
   1.3750000000000000       0.18750000000000000        0.0000000000000000     
   1.2500000000000000       0.21875000000000000        0.0000000000000000     
   1.2812500000000000       0.21875000000000000        0.0000000000000000     
   1.3125000000000000       0.21875000000000000        0.0000000000000000     
   1.3437500000000000       0.21875000000000000        0.0000000000000000     
   1.3750000000000000       0.21875000000000000        0.0000000000000000     
   1.2500000000000000       0.25000000000000000        0.0000000000000000     
   1.2812500000000000       0.25000000000000000        0.0000000000000000     
   1.3125000000000000       0.25000000000000000        0.0000000000000000     
   1.3437500000000000       0.25000000000000000        0.0000000000000000     
   1.3750000000000000       0.25000000000000000        0.0000000000000000     
   1.3750000000000000       0.12500000000000000        0.0000000000000000     
   1.4062500000000000       0.12500000000000000        0.0000000000000000     
   1.4375000000000000       0.12500000000000000        0.0000000000000000     
   1.4687500000000000       0.12500000000000000        0.0000000000000000     
   1.5000000000000000       0.12500000000000000        0.0000000000000000     
   1.3750000000000000       0.15625000000000000        0.0000000000000000     
   1.4062500000000000       0.15625000000000000        0.0000000000000000     
   1.4375000000000000       0.15625000000000000        0.0000000000000000     
   1.4687500000000000       0.15625000000000000        0.0000000000000000     
   1.5000000000000000       0.15625000000000000        0.0000000000000000     
   1.3750000000000000       0.18750000000000000        0.0000000000000000     
   1.4062500000000000       0.18750000000000000        0.0000000000000000     
   1.4375000000000000       0.18750000000000000        0.0000000000000000     
   1.4687500000000000       0.18750000000000000        0.0000000000000000     
   1.5000000000000000       0.18750000000000000        0.0000000000000000     
   1.3750000000000000       0.21875000000000000        0.0000000000000000     
   1.4062500000000000       0.21875000000000000        0.0000000000000000     
   1.4375000000000000       0.21875000000000000        0.0000000000000000     
   1.4687500000000000       0.21875000000000000        0.0000000000000000     
   1.5000000000000000       0.21875000000000000        0.0000000000000000     
   1.3750000000000000       0.25000000000000000        0.0000000000000000     
   1.4062500000000000       0.25000000000000000        0.0000000000000000     
   1.4375000000000000       0.25000000000000000        0.0000000000000000     
   1.4687500000000000       0.25000000000000000        0.0000000000000000     
   1.5000000000000000       0.25000000000000000        0.0000000000000000     
  0.50000000000000000       0.25000000000000000        0.0000000000000000     
  0.53125000000000000       0.25000000000000000        0.0000000000000000     
  0.56250000000000000       0.25000000000000000        0.0000000000000000     
  0.59375000000000000       0.25000000000000000        0.0000000000000000     
  0.62500000000000000       0.25000000000000000        0.0000000000000000     
  0.50000000000000000       0.28125000000000000        0.0000000000000000     
  0.53125000000000000       0.28125000000000000        0.0000000000000000     
  0.56250000000000000       0.28125000000000000        0.0000000000000000     
  0.59375000000000000       0.28125000000000000        0.0000000000000000     
  0.62500000000000000       0.28125000000000000        0.0000000000000000     
  0.50000000000000000       0.31250000000000000        0.0000000000000000     
  0.53125000000000000       0.31250000000000000        0.0000000000000000     
  0.56250000000000000       0.31250000000000000        0.0000000000000000     
  0.59375000000000000       0.31250000000000000        0.0000000000000000     
  0.62500000000000000       0.31250000000000000        0.0000000000000000     
  0.50000000000000000       0.34375000000000000        0.0000000000000000     
  0.53125000000000000       0.34375000000000000        0.0000000000000000     
  0.56250000000000000       0.34375000000000000        0.0000000000000000     
  0.59375000000000000       0.34375000000000000        0.0000000000000000     
  0.62500000000000000       0.34375000000000000        0.0000000000000000     
  0.50000000000000000       0.37500000000000000        0.0000000000000000     
  0.53125000000000000       0.37500000000000000        0.0000000000000000     
  0.56250000000000000       0.37500000000000000        0.0000000000000000     
  0.59375000000000000       0.37500000000000000        0.0000000000000000     
  0.62500000000000000       0.37500000000000000        0.0000000000000000     
  0.62500000000000000       0.25000000000000000        0.0000000000000000     
  0.65625000000000000       0.25000000000000000        0.0000000000000000     
  0.68750000000000000       0.25000000000000000        0.0000000000000000     
  0.71875000000000000       0.25000000000000000        0.0000000000000000     
  0.75000000000000000       0.25000000000000000        0.0000000000000000     
  0.62500000000000000       0.28125000000000000        0.0000000000000000     
  0.65625000000000000       0.28125000000000000        0.0000000000000000     
  0.68750000000000000       0.28125000000000000        0.0000000000000000     
  0.71875000000000000       0.28125000000000000        0.0000000000000000     
  0.75000000000000000       0.28125000000000000        0.0000000000000000     
  0.62500000000000000       0.31250000000000000        0.0000000000000000     
  0.65625000000000000       0.31250000000000000        0.0000000000000000     
  0.68750000000000000       0.31250000000000000        0.0000000000000000     
  0.71875000000000000       0.31250000000000000        0.0000000000000000     
  0.75000000000000000       0.31250000000000000        0.0000000000000000     
  0.62500000000000000       0.34375000000000000        0.0000000000000000     
  0.65625000000000000       0.34375000000000000        0.0000000000000000     
  0.68750000000000000       0.34375000000000000        0.0000000000000000     
  0.71875000000000000       0.34375000000000000        0.0000000000000000     
  0.75000000000000000       0.34375000000000000        0.0000000000000000     
  0.62500000000000000       0.37500000000000000        0.0000000000000000     
  0.65625000000000000       0.37500000000000000        0.0000000000000000     
  0.68750000000000000       0.37500000000000000        0.0000000000000000     
  0.71875000000000000       0.37500000000000000        0.0000000000000000     
  0.75000000000000000       0.37500000000000000        0.0000000000000000     
  0.75000000000000000       0.25000000000000000        0.0000000000000000     
  0.78125000000000000       0.25000000000000000        0.0000000000000000     
  0.81250000000000000       0.25000000000000000        0.0000000000000000     
  0.84375000000000000       0.25000000000000000        0.0000000000000000     
  0.87500000000000000       0.25000000000000000        0.0000000000000000     
  0.75000000000000000       0.28125000000000000        0.0000000000000000     
  0.78125000000000000       0.28125000000000000        0.0000000000000000     
  0.81250000000000000       0.28125000000000000        0.0000000000000000     
  0.84375000000000000       0.28125000000000000        0.0000000000000000     
  0.87500000000000000       0.28125000000000000        0.0000000000000000     
  0.75000000000000000       0.31250000000000000        0.0000000000000000     
  0.78125000000000000       0.31250000000000000        0.0000000000000000     
  0.81250000000000000       0.31250000000000000        0.0000000000000000     
  0.84375000000000000       0.31250000000000000        0.0000000000000000     
  0.87500000000000000       0.31250000000000000        0.0000000000000000     
  0.75000000000000000       0.34375000000000000        0.0000000000000000     
  0.78125000000000000       0.34375000000000000        0.0000000000000000     
  0.81250000000000000       0.34375000000000000        0.0000000000000000     
  0.84375000000000000       0.34375000000000000        0.0000000000000000     
  0.87500000000000000       0.34375000000000000        0.0000000000000000     
  0.75000000000000000       0.37500000000000000        0.0000000000000000     
  0.78125000000000000       0.37500000000000000        0.0000000000000000     
  0.81250000000000000       0.37500000000000000        0.0000000000000000     
  0.84375000000000000       0.37500000000000000        0.0000000000000000     
  0.87500000000000000       0.37500000000000000        0.0000000000000000     
  0.87500000000000000       0.25000000000000000        0.0000000000000000     
  0.90625000000000000       0.25000000000000000        0.0000000000000000     
  0.93750000000000000       0.25000000000000000        0.0000000000000000     
  0.96875000000000000       0.25000000000000000        0.0000000000000000     
   1.0000000000000000       0.25000000000000000        0.0000000000000000     
  0.87500000000000000       0.28125000000000000        0.0000000000000000     
  0.90625000000000000       0.28125000000000000        0.0000000000000000     
  0.93750000000000000       0.28125000000000000        0.0000000000000000     
  0.96875000000000000       0.28125000000000000        0.0000000000000000     
   1.0000000000000000       0.28125000000000000        0.0000000000000000     
  0.87500000000000000       0.31250000000000000        0.0000000000000000     
  0.90625000000000000       0.31250000000000000        0.0000000000000000     
  0.93750000000000000       0.31250000000000000        0.0000000000000000     
  0.96875000000000000       0.31250000000000000        0.0000000000000000     
   1.0000000000000000       0.31250000000000000        0.0000000000000000     
  0.87500000000000000       0.34375000000000000        0.0000000000000000     
  0.90625000000000000       0.34375000000000000        0.0000000000000000     
  0.93750000000000000       0.34375000000000000        0.0000000000000000     
  0.96875000000000000       0.34375000000000000        0.0000000000000000     
   1.0000000000000000       0.34375000000000000        0.0000000000000000     
  0.87500000000000000       0.37500000000000000        0.0000000000000000     
  0.90625000000000000       0.37500000000000000        0.0000000000000000     
  0.93750000000000000       0.37500000000000000        0.0000000000000000     
  0.96875000000000000       0.37500000000000000        0.0000000000000000     
   1.0000000000000000       0.37500000000000000        0.0000000000000000     
   1.0000000000000000       0.25000000000000000        0.0000000000000000     
   1.0312500000000000       0.25000000000000000        0.0000000000000000     
   1.0625000000000000       0.25000000000000000        0.0000000000000000     
   1.0937500000000000       0.25000000000000000        0.0000000000000000     
   1.1250000000000000       0.25000000000000000        0.0000000000000000     
   1.0000000000000000       0.28125000000000000        0.0000000000000000     
   1.0312500000000000       0.28125000000000000        0.0000000000000000     
   1.0625000000000000       0.28125000000000000        0.0000000000000000     
   1.0937500000000000       0.28125000000000000        0.0000000000000000     
   1.1250000000000000       0.28125000000000000        0.0000000000000000     
   1.0000000000000000       0.31250000000000000        0.0000000000000000     
   1.0312500000000000       0.31250000000000000        0.0000000000000000     
   1.0625000000000000       0.31250000000000000        0.0000000000000000     
   1.0937500000000000       0.31250000000000000        0.0000000000000000     
   1.1250000000000000       0.31250000000000000        0.0000000000000000     
   1.0000000000000000       0.34375000000000000        0.0000000000000000     
   1.0312500000000000       0.34375000000000000        0.0000000000000000     
   1.0625000000000000       0.34375000000000000        0.0000000000000000     
   1.0937500000000000       0.34375000000000000        0.0000000000000000     
   1.1250000000000000       0.34375000000000000        0.0000000000000000     
   1.0000000000000000       0.37500000000000000        0.0000000000000000     
   1.0312500000000000       0.37500000000000000        0.0000000000000000     
   1.0625000000000000       0.37500000000000000        0.0000000000000000     
   1.0937500000000000       0.37500000000000000        0.0000000000000000     
   1.1250000000000000       0.37500000000000000        0.0000000000000000     
   1.1250000000000000       0.25000000000000000        0.0000000000000000     
   1.1562500000000000       0.25000000000000000        0.0000000000000000     
   1.1875000000000000       0.25000000000000000        0.0000000000000000     
   1.2187500000000000       0.25000000000000000        0.0000000000000000     
   1.2500000000000000       0.25000000000000000        0.0000000000000000     
   1.1250000000000000       0.28125000000000000        0.0000000000000000     
   1.1562500000000000       0.28125000000000000        0.0000000000000000     
   1.1875000000000000       0.28125000000000000        0.0000000000000000     
   1.2187500000000000       0.28125000000000000        0.0000000000000000     
   1.2500000000000000       0.28125000000000000        0.0000000000000000     
   1.1250000000000000       0.31250000000000000        0.0000000000000000     
   1.1562500000000000       0.31250000000000000        0.0000000000000000     
   1.1875000000000000       0.31250000000000000        0.0000000000000000     
   1.2187500000000000       0.31250000000000000        0.0000000000000000     
   1.2500000000000000       0.31250000000000000        0.0000000000000000     
   1.1250000000000000       0.34375000000000000        0.0000000000000000     
   1.1562500000000000       0.34375000000000000        0.0000000000000000     
   1.1875000000000000       0.34375000000000000        0.0000000000000000     
   1.2187500000000000       0.34375000000000000        0.0000000000000000     
   1.2500000000000000       0.34375000000000000        0.0000000000000000     
   1.1250000000000000       0.37500000000000000        0.0000000000000000     
   1.1562500000000000       0.37500000000000000        0.0000000000000000     
   1.1875000000000000       0.37500000000000000        0.0000000000000000     
   1.2187500000000000       0.37500000000000000        0.0000000000000000     
   1.2500000000000000       0.37500000000000000        0.0000000000000000     
   1.2500000000000000       0.25000000000000000        0.0000000000000000     
   1.2812500000000000       0.25000000000000000        0.0000000000000000     
   1.3125000000000000       0.25000000000000000        0.0000000000000000     
   1.3437500000000000       0.25000000000000000        0.0000000000000000     
   1.3750000000000000       0.25000000000000000        0.0000000000000000     
   1.2500000000000000       0.28125000000000000        0.0000000000000000     
   1.2812500000000000       0.28125000000000000        0.0000000000000000     
   1.3125000000000000       0.28125000000000000        0.0000000000000000     
   1.3437500000000000       0.28125000000000000        0.0000000000000000     
   1.3750000000000000       0.28125000000000000        0.0000000000000000     
   1.2500000000000000       0.31250000000000000        0.0000000000000000     
   1.2812500000000000       0.31250000000000000        0.0000000000000000     
   1.3125000000000000       0.31250000000000000        0.0000000000000000     
   1.3437500000000000       0.31250000000000000        0.0000000000000000     
   1.3750000000000000       0.31250000000000000        0.0000000000000000     
   1.2500000000000000       0.34375000000000000        0.0000000000000000     
   1.2812500000000000       0.34375000000000000        0.0000000000000000     
   1.3125000000000000       0.34375000000000000        0.0000000000000000     
   1.3437500000000000       0.34375000000000000        0.0000000000000000     
   1.3750000000000000       0.34375000000000000        0.0000000000000000     
   1.2500000000000000       0.37500000000000000        0.0000000000000000     
   1.2812500000000000       0.37500000000000000        0.0000000000000000     
   1.3125000000000000       0.37500000000000000        0.0000000000000000     
   1.3437500000000000       0.37500000000000000        0.0000000000000000     
   1.3750000000000000       0.37500000000000000        0.0000000000000000     
   1.3750000000000000       0.25000000000000000        0.0000000000000000     
   1.4062500000000000       0.25000000000000000        0.0000000000000000     
   1.4375000000000000       0.25000000000000000        0.0000000000000000     
   1.4687500000000000       0.25000000000000000        0.0000000000000000     
   1.5000000000000000       0.25000000000000000        0.0000000000000000     
   1.3750000000000000       0.28125000000000000        0.0000000000000000     
   1.4062500000000000       0.28125000000000000        0.0000000000000000     
   1.4375000000000000       0.28125000000000000        0.0000000000000000     
   1.4687500000000000       0.28125000000000000        0.0000000000000000     
   1.5000000000000000       0.28125000000000000        0.0000000000000000     
   1.3750000000000000       0.31250000000000000        0.0000000000000000     
   1.4062500000000000       0.31250000000000000        0.0000000000000000     
   1.4375000000000000       0.31250000000000000        0.0000000000000000     
   1.4687500000000000       0.31250000000000000        0.0000000000000000     
   1.5000000000000000       0.31250000000000000        0.0000000000000000     
   1.3750000000000000       0.34375000000000000        0.0000000000000000     
   1.4062500000000000       0.34375000000000000        0.0000000000000000     
   1.4375000000000000       0.34375000000000000        0.0000000000000000     
   1.4687500000000000       0.34375000000000000        0.0000000000000000     
   1.5000000000000000       0.34375000000000000        0.0000000000000000     
   1.3750000000000000       0.37500000000000000        0.0000000000000000     
   1.4062500000000000       0.37500000000000000        0.0000000000000000     
   1.4375000000000000       0.37500000000000000        0.0000000000000000     
   1.4687500000000000       0.37500000000000000        0.0000000000000000     
   1.5000000000000000       0.37500000000000000        0.0000000000000000     
  0.50000000000000000       0.37500000000000000        0.0000000000000000     
  0.53125000000000000       0.37500000000000000        0.0000000000000000     
  0.56250000000000000       0.37500000000000000        0.0000000000000000     
  0.59375000000000000       0.37500000000000000        0.0000000000000000     
  0.62500000000000000       0.37500000000000000        0.0000000000000000     
  0.50000000000000000       0.40625000000000000        0.0000000000000000     
  0.53125000000000000       0.40625000000000000        0.0000000000000000     
  0.56250000000000000       0.40625000000000000        0.0000000000000000     
  0.59375000000000000       0.40625000000000000        0.0000000000000000     
  0.62500000000000000       0.40625000000000000        0.0000000000000000     
  0.50000000000000000       0.43750000000000000        0.0000000000000000     
  0.53125000000000000       0.43750000000000000        0.0000000000000000     
  0.56250000000000000       0.43750000000000000        0.0000000000000000     
  0.59375000000000000       0.43750000000000000        0.0000000000000000     
  0.62500000000000000       0.43750000000000000        0.0000000000000000     
  0.50000000000000000       0.46875000000000000        0.0000000000000000     
  0.53125000000000000       0.46875000000000000        0.0000000000000000     
  0.56250000000000000       0.46875000000000000        0.0000000000000000     
  0.59375000000000000       0.46875000000000000        0.0000000000000000     
  0.62500000000000000       0.46875000000000000        0.0000000000000000     
  0.50000000000000000       0.50000000000000000        0.0000000000000000     
  0.53125000000000000       0.50000000000000000        0.0000000000000000     
  0.56250000000000000       0.50000000000000000        0.0000000000000000     
  0.59375000000000000       0.50000000000000000        0.0000000000000000     
  0.62500000000000000       0.50000000000000000        0.0000000000000000     
  0.62500000000000000       0.37500000000000000        0.0000000000000000     
  0.65625000000000000       0.37500000000000000        0.0000000000000000     
  0.68750000000000000       0.37500000000000000        0.0000000000000000     
  0.71875000000000000       0.37500000000000000        0.0000000000000000     
  0.75000000000000000       0.37500000000000000        0.0000000000000000     
  0.62500000000000000       0.40625000000000000        0.0000000000000000     
  0.65625000000000000       0.40625000000000000        0.0000000000000000     
  0.68750000000000000       0.40625000000000000        0.0000000000000000     
  0.71875000000000000       0.40625000000000000        0.0000000000000000     
  0.75000000000000000       0.40625000000000000        0.0000000000000000     
  0.62500000000000000       0.43750000000000000        0.0000000000000000     
  0.65625000000000000       0.43750000000000000        0.0000000000000000     
  0.68750000000000000       0.43750000000000000        0.0000000000000000     
  0.71875000000000000       0.43750000000000000        0.0000000000000000     
  0.75000000000000000       0.43750000000000000        0.0000000000000000     
  0.62500000000000000       0.46875000000000000        0.0000000000000000     
  0.65625000000000000       0.46875000000000000        0.0000000000000000     
  0.68750000000000000       0.46875000000000000        0.0000000000000000     
  0.71875000000000000       0.46875000000000000        0.0000000000000000     
  0.75000000000000000       0.46875000000000000        0.0000000000000000     
  0.62500000000000000       0.50000000000000000        0.0000000000000000     
  0.65625000000000000       0.50000000000000000        0.0000000000000000     
  0.68750000000000000       0.50000000000000000        0.0000000000000000     
  0.71875000000000000       0.50000000000000000        0.0000000000000000     
  0.75000000000000000       0.50000000000000000        0.0000000000000000     
  0.75000000000000000       0.37500000000000000        0.0000000000000000     
  0.78125000000000000       0.37500000000000000        0.0000000000000000     
  0.81250000000000000       0.37500000000000000        0.0000000000000000     
  0.84375000000000000       0.37500000000000000        0.0000000000000000     
  0.87500000000000000       0.37500000000000000        0.0000000000000000     
  0.75000000000000000       0.40625000000000000        0.0000000000000000     
  0.78125000000000000       0.40625000000000000        0.0000000000000000     
  0.81250000000000000       0.40625000000000000        0.0000000000000000     
  0.84375000000000000       0.40625000000000000        0.0000000000000000     
  0.87500000000000000       0.40625000000000000        0.0000000000000000     
  0.75000000000000000       0.43750000000000000        0.0000000000000000     
  0.78125000000000000       0.43750000000000000        0.0000000000000000     
  0.81250000000000000       0.43750000000000000        0.0000000000000000     
  0.84375000000000000       0.43750000000000000        0.0000000000000000     
  0.87500000000000000       0.43750000000000000        0.0000000000000000     
  0.75000000000000000       0.46875000000000000        0.0000000000000000     
  0.78125000000000000       0.46875000000000000        0.0000000000000000     
  0.81250000000000000       0.46875000000000000        0.0000000000000000     
  0.84375000000000000       0.46875000000000000        0.0000000000000000     
  0.87500000000000000       0.46875000000000000        0.0000000000000000     
  0.75000000000000000       0.50000000000000000        0.0000000000000000     
  0.78125000000000000       0.50000000000000000        0.0000000000000000     
  0.81250000000000000       0.50000000000000000        0.0000000000000000     
  0.84375000000000000       0.50000000000000000        0.0000000000000000     
  0.87500000000000000       0.50000000000000000        0.0000000000000000     
  0.87500000000000000       0.37500000000000000        0.0000000000000000     
  0.90625000000000000       0.37500000000000000        0.0000000000000000     
  0.93750000000000000       0.37500000000000000        0.0000000000000000     
  0.96875000000000000       0.37500000000000000        0.0000000000000000     
   1.0000000000000000       0.37500000000000000        0.0000000000000000     
  0.87500000000000000       0.40625000000000000        0.0000000000000000     
  0.90625000000000000       0.40625000000000000        0.0000000000000000     
  0.93750000000000000       0.40625000000000000        0.0000000000000000     
  0.96875000000000000       0.40625000000000000        0.0000000000000000     
   1.0000000000000000       0.40625000000000000        0.0000000000000000     
  0.87500000000000000       0.43750000000000000        0.0000000000000000     
  0.90625000000000000       0.43750000000000000        0.0000000000000000     
  0.93750000000000000       0.43750000000000000        0.0000000000000000     
  0.96875000000000000       0.43750000000000000        0.0000000000000000     
   1.0000000000000000       0.43750000000000000        0.0000000000000000     
  0.87500000000000000       0.46875000000000000        0.0000000000000000     
  0.90625000000000000       0.46875000000000000        0.0000000000000000     
  0.93750000000000000       0.46875000000000000        0.0000000000000000     
  0.96875000000000000       0.46875000000000000        0.0000000000000000     
   1.0000000000000000       0.46875000000000000        0.0000000000000000     
  0.87500000000000000       0.50000000000000000        0.0000000000000000     
  0.90625000000000000       0.50000000000000000        0.0000000000000000     
  0.93750000000000000       0.50000000000000000        0.0000000000000000     
  0.96875000000000000       0.50000000000000000        0.0000000000000000     
   1.0000000000000000       0.50000000000000000        0.0000000000000000     
   1.0000000000000000       0.37500000000000000        0.0000000000000000     
   1.0312500000000000       0.37500000000000000        0.0000000000000000     
   1.0625000000000000       0.37500000000000000        0.0000000000000000     
   1.0937500000000000       0.37500000000000000        0.0000000000000000     
   1.1250000000000000       0.37500000000000000        0.0000000000000000     
   1.0000000000000000       0.40625000000000000        0.0000000000000000     
   1.0312500000000000       0.40625000000000000        0.0000000000000000     
   1.0625000000000000       0.40625000000000000        0.0000000000000000     
   1.0937500000000000       0.40625000000000000        0.0000000000000000     
   1.1250000000000000       0.40625000000000000        0.0000000000000000     
   1.0000000000000000       0.43750000000000000        0.0000000000000000     
   1.0312500000000000       0.43750000000000000        0.0000000000000000     
   1.0625000000000000       0.43750000000000000        0.0000000000000000     
   1.0937500000000000       0.43750000000000000        0.0000000000000000     
   1.1250000000000000       0.43750000000000000        0.0000000000000000     
   1.0000000000000000       0.46875000000000000        0.0000000000000000     
   1.0312500000000000       0.46875000000000000        0.0000000000000000     
   1.0625000000000000       0.46875000000000000        0.0000000000000000     
   1.0937500000000000       0.46875000000000000        0.0000000000000000     
   1.1250000000000000       0.46875000000000000        0.0000000000000000     
   1.0000000000000000       0.50000000000000000        0.0000000000000000     
   1.0312500000000000       0.50000000000000000        0.0000000000000000     
   1.0625000000000000       0.50000000000000000        0.0000000000000000     
   1.0937500000000000       0.50000000000000000        0.0000000000000000     
   1.1250000000000000       0.50000000000000000        0.0000000000000000     
   1.1250000000000000       0.37500000000000000        0.0000000000000000     
   1.1562500000000000       0.37500000000000000        0.0000000000000000     
   1.1875000000000000       0.37500000000000000        0.0000000000000000     
   1.2187500000000000       0.37500000000000000        0.0000000000000000     
   1.2500000000000000       0.37500000000000000        0.0000000000000000     
   1.1250000000000000       0.40625000000000000        0.0000000000000000     
   1.1562500000000000       0.40625000000000000        0.0000000000000000     
   1.1875000000000000       0.40625000000000000        0.0000000000000000     
   1.2187500000000000       0.40625000000000000        0.0000000000000000     
   1.2500000000000000       0.40625000000000000        0.0000000000000000     
   1.1250000000000000       0.43750000000000000        0.0000000000000000     
   1.1562500000000000       0.43750000000000000        0.0000000000000000     
   1.1875000000000000       0.43750000000000000        0.0000000000000000     
   1.2187500000000000       0.43750000000000000        0.0000000000000000     
   1.2500000000000000       0.43750000000000000        0.0000000000000000     
   1.1250000000000000       0.46875000000000000        0.0000000000000000     
   1.1562500000000000       0.46875000000000000        0.0000000000000000     
   1.1875000000000000       0.46875000000000000        0.0000000000000000     
   1.2187500000000000       0.46875000000000000        0.0000000000000000     
   1.2500000000000000       0.46875000000000000        0.0000000000000000     
   1.1250000000000000       0.50000000000000000        0.0000000000000000     
   1.1562500000000000       0.50000000000000000        0.0000000000000000     
   1.1875000000000000       0.50000000000000000        0.0000000000000000     
   1.2187500000000000       0.50000000000000000        0.0000000000000000     
   1.2500000000000000       0.50000000000000000        0.0000000000000000     
   1.2500000000000000       0.37500000000000000        0.0000000000000000     
   1.2812500000000000       0.37500000000000000        0.0000000000000000     
   1.3125000000000000       0.37500000000000000        0.0000000000000000     
   1.3437500000000000       0.37500000000000000        0.0000000000000000     
   1.3750000000000000       0.37500000000000000        0.0000000000000000     
   1.2500000000000000       0.40625000000000000        0.0000000000000000     
   1.2812500000000000       0.40625000000000000        0.0000000000000000     
   1.3125000000000000       0.40625000000000000        0.0000000000000000     
   1.3437500000000000       0.40625000000000000        0.0000000000000000     
   1.3750000000000000       0.40625000000000000        0.0000000000000000     
   1.2500000000000000       0.43750000000000000        0.0000000000000000     
   1.2812500000000000       0.43750000000000000        0.0000000000000000     
   1.3125000000000000       0.43750000000000000        0.0000000000000000     
   1.3437500000000000       0.43750000000000000        0.0000000000000000     
   1.3750000000000000       0.43750000000000000        0.0000000000000000     
   1.2500000000000000       0.46875000000000000        0.0000000000000000     
   1.2812500000000000       0.46875000000000000        0.0000000000000000     
   1.3125000000000000       0.46875000000000000        0.0000000000000000     
   1.3437500000000000       0.46875000000000000        0.0000000000000000     
   1.3750000000000000       0.46875000000000000        0.0000000000000000     
   1.2500000000000000       0.50000000000000000        0.0000000000000000     
   1.2812500000000000       0.50000000000000000        0.0000000000000000     
   1.3125000000000000       0.50000000000000000        0.0000000000000000     
   1.3437500000000000       0.50000000000000000        0.0000000000000000     
   1.3750000000000000       0.50000000000000000        0.0000000000000000     
   1.3750000000000000       0.37500000000000000        0.0000000000000000     
   1.4062500000000000       0.37500000000000000        0.0000000000000000     
   1.4375000000000000       0.37500000000000000        0.0000000000000000     
   1.4687500000000000       0.37500000000000000        0.0000000000000000     
   1.5000000000000000       0.37500000000000000        0.0000000000000000     
   1.3750000000000000       0.40625000000000000        0.0000000000000000     
   1.4062500000000000       0.40625000000000000        0.0000000000000000     
   1.4375000000000000       0.40625000000000000        0.0000000000000000     
   1.4687500000000000       0.40625000000000000        0.0000000000000000     
   1.5000000000000000       0.40625000000000000        0.0000000000000000     
   1.3750000000000000       0.43750000000000000        0.0000000000000000     
   1.4062500000000000       0.43750000000000000        0.0000000000000000     
   1.4375000000000000       0.43750000000000000        0.0000000000000000     
   1.4687500000000000       0.43750000000000000        0.0000000000000000     
   1.5000000000000000       0.43750000000000000        0.0000000000000000     
   1.3750000000000000       0.46875000000000000        0.0000000000000000     
   1.4062500000000000       0.46875000000000000        0.0000000000000000     
   1.4375000000000000       0.46875000000000000        0.0000000000000000     
   1.4687500000000000       0.46875000000000000        0.0000000000000000     
   1.5000000000000000       0.46875000000000000        0.0000000000000000     
   1.3750000000000000       0.50000000000000000        0.0000000000000000     
   1.4062500000000000       0.50000000000000000        0.0000000000000000     
   1.4375000000000000       0.50000000000000000        0.0000000000000000     
   1.4687500000000000       0.50000000000000000        0.0000000000000000     
   1.5000000000000000       0.50000000000000000        0.0000000000000000     
  0.50000000000000000       0.50000000000000000        0.0000000000000000     
  0.53125000000000000       0.50000000000000000        0.0000000000000000     
  0.56250000000000000       0.50000000000000000        0.0000000000000000     
  0.59375000000000000       0.50000000000000000        0.0000000000000000     
  0.62500000000000000       0.50000000000000000        0.0000000000000000     
  0.50000000000000000       0.53125000000000000        0.0000000000000000     
  0.53125000000000000       0.53125000000000000        0.0000000000000000     
  0.56250000000000000       0.53125000000000000        0.0000000000000000     
  0.59375000000000000       0.53125000000000000        0.0000000000000000     
  0.62500000000000000       0.53125000000000000        0.0000000000000000     
  0.50000000000000000       0.56250000000000000        0.0000000000000000     
  0.53125000000000000       0.56250000000000000        0.0000000000000000     
  0.56250000000000000       0.56250000000000000        0.0000000000000000     
  0.59375000000000000       0.56250000000000000        0.0000000000000000     
  0.62500000000000000       0.56250000000000000        0.0000000000000000     
  0.50000000000000000       0.59375000000000000        0.0000000000000000     
  0.53125000000000000       0.59375000000000000        0.0000000000000000     
  0.56250000000000000       0.59375000000000000        0.0000000000000000     
  0.59375000000000000       0.59375000000000000        0.0000000000000000     
  0.62500000000000000       0.59375000000000000        0.0000000000000000     
  0.50000000000000000       0.62500000000000000        0.0000000000000000     
  0.53125000000000000       0.62500000000000000        0.0000000000000000     
  0.56250000000000000       0.62500000000000000        0.0000000000000000     
  0.59375000000000000       0.62500000000000000        0.0000000000000000     
  0.62500000000000000       0.62500000000000000        0.0000000000000000     
  0.62500000000000000       0.50000000000000000        0.0000000000000000     
  0.65625000000000000       0.50000000000000000        0.0000000000000000     
  0.68750000000000000       0.50000000000000000        0.0000000000000000     
  0.71875000000000000       0.50000000000000000        0.0000000000000000     
  0.75000000000000000       0.50000000000000000        0.0000000000000000     
  0.62500000000000000       0.53125000000000000        0.0000000000000000     
  0.65625000000000000       0.53125000000000000        0.0000000000000000     
  0.68750000000000000       0.53125000000000000        0.0000000000000000     
  0.71875000000000000       0.53125000000000000        0.0000000000000000     
  0.75000000000000000       0.53125000000000000        0.0000000000000000     
  0.62500000000000000       0.56250000000000000        0.0000000000000000     
  0.65625000000000000       0.56250000000000000        0.0000000000000000     
  0.68750000000000000       0.56250000000000000        0.0000000000000000     
  0.71875000000000000       0.56250000000000000        0.0000000000000000     
  0.75000000000000000       0.56250000000000000        0.0000000000000000     
  0.62500000000000000       0.59375000000000000        0.0000000000000000     
  0.65625000000000000       0.59375000000000000        0.0000000000000000     
  0.68750000000000000       0.59375000000000000        0.0000000000000000     
  0.71875000000000000       0.59375000000000000        0.0000000000000000     
  0.75000000000000000       0.59375000000000000        0.0000000000000000     
  0.62500000000000000       0.62500000000000000        0.0000000000000000     
  0.65625000000000000       0.62500000000000000        0.0000000000000000     
  0.68750000000000000       0.62500000000000000        0.0000000000000000     
  0.71875000000000000       0.62500000000000000        0.0000000000000000     
  0.75000000000000000       0.62500000000000000        0.0000000000000000     
  0.75000000000000000       0.50000000000000000        0.0000000000000000     
  0.78125000000000000       0.50000000000000000        0.0000000000000000     
  0.81250000000000000       0.50000000000000000        0.0000000000000000     
  0.84375000000000000       0.50000000000000000        0.0000000000000000     
  0.87500000000000000       0.50000000000000000        0.0000000000000000     
  0.75000000000000000       0.53125000000000000        0.0000000000000000     
  0.78125000000000000       0.53125000000000000        0.0000000000000000     
  0.81250000000000000       0.53125000000000000        0.0000000000000000     
  0.84375000000000000       0.53125000000000000        0.0000000000000000     
  0.87500000000000000       0.53125000000000000        0.0000000000000000     
  0.75000000000000000       0.56250000000000000        0.0000000000000000     
  0.78125000000000000       0.56250000000000000        0.0000000000000000     
  0.81250000000000000       0.56250000000000000        0.0000000000000000     
  0.84375000000000000       0.56250000000000000        0.0000000000000000     
  0.87500000000000000       0.56250000000000000        0.0000000000000000     
  0.75000000000000000       0.59375000000000000        0.0000000000000000     
  0.78125000000000000       0.59375000000000000        0.0000000000000000     
  0.81250000000000000       0.59375000000000000        0.0000000000000000     
  0.84375000000000000       0.59375000000000000        0.0000000000000000     
  0.87500000000000000       0.59375000000000000        0.0000000000000000     
  0.75000000000000000       0.62500000000000000        0.0000000000000000     
  0.78125000000000000       0.62500000000000000        0.0000000000000000     
  0.81250000000000000       0.62500000000000000        0.0000000000000000     
  0.84375000000000000       0.62500000000000000        0.0000000000000000     
  0.87500000000000000       0.62500000000000000        0.0000000000000000     
  0.87500000000000000       0.50000000000000000        0.0000000000000000     
  0.90625000000000000       0.50000000000000000        0.0000000000000000     
  0.93750000000000000       0.50000000000000000        0.0000000000000000     
  0.96875000000000000       0.50000000000000000        0.0000000000000000     
   1.0000000000000000       0.50000000000000000        0.0000000000000000     
  0.87500000000000000       0.53125000000000000        0.0000000000000000     
  0.90625000000000000       0.53125000000000000        0.0000000000000000     
  0.93750000000000000       0.53125000000000000        0.0000000000000000     
  0.96875000000000000       0.53125000000000000        0.0000000000000000     
   1.0000000000000000       0.53125000000000000        0.0000000000000000     
  0.87500000000000000       0.56250000000000000        0.0000000000000000     
  0.90625000000000000       0.56250000000000000        0.0000000000000000     
  0.93750000000000000       0.56250000000000000        0.0000000000000000     
  0.96875000000000000       0.56250000000000000        0.0000000000000000     
   1.0000000000000000       0.56250000000000000        0.0000000000000000     
  0.87500000000000000       0.59375000000000000        0.0000000000000000     
  0.90625000000000000       0.59375000000000000        0.0000000000000000     
  0.93750000000000000       0.59375000000000000        0.0000000000000000     
  0.96875000000000000       0.59375000000000000        0.0000000000000000     
   1.0000000000000000       0.59375000000000000        0.0000000000000000     
  0.87500000000000000       0.62500000000000000        0.0000000000000000     
  0.90625000000000000       0.62500000000000000        0.0000000000000000     
  0.93750000000000000       0.62500000000000000        0.0000000000000000     
  0.96875000000000000       0.62500000000000000        0.0000000000000000     
   1.0000000000000000       0.62500000000000000        0.0000000000000000     
   1.0000000000000000       0.50000000000000000        0.0000000000000000     
   1.0312500000000000       0.50000000000000000        0.0000000000000000     
   1.0625000000000000       0.50000000000000000        0.0000000000000000     
   1.0937500000000000       0.50000000000000000        0.0000000000000000     
   1.1250000000000000       0.50000000000000000        0.0000000000000000     
   1.0000000000000000       0.53125000000000000        0.0000000000000000     
   1.0312500000000000       0.53125000000000000        0.0000000000000000     
   1.0625000000000000       0.53125000000000000        0.0000000000000000     
   1.0937500000000000       0.53125000000000000        0.0000000000000000     
   1.1250000000000000       0.53125000000000000        0.0000000000000000     
   1.0000000000000000       0.56250000000000000        0.0000000000000000     
   1.0312500000000000       0.56250000000000000        0.0000000000000000     
   1.0625000000000000       0.56250000000000000        0.0000000000000000     
   1.0937500000000000       0.56250000000000000        0.0000000000000000     
   1.1250000000000000       0.56250000000000000        0.0000000000000000     
   1.0000000000000000       0.59375000000000000        0.0000000000000000     
   1.0312500000000000       0.59375000000000000        0.0000000000000000     
   1.0625000000000000       0.59375000000000000        0.0000000000000000     
   1.0937500000000000       0.59375000000000000        0.0000000000000000     
   1.1250000000000000       0.59375000000000000        0.0000000000000000     
   1.0000000000000000       0.62500000000000000        0.0000000000000000     
   1.0312500000000000       0.62500000000000000        0.0000000000000000     
   1.0625000000000000       0.62500000000000000        0.0000000000000000     
   1.0937500000000000       0.62500000000000000        0.0000000000000000     
   1.1250000000000000       0.62500000000000000        0.0000000000000000     
   1.1250000000000000       0.50000000000000000        0.0000000000000000     
   1.1562500000000000       0.50000000000000000        0.0000000000000000     
   1.1875000000000000       0.50000000000000000        0.0000000000000000     
   1.2187500000000000       0.50000000000000000        0.0000000000000000     
   1.2500000000000000       0.50000000000000000        0.0000000000000000     
   1.1250000000000000       0.53125000000000000        0.0000000000000000     
   1.1562500000000000       0.53125000000000000        0.0000000000000000     
   1.1875000000000000       0.53125000000000000        0.0000000000000000     
   1.2187500000000000       0.53125000000000000        0.0000000000000000     
   1.2500000000000000       0.53125000000000000        0.0000000000000000     
   1.1250000000000000       0.56250000000000000        0.0000000000000000     
   1.1562500000000000       0.56250000000000000        0.0000000000000000     
   1.1875000000000000       0.56250000000000000        0.0000000000000000     
   1.2187500000000000       0.56250000000000000        0.0000000000000000     
   1.2500000000000000       0.56250000000000000        0.0000000000000000     
   1.1250000000000000       0.59375000000000000        0.0000000000000000     
   1.1562500000000000       0.59375000000000000        0.0000000000000000     
   1.1875000000000000       0.59375000000000000        0.0000000000000000     
   1.2187500000000000       0.59375000000000000        0.0000000000000000     
   1.2500000000000000       0.59375000000000000        0.0000000000000000     
   1.1250000000000000       0.62500000000000000        0.0000000000000000     
   1.1562500000000000       0.62500000000000000        0.0000000000000000     
   1.1875000000000000       0.62500000000000000        0.0000000000000000     
   1.2187500000000000       0.62500000000000000        0.0000000000000000     
   1.2500000000000000       0.62500000000000000        0.0000000000000000     
   1.2500000000000000       0.50000000000000000        0.0000000000000000     
   1.2812500000000000       0.50000000000000000        0.0000000000000000     
   1.3125000000000000       0.50000000000000000        0.0000000000000000     
   1.3437500000000000       0.50000000000000000        0.0000000000000000     
   1.3750000000000000       0.50000000000000000        0.0000000000000000     
   1.2500000000000000       0.53125000000000000        0.0000000000000000     
   1.2812500000000000       0.53125000000000000        0.0000000000000000     
   1.3125000000000000       0.53125000000000000        0.0000000000000000     
   1.3437500000000000       0.53125000000000000        0.0000000000000000     
   1.3750000000000000       0.53125000000000000        0.0000000000000000     
   1.2500000000000000       0.56250000000000000        0.0000000000000000     
   1.2812500000000000       0.56250000000000000        0.0000000000000000     
   1.3125000000000000       0.56250000000000000        0.0000000000000000     
   1.3437500000000000       0.56250000000000000        0.0000000000000000     
   1.3750000000000000       0.56250000000000000        0.0000000000000000     
   1.2500000000000000       0.59375000000000000        0.0000000000000000     
   1.2812500000000000       0.59375000000000000        0.0000000000000000     
   1.3125000000000000       0.59375000000000000        0.0000000000000000     
   1.3437500000000000       0.59375000000000000        0.0000000000000000     
   1.3750000000000000       0.59375000000000000        0.0000000000000000     
   1.2500000000000000       0.62500000000000000        0.0000000000000000     
   1.2812500000000000       0.62500000000000000        0.0000000000000000     
   1.3125000000000000       0.62500000000000000        0.0000000000000000     
   1.3437500000000000       0.62500000000000000        0.0000000000000000     
   1.3750000000000000       0.62500000000000000        0.0000000000000000     
   1.3750000000000000       0.50000000000000000        0.0000000000000000     
   1.4062500000000000       0.50000000000000000        0.0000000000000000     
   1.4375000000000000       0.50000000000000000        0.0000000000000000     
   1.4687500000000000       0.50000000000000000        0.0000000000000000     
   1.5000000000000000       0.50000000000000000        0.0000000000000000     
   1.3750000000000000       0.53125000000000000        0.0000000000000000     
   1.4062500000000000       0.53125000000000000        0.0000000000000000     
   1.4375000000000000       0.53125000000000000        0.0000000000000000     
   1.4687500000000000       0.53125000000000000        0.0000000000000000     
   1.5000000000000000       0.53125000000000000        0.0000000000000000     
   1.3750000000000000       0.56250000000000000        0.0000000000000000     
   1.4062500000000000       0.56250000000000000        0.0000000000000000     
   1.4375000000000000       0.56250000000000000        0.0000000000000000     
   1.4687500000000000       0.56250000000000000        0.0000000000000000     
   1.5000000000000000       0.56250000000000000        0.0000000000000000     
   1.3750000000000000       0.59375000000000000        0.0000000000000000     
   1.4062500000000000       0.59375000000000000        0.0000000000000000     
   1.4375000000000000       0.59375000000000000        0.0000000000000000     
   1.4687500000000000       0.59375000000000000        0.0000000000000000     
   1.5000000000000000       0.59375000000000000        0.0000000000000000     
   1.3750000000000000       0.62500000000000000        0.0000000000000000     
   1.4062500000000000       0.62500000000000000        0.0000000000000000     
   1.4375000000000000       0.62500000000000000        0.0000000000000000     
   1.4687500000000000       0.62500000000000000        0.0000000000000000     
   1.5000000000000000       0.62500000000000000        0.0000000000000000     
  0.50000000000000000       0.62500000000000000        0.0000000000000000     
  0.53125000000000000       0.62500000000000000        0.0000000000000000     
  0.56250000000000000       0.62500000000000000        0.0000000000000000     
  0.59375000000000000       0.62500000000000000        0.0000000000000000     
  0.62500000000000000       0.62500000000000000        0.0000000000000000     
  0.50000000000000000       0.65625000000000000        0.0000000000000000     
  0.53125000000000000       0.65625000000000000        0.0000000000000000     
  0.56250000000000000       0.65625000000000000        0.0000000000000000     
  0.59375000000000000       0.65625000000000000        0.0000000000000000     
  0.62500000000000000       0.65625000000000000        0.0000000000000000     
  0.50000000000000000       0.68750000000000000        0.0000000000000000     
  0.53125000000000000       0.68750000000000000        0.0000000000000000     
  0.56250000000000000       0.68750000000000000        0.0000000000000000     
  0.59375000000000000       0.68750000000000000        0.0000000000000000     
  0.62500000000000000       0.68750000000000000        0.0000000000000000     
  0.50000000000000000       0.71875000000000000        0.0000000000000000     
  0.53125000000000000       0.71875000000000000        0.0000000000000000     
  0.56250000000000000       0.71875000000000000        0.0000000000000000     
  0.59375000000000000       0.71875000000000000        0.0000000000000000     
  0.62500000000000000       0.71875000000000000        0.0000000000000000     
  0.50000000000000000       0.75000000000000000        0.0000000000000000     
  0.53125000000000000       0.75000000000000000        0.0000000000000000     
  0.56250000000000000       0.75000000000000000        0.0000000000000000     
  0.59375000000000000       0.75000000000000000        0.0000000000000000     
  0.62500000000000000       0.75000000000000000        0.0000000000000000     
  0.62500000000000000       0.62500000000000000        0.0000000000000000     
  0.65625000000000000       0.62500000000000000        0.0000000000000000     
  0.68750000000000000       0.62500000000000000        0.0000000000000000     
  0.71875000000000000       0.62500000000000000        0.0000000000000000     
  0.75000000000000000       0.62500000000000000        0.0000000000000000     
  0.62500000000000000       0.65625000000000000        0.0000000000000000     
  0.65625000000000000       0.65625000000000000        0.0000000000000000     
  0.68750000000000000       0.65625000000000000        0.0000000000000000     
  0.71875000000000000       0.65625000000000000        0.0000000000000000     
  0.75000000000000000       0.65625000000000000        0.0000000000000000     
  0.62500000000000000       0.68750000000000000        0.0000000000000000     
  0.65625000000000000       0.68750000000000000        0.0000000000000000     
  0.68750000000000000       0.68750000000000000        0.0000000000000000     
  0.71875000000000000       0.68750000000000000        0.0000000000000000     
  0.75000000000000000       0.68750000000000000        0.0000000000000000     
  0.62500000000000000       0.71875000000000000        0.0000000000000000     
  0.65625000000000000       0.71875000000000000        0.0000000000000000     
  0.68750000000000000       0.71875000000000000        0.0000000000000000     
  0.71875000000000000       0.71875000000000000        0.0000000000000000     
  0.75000000000000000       0.71875000000000000        0.0000000000000000     
  0.62500000000000000       0.75000000000000000        0.0000000000000000     
  0.65625000000000000       0.75000000000000000        0.0000000000000000     
  0.68750000000000000       0.75000000000000000        0.0000000000000000     
  0.71875000000000000       0.75000000000000000        0.0000000000000000     
  0.75000000000000000       0.75000000000000000        0.0000000000000000     
  0.75000000000000000       0.62500000000000000        0.0000000000000000     
  0.78125000000000000       0.62500000000000000        0.0000000000000000     
  0.81250000000000000       0.62500000000000000        0.0000000000000000     
  0.84375000000000000       0.62500000000000000        0.0000000000000000     
  0.87500000000000000       0.62500000000000000        0.0000000000000000     
  0.75000000000000000       0.65625000000000000        0.0000000000000000     
  0.78125000000000000       0.65625000000000000        0.0000000000000000     
  0.81250000000000000       0.65625000000000000        0.0000000000000000     
  0.84375000000000000       0.65625000000000000        0.0000000000000000     
  0.87500000000000000       0.65625000000000000        0.0000000000000000     
  0.75000000000000000       0.68750000000000000        0.0000000000000000     
  0.78125000000000000       0.68750000000000000        0.0000000000000000     
  0.81250000000000000       0.68750000000000000        0.0000000000000000     
  0.84375000000000000       0.68750000000000000        0.0000000000000000     
  0.87500000000000000       0.68750000000000000        0.0000000000000000     
  0.75000000000000000       0.71875000000000000        0.0000000000000000     
  0.78125000000000000       0.71875000000000000        0.0000000000000000     
  0.81250000000000000       0.71875000000000000        0.0000000000000000     
  0.84375000000000000       0.71875000000000000        0.0000000000000000     
  0.87500000000000000       0.71875000000000000        0.0000000000000000     
  0.75000000000000000       0.75000000000000000        0.0000000000000000     
  0.78125000000000000       0.75000000000000000        0.0000000000000000     
  0.81250000000000000       0.75000000000000000        0.0000000000000000     
  0.84375000000000000       0.75000000000000000        0.0000000000000000     
  0.87500000000000000       0.75000000000000000        0.0000000000000000     
  0.87500000000000000       0.62500000000000000        0.0000000000000000     
  0.90625000000000000       0.62500000000000000        0.0000000000000000     
  0.93750000000000000       0.62500000000000000        0.0000000000000000     
  0.96875000000000000       0.62500000000000000        0.0000000000000000     
   1.0000000000000000       0.62500000000000000        0.0000000000000000     
  0.87500000000000000       0.65625000000000000        0.0000000000000000     
  0.90625000000000000       0.65625000000000000        0.0000000000000000     
  0.93750000000000000       0.65625000000000000        0.0000000000000000     
  0.96875000000000000       0.65625000000000000        0.0000000000000000     
   1.0000000000000000       0.65625000000000000        0.0000000000000000     
  0.87500000000000000       0.68750000000000000        0.0000000000000000     
  0.90625000000000000       0.68750000000000000        0.0000000000000000     
  0.93750000000000000       0.68750000000000000        0.0000000000000000     
  0.96875000000000000       0.68750000000000000        0.0000000000000000     
   1.0000000000000000       0.68750000000000000        0.0000000000000000     
  0.87500000000000000       0.71875000000000000        0.0000000000000000     
  0.90625000000000000       0.71875000000000000        0.0000000000000000     
  0.93750000000000000       0.71875000000000000        0.0000000000000000     
  0.96875000000000000       0.71875000000000000        0.0000000000000000     
   1.0000000000000000       0.71875000000000000        0.0000000000000000     
  0.87500000000000000       0.75000000000000000        0.0000000000000000     
  0.90625000000000000       0.75000000000000000        0.0000000000000000     
  0.93750000000000000       0.75000000000000000        0.0000000000000000     
  0.96875000000000000       0.75000000000000000        0.0000000000000000     
   1.0000000000000000       0.75000000000000000        0.0000000000000000     
   1.0000000000000000       0.62500000000000000        0.0000000000000000     
   1.0312500000000000       0.62500000000000000        0.0000000000000000     
   1.0625000000000000       0.62500000000000000        0.0000000000000000     
   1.0937500000000000       0.62500000000000000        0.0000000000000000     
   1.1250000000000000       0.62500000000000000        0.0000000000000000     
   1.0000000000000000       0.65625000000000000        0.0000000000000000     
   1.0312500000000000       0.65625000000000000        0.0000000000000000     
   1.0625000000000000       0.65625000000000000        0.0000000000000000     
   1.0937500000000000       0.65625000000000000        0.0000000000000000     
   1.1250000000000000       0.65625000000000000        0.0000000000000000     
   1.0000000000000000       0.68750000000000000        0.0000000000000000     
   1.0312500000000000       0.68750000000000000        0.0000000000000000     
   1.0625000000000000       0.68750000000000000        0.0000000000000000     
   1.0937500000000000       0.68750000000000000        0.0000000000000000     
   1.1250000000000000       0.68750000000000000        0.0000000000000000     
   1.0000000000000000       0.71875000000000000        0.0000000000000000     
   1.0312500000000000       0.71875000000000000        0.0000000000000000     
   1.0625000000000000       0.71875000000000000        0.0000000000000000     
   1.0937500000000000       0.71875000000000000        0.0000000000000000     
   1.1250000000000000       0.71875000000000000        0.0000000000000000     
   1.0000000000000000       0.75000000000000000        0.0000000000000000     
   1.0312500000000000       0.75000000000000000        0.0000000000000000     
   1.0625000000000000       0.75000000000000000        0.0000000000000000     
   1.0937500000000000       0.75000000000000000        0.0000000000000000     
   1.1250000000000000       0.75000000000000000        0.0000000000000000     
   1.1250000000000000       0.62500000000000000        0.0000000000000000     
   1.1562500000000000       0.62500000000000000        0.0000000000000000     
   1.1875000000000000       0.62500000000000000        0.0000000000000000     
   1.2187500000000000       0.62500000000000000        0.0000000000000000     
   1.2500000000000000       0.62500000000000000        0.0000000000000000     
   1.1250000000000000       0.65625000000000000        0.0000000000000000     
   1.1562500000000000       0.65625000000000000        0.0000000000000000     
   1.1875000000000000       0.65625000000000000        0.0000000000000000     
   1.2187500000000000       0.65625000000000000        0.0000000000000000     
   1.2500000000000000       0.65625000000000000        0.0000000000000000     
   1.1250000000000000       0.68750000000000000        0.0000000000000000     
   1.1562500000000000       0.68750000000000000        0.0000000000000000     
   1.1875000000000000       0.68750000000000000        0.0000000000000000     
   1.2187500000000000       0.68750000000000000        0.0000000000000000     
   1.2500000000000000       0.68750000000000000        0.0000000000000000     
   1.1250000000000000       0.71875000000000000        0.0000000000000000     
   1.1562500000000000       0.71875000000000000        0.0000000000000000     
   1.1875000000000000       0.71875000000000000        0.0000000000000000     
   1.2187500000000000       0.71875000000000000        0.0000000000000000     
   1.2500000000000000       0.71875000000000000        0.0000000000000000     
   1.1250000000000000       0.75000000000000000        0.0000000000000000     
   1.1562500000000000       0.75000000000000000        0.0000000000000000     
   1.1875000000000000       0.75000000000000000        0.0000000000000000     
   1.2187500000000000       0.75000000000000000        0.0000000000000000     
   1.2500000000000000       0.75000000000000000        0.0000000000000000     
   1.2500000000000000       0.62500000000000000        0.0000000000000000     
   1.2812500000000000       0.62500000000000000        0.0000000000000000     
   1.3125000000000000       0.62500000000000000        0.0000000000000000     
   1.3437500000000000       0.62500000000000000        0.0000000000000000     
   1.3750000000000000       0.62500000000000000        0.0000000000000000     
   1.2500000000000000       0.65625000000000000        0.0000000000000000     
   1.2812500000000000       0.65625000000000000        0.0000000000000000     
   1.3125000000000000       0.65625000000000000        0.0000000000000000     
   1.3437500000000000       0.65625000000000000        0.0000000000000000     
   1.3750000000000000       0.65625000000000000        0.0000000000000000     
   1.2500000000000000       0.68750000000000000        0.0000000000000000     
   1.2812500000000000       0.68750000000000000        0.0000000000000000     
   1.3125000000000000       0.68750000000000000        0.0000000000000000     
   1.3437500000000000       0.68750000000000000        0.0000000000000000     
   1.3750000000000000       0.68750000000000000        0.0000000000000000     
   1.2500000000000000       0.71875000000000000        0.0000000000000000     
   1.2812500000000000       0.71875000000000000        0.0000000000000000     
   1.3125000000000000       0.71875000000000000        0.0000000000000000     
   1.3437500000000000       0.71875000000000000        0.0000000000000000     
   1.3750000000000000       0.71875000000000000        0.0000000000000000     
   1.2500000000000000       0.75000000000000000        0.0000000000000000     
   1.2812500000000000       0.75000000000000000        0.0000000000000000     
   1.3125000000000000       0.75000000000000000        0.0000000000000000     
   1.3437500000000000       0.75000000000000000        0.0000000000000000     
   1.3750000000000000       0.75000000000000000        0.0000000000000000     
   1.3750000000000000       0.62500000000000000        0.0000000000000000     
   1.4062500000000000       0.62500000000000000        0.0000000000000000     
   1.4375000000000000       0.62500000000000000        0.0000000000000000     
   1.4687500000000000       0.62500000000000000        0.0000000000000000     
   1.5000000000000000       0.62500000000000000        0.0000000000000000     
   1.3750000000000000       0.65625000000000000        0.0000000000000000     
   1.4062500000000000       0.65625000000000000        0.0000000000000000     
   1.4375000000000000       0.65625000000000000        0.0000000000000000     
   1.4687500000000000       0.65625000000000000        0.0000000000000000     
   1.5000000000000000       0.65625000000000000        0.0000000000000000     
   1.3750000000000000       0.68750000000000000        0.0000000000000000     
   1.4062500000000000       0.68750000000000000        0.0000000000000000     
   1.4375000000000000       0.68750000000000000        0.0000000000000000     
   1.4687500000000000       0.68750000000000000        0.0000000000000000     
   1.5000000000000000       0.68750000000000000        0.0000000000000000     
   1.3750000000000000       0.71875000000000000        0.0000000000000000     
   1.4062500000000000       0.71875000000000000        0.0000000000000000     
   1.4375000000000000       0.71875000000000000        0.0000000000000000     
   1.4687500000000000       0.71875000000000000        0.0000000000000000     
   1.5000000000000000       0.71875000000000000        0.0000000000000000     
   1.3750000000000000       0.75000000000000000        0.0000000000000000     
   1.4062500000000000       0.75000000000000000        0.0000000000000000     
   1.4375000000000000       0.75000000000000000        0.0000000000000000     
   1.4687500000000000       0.75000000000000000        0.0000000000000000     
   1.5000000000000000       0.75000000000000000        0.0000000000000000     
  0.50000000000000000       0.75000000000000000        0.0000000000000000     
  0.53125000000000000       0.75000000000000000        0.0000000000000000     
  0.56250000000000000       0.75000000000000000        0.0000000000000000     
  0.59375000000000000       0.75000000000000000        0.0000000000000000     
  0.62500000000000000       0.75000000000000000        0.0000000000000000     
  0.50000000000000000       0.78125000000000000        0.0000000000000000     
  0.53125000000000000       0.78125000000000000        0.0000000000000000     
  0.56250000000000000       0.78125000000000000        0.0000000000000000     
  0.59375000000000000       0.78125000000000000        0.0000000000000000     
  0.62500000000000000       0.78125000000000000        0.0000000000000000     
  0.50000000000000000       0.81250000000000000        0.0000000000000000     
  0.53125000000000000       0.81250000000000000        0.0000000000000000     
  0.56250000000000000       0.81250000000000000        0.0000000000000000     
  0.59375000000000000       0.81250000000000000        0.0000000000000000     
  0.62500000000000000       0.81250000000000000        0.0000000000000000     
  0.50000000000000000       0.84375000000000000        0.0000000000000000     
  0.53125000000000000       0.84375000000000000        0.0000000000000000     
  0.56250000000000000       0.84375000000000000        0.0000000000000000     
  0.59375000000000000       0.84375000000000000        0.0000000000000000     
  0.62500000000000000       0.84375000000000000        0.0000000000000000     
  0.50000000000000000       0.87500000000000000        0.0000000000000000     
  0.53125000000000000       0.87500000000000000        0.0000000000000000     
  0.56250000000000000       0.87500000000000000        0.0000000000000000     
  0.59375000000000000       0.87500000000000000        0.0000000000000000     
  0.62500000000000000       0.87500000000000000        0.0000000000000000     
  0.62500000000000000       0.75000000000000000        0.0000000000000000     
  0.65625000000000000       0.75000000000000000        0.0000000000000000     
  0.68750000000000000       0.75000000000000000        0.0000000000000000     
  0.71875000000000000       0.75000000000000000        0.0000000000000000     
  0.75000000000000000       0.75000000000000000        0.0000000000000000     
  0.62500000000000000       0.78125000000000000        0.0000000000000000     
  0.65625000000000000       0.78125000000000000        0.0000000000000000     
  0.68750000000000000       0.78125000000000000        0.0000000000000000     
  0.71875000000000000       0.78125000000000000        0.0000000000000000     
  0.75000000000000000       0.78125000000000000        0.0000000000000000     
  0.62500000000000000       0.81250000000000000        0.0000000000000000     
  0.65625000000000000       0.81250000000000000        0.0000000000000000     
  0.68750000000000000       0.81250000000000000        0.0000000000000000     
  0.71875000000000000       0.81250000000000000        0.0000000000000000     
  0.75000000000000000       0.81250000000000000        0.0000000000000000     
  0.62500000000000000       0.84375000000000000        0.0000000000000000     
  0.65625000000000000       0.84375000000000000        0.0000000000000000     
  0.68750000000000000       0.84375000000000000        0.0000000000000000     
  0.71875000000000000       0.84375000000000000        0.0000000000000000     
  0.75000000000000000       0.84375000000000000        0.0000000000000000     
  0.62500000000000000       0.87500000000000000        0.0000000000000000     
  0.65625000000000000       0.87500000000000000        0.0000000000000000     
  0.68750000000000000       0.87500000000000000        0.0000000000000000     
  0.71875000000000000       0.87500000000000000        0.0000000000000000     
  0.75000000000000000       0.87500000000000000        0.0000000000000000     
  0.75000000000000000       0.75000000000000000        0.0000000000000000     
  0.78125000000000000       0.75000000000000000        0.0000000000000000     
  0.81250000000000000       0.75000000000000000        0.0000000000000000     
  0.84375000000000000       0.75000000000000000        0.0000000000000000     
  0.87500000000000000       0.75000000000000000        0.0000000000000000     
  0.75000000000000000       0.78125000000000000        0.0000000000000000     
  0.78125000000000000       0.78125000000000000        0.0000000000000000     
  0.81250000000000000       0.78125000000000000        0.0000000000000000     
  0.84375000000000000       0.78125000000000000        0.0000000000000000     
  0.87500000000000000       0.78125000000000000        0.0000000000000000     
  0.75000000000000000       0.81250000000000000        0.0000000000000000     
  0.78125000000000000       0.81250000000000000        0.0000000000000000     
  0.81250000000000000       0.81250000000000000        0.0000000000000000     
  0.84375000000000000       0.81250000000000000        0.0000000000000000     
  0.87500000000000000       0.81250000000000000        0.0000000000000000     
  0.75000000000000000       0.84375000000000000        0.0000000000000000     
  0.78125000000000000       0.84375000000000000        0.0000000000000000     
  0.81250000000000000       0.84375000000000000        0.0000000000000000     
  0.84375000000000000       0.84375000000000000        0.0000000000000000     
  0.87500000000000000       0.84375000000000000        0.0000000000000000     
  0.75000000000000000       0.87500000000000000        0.0000000000000000     
  0.78125000000000000       0.87500000000000000        0.0000000000000000     
  0.81250000000000000       0.87500000000000000        0.0000000000000000     
  0.84375000000000000       0.87500000000000000        0.0000000000000000     
  0.87500000000000000       0.87500000000000000        0.0000000000000000     
  0.87500000000000000       0.75000000000000000        0.0000000000000000     
  0.90625000000000000       0.75000000000000000        0.0000000000000000     
  0.93750000000000000       0.75000000000000000        0.0000000000000000     
  0.96875000000000000       0.75000000000000000        0.0000000000000000     
   1.0000000000000000       0.75000000000000000        0.0000000000000000     
  0.87500000000000000       0.78125000000000000        0.0000000000000000     
  0.90625000000000000       0.78125000000000000        0.0000000000000000     
  0.93750000000000000       0.78125000000000000        0.0000000000000000     
  0.96875000000000000       0.78125000000000000        0.0000000000000000     
   1.0000000000000000       0.78125000000000000        0.0000000000000000     
  0.87500000000000000       0.81250000000000000        0.0000000000000000     
  0.90625000000000000       0.81250000000000000        0.0000000000000000     
  0.93750000000000000       0.81250000000000000        0.0000000000000000     
  0.96875000000000000       0.81250000000000000        0.0000000000000000     
   1.0000000000000000       0.81250000000000000        0.0000000000000000     
  0.87500000000000000       0.84375000000000000        0.0000000000000000     
  0.90625000000000000       0.84375000000000000        0.0000000000000000     
  0.93750000000000000       0.84375000000000000        0.0000000000000000     
  0.96875000000000000       0.84375000000000000        0.0000000000000000     
   1.0000000000000000       0.84375000000000000        0.0000000000000000     
  0.87500000000000000       0.87500000000000000        0.0000000000000000     
  0.90625000000000000       0.87500000000000000        0.0000000000000000     
  0.93750000000000000       0.87500000000000000        0.0000000000000000     
  0.96875000000000000       0.87500000000000000        0.0000000000000000     
   1.0000000000000000       0.87500000000000000        0.0000000000000000     
   1.0000000000000000       0.75000000000000000        0.0000000000000000     
   1.0312500000000000       0.75000000000000000        0.0000000000000000     
   1.0625000000000000       0.75000000000000000        0.0000000000000000     
   1.0937500000000000       0.75000000000000000        0.0000000000000000     
   1.1250000000000000       0.75000000000000000        0.0000000000000000     
   1.0000000000000000       0.78125000000000000        0.0000000000000000     
   1.0312500000000000       0.78125000000000000        0.0000000000000000     
   1.0625000000000000       0.78125000000000000        0.0000000000000000     
   1.0937500000000000       0.78125000000000000        0.0000000000000000     
   1.1250000000000000       0.78125000000000000        0.0000000000000000     
   1.0000000000000000       0.81250000000000000        0.0000000000000000     
   1.0312500000000000       0.81250000000000000        0.0000000000000000     
   1.0625000000000000       0.81250000000000000        0.0000000000000000     
   1.0937500000000000       0.81250000000000000        0.0000000000000000     
   1.1250000000000000       0.81250000000000000        0.0000000000000000     
   1.0000000000000000       0.84375000000000000        0.0000000000000000     
   1.0312500000000000       0.84375000000000000        0.0000000000000000     
   1.0625000000000000       0.84375000000000000        0.0000000000000000     
   1.0937500000000000       0.84375000000000000        0.0000000000000000     
   1.1250000000000000       0.84375000000000000        0.0000000000000000     
   1.0000000000000000       0.87500000000000000        0.0000000000000000     
   1.0312500000000000       0.87500000000000000        0.0000000000000000     
   1.0625000000000000       0.87500000000000000        0.0000000000000000     
   1.0937500000000000       0.87500000000000000        0.0000000000000000     
   1.1250000000000000       0.87500000000000000        0.0000000000000000     
   1.1250000000000000       0.75000000000000000        0.0000000000000000     
   1.1562500000000000       0.75000000000000000        0.0000000000000000     
   1.1875000000000000       0.75000000000000000        0.0000000000000000     
   1.2187500000000000       0.75000000000000000        0.0000000000000000     
   1.2500000000000000       0.75000000000000000        0.0000000000000000     
   1.1250000000000000       0.78125000000000000        0.0000000000000000     
   1.1562500000000000       0.78125000000000000        0.0000000000000000     
   1.1875000000000000       0.78125000000000000        0.0000000000000000     
   1.2187500000000000       0.78125000000000000        0.0000000000000000     
   1.2500000000000000       0.78125000000000000        0.0000000000000000     
   1.1250000000000000       0.81250000000000000        0.0000000000000000     
   1.1562500000000000       0.81250000000000000        0.0000000000000000     
   1.1875000000000000       0.81250000000000000        0.0000000000000000     
   1.2187500000000000       0.81250000000000000        0.0000000000000000     
   1.2500000000000000       0.81250000000000000        0.0000000000000000     
   1.1250000000000000       0.84375000000000000        0.0000000000000000     
   1.1562500000000000       0.84375000000000000        0.0000000000000000     
   1.1875000000000000       0.84375000000000000        0.0000000000000000     
   1.2187500000000000       0.84375000000000000        0.0000000000000000     
   1.2500000000000000       0.84375000000000000        0.0000000000000000     
   1.1250000000000000       0.87500000000000000        0.0000000000000000     
   1.1562500000000000       0.87500000000000000        0.0000000000000000     
   1.1875000000000000       0.87500000000000000        0.0000000000000000     
   1.2187500000000000       0.87500000000000000        0.0000000000000000     
   1.2500000000000000       0.87500000000000000        0.0000000000000000     
   1.2500000000000000       0.75000000000000000        0.0000000000000000     
   1.2812500000000000       0.75000000000000000        0.0000000000000000     
   1.3125000000000000       0.75000000000000000        0.0000000000000000     
   1.3437500000000000       0.75000000000000000        0.0000000000000000     
   1.3750000000000000       0.75000000000000000        0.0000000000000000     
   1.2500000000000000       0.78125000000000000        0.0000000000000000     
   1.2812500000000000       0.78125000000000000        0.0000000000000000     
   1.3125000000000000       0.78125000000000000        0.0000000000000000     
   1.3437500000000000       0.78125000000000000        0.0000000000000000     
   1.3750000000000000       0.78125000000000000        0.0000000000000000     
   1.2500000000000000       0.81250000000000000        0.0000000000000000     
   1.2812500000000000       0.81250000000000000        0.0000000000000000     
   1.3125000000000000       0.81250000000000000        0.0000000000000000     
   1.3437500000000000       0.81250000000000000        0.0000000000000000     
   1.3750000000000000       0.81250000000000000        0.0000000000000000     
   1.2500000000000000       0.84375000000000000        0.0000000000000000     
   1.2812500000000000       0.84375000000000000        0.0000000000000000     
   1.3125000000000000       0.84375000000000000        0.0000000000000000     
   1.3437500000000000       0.84375000000000000        0.0000000000000000     
   1.3750000000000000       0.84375000000000000        0.0000000000000000     
   1.2500000000000000       0.87500000000000000        0.0000000000000000     
   1.2812500000000000       0.87500000000000000        0.0000000000000000     
   1.3125000000000000       0.87500000000000000        0.0000000000000000     
   1.3437500000000000       0.87500000000000000        0.0000000000000000     
   1.3750000000000000       0.87500000000000000        0.0000000000000000     
   1.3750000000000000       0.75000000000000000        0.0000000000000000     
   1.4062500000000000       0.75000000000000000        0.0000000000000000     
   1.4375000000000000       0.75000000000000000        0.0000000000000000     
   1.4687500000000000       0.75000000000000000        0.0000000000000000     
   1.5000000000000000       0.75000000000000000        0.0000000000000000     
   1.3750000000000000       0.78125000000000000        0.0000000000000000     
   1.4062500000000000       0.78125000000000000        0.0000000000000000     
   1.4375000000000000       0.78125000000000000        0.0000000000000000     
   1.4687500000000000       0.78125000000000000        0.0000000000000000     
   1.5000000000000000       0.78125000000000000        0.0000000000000000     
   1.3750000000000000       0.81250000000000000        0.0000000000000000     
   1.4062500000000000       0.81250000000000000        0.0000000000000000     
   1.4375000000000000       0.81250000000000000        0.0000000000000000     
   1.4687500000000000       0.81250000000000000        0.0000000000000000     
   1.5000000000000000       0.81250000000000000        0.0000000000000000     
   1.3750000000000000       0.84375000000000000        0.0000000000000000     
   1.4062500000000000       0.84375000000000000        0.0000000000000000     
   1.4375000000000000       0.84375000000000000        0.0000000000000000     
   1.4687500000000000       0.84375000000000000        0.0000000000000000     
   1.5000000000000000       0.84375000000000000        0.0000000000000000     
   1.3750000000000000       0.87500000000000000        0.0000000000000000     
   1.4062500000000000       0.87500000000000000        0.0000000000000000     
   1.4375000000000000       0.87500000000000000        0.0000000000000000     
   1.4687500000000000       0.87500000000000000        0.0000000000000000     
   1.5000000000000000       0.87500000000000000        0.0000000000000000     
  0.50000000000000000       0.87500000000000000        0.0000000000000000     
  0.53125000000000000       0.87500000000000000        0.0000000000000000     
  0.56250000000000000       0.87500000000000000        0.0000000000000000     
  0.59375000000000000       0.87500000000000000        0.0000000000000000     
  0.62500000000000000       0.87500000000000000        0.0000000000000000     
  0.50000000000000000       0.90625000000000000        0.0000000000000000     
  0.53125000000000000       0.90625000000000000        0.0000000000000000     
  0.56250000000000000       0.90625000000000000        0.0000000000000000     
  0.59375000000000000       0.90625000000000000        0.0000000000000000     
  0.62500000000000000       0.90625000000000000        0.0000000000000000     
  0.50000000000000000       0.93750000000000000        0.0000000000000000     
  0.53125000000000000       0.93750000000000000        0.0000000000000000     
  0.56250000000000000       0.93750000000000000        0.0000000000000000     
  0.59375000000000000       0.93750000000000000        0.0000000000000000     
  0.62500000000000000       0.93750000000000000        0.0000000000000000     
  0.50000000000000000       0.96875000000000000        0.0000000000000000     
  0.53125000000000000       0.96875000000000000        0.0000000000000000     
  0.56250000000000000       0.96875000000000000        0.0000000000000000     
  0.59375000000000000       0.96875000000000000        0.0000000000000000     
  0.62500000000000000       0.96875000000000000        0.0000000000000000     
  0.50000000000000000        1.0000000000000000        0.0000000000000000     
  0.53125000000000000        1.0000000000000000        0.0000000000000000     
  0.56250000000000000        1.0000000000000000        0.0000000000000000     
  0.59375000000000000        1.0000000000000000        0.0000000000000000     
  0.62500000000000000        1.0000000000000000        0.0000000000000000     
  0.62500000000000000       0.87500000000000000        0.0000000000000000     
  0.65625000000000000       0.87500000000000000        0.0000000000000000     
  0.68750000000000000       0.87500000000000000        0.0000000000000000     
  0.71875000000000000       0.87500000000000000        0.0000000000000000     
  0.75000000000000000       0.87500000000000000        0.0000000000000000     
  0.62500000000000000       0.90625000000000000        0.0000000000000000     
  0.65625000000000000       0.90625000000000000        0.0000000000000000     
  0.68750000000000000       0.90625000000000000        0.0000000000000000     
  0.71875000000000000       0.90625000000000000        0.0000000000000000     
  0.75000000000000000       0.90625000000000000        0.0000000000000000     
  0.62500000000000000       0.93750000000000000        0.0000000000000000     
  0.65625000000000000       0.93750000000000000        0.0000000000000000     
  0.68750000000000000       0.93750000000000000        0.0000000000000000     
  0.71875000000000000       0.93750000000000000        0.0000000000000000     
  0.75000000000000000       0.93750000000000000        0.0000000000000000     
  0.62500000000000000       0.96875000000000000        0.0000000000000000     
  0.65625000000000000       0.96875000000000000        0.0000000000000000     
  0.68750000000000000       0.96875000000000000        0.0000000000000000     
  0.71875000000000000       0.96875000000000000        0.0000000000000000     
  0.75000000000000000       0.96875000000000000        0.0000000000000000     
  0.62500000000000000        1.0000000000000000        0.0000000000000000     
  0.65625000000000000        1.0000000000000000        0.0000000000000000     
  0.68750000000000000        1.0000000000000000        0.0000000000000000     
  0.71875000000000000        1.0000000000000000        0.0000000000000000     
  0.75000000000000000        1.0000000000000000        0.0000000000000000     
  0.75000000000000000       0.87500000000000000        0.0000000000000000     
  0.78125000000000000       0.87500000000000000        0.0000000000000000     
  0.81250000000000000       0.87500000000000000        0.0000000000000000     
  0.84375000000000000       0.87500000000000000        0.0000000000000000     
  0.87500000000000000       0.87500000000000000        0.0000000000000000     
  0.75000000000000000       0.90625000000000000        0.0000000000000000     
  0.78125000000000000       0.90625000000000000        0.0000000000000000     
  0.81250000000000000       0.90625000000000000        0.0000000000000000     
  0.84375000000000000       0.90625000000000000        0.0000000000000000     
  0.87500000000000000       0.90625000000000000        0.0000000000000000     
  0.75000000000000000       0.93750000000000000        0.0000000000000000     
  0.78125000000000000       0.93750000000000000        0.0000000000000000     
  0.81250000000000000       0.93750000000000000        0.0000000000000000     
  0.84375000000000000       0.93750000000000000        0.0000000000000000     
  0.87500000000000000       0.93750000000000000        0.0000000000000000     
  0.75000000000000000       0.96875000000000000        0.0000000000000000     
  0.78125000000000000       0.96875000000000000        0.0000000000000000     
  0.81250000000000000       0.96875000000000000        0.0000000000000000     
  0.84375000000000000       0.96875000000000000        0.0000000000000000     
  0.87500000000000000       0.96875000000000000        0.0000000000000000     
  0.75000000000000000        1.0000000000000000        0.0000000000000000     
  0.78125000000000000        1.0000000000000000        0.0000000000000000     
  0.81250000000000000        1.0000000000000000        0.0000000000000000     
  0.84375000000000000        1.0000000000000000        0.0000000000000000     
  0.87500000000000000        1.0000000000000000        0.0000000000000000     
  0.87500000000000000       0.87500000000000000        0.0000000000000000     
  0.90625000000000000       0.87500000000000000        0.0000000000000000     
  0.93750000000000000       0.87500000000000000        0.0000000000000000     
  0.96875000000000000       0.87500000000000000        0.0000000000000000     
   1.0000000000000000       0.87500000000000000        0.0000000000000000     
  0.87500000000000000       0.90625000000000000        0.0000000000000000     
  0.90625000000000000       0.90625000000000000        0.0000000000000000     
  0.93750000000000000       0.90625000000000000        0.0000000000000000     
  0.96875000000000000       0.90625000000000000        0.0000000000000000     
   1.0000000000000000       0.90625000000000000        0.0000000000000000     
  0.87500000000000000       0.93750000000000000        0.0000000000000000     
  0.90625000000000000       0.93750000000000000        0.0000000000000000     
  0.93750000000000000       0.93750000000000000        0.0000000000000000     
  0.96875000000000000       0.93750000000000000        0.0000000000000000     
   1.0000000000000000       0.93750000000000000        0.0000000000000000     
  0.87500000000000000       0.96875000000000000        0.0000000000000000     
  0.90625000000000000       0.96875000000000000        0.0000000000000000     
  0.93750000000000000       0.96875000000000000        0.0000000000000000     
  0.96875000000000000       0.96875000000000000        0.0000000000000000     
   1.0000000000000000       0.96875000000000000        0.0000000000000000     
  0.87500000000000000        1.0000000000000000        0.0000000000000000     
  0.90625000000000000        1.0000000000000000        0.0000000000000000     
  0.93750000000000000        1.0000000000000000        0.0000000000000000     
  0.96875000000000000        1.0000000000000000        0.0000000000000000     
   1.0000000000000000        1.0000000000000000        0.0000000000000000     
   1.0000000000000000       0.87500000000000000        0.0000000000000000     
   1.0312500000000000       0.87500000000000000        0.0000000000000000     
   1.0625000000000000       0.87500000000000000        0.0000000000000000     
   1.0937500000000000       0.87500000000000000        0.0000000000000000     
   1.1250000000000000       0.87500000000000000        0.0000000000000000     
   1.0000000000000000       0.90625000000000000        0.0000000000000000     
   1.0312500000000000       0.90625000000000000        0.0000000000000000     
   1.0625000000000000       0.90625000000000000        0.0000000000000000     
   1.0937500000000000       0.90625000000000000        0.0000000000000000     
   1.1250000000000000       0.90625000000000000        0.0000000000000000     
   1.0000000000000000       0.93750000000000000        0.0000000000000000     
   1.0312500000000000       0.93750000000000000        0.0000000000000000     
   1.0625000000000000       0.93750000000000000        0.0000000000000000     
   1.0937500000000000       0.93750000000000000        0.0000000000000000     
   1.1250000000000000       0.93750000000000000        0.0000000000000000     
   1.0000000000000000       0.96875000000000000        0.0000000000000000     
   1.0312500000000000       0.96875000000000000        0.0000000000000000     
   1.0625000000000000       0.96875000000000000        0.0000000000000000     
   1.0937500000000000       0.96875000000000000        0.0000000000000000     
   1.1250000000000000       0.96875000000000000        0.0000000000000000     
   1.0000000000000000        1.0000000000000000        0.0000000000000000     
   1.0312500000000000        1.0000000000000000        0.0000000000000000     
   1.0625000000000000        1.0000000000000000        0.0000000000000000     
   1.0937500000000000        1.0000000000000000        0.0000000000000000     
   1.1250000000000000        1.0000000000000000        0.0000000000000000     
   1.1250000000000000       0.87500000000000000        0.0000000000000000     
   1.1562500000000000       0.87500000000000000        0.0000000000000000     
   1.1875000000000000       0.87500000000000000        0.0000000000000000     
   1.2187500000000000       0.87500000000000000        0.0000000000000000     
   1.2500000000000000       0.87500000000000000        0.0000000000000000     
   1.1250000000000000       0.90625000000000000        0.0000000000000000     
   1.1562500000000000       0.90625000000000000        0.0000000000000000     
   1.1875000000000000       0.90625000000000000        0.0000000000000000     
   1.2187500000000000       0.90625000000000000        0.0000000000000000     
   1.2500000000000000       0.90625000000000000        0.0000000000000000     
   1.1250000000000000       0.93750000000000000        0.0000000000000000     
   1.1562500000000000       0.93750000000000000        0.0000000000000000     
   1.1875000000000000       0.93750000000000000        0.0000000000000000     
   1.2187500000000000       0.93750000000000000        0.0000000000000000     
   1.2500000000000000       0.93750000000000000        0.0000000000000000     
   1.1250000000000000       0.96875000000000000        0.0000000000000000     
   1.1562500000000000       0.96875000000000000        0.0000000000000000     
   1.1875000000000000       0.96875000000000000        0.0000000000000000     
   1.2187500000000000       0.96875000000000000        0.0000000000000000     
   1.2500000000000000       0.96875000000000000        0.0000000000000000     
   1.1250000000000000        1.0000000000000000        0.0000000000000000     
   1.1562500000000000        1.0000000000000000        0.0000000000000000     
   1.1875000000000000        1.0000000000000000        0.0000000000000000     
   1.2187500000000000        1.0000000000000000        0.0000000000000000     
   1.2500000000000000        1.0000000000000000        0.0000000000000000     
   1.2500000000000000       0.87500000000000000        0.0000000000000000     
   1.2812500000000000       0.87500000000000000        0.0000000000000000     
   1.3125000000000000       0.87500000000000000        0.0000000000000000     
   1.3437500000000000       0.87500000000000000        0.0000000000000000     
   1.3750000000000000       0.87500000000000000        0.0000000000000000     
   1.2500000000000000       0.90625000000000000        0.0000000000000000     
   1.2812500000000000       0.90625000000000000        0.0000000000000000     
   1.3125000000000000       0.90625000000000000        0.0000000000000000     
   1.3437500000000000       0.90625000000000000        0.0000000000000000     
   1.3750000000000000       0.90625000000000000        0.0000000000000000     
   1.2500000000000000       0.93750000000000000        0.0000000000000000     
   1.2812500000000000       0.93750000000000000        0.0000000000000000     
   1.3125000000000000       0.93750000000000000        0.0000000000000000     
   1.3437500000000000       0.93750000000000000        0.0000000000000000     
   1.3750000000000000       0.93750000000000000        0.0000000000000000     
   1.2500000000000000       0.96875000000000000        0.0000000000000000     
   1.2812500000000000       0.96875000000000000        0.0000000000000000     
   1.3125000000000000       0.96875000000000000        0.0000000000000000     
   1.3437500000000000       0.96875000000000000        0.0000000000000000     
   1.3750000000000000       0.96875000000000000        0.0000000000000000     
   1.2500000000000000        1.0000000000000000        0.0000000000000000     
   1.2812500000000000        1.0000000000000000        0.0000000000000000     
   1.3125000000000000        1.0000000000000000        0.0000000000000000     
   1.3437500000000000        1.0000000000000000        0.0000000000000000     
   1.3750000000000000        1.0000000000000000        0.0000000000000000     
   1.3750000000000000       0.87500000000000000        0.0000000000000000     
   1.4062500000000000       0.87500000000000000        0.0000000000000000     
   1.4375000000000000       0.87500000000000000        0.0000000000000000     
   1.4687500000000000       0.87500000000000000        0.0000000000000000     
   1.5000000000000000       0.87500000000000000        0.0000000000000000     
   1.3750000000000000       0.90625000000000000        0.0000000000000000     
   1.4062500000000000       0.90625000000000000        0.0000000000000000     
   1.4375000000000000       0.90625000000000000        0.0000000000000000     
   1.4687500000000000       0.90625000000000000        0.0000000000000000     
   1.5000000000000000       0.90625000000000000        0.0000000000000000     
   1.3750000000000000       0.93750000000000000        0.0000000000000000     
   1.4062500000000000       0.93750000000000000        0.0000000000000000     
   1.4375000000000000       0.93750000000000000        0.0000000000000000     
   1.4687500000000000       0.93750000000000000        0.0000000000000000     
   1.5000000000000000       0.93750000000000000        0.0000000000000000     
   1.3750000000000000       0.96875000000000000        0.0000000000000000     
   1.4062500000000000       0.96875000000000000        0.0000000000000000     
   1.4375000000000000       0.96875000000000000        0.0000000000000000     
   1.4687500000000000       0.96875000000000000        0.0000000000000000     
   1.5000000000000000       0.96875000000000000        0.0000000000000000     
   1.3750000000000000        1.0000000000000000        0.0000000000000000     
   1.4062500000000000        1.0000000000000000        0.0000000000000000     
   1.4375000000000000        1.0000000000000000        0.0000000000000000     
   1.4687500000000000        1.0000000000000000        0.0000000000000000     
   1.5000000000000000        1.0000000000000000        0.0000000000000000     
 </DataArray>
 </Points>
 <Cells>
 <DataArray  type="Int32"  Name="connectivity"  format="ascii">
           0           1           6           5
           1           2           7           6
           2           3           8           7
           3           4           9           8
           5           6          11          10
           6           7          12          11
           7           8          13          12
           8           9          14          13
          10          11          16          15
          11          12          17          16
          12          13          18          17
          13          14          19          18
          15          16          21          20
          16          17          22          21
          17          18          23          22
          18          19          24          23
          25          26          31          30
          26          27          32          31
          27          28          33          32
          28          29          34          33
          30          31          36          35
          31          32          37          36
          32          33          38          37
          33          34          39          38
          35          36          41          40
          36          37          42          41
          37          38          43          42
          38          39          44          43
          40          41          46          45
          41          42          47          46
          42          43          48          47
          43          44          49          48
          50          51          56          55
          51          52          57          56
          52          53          58          57
          53          54          59          58
          55          56          61          60
          56          57          62          61
          57          58          63          62
          58          59          64          63
          60          61          66          65
          61          62          67          66
          62          63          68          67
          63          64          69          68
          65          66          71          70
          66          67          72          71
          67          68          73          72
          68          69          74          73
          75          76          81          80
          76          77          82          81
          77          78          83          82
          78          79          84          83
          80          81          86          85
          81          82          87          86
          82          83          88          87
          83          84          89          88
          85          86          91          90
          86          87          92          91
          87          88          93          92
          88          89          94          93
          90          91          96          95
          91          92          97          96
          92          93          98          97
          93          94          99          98
         100         101         106         105
         101         102         107         106
         102         103         108         107
         103         104         109         108
         105         106         111         110
         106         107         112         111
         107         108         113         112
         108         109         114         113
         110         111         116         115
         111         112         117         116
         112         113         118         117
         113         114         119         118
         115         116         121         120
         116         117         122         121
         117         118         123         122
         118         119         124         123
         125         126         131         130
         126         127         132         131
         127         128         133         132
         128         129         134         133
         130         131         136         135
         131         132         137         136
         132         133         138         137
         133         134         139         138
         135         136         141         140
         136         137         142         141
         137         138         143         142
         138         139         144         143
         140         141         146         145
         141         142         147         146
         142         143         148         147
         143         144         149         148
         150         151         156         155
         151         152         157         156
         152         153         158         157
         153         154         159         158
         155         156         161         160
         156         157         162         161
         157         158         163         162
         158         159         164         163
         160         161         166         165
         161         162         167         166
         162         163         168         167
         163         164         169         168
         165         166         171         170
         166         167         172         171
         167         168         173         172
         168         169         174         173
         175         176         181         180
         176         177         182         181
         177         178         183         182
         178         179         184         183
         180         181         186         185
         181         182         187         186
         182         183         188         187
         183         184         189         188
         185         186         191         190
         186         187         192         191
         187         188         193         192
         188         189         194         193
         190         191         196         195
         191         192         197         196
         192         193         198         197
         193         194         199         198
         200         201         206         205
         201         202         207         206
         202         203         208         207
         203         204         209         208
         205         206         211         210
         206         207         212         211
         207         208         213         212
         208         209         214         213
         210         211         216         215
         211         212         217         216
         212         213         218         217
         213         214         219         218
         215         216         221         220
         216         217         222         221
         217         218         223         222
         218         219         224         223
         225         226         231         230
         226         227         232         231
         227         228         233         232
         228         229         234         233
         230         231         236         235
         231         232         237         236
         232         233         238         237
         233         234         239         238
         235         236         241         240
         236         237         242         241
         237         238         243         242
         238         239         244         243
         240         241         246         245
         241         242         247         246
         242         243         248         247
         243         244         249         248
         250         251         256         255
         251         252         257         256
         252         253         258         257
         253         254         259         258
         255         256         261         260
         256         257         262         261
         257         258         263         262
         258         259         264         263
         260         261         266         265
         261         262         267         266
         262         263         268         267
         263         264         269         268
         265         266         271         270
         266         267         272         271
         267         268         273         272
         268         269         274         273
         275         276         281         280
         276         277         282         281
         277         278         283         282
         278         279         284         283
         280         281         286         285
         281         282         287         286
         282         283         288         287
         283         284         289         288
         285         286         291         290
         286         287         292         291
         287         288         293         292
         288         289         294         293
         290         291         296         295
         291         292         297         296
         292         293         298         297
         293         294         299         298
         300         301         306         305
         301         302         307         306
         302         303         308         307
         303         304         309         308
         305         306         311         310
         306         307         312         311
         307         308         313         312
         308         309         314         313
         310         311         316         315
         311         312         317         316
         312         313         318         317
         313         314         319         318
         315         316         321         320
         316         317         322         321
         317         318         323         322
         318         319         324         323
         325         326         331         330
         326         327         332         331
         327         328         333         332
         328         329         334         333
         330         331         336         335
         331         332         337         336
         332         333         338         337
         333         334         339         338
         335         336         341         340
         336         337         342         341
         337         338         343         342
         338         339         344         343
         340         341         346         345
         341         342         347         346
         342         343         348         347
         343         344         349         348
         350         351         356         355
         351         352         357         356
         352         353         358         357
         353         354         359         358
         355         356         361         360
         356         357         362         361
         357         358         363         362
         358         359         364         363
         360         361         366         365
         361         362         367         366
         362         363         368         367
         363         364         369         368
         365         366         371         370
         366         367         372         371
         367         368         373         372
         368         369         374         373
         375         376         381         380
         376         377         382         381
         377         378         383         382
         378         379         384         383
         380         381         386         385
         381         382         387         386
         382         383         388         387
         383         384         389         388
         385         386         391         390
         386         387         392         391
         387         388         393         392
         388         389         394         393
         390         391         396         395
         391         392         397         396
         392         393         398         397
         393         394         399         398
         400         401         406         405
         401         402         407         406
         402         403         408         407
         403         404         409         408
         405         406         411         410
         406         407         412         411
         407         408         413         412
         408         409         414         413
         410         411         416         415
         411         412         417         416
         412         413         418         417
         413         414         419         418
         415         416         421         420
         416         417         422         421
         417         418         423         422
         418         419         424         423
         425         426         431         430
         426         427         432         431
         427         428         433         432
         428         429         434         433
         430         431         436         435
         431         432         437         436
         432         433         438         437
         433         434         439         438
         435         436         441         440
         436         437         442         441
         437         438         443         442
         438         439         444         443
         440         441         446         445
         441         442         447         446
         442         443         448         447
         443         444         449         448
         450         451         456         455
         451         452         457         456
         452         453         458         457
         453         454         459         458
         455         456         461         460
         456         457         462         461
         457         458         463         462
         458         459         464         463
         460         461         466         465
         461         462         467         466
         462         463         468         467
         463         464         469         468
         465         466         471         470
         466         467         472         471
         467         468         473         472
         468         469         474         473
         475         476         481         480
         476         477         482         481
         477         478         483         482
         478         479         484         483
         480         481         486         485
         481         482         487         486
         482         483         488         487
         483         484         489         488
         485         486         491         490
         486         487         492         491
         487         488         493         492
         488         489         494         493
         490         491         496         495
         491         492         497         496
         492         493         498         497
         493         494         499         498
         500         501         506         505
         501         502         507         506
         502         503         508         507
         503         504         509         508
         505         506         511         510
         506         507         512         511
         507         508         513         512
         508         509         514         513
         510         511         516         515
         511         512         517         516
         512         513         518         517
         513         514         519         518
         515         516         521         520
         516         517         522         521
         517         518         523         522
         518         519         524         523
         525         526         531         530
         526         527         532         531
         527         528         533         532
         528         529         534         533
         530         531         536         535
         531         532         537         536
         532         533         538         537
         533         534         539         538
         535         536         541         540
         536         537         542         541
         537         538         543         542
         538         539         544         543
         540         541         546         545
         541         542         547         546
         542         543         548         547
         543         544         549         548
         550         551         556         555
         551         552         557         556
         552         553         558         557
         553         554         559         558
         555         556         561         560
         556         557         562         561
         557         558         563         562
         558         559         564         563
         560         561         566         565
         561         562         567         566
         562         563         568         567
         563         564         569         568
         565         566         571         570
         566         567         572         571
         567         568         573         572
         568         569         574         573
         575         576         581         580
         576         577         582         581
         577         578         583         582
         578         579         584         583
         580         581         586         585
         581         582         587         586
         582         583         588         587
         583         584         589         588
         585         586         591         590
         586         587         592         591
         587         588         593         592
         588         589         594         593
         590         591         596         595
         591         592         597         596
         592         593         598         597
         593         594         599         598
         600         601         606         605
         601         602         607         606
         602         603         608         607
         603         604         609         608
         605         606         611         610
         606         607         612         611
         607         608         613         612
         608         609         614         613
         610         611         616         615
         611         612         617         616
         612         613         618         617
         613         614         619         618
         615         616         621         620
         616         617         622         621
         617         618         623         622
         618         619         624         623
         625         626         631         630
         626         627         632         631
         627         628         633         632
         628         629         634         633
         630         631         636         635
         631         632         637         636
         632         633         638         637
         633         634         639         638
         635         636         641         640
         636         637         642         641
         637         638         643         642
         638         639         644         643
         640         641         646         645
         641         642         647         646
         642         643         648         647
         643         644         649         648
         650         651         656         655
         651         652         657         656
         652         653         658         657
         653         654         659         658
         655         656         661         660
         656         657         662         661
         657         658         663         662
         658         659         664         663
         660         661         666         665
         661         662         667         666
         662         663         668         667
         663         664         669         668
         665         666         671         670
         666         667         672         671
         667         668         673         672
         668         669         674         673
         675         676         681         680
         676         677         682         681
         677         678         683         682
         678         679         684         683
         680         681         686         685
         681         682         687         686
         682         683         688         687
         683         684         689         688
         685         686         691         690
         686         687         692         691
         687         688         693         692
         688         689         694         693
         690         691         696         695
         691         692         697         696
         692         693         698         697
         693         694         699         698
         700         701         706         705
         701         702         707         706
         702         703         708         707
         703         704         709         708
         705         706         711         710
         706         707         712         711
         707         708         713         712
         708         709         714         713
         710         711         716         715
         711         712         717         716
         712         713         718         717
         713         714         719         718
         715         716         721         720
         716         717         722         721
         717         718         723         722
         718         719         724         723
         725         726         731         730
         726         727         732         731
         727         728         733         732
         728         729         734         733
         730         731         736         735
         731         732         737         736
         732         733         738         737
         733         734         739         738
         735         736         741         740
         736         737         742         741
         737         738         743         742
         738         739         744         743
         740         741         746         745
         741         742         747         746
         742         743         748         747
         743         744         749         748
         750         751         756         755
         751         752         757         756
         752         753         758         757
         753         754         759         758
         755         756         761         760
         756         757         762         761
         757         758         763         762
         758         759         764         763
         760         761         766         765
         761         762         767         766
         762         763         768         767
         763         764         769         768
         765         766         771         770
         766         767         772         771
         767         768         773         772
         768         769         774         773
         775         776         781         780
         776         777         782         781
         777         778         783         782
         778         779         784         783
         780         781         786         785
         781         782         787         786
         782         783         788         787
         783         784         789         788
         785         786         791         790
         786         787         792         791
         787         788         793         792
         788         789         794         793
         790         791         796         795
         791         792         797         796
         792         793         798         797
         793         794         799         798
         800         801         806         805
         801         802         807         806
         802         803         808         807
         803         804         809         808
         805         806         811         810
         806         807         812         811
         807         808         813         812
         808         809         814         813
         810         811         816         815
         811         812         817         816
         812         813         818         817
         813         814         819         818
         815         816         821         820
         816         817         822         821
         817         818         823         822
         818         819         824         823
         825         826         831         830
         826         827         832         831
         827         828         833         832
         828         829         834         833
         830         831         836         835
         831         832         837         836
         832         833         838         837
         833         834         839         838
         835         836         841         840
         836         837         842         841
         837         838         843         842
         838         839         844         843
         840         841         846         845
         841         842         847         846
         842         843         848         847
         843         844         849         848
         850         851         856         855
         851         852         857         856
         852         853         858         857
         853         854         859         858
         855         856         861         860
         856         857         862         861
         857         858         863         862
         858         859         864         863
         860         861         866         865
         861         862         867         866
         862         863         868         867
         863         864         869         868
         865         866         871         870
         866         867         872         871
         867         868         873         872
         868         869         874         873
         875         876         881         880
         876         877         882         881
         877         878         883         882
         878         879         884         883
         880         881         886         885
         881         882         887         886
         882         883         888         887
         883         884         889         888
         885         886         891         890
         886         887         892         891
         887         888         893         892
         888         889         894         893
         890         891         896         895
         891         892         897         896
         892         893         898         897
         893         894         899         898
         900         901         906         905
         901         902         907         906
         902         903         908         907
         903         904         909         908
         905         906         911         910
         906         907         912         911
         907         908         913         912
         908         909         914         913
         910         911         916         915
         911         912         917         916
         912         913         918         917
         913         914         919         918
         915         916         921         920
         916         917         922         921
         917         918         923         922
         918         919         924         923
         925         926         931         930
         926         927         932         931
         927         928         933         932
         928         929         934         933
         930         931         936         935
         931         932         937         936
         932         933         938         937
         933         934         939         938
         935         936         941         940
         936         937         942         941
         937         938         943         942
         938         939         944         943
         940         941         946         945
         941         942         947         946
         942         943         948         947
         943         944         949         948
         950         951         956         955
         951         952         957         956
         952         953         958         957
         953         954         959         958
         955         956         961         960
         956         957         962         961
         957         958         963         962
         958         959         964         963
         960         961         966         965
         961         962         967         966
         962         963         968         967
         963         964         969         968
         965         966         971         970
         966         967         972         971
         967         968         973         972
         968         969         974         973
         975         976         981         980
         976         977         982         981
         977         978         983         982
         978         979         984         983
         980         981         986         985
         981         982         987         986
         982         983         988         987
         983         984         989         988
         985         986         991         990
         986         987         992         991
         987         988         993         992
         988         989         994         993
         990         991         996         995
         991         992         997         996
         992         993         998         997
         993         994         999         998
        1000        1001        1006        1005
        1001        1002        1007        1006
        1002        1003        1008        1007
        1003        1004        1009        1008
        1005        1006        1011        1010
        1006        1007        1012        1011
        1007        1008        1013        1012
        1008        1009        1014        1013
        1010        1011        1016        1015
        1011        1012        1017        1016
        1012        1013        1018        1017
        1013        1014        1019        1018
        1015        1016        1021        1020
        1016        1017        1022        1021
        1017        1018        1023        1022
        1018        1019        1024        1023
        1025        1026        1031        1030
        1026        1027        1032        1031
        1027        1028        1033        1032
        1028        1029        1034        1033
        1030        1031        1036        1035
        1031        1032        1037        1036
        1032        1033        1038        1037
        1033        1034        1039        1038
        1035        1036        1041        1040
        1036        1037        1042        1041
        1037        1038        1043        1042
        1038        1039        1044        1043
        1040        1041        1046        1045
        1041        1042        1047        1046
        1042        1043        1048        1047
        1043        1044        1049        1048
        1050        1051        1056        1055
        1051        1052        1057        1056
        1052        1053        1058        1057
        1053        1054        1059        1058
        1055        1056        1061        1060
        1056        1057        1062        1061
        1057        1058        1063        1062
        1058        1059        1064        1063
        1060        1061        1066        1065
        1061        1062        1067        1066
        1062        1063        1068        1067
        1063        1064        1069        1068
        1065        1066        1071        1070
        1066        1067        1072        1071
        1067        1068        1073        1072
        1068        1069        1074        1073
        1075        1076        1081        1080
        1076        1077        1082        1081
        1077        1078        1083        1082
        1078        1079        1084        1083
        1080        1081        1086        1085
        1081        1082        1087        1086
        1082        1083        1088        1087
        1083        1084        1089        1088
        1085        1086        1091        1090
        1086        1087        1092        1091
        1087        1088        1093        1092
        1088        1089        1094        1093
        1090        1091        1096        1095
        1091        1092        1097        1096
        1092        1093        1098        1097
        1093        1094        1099        1098
        1100        1101        1106        1105
        1101        1102        1107        1106
        1102        1103        1108        1107
        1103        1104        1109        1108
        1105        1106        1111        1110
        1106        1107        1112        1111
        1107        1108        1113        1112
        1108        1109        1114        1113
        1110        1111        1116        1115
        1111        1112        1117        1116
        1112        1113        1118        1117
        1113        1114        1119        1118
        1115        1116        1121        1120
        1116        1117        1122        1121
        1117        1118        1123        1122
        1118        1119        1124        1123
        1125        1126        1131        1130
        1126        1127        1132        1131
        1127        1128        1133        1132
        1128        1129        1134        1133
        1130        1131        1136        1135
        1131        1132        1137        1136
        1132        1133        1138        1137
        1133        1134        1139        1138
        1135        1136        1141        1140
        1136        1137        1142        1141
        1137        1138        1143        1142
        1138        1139        1144        1143
        1140        1141        1146        1145
        1141        1142        1147        1146
        1142        1143        1148        1147
        1143        1144        1149        1148
        1150        1151        1156        1155
        1151        1152        1157        1156
        1152        1153        1158        1157
        1153        1154        1159        1158
        1155        1156        1161        1160
        1156        1157        1162        1161
        1157        1158        1163        1162
        1158        1159        1164        1163
        1160        1161        1166        1165
        1161        1162        1167        1166
        1162        1163        1168        1167
        1163        1164        1169        1168
        1165        1166        1171        1170
        1166        1167        1172        1171
        1167        1168        1173        1172
        1168        1169        1174        1173
        1175        1176        1181        1180
        1176        1177        1182        1181
        1177        1178        1183        1182
        1178        1179        1184        1183
        1180        1181        1186        1185
        1181        1182        1187        1186
        1182        1183        1188        1187
        1183        1184        1189        1188
        1185        1186        1191        1190
        1186        1187        1192        1191
        1187        1188        1193        1192
        1188        1189        1194        1193
        1190        1191        1196        1195
        1191        1192        1197        1196
        1192        1193        1198        1197
        1193        1194        1199        1198
        1200        1201        1206        1205
        1201        1202        1207        1206
        1202        1203        1208        1207
        1203        1204        1209        1208
        1205        1206        1211        1210
        1206        1207        1212        1211
        1207        1208        1213        1212
        1208        1209        1214        1213
        1210        1211        1216        1215
        1211        1212        1217        1216
        1212        1213        1218        1217
        1213        1214        1219        1218
        1215        1216        1221        1220
        1216        1217        1222        1221
        1217        1218        1223        1222
        1218        1219        1224        1223
        1225        1226        1231        1230
        1226        1227        1232        1231
        1227        1228        1233        1232
        1228        1229        1234        1233
        1230        1231        1236        1235
        1231        1232        1237        1236
        1232        1233        1238        1237
        1233        1234        1239        1238
        1235        1236        1241        1240
        1236        1237        1242        1241
        1237        1238        1243        1242
        1238        1239        1244        1243
        1240        1241        1246        1245
        1241        1242        1247        1246
        1242        1243        1248        1247
        1243        1244        1249        1248
        1250        1251        1256        1255
        1251        1252        1257        1256
        1252        1253        1258        1257
        1253        1254        1259        1258
        1255        1256        1261        1260
        1256        1257        1262        1261
        1257        1258        1263        1262
        1258        1259        1264        1263
        1260        1261        1266        1265
        1261        1262        1267        1266
        1262        1263        1268        1267
        1263        1264        1269        1268
        1265        1266        1271        1270
        1266        1267        1272        1271
        1267        1268        1273        1272
        1268        1269        1274        1273
        1275        1276        1281        1280
        1276        1277        1282        1281
        1277        1278        1283        1282
        1278        1279        1284        1283
        1280        1281        1286        1285
        1281        1282        1287        1286
        1282        1283        1288        1287
        1283        1284        1289        1288
        1285        1286        1291        1290
        1286        1287        1292        1291
        1287        1288        1293        1292
        1288        1289        1294        1293
        1290        1291        1296        1295
        1291        1292        1297        1296
        1292        1293        1298        1297
        1293        1294        1299        1298
        1300        1301        1306        1305
        1301        1302        1307        1306
        1302        1303        1308        1307
        1303        1304        1309        1308
        1305        1306        1311        1310
        1306        1307        1312        1311
        1307        1308        1313        1312
        1308        1309        1314        1313
        1310        1311        1316        1315
        1311        1312        1317        1316
        1312        1313        1318        1317
        1313        1314        1319        1318
        1315        1316        1321        1320
        1316        1317        1322        1321
        1317        1318        1323        1322
        1318        1319        1324        1323
        1325        1326        1331        1330
        1326        1327        1332        1331
        1327        1328        1333        1332
        1328        1329        1334        1333
        1330        1331        1336        1335
        1331        1332        1337        1336
        1332        1333        1338        1337
        1333        1334        1339        1338
        1335        1336        1341        1340
        1336        1337        1342        1341
        1337        1338        1343        1342
        1338        1339        1344        1343
        1340        1341        1346        1345
        1341        1342        1347        1346
        1342        1343        1348        1347
        1343        1344        1349        1348
        1350        1351        1356        1355
        1351        1352        1357        1356
        1352        1353        1358        1357
        1353        1354        1359        1358
        1355        1356        1361        1360
        1356        1357        1362        1361
        1357        1358        1363        1362
        1358        1359        1364        1363
        1360        1361        1366        1365
        1361        1362        1367        1366
        1362        1363        1368        1367
        1363        1364        1369        1368
        1365        1366        1371        1370
        1366        1367        1372        1371
        1367        1368        1373        1372
        1368        1369        1374        1373
        1375        1376        1381        1380
        1376        1377        1382        1381
        1377        1378        1383        1382
        1378        1379        1384        1383
        1380        1381        1386        1385
        1381        1382        1387        1386
        1382        1383        1388        1387
        1383        1384        1389        1388
        1385        1386        1391        1390
        1386        1387        1392        1391
        1387        1388        1393        1392
        1388        1389        1394        1393
        1390        1391        1396        1395
        1391        1392        1397        1396
        1392        1393        1398        1397
        1393        1394        1399        1398
        1400        1401        1406        1405
        1401        1402        1407        1406
        1402        1403        1408        1407
        1403        1404        1409        1408
        1405        1406        1411        1410
        1406        1407        1412        1411
        1407        1408        1413        1412
        1408        1409        1414        1413
        1410        1411        1416        1415
        1411        1412        1417        1416
        1412        1413        1418        1417
        1413        1414        1419        1418
        1415        1416        1421        1420
        1416        1417        1422        1421
        1417        1418        1423        1422
        1418        1419        1424        1423
        1425        1426        1431        1430
        1426        1427        1432        1431
        1427        1428        1433        1432
        1428        1429        1434        1433
        1430        1431        1436        1435
        1431        1432        1437        1436
        1432        1433        1438        1437
        1433        1434        1439        1438
        1435        1436        1441        1440
        1436        1437        1442        1441
        1437        1438        1443        1442
        1438        1439        1444        1443
        1440        1441        1446        1445
        1441        1442        1447        1446
        1442        1443        1448        1447
        1443        1444        1449        1448
        1450        1451        1456        1455
        1451        1452        1457        1456
        1452        1453        1458        1457
        1453        1454        1459        1458
        1455        1456        1461        1460
        1456        1457        1462        1461
        1457        1458        1463        1462
        1458        1459        1464        1463
        1460        1461        1466        1465
        1461        1462        1467        1466
        1462        1463        1468        1467
        1463        1464        1469        1468
        1465        1466        1471        1470
        1466        1467        1472        1471
        1467        1468        1473        1472
        1468        1469        1474        1473
        1475        1476        1481        1480
        1476        1477        1482        1481
        1477        1478        1483        1482
        1478        1479        1484        1483
        1480        1481        1486        1485
        1481        1482        1487        1486
        1482        1483        1488        1487
        1483        1484        1489        1488
        1485        1486        1491        1490
        1486        1487        1492        1491
        1487        1488        1493        1492
        1488        1489        1494        1493
        1490        1491        1496        1495
        1491        1492        1497        1496
        1492        1493        1498        1497
        1493        1494        1499        1498
        1500        1501        1506        1505
        1501        1502        1507        1506
        1502        1503        1508        1507
        1503        1504        1509        1508
        1505        1506        1511        1510
        1506        1507        1512        1511
        1507        1508        1513        1512
        1508        1509        1514        1513
        1510        1511        1516        1515
        1511        1512        1517        1516
        1512        1513        1518        1517
        1513        1514        1519        1518
        1515        1516        1521        1520
        1516        1517        1522        1521
        1517        1518        1523        1522
        1518        1519        1524        1523
        1525        1526        1531        1530
        1526        1527        1532        1531
        1527        1528        1533        1532
        1528        1529        1534        1533
        1530        1531        1536        1535
        1531        1532        1537        1536
        1532        1533        1538        1537
        1533        1534        1539        1538
        1535        1536        1541        1540
        1536        1537        1542        1541
        1537        1538        1543        1542
        1538        1539        1544        1543
        1540        1541        1546        1545
        1541        1542        1547        1546
        1542        1543        1548        1547
        1543        1544        1549        1548
        1550        1551        1556        1555
        1551        1552        1557        1556
        1552        1553        1558        1557
        1553        1554        1559        1558
        1555        1556        1561        1560
        1556        1557        1562        1561
        1557        1558        1563        1562
        1558        1559        1564        1563
        1560        1561        1566        1565
        1561        1562        1567        1566
        1562        1563        1568        1567
        1563        1564        1569        1568
        1565        1566        1571        1570
        1566        1567        1572        1571
        1567        1568        1573        1572
        1568        1569        1574        1573
        1575        1576        1581        1580
        1576        1577        1582        1581
        1577        1578        1583        1582
        1578        1579        1584        1583
        1580        1581        1586        1585
        1581        1582        1587        1586
        1582        1583        1588        1587
        1583        1584        1589        1588
        1585        1586        1591        1590
        1586        1587        1592        1591
        1587        1588        1593        1592
        1588        1589        1594        1593
        1590        1591        1596        1595
        1591        1592        1597        1596
        1592        1593        1598        1597
        1593        1594        1599        1598
 </DataArray>
 <DataArray  type="Int32"  Name="offsets"  format="ascii"> 
           4
           8
          12
          16
          20
          24
          28
          32
          36
          40
          44
          48
          52
          56
          60
          64
          68
          72
          76
          80
          84
          88
          92
          96
         100
         104
         108
         112
         116
         120
         124
         128
         132
         136
         140
         144
         148
         152
         156
         160
         164
         168
         172
         176
         180
         184
         188
         192
         196
         200
         204
         208
         212
         216
         220
         224
         228
         232
         236
         240
         244
         248
         252
         256
         260
         264
         268
         272
         276
         280
         284
         288
         292
         296
         300
         304
         308
         312
         316
         320
         324
         328
         332
         336
         340
         344
         348
         352
         356
         360
         364
         368
         372
         376
         380
         384
         388
         392
         396
         400
         404
         408
         412
         416
         420
         424
         428
         432
         436
         440
         444
         448
         452
         456
         460
         464
         468
         472
         476
         480
         484
         488
         492
         496
         500
         504
         508
         512
         516
         520
         524
         528
         532
         536
         540
         544
         548
         552
         556
         560
         564
         568
         572
         576
         580
         584
         588
         592
         596
         600
         604
         608
         612
         616
         620
         624
         628
         632
         636
         640
         644
         648
         652
         656
         660
         664
         668
         672
         676
         680
         684
         688
         692
         696
         700
         704
         708
         712
         716
         720
         724
         728
         732
         736
         740
         744
         748
         752
         756
         760
         764
         768
         772
         776
         780
         784
         788
         792
         796
         800
         804
         808
         812
         816
         820
         824
         828
         832
         836
         840
         844
         848
         852
         856
         860
         864
         868
         872
         876
         880
         884
         888
         892
         896
         900
         904
         908
         912
         916
         920
         924
         928
         932
         936
         940
         944
         948
         952
         956
         960
         964
         968
         972
         976
         980
         984
         988
         992
         996
        1000
        1004
        1008
        1012
        1016
        1020
        1024
        1028
        1032
        1036
        1040
        1044
        1048
        1052
        1056
        1060
        1064
        1068
        1072
        1076
        1080
        1084
        1088
        1092
        1096
        1100
        1104
        1108
        1112
        1116
        1120
        1124
        1128
        1132
        1136
        1140
        1144
        1148
        1152
        1156
        1160
        1164
        1168
        1172
        1176
        1180
        1184
        1188
        1192
        1196
        1200
        1204
        1208
        1212
        1216
        1220
        1224
        1228
        1232
        1236
        1240
        1244
        1248
        1252
        1256
        1260
        1264
        1268
        1272
        1276
        1280
        1284
        1288
        1292
        1296
        1300
        1304
        1308
        1312
        1316
        1320
        1324
        1328
        1332
        1336
        1340
        1344
        1348
        1352
        1356
        1360
        1364
        1368
        1372
        1376
        1380
        1384
        1388
        1392
        1396
        1400
        1404
        1408
        1412
        1416
        1420
        1424
        1428
        1432
        1436
        1440
        1444
        1448
        1452
        1456
        1460
        1464
        1468
        1472
        1476
        1480
        1484
        1488
        1492
        1496
        1500
        1504
        1508
        1512
        1516
        1520
        1524
        1528
        1532
        1536
        1540
        1544
        1548
        1552
        1556
        1560
        1564
        1568
        1572
        1576
        1580
        1584
        1588
        1592
        1596
        1600
        1604
        1608
        1612
        1616
        1620
        1624
        1628
        1632
        1636
        1640
        1644
        1648
        1652
        1656
        1660
        1664
        1668
        1672
        1676
        1680
        1684
        1688
        1692
        1696
        1700
        1704
        1708
        1712
        1716
        1720
        1724
        1728
        1732
        1736
        1740
        1744
        1748
        1752
        1756
        1760
        1764
        1768
        1772
        1776
        1780
        1784
        1788
        1792
        1796
        1800
        1804
        1808
        1812
        1816
        1820
        1824
        1828
        1832
        1836
        1840
        1844
        1848
        1852
        1856
        1860
        1864
        1868
        1872
        1876
        1880
        1884
        1888
        1892
        1896
        1900
        1904
        1908
        1912
        1916
        1920
        1924
        1928
        1932
        1936
        1940
        1944
        1948
        1952
        1956
        1960
        1964
        1968
        1972
        1976
        1980
        1984
        1988
        1992
        1996
        2000
        2004
        2008
        2012
        2016
        2020
        2024
        2028
        2032
        2036
        2040
        2044
        2048
        2052
        2056
        2060
        2064
        2068
        2072
        2076
        2080
        2084
        2088
        2092
        2096
        2100
        2104
        2108
        2112
        2116
        2120
        2124
        2128
        2132
        2136
        2140
        2144
        2148
        2152
        2156
        2160
        2164
        2168
        2172
        2176
        2180
        2184
        2188
        2192
        2196
        2200
        2204
        2208
        2212
        2216
        2220
        2224
        2228
        2232
        2236
        2240
        2244
        2248
        2252
        2256
        2260
        2264
        2268
        2272
        2276
        2280
        2284
        2288
        2292
        2296
        2300
        2304
        2308
        2312
        2316
        2320
        2324
        2328
        2332
        2336
        2340
        2344
        2348
        2352
        2356
        2360
        2364
        2368
        2372
        2376
        2380
        2384
        2388
        2392
        2396
        2400
        2404
        2408
        2412
        2416
        2420
        2424
        2428
        2432
        2436
        2440
        2444
        2448
        2452
        2456
        2460
        2464
        2468
        2472
        2476
        2480
        2484
        2488
        2492
        2496
        2500
        2504
        2508
        2512
        2516
        2520
        2524
        2528
        2532
        2536
        2540
        2544
        2548
        2552
        2556
        2560
        2564
        2568
        2572
        2576
        2580
        2584
        2588
        2592
        2596
        2600
        2604
        2608
        2612
        2616
        2620
        2624
        2628
        2632
        2636
        2640
        2644
        2648
        2652
        2656
        2660
        2664
        2668
        2672
        2676
        2680
        2684
        2688
        2692
        2696
        2700
        2704
        2708
        2712
        2716
        2720
        2724
        2728
        2732
        2736
        2740
        2744
        2748
        2752
        2756
        2760
        2764
        2768
        2772
        2776
        2780
        2784
        2788
        2792
        2796
        2800
        2804
        2808
        2812
        2816
        2820
        2824
        2828
        2832
        2836
        2840
        2844
        2848
        2852
        2856
        2860
        2864
        2868
        2872
        2876
        2880
        2884
        2888
        2892
        2896
        2900
        2904
        2908
        2912
        2916
        2920
        2924
        2928
        2932
        2936
        2940
        2944
        2948
        2952
        2956
        2960
        2964
        2968
        2972
        2976
        2980
        2984
        2988
        2992
        2996
        3000
        3004
        3008
        3012
        3016
        3020
        3024
        3028
        3032
        3036
        3040
        3044
        3048
        3052
        3056
        3060
        3064
        3068
        3072
        3076
        3080
        3084
        3088
        3092
        3096
        3100
        3104
        3108
        3112
        3116
        3120
        3124
        3128
        3132
        3136
        3140
        3144
        3148
        3152
        3156
        3160
        3164
        3168
        3172
        3176
        3180
        3184
        3188
        3192
        3196
        3200
        3204
        3208
        3212
        3216
        3220
        3224
        3228
        3232
        3236
        3240
        3244
        3248
        3252
        3256
        3260
        3264
        3268
        3272
        3276
        3280
        3284
        3288
        3292
        3296
        3300
        3304
        3308
        3312
        3316
        3320
        3324
        3328
        3332
        3336
        3340
        3344
        3348
        3352
        3356
        3360
        3364
        3368
        3372
        3376
        3380
        3384
        3388
        3392
        3396
        3400
        3404
        3408
        3412
        3416
        3420
        3424
        3428
        3432
        3436
        3440
        3444
        3448
        3452
        3456
        3460
        3464
        3468
        3472
        3476
        3480
        3484
        3488
        3492
        3496
        3500
        3504
        3508
        3512
        3516
        3520
        3524
        3528
        3532
        3536
        3540
        3544
        3548
        3552
        3556
        3560
        3564
        3568
        3572
        3576
        3580
        3584
        3588
        3592
        3596
        3600
        3604
        3608
        3612
        3616
        3620
        3624
        3628
        3632
        3636
        3640
        3644
        3648
        3652
        3656
        3660
        3664
        3668
        3672
        3676
        3680
        3684
        3688
        3692
        3696
        3700
        3704
        3708
        3712
        3716
        3720
        3724
        3728
        3732
        3736
        3740
        3744
        3748
        3752
        3756
        3760
        3764
        3768
        3772
        3776
        3780
        3784
        3788
        3792
        3796
        3800
        3804
        3808
        3812
        3816
        3820
        3824
        3828
        3832
        3836
        3840
        3844
        3848
        3852
        3856
        3860
        3864
        3868
        3872
        3876
        3880
        3884
        3888
        3892
        3896
        3900
        3904
        3908
        3912
        3916
        3920
        3924
        3928
        3932
        3936
        3940
        3944
        3948
        3952
        3956
        3960
        3964
        3968
        3972
        3976
        3980
        3984
        3988
        3992
        3996
        4000
        4004
        4008
        4012
        4016
        4020
        4024
        4028
        4032
        4036
        4040
        4044
        4048
        4052
        4056
        4060
        4064
        4068
        4072
        4076
        4080
        4084
        4088
        4092
        4096
 </DataArray>
 <DataArray  type="UInt8"  Name="types"  format="ascii">
 9
 9
 9
 9
 9
 9
 9
 9
 9
 9
 9
 9
 9
 9
 9
 9
 9
 9
 9
 9
 9
 9
 9
 9
 9
 9
 9
 9
 9
 9
 9
 9
 9
 9
 9
 9
 9
 9
 9
 9
 9
 9
 9
 9
 9
 9
 9
 9
 9
 9
 9
 9
 9
 9
 9
 9
 9
 9
 9
 9
 9
 9
 9
 9
 9
 9
 9
 9
 9
 9
 9
 9
 9
 9
 9
 9
 9
 9
 9
 9
 9
 9
 9
 9
 9
 9
 9
 9
 9
 9
 9
 9
 9
 9
 9
 9
 9
 9
 9
 9
 9
 9
 9
 9
 9
 9
 9
 9
 9
 9
 9
 9
 9
 9
 9
 9
 9
 9
 9
 9
 9
 9
 9
 9
 9
 9
 9
 9
 9
 9
 9
 9
 9
 9
 9
 9
 9
 9
 9
 9
 9
 9
 9
 9
 9
 9
 9
 9
 9
 9
 9
 9
 9
 9
 9
 9
 9
 9
 9
 9
 9
 9
 9
 9
 9
 9
 9
 9
 9
 9
 9
 9
 9
 9
 9
 9
 9
 9
 9
 9
 9
 9
 9
 9
 9
 9
 9
 9
 9
 9
 9
 9
 9
 9
 9
 9
 9
 9
 9
 9
 9
 9
 9
 9
 9
 9
 9
 9
 9
 9
 9
 9
 9
 9
 9
 9
 9
 9
 9
 9
 9
 9
 9
 9
 9
 9
 9
 9
 9
 9
 9
 9
 9
 9
 9
 9
 9
 9
 9
 9
 9
 9
 9
 9
 9
 9
 9
 9
 9
 9
 9
 9
 9
 9
 9
 9
 9
 9
 9
 9
 9
 9
 9
 9
 9
 9
 9
 9
 9
 9
 9
 9
 9
 9
 9
 9
 9
 9
 9
 9
 9
 9
 9
 9
 9
 9
 9
 9
 9
 9
 9
 9
 9
 9
 9
 9
 9
 9
 9
 9
 9
 9
 9
 9
 9
 9
 9
 9
 9
 9
 9
 9
 9
 9
 9
 9
 9
 9
 9
 9
 9
 9
 9
 9
 9
 9
 9
 9
 9
 9
 9
 9
 9
 9
 9
 9
 9
 9
 9
 9
 9
 9
 9
 9
 9
 9
 9
 9
 9
 9
 9
 9
 9
 9
 9
 9
 9
 9
 9
 9
 9
 9
 9
 9
 9
 9
 9
 9
 9
 9
 9
 9
 9
 9
 9
 9
 9
 9
 9
 9
 9
 9
 9
 9
 9
 9
 9
 9
 9
 9
 9
 9
 9
 9
 9
 9
 9
 9
 9
 9
 9
 9
 9
 9
 9
 9
 9
 9
 9
 9
 9
 9
 9
 9
 9
 9
 9
 9
 9
 9
 9
 9
 9
 9
 9
 9
 9
 9
 9
 9
 9
 9
 9
 9
 9
 9
 9
 9
 9
 9
 9
 9
 9
 9
 9
 9
 9
 9
 9
 9
 9
 9
 9
 9
 9
 9
 9
 9
 9
 9
 9
 9
 9
 9
 9
 9
 9
 9
 9
 9
 9
 9
 9
 9
 9
 9
 9
 9
 9
 9
 9
 9
 9
 9
 9
 9
 9
 9
 9
 9
 9
 9
 9
 9
 9
 9
 9
 9
 9
 9
 9
 9
 9
 9
 9
 9
 9
 9
 9
 9
 9
 9
 9
 9
 9
 9
 9
 9
 9
 9
 9
 9
 9
 9
 9
 9
 9
 9
 9
 9
 9
 9
 9
 9
 9
 9
 9
 9
 9
 9
 9
 9
 9
 9
 9
 9
 9
 9
 9
 9
 9
 9
 9
 9
 9
 9
 9
 9
 9
 9
 9
 9
 9
 9
 9
 9
 9
 9
 9
 9
 9
 9
 9
 9
 9
 9
 9
 9
 9
 9
 9
 9
 9
 9
 9
 9
 9
 9
 9
 9
 9
 9
 9
 9
 9
 9
 9
 9
 9
 9
 9
 9
 9
 9
 9
 9
 9
 9
 9
 9
 9
 9
 9
 9
 9
 9
 9
 9
 9
 9
 9
 9
 9
 9
 9
 9
 9
 9
 9
 9
 9
 9
 9
 9
 9
 9
 9
 9
 9
 9
 9
 9
 9
 9
 9
 9
 9
 9
 9
 9
 9
 9
 9
 9
 9
 9
 9
 9
 9
 9
 9
 9
 9
 9
 9
 9
 9
 9
 9
 9
 9
 9
 9
 9
 9
 9
 9
 9
 9
 9
 9
 9
 9
 9
 9
 9
 9
 9
 9
 9
 9
 9
 9
 9
 9
 9
 9
 9
 9
 9
 9
 9
 9
 9
 9
 9
 9
 9
 9
 9
 9
 9
 9
 9
 9
 9
 9
 9
 9
 9
 9
 9
 9
 9
 9
 9
 9
 9
 9
 9
 9
 9
 9
 9
 9
 9
 9
 9
 9
 9
 9
 9
 9
 9
 9
 9
 9
 9
 9
 9
 9
 9
 9
 9
 9
 9
 9
 9
 9
 9
 9
 9
 9
 9
 9
 9
 9
 9
 9
 9
 9
 9
 9
 9
 9
 9
 9
 9
 9
 9
 9
 9
 9
 9
 9
 9
 9
 9
 9
 9
 9
 9
 9
 9
 9
 9
 9
 9
 9
 9
 9
 9
 9
 9
 9
 9
 9
 9
 9
 9
 9
 9
 9
 9
 9
 9
 9
 9
 9
 9
 9
 9
 9
 9
 9
 9
 9
 9
 9
 9
 9
 9
 9
 9
 9
 9
 9
 9
 9
 9
 9
 9
 9
 9
 9
 9
 9
 9
 9
 9
 9
 9
 9
 9
 9
 9
 9
 9
 9
 9
 9
 9
 9
 9
 9
 9
 9
 9
 9
 9
 9
 9
 9
 9
 9
 9
 9
 9
 9
 9
 9
 9
 9
 9
 9
 9
 9
 9
 9
 9
 9
 9
 9
 9
 9
 9
 9
 9
 9
 9
 9
 9
 9
 9
 9
 9
 9
 9
 9
 9
 9
 9
 9
 9
 9
 9
 9
 9
 9
 9
 9
 9
 9
 9
 9
 9
 9
 9
 9
 9
 9
 9
 9
 9
 9
 9
 9
 9
 9
 9
 9
 9
 9
 9
 9
 9
 9
 9
 9
 9
 9
 9
 9
 9
 9
 9
 9
 9
 9
 9
 9
 9
 9
 9
 9
 9
 9
 9
 9
 9
 9
 9
 9
 9
 9
 9
 9
 9
 9
 9
 9
 9
 9
 9
 9
 9
 9
 9
 9
 9
 9
 9
 9
 9
 9
 9
 9
 9
 9
 9
 9
 9
 9
 9
 9
 9
 9
 9
 9
 9
 9
 9
 9
 9
 9
 9
 9
 9
 9
 9
 9
 9
 9
 9
 </DataArray>
 </Cells> 
 <PointData>
 <DataArray  type="Float64" Name="disp" NumberOfComponents="3" format="ascii">
   6.5175010921982274E-002   6.2729831114039653E-002   0.0000000000000000     
   6.8381804421650871E-002   6.8160667088265695E-002   0.0000000000000000     
   7.1429961861915026E-002   7.3754793822234335E-002   0.0000000000000000     
   7.4319483242774723E-002   7.9512211315945561E-002   0.0000000000000000     
   7.7050368564229976E-002   8.5432919569399413E-002   0.0000000000000000     
   6.0075607821220407E-002   6.1892451490540040E-002   0.0000000000000000     
   6.3048889570403832E-002   6.7303982462623452E-002   0.0000000000000000     
   6.5883393214126201E-002   7.2896223968645243E-002   0.0000000000000000     
   6.8579118752387508E-002   7.8669176008605443E-002   0.0000000000000000     
   7.1136066185187807E-002   8.4622838582504023E-002   0.0000000000000000     
   5.5131445368407299E-002   6.1077490309643580E-002   0.0000000000000000     
   5.7893031490837785E-002   6.6491520325392822E-002   0.0000000000000000     
   6.0529026623542273E-002   7.2095207241561904E-002   0.0000000000000000     
   6.3039430766520757E-002   7.7888551058150832E-002   0.0000000000000000     
   6.5424243919773237E-002   8.3871551775159578E-002   0.0000000000000000     
   5.0342523563542949E-002   6.0284947571350278E-002   0.0000000000000000     
   5.2914230182952757E-002   6.5723280676573806E-002   0.0000000000000000     
   5.5366862090163248E-002   7.1351743640984289E-002   0.0000000000000000     
   5.7700419285174401E-002   7.7170336464581712E-002   0.0000000000000000     
   5.9914901767986271E-002   8.3179059147366077E-002   0.0000000000000000     
   4.5708842406627356E-002   5.9514823275660135E-002   0.0000000000000000     
   4.8112485646748734E-002   6.4999263516166403E-002   0.0000000000000000     
   5.0396899613989118E-002   7.0665833166912412E-002   0.0000000000000000     
   5.2562084308348508E-002   7.6514532227898113E-002   0.0000000000000000     
   5.4608039729826904E-002   8.2545360699123549E-002   0.0000000000000000     
   7.7050368564229976E-002   8.5432919569399413E-002   0.0000000000000000     
   7.9667976501200485E-002   9.1516728627064392E-002   0.0000000000000000     
   8.2217665728605921E-002   9.7763448533409084E-002   0.0000000000000000     
   8.4699436246446269E-002  0.10417307928843349        0.0000000000000000     
   8.7113288054721558E-002  0.11074562089213762        0.0000000000000000     
   7.1136066185187807E-002   8.4622838582504023E-002   0.0000000000000000     
   7.3592527275976344E-002   9.0746086849058452E-002   0.0000000000000000     
   7.5986793788202375E-002   9.7027795966986269E-002   0.0000000000000000     
   7.8318865721865957E-002  0.10346796593628740        0.0000000000000000     
   8.0588743076967048E-002  0.11006659675696193        0.0000000000000000     
   6.5424243919773237E-002   8.3871551775159578E-002   0.0000000000000000     
   6.7717853601203665E-002   9.0027355101912704E-002   0.0000000000000000     
   6.9954647328715966E-002   9.6339106747734674E-002   0.0000000000000000     
   7.2134625102310140E-002  0.10280680671262556        0.0000000000000000     
   7.4257786921986202E-002  0.10943045499658524        0.0000000000000000     
   5.9914901767986271E-002   8.3179059147366077E-002   0.0000000000000000     
   6.2043955476882462E-002   8.9360533385627064E-002   0.0000000000000000     
   6.4121226350146637E-002   9.5697380875654325E-002   0.0000000000000000     
   6.6146714387778818E-002  0.10218960161744783        0.0000000000000000     
   6.8120419589778977E-002  0.10883719561100763        0.0000000000000000     
   5.4608039729826904E-002   8.2545360699123549E-002   0.0000000000000000     
   5.6570832903012735E-002   8.8745621700201602E-002   0.0000000000000000     
   5.8486530852494438E-002   9.5102618350745211E-002   0.0000000000000000     
   6.0355133578271991E-002  0.10161635065075435        0.0000000000000000     
   6.2176641080345423E-002  0.10828681860022904        0.0000000000000000     
   8.7113288054721558E-002  0.11074562089213762        0.0000000000000000     
   8.9438245150647702E-002  0.11746501302831869        0.0000000000000000     
   9.1653331531440618E-002  0.12431519538077401        0.0000000000000000     
   9.3758547197100334E-002  0.13129616794950352        0.0000000000000000     
   9.5753892147626807E-002  0.13840793073450725        0.0000000000000000     
   8.0588743076967048E-002  0.11006659675696193        0.0000000000000000     
   8.2774426203348420E-002  0.11681056555425898        0.0000000000000000     
   8.4853915450852815E-002  0.12368674945342784        0.0000000000000000     
   8.6827210819480263E-002  0.13069514845446845        0.0000000000000000     
   8.8694312309230722E-002  0.13783576255738084        0.0000000000000000     
   7.4257786921986202E-002  0.10943045499658524        0.0000000000000000     
   7.6301827834659205E-002  0.11619867501930048        0.0000000000000000     
   7.8244442887244262E-002  0.12310009020045783        0.0000000000000000     
   8.0085632079741342E-002  0.13013470054005732        0.0000000000000000     
   8.1825395412150476E-002  0.13730250603809893        0.0000000000000000     
   6.8120419589778977E-002  0.10883719561100763        0.0000000000000000     
   7.0020450044580046E-002  0.11562934142344319        0.0000000000000000     
   7.1824913840614929E-002  0.12255521762186401        0.0000000000000000     
   7.3533810977883585E-002  0.12961482420627016        0.0000000000000000     
   7.5147141456386082E-002  0.13680816117666153        0.0000000000000000     
   6.2176641080345423E-002  0.10828681860022904        0.0000000000000000     
   6.3930292833110941E-002  0.11510256476668709        0.0000000000000000     
   6.5595328310964804E-002  0.12205213171764639        0.0000000000000000     
   6.7171747513906990E-002  0.12913551945310689        0.0000000000000000     
   6.8659550441937528E-002  0.13635272797306863        0.0000000000000000     
   9.5753892147626807E-002  0.13840793073450725        0.0000000000000000     
   9.7650829712637235E-002  0.14564085311367825        0.0000000000000000     
   9.9460823221748762E-002  0.15298530446490960        0.0000000000000000     
  0.10118387267496133       0.16044128478820127        0.0000000000000000     
  0.10281997807227503       0.16800879408355324        0.0000000000000000     
   8.8694312309230722E-002  0.13783576255738084        0.0000000000000000     
   9.0468463538011981E-002  0.14509763124814434        0.0000000000000000     
   9.2162908123731818E-002  0.15246979401273830        0.0000000000000000     
   9.3777646066390191E-002  0.15995225085116269        0.0000000000000000     
   9.5312677365987142E-002  0.16754500176341758        0.0000000000000000     
   8.1825395412150476E-002  0.13730250603809893        0.0000000000000000     
   8.3477578626898113E-002  0.14459164075404438        0.0000000000000000     
   8.5056027466410722E-002  0.15199023874735534        0.0000000000000000     
   8.6560741930688329E-002  0.15949830001803186        0.0000000000000000     
   8.7991722019730892E-002  0.16711582456607396        0.0000000000000000     
   7.5147141456386082E-002  0.13680816117666153        0.0000000000000000     
   7.6678174979295632E-002  0.14412288163137835        0.0000000000000000     
   7.8140181249785501E-002  0.15154663866876078        0.0000000000000000     
   7.9533160267855701E-002  0.15907943228880883        0.0000000000000000     
   8.0857112033506234E-002  0.16672126249152247        0.0000000000000000     
   6.8659550441937528E-002  0.13635272797306863        0.0000000000000000     
   7.0070252595204524E-002  0.14369135388014631        0.0000000000000000     
   7.1415369473856141E-002  0.15113899377695461        0.0000000000000000     
   7.2694901077892365E-002  0.15869564766349351        0.0000000000000000     
   7.3908847407313197E-002  0.16636131553976305        0.0000000000000000     
  0.10281997807227503       0.16800879408355324        0.0000000000000000     
  0.10436915381099725       0.17567631583353849        0.0000000000000000     
  0.10583141428843548       0.18343233352072988        0.0000000000000000     
  0.10720675950458974       0.19127684714512747        0.0000000000000000     
  0.10849518945945999       0.19920985670673122        0.0000000000000000     
   9.5312677365987142E-002  0.16754500176341758        0.0000000000000000     
   9.6764992471307376E-002  0.17523756730313675        0.0000000000000000     
   9.8131581831135559E-002  0.18301946802395411        0.0000000000000000     
   9.9412445445471731E-002  0.19089070392586963        0.0000000000000000     
  0.10060758331431591       0.19885127500888336        0.0000000000000000     
   8.7991722019730892E-002  0.16711582456607396        0.0000000000000000     
   8.9344043280739638E-002  0.17483298518486173        0.0000000000000000     
   9.0612781260915792E-002  0.18263995466777530        0.0000000000000000     
   9.1797935960259341E-002  0.19053673301481472        0.0000000000000000     
   9.2899507378770313E-002  0.19852332022597999        0.0000000000000000     
   8.0857112033506234E-002  0.16672126249152247        0.0000000000000000     
   8.2106306239294047E-002  0.17446256947871347        0.0000000000000000     
   8.3275012577776170E-002  0.18229379345219357        0.0000000000000000     
   8.4363231048952547E-002  0.19021493441196280        0.0000000000000000     
   8.5370961652823235E-002  0.19822599235802113        0.0000000000000000     
   7.3908847407313197E-002  0.16636131553976305        0.0000000000000000     
   7.5051781346970631E-002  0.17412632018469190        0.0000000000000000     
   7.6118275781716704E-002  0.18198098437720883        0.0000000000000000     
   7.7108330711551362E-002  0.18992530811731381        0.0000000000000000     
   7.8021946136474646E-002  0.19795929140500679        0.0000000000000000     
  0.10849518945945999       0.19920985670673122        0.0000000000000000     
  0.10970260949831824       0.20722823889776770        0.0000000000000000     
  0.11083492496643643       0.21532887041046345        0.0000000000000000     
  0.11189213586381459       0.22351175124481848        0.0000000000000000     
  0.11287424219045268       0.23177688140083277        0.0000000000000000     
  0.10060758331431591       0.19885127500888336        0.0000000000000000     
  0.10172349157839372       0.20689547547164863        0.0000000000000000     
  0.10276666637843083       0.21501759951281893        0.0000000000000000     
  0.10373710771442729       0.22321764713239425        0.0000000000000000     
  0.10463481558638305       0.23149561833037455        0.0000000000000000     
   9.2899507378770313E-002  0.19852332022597999        0.0000000000000000     
   9.3923501938788512E-002  0.20659246907124032        0.0000000000000000     
   9.4875926062653743E-002  0.21473693232056498        0.0000000000000000     
   9.5756779750366020E-002  0.22295670997395406        0.0000000000000000     
   9.6566063001925356E-002  0.23125180203140744        0.0000000000000000     
   8.5370961652823235E-002  0.19822599235802113        0.0000000000000000     
   8.6302640579502599E-002  0.20631921969654268        0.0000000000000000     
   8.7162704019105128E-002  0.21448686883370158        0.0000000000000000     
   8.7951151971630795E-002  0.22272893976949779        0.0000000000000000     
   8.8667984437079614E-002  0.23104543250393136        0.0000000000000000     
   7.8021946136474646E-002  0.19795929140500679        0.0000000000000000     
   7.8860907500536037E-002  0.20607572734755575        0.0000000000000000     
   7.9627000247785018E-002  0.21426740905222869        0.0000000000000000     
   8.0320224378221616E-002  0.22253433651902554        0.0000000000000000     
   8.0940579891845804E-002  0.23087650974794638        0.0000000000000000     
  0.11287424219045268       0.23177688140083277        0.0000000000000000     
  0.11380922052647793       0.24014044155557970        0.0000000000000000     
  0.11472504745201759       0.24861861238613248        0.0000000000000000     
  0.11562172296707163       0.25721139389249126        0.0000000000000000     
  0.11649924707164003       0.26591878607465591        0.0000000000000000     
  0.10463481558638305       0.23149561833037455        0.0000000000000000     
  0.10546452725976034       0.23987471327126589        0.0000000000000000     
  0.10623098000002139       0.24837813211957427        0.0000000000000000     
  0.10693417380716617       0.25700587487529974        0.0000000000000000     
  0.10757410868119469       0.26575794153844218        0.0000000000000000     
   9.6566063001925356E-002  0.23125180203140744        0.0000000000000000     
   9.7294298015280931E-002  0.23964849390851725        0.0000000000000000     
   9.7932006988381878E-002  0.24817307102087566        0.0000000000000000     
   9.8479189921228255E-002  0.25682553336848263        0.0000000000000000     
   9.8935846813820019E-002  0.26560588095133814        0.0000000000000000     
   8.8667984437079614E-002  0.23104543250393136        0.0000000000000000     
   8.9298532793039689E-002  0.23946178346733382        0.0000000000000000     
   8.9828128417099126E-002  0.24800342909003667        0.0000000000000000     
   9.0256771309257897E-002  0.25667036937203996        0.0000000000000000     
   9.0584461469516056E-002  0.26546260431334373        0.0000000000000000     
   8.0940579891845804E-002  0.23087650974794638        0.0000000000000000     
   8.1477231593036617E-002  0.23931458194771554        0.0000000000000000     
   8.1919344286173049E-002  0.24786920632705736        0.0000000000000000     
   8.2266917971255099E-002  0.25654038288597186        0.0000000000000000     
   8.2519952648282768E-002  0.26532811162445907        0.0000000000000000     
  0.11649924707164003       0.26591878607465591        0.0000000000000000     
  0.11729807242806597       0.27490557627206874        0.0000000000000000     
  0.11795865169869255       0.28433655182417200        0.0000000000000000     
  0.11848098488351978       0.29421171273096564        0.0000000000000000     
  0.11886507198254767       0.30453105899244970        0.0000000000000000     
  0.10757410868119469       0.26575794153844218        0.0000000000000000     
  0.10813189445882183       0.27476659464223285        0.0000000000000000     
  0.10858864097676246       0.28416409671990284        0.0000000000000000     
  0.10894434823501657       0.29395044777145213        0.0000000000000000     
  0.10919901623358420       0.30412564779688073        0.0000000000000000     
   9.8935846813820019E-002  0.26560588095133814        0.0000000000000000     
   9.9313067034243294E-002  0.27461246598441852        0.0000000000000000     
   9.9621939950584174E-002  0.28394364068270012        0.0000000000000000     
   9.9862465562842659E-002  0.29359940504618298        0.0000000000000000     
  0.10003464387101874       0.30357975907486701        0.0000000000000000     
   9.0584461469516056E-002  0.26546260431334373        0.0000000000000000     
   9.0841590154330396E-002  0.27444319029862585        0.0000000000000000     
   9.1058548620157692E-002  0.28367518371256395        0.0000000000000000     
   9.1235336866997974E-002  0.29315858455515820        0.0000000000000000     
   9.1371954894851282E-002  0.30289339282640859        0.0000000000000000     
   8.2519952648282768E-002  0.26532811162445907        0.0000000000000000     
   8.2717463819083070E-002  0.27425876758485462        0.0000000000000000     
   8.2898466985483019E-002  0.28335872580949417        0.0000000000000000     
   8.3062962147482600E-002  0.29262798629837777        0.0000000000000000     
   8.3210949305081841E-002  0.30206654905150543        0.0000000000000000     
   4.5708842406627356E-002   5.9514823275660135E-002   0.0000000000000000     
   4.8112485646748734E-002   6.4999263516166403E-002   0.0000000000000000     
   5.0396899613989118E-002   7.0665833166912412E-002   0.0000000000000000     
   5.2562084308348508E-002   7.6514532227898113E-002   0.0000000000000000     
   5.4608039729826904E-002   8.2545360699123549E-002   0.0000000000000000     
   4.1243991875762429E-002   5.8799752279958255E-002   0.0000000000000000     
   4.3479653244640135E-002   6.4331234813336927E-002   0.0000000000000000     
   4.5596008838566543E-002   7.0035762859942591E-002   0.0000000000000000     
   4.7593058657541661E-002   7.5913336419775268E-002   0.0000000000000000     
   4.9470802701565460E-002   8.1963955492834917E-002   0.0000000000000000     
   3.6961561949050079E-002   5.8172369441629734E-002   0.0000000000000000     
   3.9007588339041388E-002   6.3730960537251691E-002   0.0000000000000000     
   4.0941059407442186E-002   6.9459819760671254E-002   0.0000000000000000     
   4.2761975154252493E-002   7.5358947111888425E-002   0.0000000000000000     
   4.4470335579472282E-002   8.1428342590903174E-002   0.0000000000000000     
   3.2861552626490272E-002   5.7632674760674588E-002   0.0000000000000000     
   3.4696290929952474E-002   6.3198440687910695E-002   0.0000000000000000     
   3.6432051320616055E-002   6.8938003869098360E-002   0.0000000000000000     
   3.8068833798481007E-002   7.4851364304237569E-002   0.0000000000000000     
   3.9606638363547358E-002   8.0938521993328322E-002   0.0000000000000000     
   2.8943963908083042E-002   5.7180668237092808E-002   0.0000000000000000     
   3.0545761017373392E-002   6.2733675265313926E-002   0.0000000000000000     
   3.2068984578088128E-002   6.8470315185223896E-002   0.0000000000000000     
   3.3513634590227222E-002   7.4390587996822702E-002   0.0000000000000000     
   3.4879711053790695E-002   8.0494493700110359E-002   0.0000000000000000     
   5.4608039729826904E-002   8.2545360699123549E-002   0.0000000000000000     
   5.6570832903012735E-002   8.8745621700201602E-002   0.0000000000000000     
   5.8486530852494438E-002   9.5102618350745211E-002   0.0000000000000000     
   6.0355133578271991E-002  0.10161635065075435        0.0000000000000000     
   6.2176641080345423E-002  0.10828681860022904        0.0000000000000000     
   4.9470802701565460E-002   8.1963955492834917E-002   0.0000000000000000     
   5.1267493089896830E-002   8.8180354399492011E-002   0.0000000000000000     
   5.3021381941794600E-002   9.4555267460116943E-002   0.0000000000000000     
   5.4732469257258769E-002  0.10108869467470975        0.0000000000000000     
   5.6400755036289350E-002  0.10778063604327041        0.0000000000000000     
   4.4470335579472282E-002   8.1428342590903174E-002   0.0000000000000000     
   4.6102943247837085E-002   8.7662465837353959E-002   0.0000000000000000     
   4.7696600724082411E-002   9.4055776490879123E-002   0.0000000000000000     
   4.9251308008208254E-002  0.10060827455147872        0.0000000000000000     
   5.0767065100214621E-002  0.10731996001915273        0.0000000000000000     
   3.9606638363547358E-002   8.0938521993328322E-002   0.0000000000000000     
   4.1077183376833512E-002   8.7191956013787458E-002   0.0000000000000000     
   4.2512187199357884E-002   9.3604145443031792E-002   0.0000000000000000     
   4.3911649831120433E-002  0.10017509028106128        0.0000000000000000     
   4.5275571272121215E-002  0.10690479052787598        0.0000000000000000     
   3.4879711053790695E-002   8.0494493700110359E-002   0.0000000000000000     
   3.6190213476886099E-002   8.6768824928792523E-002   0.0000000000000000     
   3.7468141367620972E-002   9.3200374316574852E-002   0.0000000000000000     
   3.8713494725995320E-002   9.9789141863457415E-002   0.0000000000000000     
   3.9926273552009159E-002  0.10653512756944017        0.0000000000000000     
   6.2176641080345423E-002  0.10828681860022904        0.0000000000000000     
   6.3930292833110941E-002  0.11510256476668709        0.0000000000000000     
   6.5595328310964804E-002  0.12205213171764639        0.0000000000000000     
   6.7171747513906990E-002  0.12913551945310689        0.0000000000000000     
   6.8659550441937528E-002  0.13635272797306863        0.0000000000000000     
   5.6400755036289350E-002  0.10778063604327041        0.0000000000000000     
   5.8007012870208929E-002  0.11461874255872923        0.0000000000000000     
   5.9532016350340097E-002  0.12159066521401646        0.0000000000000000     
   6.0975765476682868E-002  0.12869640400913210        0.0000000000000000     
   6.2338260249237235E-002  0.13593595894407617        0.0000000000000000     
   5.0767065100214621E-002  0.10731996001915273        0.0000000000000000     
   5.2226266825831022E-002  0.11417827230926660        0.0000000000000000     
   5.3611308010786993E-002  0.12117065083718578        0.0000000000000000     
   5.4922188655082534E-002  0.12829709560291022        0.0000000000000000     
   5.6158908758717638E-002  0.13555760660644003        0.0000000000000000     
   4.5275571272121215E-002  0.10690479052787598        0.0000000000000000     
   4.6588054699977233E-002  0.11378115401829920        0.0000000000000000     
   4.7833203292305490E-002  0.12079208858715433        0.0000000000000000     
   4.9011017049105987E-002  0.12793759423444132        0.0000000000000000     
   5.0121495970378731E-002  0.13521767096016019        0.0000000000000000     
   3.9926273552009159E-002  0.10653512756944017        0.0000000000000000     
   4.1092376492647548E-002  0.11342738768582707        0.0000000000000000     
   4.2197702194895576E-002  0.12045497846392211        0.0000000000000000     
   4.3242250658753222E-002  0.12761789990372532        0.0000000000000000     
   4.4226021884220507E-002  0.13491615200523671        0.0000000000000000     
   6.8659550441937528E-002  0.13635272797306863        0.0000000000000000     
   7.0070252595204524E-002  0.14369135388014631        0.0000000000000000     
   7.1415369473856141E-002  0.15113899377695461        0.0000000000000000     
   7.2694901077892365E-002  0.15869564766349351        0.0000000000000000     
   7.3908847407313197E-002  0.16636131553976305        0.0000000000000000     
   6.2338260249237235E-002  0.13593595894407617        0.0000000000000000     
   6.3628929731407366E-002  0.14329702111791048        0.0000000000000000     
   6.4857202986597390E-002  0.15076728162969685        0.0000000000000000     
   6.6023080014807292E-002  0.15834674047943528        0.0000000000000000     
   6.7126560816037142E-002  0.16603539766712580        0.0000000000000000     
   5.6158908758717638E-002  0.13555760660644003        0.0000000000000000     
   5.7329324644686673E-002  0.14293984696223316        0.0000000000000000     
   5.8441292635983980E-002  0.15043147978474766        0.0000000000000000     
   5.9494812732609557E-002  0.15803250507398353        0.0000000000000000     
   6.0489884934563427E-002  0.16574292282994080        0.0000000000000000     
   5.0121495970378731E-002  0.13521767096016019        0.0000000000000000     
   5.1171437335042473E-002  0.14261983141311435        0.0000000000000000     
   5.2167638422015931E-002  0.15013158824210698        0.0000000000000000     
   5.3110099231299127E-002  0.15775294144713822        0.0000000000000000     
   5.3998819762892065E-002  0.16548389102820801        0.0000000000000000     
   4.4226021884220507E-002  0.13491615200523671        0.0000000000000000     
   4.5155267802474745E-002  0.14233697447055396        0.0000000000000000     
   4.6036240344693252E-002  0.14986760700177484        0.0000000000000000     
   4.6868939510876013E-002  0.15750804959889933        0.0000000000000000     
   4.7653365301023050E-002  0.16525830226192750        0.0000000000000000     
   7.3908847407313197E-002  0.16636131553976305        0.0000000000000000     
   7.5051781346970631E-002  0.17412632018469190        0.0000000000000000     
   7.6118275781716704E-002  0.18198098437720883        0.0000000000000000     
   7.7108330711551362E-002  0.18992530811731381        0.0000000000000000     
   7.8021946136474646E-002  0.19795929140500679        0.0000000000000000     
   6.7126560816037142E-002  0.16603539766712580        0.0000000000000000     
   6.8162926772148080E-002  0.17382329694142795        0.0000000000000000     
   6.9127459265001315E-002  0.18170048205100137        0.0000000000000000     
   7.0020158294596832E-002  0.18966695299584591        0.0000000000000000     
   7.0841023860934660E-002  0.19772270977596174        0.0000000000000000     
   6.0489884934563427E-002  0.16574292282994080        0.0000000000000000     
   6.1422200683205051E-002  0.17355255938755237        0.0000000000000000     
   6.2287451419893933E-002  0.18145124108175123        0.0000000000000000     
   6.3085637144630044E-002  0.18943896791253739        0.0000000000000000     
   6.3816757857413420E-002  0.19751573987991078        0.0000000000000000     
   5.3998819762892065E-002  0.16548389102820801        0.0000000000000000     
   5.4829603080141592E-002  0.17331410752306520        0.0000000000000000     
   5.5598252246394565E-002  0.18123326146945853        0.0000000000000000     
   5.6304767261651005E-002  0.18924135286738814        0.0000000000000000     
   5.6949148125910898E-002  0.19733838171685392        0.0000000000000000     
   4.7653365301023050E-002  0.16525830226192750        0.0000000000000000     
   4.8385133962957676E-002  0.17310794134796639        0.0000000000000000     
   4.9059861744503226E-002  0.18104654321412331        0.0000000000000000     
   4.9677548645659694E-002  0.18907410786039824        0.0000000000000000     
   5.0238194666427080E-002  0.19719063528679115        0.0000000000000000     
   7.8021946136474646E-002  0.19795929140500679        0.0000000000000000     
   7.8860907500536037E-002  0.20607572734755575        0.0000000000000000     
   7.9627000247785018E-002  0.21426740905222869        0.0000000000000000     
   8.0320224378221616E-002  0.22253433651902554        0.0000000000000000     
   8.0940579891845804E-002  0.23087650974794638        0.0000000000000000     
   7.0841023860934660E-002  0.19772270977596174        0.0000000000000000     
   7.1589233621404791E-002  0.20586124558071728        0.0000000000000000     
   7.2263965233397176E-002  0.21407605359948104        0.0000000000000000     
   7.2865218696911829E-002  0.22236713383225304        0.0000000000000000     
   7.3392994011948764E-002  0.23073448627903329        0.0000000000000000     
   6.3816757857413420E-002  0.19751573987991078        0.0000000000000000     
   6.4478549861624906E-002  0.20567502795246492        0.0000000000000000     
   6.5068749460645364E-002  0.21391030309879333        0.0000000000000000     
   6.5587356654474807E-002  0.22222156531889592        0.0000000000000000     
   6.6034371443113221E-002  0.23060881461277274        0.0000000000000000     
   5.6949148125910898E-002  0.19733838171685392        0.0000000000000000     
   5.7528856221196377E-002  0.20551707446279874        0.0000000000000000     
   5.8041352929529597E-002  0.21377015755016554        0.0000000000000000     
   5.8486638250910571E-002  0.22209763097895424        0.0000000000000000     
   5.8864712185339264E-002  0.23049949474916487        0.0000000000000000     
   5.0238194666427080E-002  0.19719063528679115        0.0000000000000000     
   5.0740152700119209E-002  0.20538738511171872        0.0000000000000000     
   5.1181775640049859E-002  0.21365561695359764        0.0000000000000000     
   5.1563063486219071E-002  0.22199533081242792        0.0000000000000000     
   5.1884016238626818E-002  0.23040652668820957        0.0000000000000000     
   8.0940579891845804E-002  0.23087650974794638        0.0000000000000000     
   8.1477231593036617E-002  0.23931458194771554        0.0000000000000000     
   8.1919344286173049E-002  0.24786920632705736        0.0000000000000000     
   8.2266917971255099E-002  0.25654038288597186        0.0000000000000000     
   8.2519952648282768E-002  0.26532811162445907        0.0000000000000000     
   7.3392994011948764E-002  0.23073448627903329        0.0000000000000000     
   7.3843885387513825E-002  0.23919189408979502        0.0000000000000000     
   7.4214487032612922E-002  0.24775314041451149        0.0000000000000000     
   7.4504798947246056E-002  0.25641822525318281        0.0000000000000000     
   7.4714821131413228E-002  0.26518714860580883        0.0000000000000000     
   6.6034371443113221E-002  0.23060881461277274        0.0000000000000000     
   6.6411985148713368E-002  0.23907872463370480        0.0000000000000000     
   6.6722389093427953E-002  0.24763796903497295        0.0000000000000000     
   6.6965583277257004E-002  0.25628654781657728        0.0000000000000000     
   6.7141567700200508E-002  0.26502446097851784        0.0000000000000000     
   5.8864712185339264E-002  0.23049949474916487        0.0000000000000000     
   5.9181530876635254E-002  0.23897507357944492        0.0000000000000000     
   5.9443050468618142E-002  0.24752369218844175        0.0000000000000000     
   5.9649270961287922E-002  0.25614535057615545        0.0000000000000000     
   5.9800192354644580E-002  0.26484004874258610        0.0000000000000000     
   5.1884016238626818E-002  0.23040652668820957        0.0000000000000000     
   5.2152522571279496E-002  0.23888094092701531        0.0000000000000000     
   5.2376471158183488E-002  0.24741030987491791        0.0000000000000000     
   5.2555861999338815E-002  0.25599463353191731        0.0000000000000000     
   5.2690695094745464E-002  0.26463391189801355        0.0000000000000000     
   8.2519952648282768E-002  0.26532811162445907        0.0000000000000000     
   8.2717463819083070E-002  0.27425876758485462        0.0000000000000000     
   8.2898466985483019E-002  0.28335872580949417        0.0000000000000000     
   8.3062962147482600E-002  0.29262798629837777        0.0000000000000000     
   8.3210949305081841E-002  0.30206654905150543        0.0000000000000000     
   7.4714821131413228E-002  0.26518714860580883        0.0000000000000000     
   7.4885526435159236E-002  0.27405352655145071        0.0000000000000000     
   7.5057887708528850E-002  0.28301097516916962        0.0000000000000000     
   7.5231904951522099E-002  0.29205949445896556        0.0000000000000000     
   7.5407578164138955E-002  0.30119908442083843        0.0000000000000000     
   6.7141567700200508E-002  0.26502446097851784        0.0000000000000000     
   6.7290616409216714E-002  0.27382179590675992        0.0000000000000000     
   6.7453003451263899E-002  0.28264863998726913        0.0000000000000000     
   6.7628728826342063E-002  0.29150499322004531        0.0000000000000000     
   6.7817792534451193E-002  0.30039085560508860        0.0000000000000000     
   5.9800192354644580E-002  0.26484004874258610        0.0000000000000000     
   5.9932733741255531E-002  0.27356357565078221        0.0000000000000000     
   6.0083814213688171E-002  0.28227172026379260        0.0000000000000000     
   6.0253433771942505E-002  0.29096448258161717        0.0000000000000000     
   6.0441592416018541E-002  0.29964186260425607        0.0000000000000000     
   5.2690695094745464E-002  0.26463391189801355        0.0000000000000000     
   5.2811878431275674E-002  0.27327886578351751        0.0000000000000000     
   5.2950319995801659E-002  0.28188021599874008        0.0000000000000000     
   5.3106019788323439E-002  0.29043796254368104        0.0000000000000000     
   5.3278977808840999E-002  0.29895210541834066        0.0000000000000000     
   2.8943963908083042E-002   5.7180668237092808E-002   0.0000000000000000     
   3.0545761017373392E-002   6.2733675265313926E-002   0.0000000000000000     
   3.2068984578088128E-002   6.8470315185223896E-002   0.0000000000000000     
   3.3513634590227222E-002   7.4390587996822702E-002   0.0000000000000000     
   3.4879711053790695E-002   8.0494493700110359E-002   0.0000000000000000     
   2.5133243012426448E-002   5.6783119493946752E-002   0.0000000000000000     
   2.6503154044494090E-002   6.2321980977370427E-002   0.0000000000000000     
   2.7814756462720400E-002   6.8054377257574128E-002   0.0000000000000000     
   2.9068050267105381E-002   7.3980308334557876E-002   0.0000000000000000     
   3.0263035457649044E-002   8.0099774208321636E-002   0.0000000000000000     
   2.1353837158118567E-002   5.6406798154298790E-002   0.0000000000000000     
   2.2515625454504463E-002   6.1948674531989240E-002   0.0000000000000000     
   2.3632264257374858E-002   6.7687813634675340E-002   0.0000000000000000     
   2.4703753566729755E-002   7.3624215462357118E-002   0.0000000000000000     
   2.5730093382569159E-002   7.9757880015034532E-002   0.0000000000000000     
   1.7605746345159407E-002   5.6051704218148896E-002   0.0000000000000000     
   1.8583175247404521E-002   6.1613755929170330E-002   0.0000000000000000     
   1.9521507962051501E-002   6.7370624316527516E-002   0.0000000000000000     
   2.0420744489100345E-002   7.3322309380220441E-002   0.0000000000000000     
   2.1280884828551054E-002   7.9468811120249075E-002   0.0000000000000000     
   1.3888970573548959E-002   5.5717837685497082E-002   0.0000000000000000     
   1.4705803423194268E-002   6.1317225168913726E-002   0.0000000000000000     
   1.5482487576750326E-002   6.7102809303130631E-002   0.0000000000000000     
   1.6219023034217139E-002   7.3074590088147803E-002   0.0000000000000000     
   1.6915409795594707E-002   7.9232567523965236E-002   0.0000000000000000     
   3.4879711053790695E-002   8.0494493700110359E-002   0.0000000000000000     
   3.6190213476886099E-002   8.6768824928792523E-002   0.0000000000000000     
   3.7468141367620972E-002   9.3200374316574852E-002   0.0000000000000000     
   3.8713494725995320E-002   9.9789141863457415E-002   0.0000000000000000     
   3.9926273552009159E-002  0.10653512756944017        0.0000000000000000     
   3.0263035457649044E-002   8.0099774208321636E-002   0.0000000000000000     
   3.1414049340429018E-002   8.6393780739670578E-002   0.0000000000000000     
   3.2535429221522957E-002   9.2843333789409871E-002   0.0000000000000000     
   3.3627175100930849E-002   9.9448433357539501E-002   0.0000000000000000     
   3.4689286978652700E-002  0.10620907944405948        0.0000000000000000     
   2.5730093382569159E-002   7.9757880015034532E-002   0.0000000000000000     
   2.6720706759896459E-002   8.6067531603723102E-002   0.0000000000000000     
   2.7685016753715052E-002   9.2531894539438220E-002   0.0000000000000000     
   2.8623023364024926E-002   9.9150968822179913E-002   0.0000000000000000     
   2.9534726590826094E-002  0.10592475445194817        0.0000000000000000     
   2.1280884828551054E-002   7.9468811120249075E-002   0.0000000000000000     
   2.2110185735288421E-002   8.5790077520950053E-002   0.0000000000000000     
   2.2916903964197266E-002   9.2266056566659885E-002   0.0000000000000000     
   2.3701039515277567E-002   9.8896748257378597E-002   0.0000000000000000     
   2.4462592388529349E-002  0.10568215259310623        0.0000000000000000     
   1.6915409795594707E-002   7.9232567523965236E-002   0.0000000000000000     
   1.7582486266604899E-002   8.5561418491351446E-002   0.0000000000000000     
   1.8231090852969589E-002   9.2045819871074894E-002   0.0000000000000000     
   1.8861223554688777E-002   9.8685771663135635E-002   0.0000000000000000     
   1.9472884371762457E-002  0.10548127386753364        0.0000000000000000     
   3.9926273552009159E-002  0.10653512756944017        0.0000000000000000     
   4.1092376492647548E-002  0.11342738768582707        0.0000000000000000     
   4.2197702194895576E-002  0.12045497846392211        0.0000000000000000     
   4.3242250658753222E-002  0.12761789990372532        0.0000000000000000     
   4.4226021884220507E-002  0.13491615200523671        0.0000000000000000     
   3.4689286978652700E-002  0.10620907944405948        0.0000000000000000     
   3.5709481196265158E-002  0.11311554840035340        0.0000000000000000     
   3.6675474095344877E-002  0.12015811657780487        0.0000000000000000     
   3.7587265675891851E-002  0.12733678397641388        0.0000000000000000     
   3.8444855937906079E-002  0.13465155059618045        0.0000000000000000     
   2.9534726590826094E-002  0.10592475445194817        0.0000000000000000     
   3.0409617803253228E-002  0.11284421125038148        0.0000000000000000     
   3.1237188370441017E-002  0.11990029903911825        0.0000000000000000     
   3.2017438292389455E-002  0.12709301781815854        0.0000000000000000     
   3.2750367569098542E-002  0.13442236758750231        0.0000000000000000     
   2.4462592388529349E-002  0.10568215259310623        0.0000000000000000     
   2.5192786313611770E-002  0.11261337623591126        0.0000000000000000     
   2.5882845020183995E-002  0.11968152584786231        0.0000000000000000     
   2.6532768508246037E-002  0.12688660142895930        0.0000000000000000     
   2.7142556777797890E-002  0.13422860297920228        0.0000000000000000     
   1.9472884371762457E-002  0.10548127386753364        0.0000000000000000     
   2.0058986727340761E-002  0.11242304335694281        0.0000000000000000     
   2.0612444044573811E-002  0.11950179700403696        0.0000000000000000     
   2.1133256323461601E-002  0.12671753480881620        0.0000000000000000     
   2.1621423564004136E-002  0.13407025677128040        0.0000000000000000     
   4.4226021884220507E-002  0.13491615200523671        0.0000000000000000     
   4.5155267802474745E-002  0.14233697447055396        0.0000000000000000     
   4.6036240344693252E-002  0.14986760700177484        0.0000000000000000     
   4.6868939510876013E-002  0.15750804959889933        0.0000000000000000     
   4.7653365301023050E-002  0.16525830226192750        0.0000000000000000     
   3.8444855937906079E-002  0.13465155059618045        0.0000000000000000     
   3.9254135763171931E-002  0.14208938800167870        0.0000000000000000     
   4.0020996033473769E-002  0.14963726775748271        0.0000000000000000     
   4.0745436748811585E-002  0.15729518986359259        0.0000000000000000     
   4.1427457909185388E-002  0.16506315432000823        0.0000000000000000     
   3.2750367569098542E-002  0.13442236758750231        0.0000000000000000     
   3.3441360933322450E-002  0.14187518387361500        0.0000000000000000     
   3.4095803117815342E-002  0.14943830220296203        0.0000000000000000     
   3.4713694122577229E-002  0.15711172257554348        0.0000000000000000     
   3.5295033947608100E-002  0.16489544499135925        0.0000000000000000     
   2.7142556777797890E-002  0.13422860297920228        0.0000000000000000     
   2.7716943312926300E-002  0.14169436208636293        0.0000000000000000     
   2.8260661597717979E-002  0.14927071033821285        0.0000000000000000     
   2.8773711632172939E-002  0.15695764773475207        0.0000000000000000     
   2.9256093416291186E-002  0.16475517427598063        0.0000000000000000     
   2.1621423564004136E-002  0.13407025677128040        0.0000000000000000     
   2.2080882901983474E-002  0.14154692263992244        0.0000000000000000     
   2.2515571473181666E-002  0.14913449216323513        0.0000000000000000     
   2.2925489277598719E-002  0.15683296534121841        0.0000000000000000     
   2.3310636315234626E-002  0.16464234217387236        0.0000000000000000     
   4.7653365301023050E-002  0.16525830226192750        0.0000000000000000     
   4.8385133962957676E-002  0.17310794134796639        0.0000000000000000     
   4.9059861744503226E-002  0.18104654321412331        0.0000000000000000     
   4.9677548645659694E-002  0.18907410786039824        0.0000000000000000     
   5.0238194666427080E-002  0.19719063528679115        0.0000000000000000     
   4.1427457909185388E-002  0.16506315432000823        0.0000000000000000     
   4.2062486677456219E-002  0.17293062279887381        0.0000000000000000     
   4.2645950216485110E-002  0.18088705697233359        0.0000000000000000     
   4.3177848526272058E-002  0.18893245684038751        0.0000000000000000     
   4.3658181606817073E-002  0.19706682240303552        0.0000000000000000     
   3.5295033947608100E-002  0.16489544499135925        0.0000000000000000     
   3.5835354569440120E-002  0.17277871381240531        0.0000000000000000     
   3.6330187964605423E-002  0.18075077340067741        0.0000000000000000     
   3.6779534133104023E-002  0.18881162375617566        0.0000000000000000     
   3.7183393074935921E-002  0.19696126487889998        0.0000000000000000     
   2.9256093416291186E-002  0.16475517427598063        0.0000000000000000     
   2.9703737638909374E-002  0.17265221438856079        0.0000000000000000     
   3.0112574988864174E-002  0.18063769249915484        0.0000000000000000     
   3.0482605466155607E-002  0.18871160860776282        0.0000000000000000     
   3.0813829070783651E-002  0.19687396271438465        0.0000000000000000     
   2.3310636315234626E-002  0.16464234217387236        0.0000000000000000     
   2.3667635885863986E-002  0.17255112452734034        0.0000000000000000     
   2.3993111289261369E-002  0.18054781426776587        0.0000000000000000     
   2.4287062525426791E-002  0.18863241139514891        0.0000000000000000     
   2.4549489594360239E-002  0.19680491590948945        0.0000000000000000     
   5.0238194666427080E-002  0.19719063528679115        0.0000000000000000     
   5.0740152700119209E-002  0.20538738511171872        0.0000000000000000     
   5.1181775640049859E-002  0.21365561695359764        0.0000000000000000     
   5.1563063486219071E-002  0.22199533081242792        0.0000000000000000     
   5.1884016238626818E-002  0.23040652668820957        0.0000000000000000     
   4.3658181606817073E-002  0.19706682240303552        0.0000000000000000     
   4.4086587025750822E-002  0.20527963426128920        0.0000000000000000     
   4.4462702350703980E-002  0.21356037301616018        0.0000000000000000     
   4.4786527581676561E-002  0.22190903866764841        0.0000000000000000     
   4.5058062718668551E-002  0.23032563121575392        0.0000000000000000     
   3.7183393074935921E-002  0.19696126487889998        0.0000000000000000     
   3.7542306925448653E-002  0.20518749627357460        0.0000000000000000     
   3.7856817819989758E-002  0.21347811744492359        0.0000000000000000     
   3.8126925758559235E-002  0.22183312839294703        0.0000000000000000     
   3.8352630741157093E-002  0.23025252911764485        0.0000000000000000     
   3.0813829070783651E-002  0.19687396271438465        0.0000000000000000     
   3.1107312399212710E-002  0.20511097114857488        0.0000000000000000     
   3.1364122047907193E-002  0.21340885023988790        0.0000000000000000     
   3.1584258016867109E-002  0.22176759998832374        0.0000000000000000     
   3.1767720306092449E-002  0.23018722039388242        0.0000000000000000     
   2.4549489594360239E-002  0.19680491590948945        0.0000000000000000     
   2.4781603447042985E-002  0.20505005888629005        0.0000000000000000     
   2.4984615034456297E-002  0.21335257140105307        0.0000000000000000     
   2.5158524356600171E-002  0.22171245345377863        0.0000000000000000     
   2.5303331413474611E-002  0.23012970504446661        0.0000000000000000     
   5.1884016238626818E-002  0.23040652668820957        0.0000000000000000     
   5.2152522571279496E-002  0.23888094092701531        0.0000000000000000     
   5.2376471158183488E-002  0.24741030987491791        0.0000000000000000     
   5.2555861999338815E-002  0.25599463353191731        0.0000000000000000     
   5.2690695094745464E-002  0.26463391189801355        0.0000000000000000     
   4.5058062718668551E-002  0.23032563121575392        0.0000000000000000     
   4.5285854554731039E-002  0.23879490540171613        0.0000000000000000     
   4.5478449882915120E-002  0.24730161596677452        0.0000000000000000     
   4.5635848703220787E-002  0.25584576291092914        0.0000000000000000     
   4.5758051015648032E-002  0.26442734623417996        0.0000000000000000     
   3.8352630741157093E-002  0.23025252911764485        0.0000000000000000     
   3.8542421149074885E-002  0.23871554572884740        0.0000000000000000     
   3.8704785363604145E-002  0.24720140433638493        0.0000000000000000     
   3.8839723384744902E-002  0.25571010494025748        0.0000000000000000     
   3.8947235212497142E-002  0.26424164754046503        0.0000000000000000     
   3.1767720306092449E-002  0.23018722039388242        0.0000000000000000     
   3.1922222354311004E-002  0.23864286190840914        0.0000000000000000     
   3.2055477600250584E-002  0.24710967498374906        0.0000000000000000     
   3.2167486043911175E-002  0.25558765961990221        0.0000000000000000     
   3.2258247685292799E-002  0.26407681581686859        0.0000000000000000     
   2.5303331413474611E-002  0.23012970504446661        0.0000000000000000     
   2.5425258170439426E-002  0.23857685394040132        0.0000000000000000     
   2.5530526592854427E-002  0.24702642790886689        0.0000000000000000     
   2.5619136680719620E-002  0.25547842694986334        0.0000000000000000     
   2.5691088434034996E-002  0.26393285106339071        0.0000000000000000     
   5.2690695094745464E-002  0.26463391189801355        0.0000000000000000     
   5.2811878431275674E-002  0.27327886578351751        0.0000000000000000     
   5.2950319995801659E-002  0.28188021599874008        0.0000000000000000     
   5.3106019788323439E-002  0.29043796254368104        0.0000000000000000     
   5.3278977808840999E-002  0.29895210541834066        0.0000000000000000     
   4.5758051015648032E-002  0.26442734623417996        0.0000000000000000     
   4.5869293164349789E-002  0.27299637834831308        0.0000000000000000     
   4.5993811493478948E-002  0.28150287166511451        0.0000000000000000     
   4.6131606003035522E-002  0.28994682618458417        0.0000000000000000     
   4.6282676693019498E-002  0.29832824190672208        0.0000000000000000     
   3.8947235212497142E-002  0.26424164754046503        0.0000000000000000     
   3.9046220625550493E-002  0.27274482538851602        0.0000000000000000     
   3.9155579402594579E-002  0.28116843173591877        0.0000000000000000     
   3.9275311543629406E-002  0.28951246658267343        0.0000000000000000     
   3.9405417048654981E-002  0.29777692992878002        0.0000000000000000     
   3.2258247685292799E-002  0.26407681581686859        0.0000000000000000     
   3.2342660814877813E-002  0.27252420690412621        0.0000000000000000     
   3.2435623723148586E-002  0.28087689621115308        0.0000000000000000     
   3.2537136410105132E-002  0.28913488373794916        0.0000000000000000     
   3.2647198875747449E-002  0.29729816948451449        0.0000000000000000     
   2.5691088434034996E-002  0.26393285106339071        0.0000000000000000     
   2.5758613732331723E-002  0.27233452289514376        0.0000000000000000     
   2.5833944455140943E-002  0.28062826509081723        0.0000000000000000     
   2.5917080602462669E-002  0.28881407765041106        0.0000000000000000     
   2.6008022174296888E-002  0.29689196057392536        0.0000000000000000     
   1.3888970573548959E-002   5.5717837685497082E-002   0.0000000000000000     
   1.4705803423194268E-002   6.1317225168913726E-002   0.0000000000000000     
   1.5482487576750326E-002   6.7102809303130631E-002   0.0000000000000000     
   1.6219023034217139E-002   7.3074590088147803E-002   0.0000000000000000     
   1.6915409795594707E-002   7.9232567523965236E-002   0.0000000000000000     
   1.0253028320296322E-002   5.5455540068019490E-002   0.0000000000000000     
   1.0906543690419119E-002   6.1089086853478823E-002   0.0000000000000000     
   1.1518877738270039E-002   6.6900008340097308E-002   0.0000000000000000     
   1.2090030463849084E-002   7.2888304527874884E-002   0.0000000000000000     
   1.2620001867156250E-002   7.9053975416811612E-002   0.0000000000000000     
   6.7474380624105885E-003   5.5315152877392228E-002   0.0000000000000000     
   7.2084297576244984E-003   6.0959345585125037E-002   0.0000000000000000     
   7.6343530834093350E-003   6.6777861173040062E-002   0.0000000000000000     
   8.0252080397651034E-003   7.2770699641137318E-002   0.0000000000000000     
   8.3809946266917967E-003   7.8937860989416769E-002   0.0000000000000000     
   3.3721997998917607E-003   5.5296676113615308E-002   0.0000000000000000     
   3.6114616248104064E-003   6.0928001363852353E-002   0.0000000000000000     
   3.8289136121682187E-003   6.6736367801958948E-002   0.0000000000000000     
   4.0245557619651975E-003   7.2721775427935079E-002   0.0000000000000000     
   4.1983880742013438E-003   7.8884224241780737E-002   0.0000000000000000     
   1.2731353273983748E-004   5.5400109776688716E-002   0.0000000000000000     
   1.1563929197684316E-004   6.0995054189660780E-002   0.0000000000000000     
   1.0255932454668716E-004   6.6775528226853925E-002   0.0000000000000000     
   8.8073630449371563E-005   7.2741531888268166E-002   0.0000000000000000     
   7.2182209684892992E-005   7.8893065173903501E-002   0.0000000000000000     
   1.6915409795594707E-002   7.9232567523965236E-002   0.0000000000000000     
   1.7582486266604899E-002   8.5561418491351446E-002   0.0000000000000000     
   1.8231090852969589E-002   9.2045819871074894E-002   0.0000000000000000     
   1.8861223554688777E-002   9.8685771663135635E-002   0.0000000000000000     
   1.9472884371762457E-002  0.10548127386753364        0.0000000000000000     
   1.2620001867156250E-002   7.9053975416811612E-002   0.0000000000000000     
   1.3122433916124658E-002   8.5386755759062363E-002   0.0000000000000000     
   1.3610968578687425E-002   9.1876380306782093E-002   0.0000000000000000     
   1.4085605854844545E-002   9.8522849059970788E-002   0.0000000000000000     
   1.4546345744596022E-002  0.10532616201862842        0.0000000000000000     
   8.3809946266917967E-003   7.8937860989416769E-002   0.0000000000000000     
   8.7148542461264692E-003   8.5271290568217931E-002   0.0000000000000000     
   9.0399283000061666E-003   9.1762933727880275E-002   0.0000000000000000     
   9.3562167883308907E-003   9.8412790468403816E-002   0.0000000000000000     
   9.6637197111006413E-003  0.10522086078978853        0.0000000000000000     
   4.1983880742013438E-003   7.8884224241780737E-002   0.0000000000000000     
   4.3597472566103265E-003   8.5215022918818162E-002   0.0000000000000000     
   4.5179700169258171E-003   9.1705480134369494E-002   0.0000000000000000     
   4.6730563551478106E-003   9.8355595888434774E-002   0.0000000000000000     
   4.8250062712763119E-003  0.10516537018101399        0.0000000000000000     
   7.2182209684892992E-005   7.8893065173903501E-002   0.0000000000000000     
   5.7112947576232979E-005   8.5217952810863001E-002   0.0000000000000000     
   4.5093729446370721E-005   9.1704019526249694E-002   0.0000000000000000     
   3.6124555295303847E-005   9.8351265320063636E-002   0.0000000000000000     
   3.0205425123033727E-005  0.10515969019230478        0.0000000000000000     
   1.9472884371762457E-002  0.10548127386753364        0.0000000000000000     
   2.0058986727340761E-002  0.11242304335694281        0.0000000000000000     
   2.0612444044573811E-002  0.11950179700403696        0.0000000000000000     
   2.1133256323461601E-002  0.12671753480881620        0.0000000000000000     
   2.1621423564004136E-002  0.13407025677128040        0.0000000000000000     
   1.4546345744596022E-002  0.10532616201862842        0.0000000000000000     
   1.4987726975962073E-002  0.11227638361837346        0.0000000000000000     
   1.5404288276962908E-002  0.11936357829482429        0.0000000000000000     
   1.5796029647598533E-002  0.12658774604798095        0.0000000000000000     
   1.6162951087868943E-002  0.13394888687784340        0.0000000000000000     
   9.6637197111006413E-003  0.10522086078978853        0.0000000000000000     
   9.9585149909975461E-003  0.11217656802510062        0.0000000000000000     
   1.0236680550703739E-002  0.11926933550740623        0.0000000000000000     
   1.0498216390219216E-002  0.12649916323670538        0.0000000000000000     
   1.0743122509543981E-002  0.13386605121299808        0.0000000000000000     
   4.8250062712763119E-003  0.10516537018101399        0.0000000000000000     
   4.9713507724471855E-003  0.11212359657712430        0.0000000000000000     
   5.1096208657963006E-003  0.11921906864178278        0.0000000000000000     
   5.2398165513236556E-003  0.12645178637498949        0.0000000000000000     
   5.3619378290292513E-003  0.13382174977674441        0.0000000000000000     
   3.0205425123033727E-005  0.10515969019230478        0.0000000000000000     
   2.6234320310987999E-005  0.11211746927444446        0.0000000000000000     
   2.3109222240591380E-005  0.11921277769795394        0.0000000000000000     
   2.0830130911848990E-005  0.12644561546283326        0.0000000000000000     
   1.9397046324756521E-005  0.13381598256908236        0.0000000000000000     
   2.1621423564004136E-002  0.13407025677128040        0.0000000000000000     
   2.2080882901983474E-002  0.14154692263992244        0.0000000000000000     
   2.2515571473181666E-002  0.14913449216323513        0.0000000000000000     
   2.2925489277598719E-002  0.15683296534121841        0.0000000000000000     
   2.3310636315234626E-002  0.16464234217387236        0.0000000000000000     
   1.6162951087868943E-002  0.13394888687784340        0.0000000000000000     
   1.6508051540220628E-002  0.14143407188842180        0.0000000000000000     
   1.6834329947100077E-002  0.14903037218372606        0.0000000000000000     
   1.7141786308507288E-002  0.15673778776375635        0.0000000000000000     
   1.7430420624442264E-002  0.16455631862851264        0.0000000000000000     
   1.0743122509543981E-002  0.13386605121299808        0.0000000000000000     
   1.0973321067364407E-002  0.14135701618598903        0.0000000000000000     
   1.1190734222366872E-002  0.14895907490538296        0.0000000000000000     
   1.1395361974551377E-002  0.15667222737117986        0.0000000000000000     
   1.1587204323917921E-002  0.16449647358337977        0.0000000000000000     
   5.3619378290292513E-003  0.13382174977674441        0.0000000000000000     
   5.4766914834148105E-003  0.14131575553262427        0.0000000000000000     
   5.5847842989820524E-003  0.14892060032820575        0.0000000000000000     
   5.6862162757309780E-003  0.15663628416348893        0.0000000000000000     
   5.7809874136615855E-003  0.16446280703847380        0.0000000000000000     
   1.9397046324756521E-005  0.13381598256908236        0.0000000000000000     
   1.8162788371836949E-005  0.14131028992832742        0.0000000000000000     
   1.6480176945617804E-005  0.14891494845219450        0.0000000000000000     
   1.4349212046094043E-005  0.15662995814068356        0.0000000000000000     
   1.1769893673266914E-005  0.16445531899379467        0.0000000000000000     
   2.3310636315234626E-002  0.16464234217387236        0.0000000000000000     
   2.3667635885863986E-002  0.17255112452734034        0.0000000000000000     
   2.3993111289261369E-002  0.18054781426776587        0.0000000000000000     
   2.4287062525426791E-002  0.18863241139514891        0.0000000000000000     
   2.4549489594360239E-002  0.19680491590948945        0.0000000000000000     
   1.7430420624442264E-002  0.16455631862851264        0.0000000000000000     
   1.7697729195807865E-002  0.17247414620886581        0.0000000000000000     
   1.7941208323506947E-002  0.18047945193568704        0.0000000000000000     
   1.8160858007539513E-002  0.18857223580897611        0.0000000000000000     
   1.8356678247905558E-002  0.19675249782873322        0.0000000000000000     
   1.1587204323917921E-002  0.16449647358337977        0.0000000000000000     
   1.1764697454244938E-002  0.17241998141325929        0.0000000000000000     
   1.1926277549310868E-002  0.18043091873209488        0.0000000000000000     
   1.2071944609115709E-002  0.18852928553988668        0.0000000000000000     
   1.2201698633659466E-002  0.19671508183663461        0.0000000000000000     
   5.7809874136615855E-003  0.16446280703847380        0.0000000000000000     
   5.8685406611751973E-003  0.17238863014052053        0.0000000000000000     
   5.9483189666731280E-003  0.18040221465698947        0.0000000000000000     
   6.0203223301553812E-003  0.18850356058788048        0.0000000000000000     
   6.0845507516219541E-003  0.19669266793319379        0.0000000000000000     
   1.1769893673266914E-005  0.16445531899379467        0.0000000000000000     
   9.2588165986448763E-006  0.17238009239064975        0.0000000000000000     
   7.3325755937294484E-006  0.18039333971037075        0.0000000000000000     
   5.9911706585262688E-006  0.18849506095295770        0.0000000000000000     
   5.2346017930296994E-006  0.19668525611841062        0.0000000000000000     
   2.4549489594360239E-002  0.19680491590948945        0.0000000000000000     
   2.4781603447042985E-002  0.20505005888629005        0.0000000000000000     
   2.4984615034456297E-002  0.21335257140105307        0.0000000000000000     
   2.5158524356600171E-002  0.22171245345377863        0.0000000000000000     
   2.5303331413474611E-002  0.23012970504446661        0.0000000000000000     
   1.8356678247905558E-002  0.19675249782873322        0.0000000000000000     
   1.8529752097363107E-002  0.20500364574788954        0.0000000000000000     
   1.8681162608670185E-002  0.21330908731937651        0.0000000000000000     
   1.8810909781826785E-002  0.22166882254319409        0.0000000000000000     
   1.8918993616832910E-002  0.23008285141934229        0.0000000000000000     
   1.2201698633659466E-002  0.19671508183663461        0.0000000000000000     
   1.2316330378596696E-002  0.20497061799454286        0.0000000000000000     
   1.2416630599581974E-002  0.21327820438581555        0.0000000000000000     
   1.2502599296615301E-002  0.22163784101045267        0.0000000000000000     
   1.2574236469696675E-002  0.23004952786845420        0.0000000000000000     
   6.0845507516219541E-003  0.19669266793319379        0.0000000000000000     
   6.1413382907437516E-003  0.20495097562625006        0.0000000000000000     
   6.1910190071916759E-003  0.21325992260037027        0.0000000000000000     
   6.2335929009657252E-003  0.22161950885555443        0.0000000000000000     
   6.2690599720658996E-003  0.23002973439180255        0.0000000000000000     
   5.2346017930296994E-006  0.19668525611841062        0.0000000000000000     
   4.7758338042722028E-006  0.20494471864301103        0.0000000000000000     
   4.3278314992789774E-006  0.21325424196304058        0.0000000000000000     
   3.8905948780511344E-006  0.22161382607849930        0.0000000000000000     
   3.4641239405898937E-006  0.23002347098938714        0.0000000000000000     
   2.5303331413474611E-002  0.23012970504446661        0.0000000000000000     
   2.5425258170439426E-002  0.23857685394040132        0.0000000000000000     
   2.5530526592854427E-002  0.24702642790886689        0.0000000000000000     
   2.5619136680719620E-002  0.25547842694986334        0.0000000000000000     
   2.5691088434034996E-002  0.26393285106339071        0.0000000000000000     
   1.8918993616832910E-002  0.23008285141934229        0.0000000000000000     
   1.9009862330880520E-002  0.23852205710418245        0.0000000000000000     
   1.9087964141161585E-002  0.24695732275407600        0.0000000000000000     
   1.9153299047676091E-002  0.25538864836902297        0.0000000000000000     
   1.9205867050424048E-002  0.26381603394902337        0.0000000000000000     
   1.2574236469696675E-002  0.23004952786845420        0.0000000000000000     
   1.2634368569054696E-002  0.23848300667911104        0.0000000000000000     
   1.2685822044917965E-002  0.24690801916171401        0.0000000000000000     
   1.2728596897286488E-002  0.25532456531626307        0.0000000000000000     
   1.2762693126160260E-002  0.26373264514275824        0.0000000000000000     
   6.2690599720658996E-003  0.23002973439180255        0.0000000000000000     
   6.2987768849619378E-003  0.23845970266518712        0.0000000000000000     
   6.3241003041235710E-003  0.24687851713178080        0.0000000000000000     
   6.3450302295507983E-003  0.25528617779158358        0.0000000000000000     
   6.3615666612436214E-003  0.26368268464459549        0.0000000000000000     
   3.4641239405898937E-006  0.23002347098938714        0.0000000000000000     
   3.0872786022529547E-006  0.23845214506241066        0.0000000000000000     
   2.7989187783999687E-006  0.24686881666427649        0.0000000000000000     
   2.5990444690303393E-006  0.25527348579498454        0.0000000000000000     
   2.4876556741432534E-006  0.26366615245453495        0.0000000000000000     
   2.5691088434034996E-002  0.26393285106339071        0.0000000000000000     
   2.5758613732331723E-002  0.27233452289514376        0.0000000000000000     
   2.5833944455140943E-002  0.28062826509081723        0.0000000000000000     
   2.5917080602462669E-002  0.28881407765041106        0.0000000000000000     
   2.6008022174296888E-002  0.29689196057392536        0.0000000000000000     
   1.9205867050424048E-002  0.26381603394902337        0.0000000000000000     
   1.9255633203421423E-002  0.27218211313773166        0.0000000000000000     
   1.9312562560684188E-002  0.28042951957880274        0.0000000000000000     
   1.9376655122212334E-002  0.28855825327223644        0.0000000000000000     
   1.9447910888005869E-002  0.29656831421803281        0.0000000000000000     
   1.2762693126160260E-002  0.26373264514275824        0.0000000000000000     
   1.2795273053656098E-002  0.27207331740805313        0.0000000000000000     
   1.2833499001890824E-002  0.28028764087900115        0.0000000000000000     
   1.2877370970864437E-002  0.28837561555560243        0.0000000000000000     
   1.2926888960576938E-002  0.29633724143785678        0.0000000000000000     
   6.3615666612436214E-003  0.26368268464459549        0.0000000000000000     
   6.3775332830357427E-003  0.27200813570610782        0.0000000000000000     
   6.3967537787608620E-003  0.28020262899141229        0.0000000000000000     
   6.4192281484189793E-003  0.28826616450050885        0.0000000000000000     
   6.4449563920100953E-003  0.29619874223339737        0.0000000000000000     
   2.4876556741432534E-006  0.26366615245453495        0.0000000000000000     
   2.4138915603591146E-006  0.27198656803189608        0.0000000000000000     
   2.3268912942975674E-006  0.28017448391603644        0.0000000000000000     
   2.2266548759585305E-006  0.28822990010695582        0.0000000000000000     
   2.1131823053407300E-006  0.29615281660465453        0.0000000000000000     
   1.2731353273983748E-004   5.5400109776688716E-002   0.0000000000000000     
   1.1563929197684316E-004   6.0995054189660780E-002   0.0000000000000000     
   1.0255932454668716E-004   6.6775528226853925E-002   0.0000000000000000     
   8.8073630449371563E-005   7.2741531888268166E-002   0.0000000000000000     
   7.2182209684892992E-005   7.8893065173903501E-002   0.0000000000000000     
  -3.1362385384000129E-003   5.5549708869150553E-002   0.0000000000000000     
  -3.3965114948473168E-003   6.1108173959154938E-002   0.0000000000000000     
  -3.6378003366537856E-003   6.6860690954565719E-002   0.0000000000000000     
  -3.8601050638194198E-003   7.2807259855382847E-002   0.0000000000000000     
  -4.0634256763442183E-003   7.8947880661606365E-002   0.0000000000000000     
  -6.5674742128826215E-003   5.5669728393538884E-002   0.0000000000000000     
  -7.0424649896331975E-003   6.1215030568939496E-002   0.0000000000000000     
  -7.4852559286317294E-003   6.6957204491934985E-002   0.0000000000000000     
  -7.8958470298782137E-003   7.2896250162525364E-002   0.0000000000000000     
  -8.2742382933726523E-003   7.9032167580710605E-002   0.0000000000000000     
  -1.0166393490707989E-002   5.5760168349853728E-002   0.0000000000000000     
  -1.0822221192380799E-002   6.1315624019014428E-002   0.0000000000000000     
  -1.1439807451387143E-002   6.7065068838961753E-002   0.0000000000000000     
  -1.2019152267727011E-002   7.3008502809695702E-002   0.0000000000000000     
  -1.2560255641400408E-002   7.9145925931216249E-002   0.0000000000000000     
  -1.3932996371876115E-002   5.5821028738095080E-002   0.0000000000000000     
  -1.4735780103090124E-002   6.1409954309379747E-002   0.0000000000000000     
  -1.5501454904920020E-002   6.7184283995645994E-002   0.0000000000000000     
  -1.6230020777365812E-002   7.3144017796893848E-002   0.0000000000000000     
  -1.6921477720427486E-002   7.9289155713123283E-002   0.0000000000000000     
   7.2182209684892992E-005   7.8893065173903501E-002   0.0000000000000000     
   5.7112947576232979E-005   8.5217952810863001E-002   0.0000000000000000     
   4.5093729446370721E-005   9.1704019526249694E-002   0.0000000000000000     
   3.6124555295303847E-005   9.8351265320063636E-002   0.0000000000000000     
   3.0205425123033727E-005  0.10515969019230478        0.0000000000000000     
  -4.0634256763442183E-003   7.8947880661606365E-002   0.0000000000000000     
  -4.2528476531232488E-003   8.5266607264151695E-002   0.0000000000000000     
  -4.4334564730515776E-003   9.1747493553934301E-002   0.0000000000000000     
  -4.6052521361292049E-003   9.8390539530954169E-002   0.0000000000000000     
  -4.7682346423561289E-003  0.10519574519521130        0.0000000000000000     
  -8.2742382933726523E-003   7.9032167580710605E-002   0.0000000000000000     
  -8.6299335176355570E-003   8.5347513298483474E-002   0.0000000000000000     
  -8.9724365011874339E-003   9.1824843867836625E-002   0.0000000000000000     
  -9.3017472440282863E-003   9.8464159288770142E-002   0.0000000000000000     
  -9.6178657461581142E-003  0.10526545956128393        0.0000000000000000     
  -1.2560255641400408E-002   7.9145925931216249E-002   0.0000000000000000     
  -1.3074144645960687E-002   8.5460670913858311E-002   0.0000000000000000     
  -1.3571846354961198E-002   9.1936070467956738E-002   0.0000000000000000     
  -1.4053360768401942E-002   9.8572124593511515E-002   0.0000000000000000     
  -1.4518687886282921E-002  0.10536883329052266        0.0000000000000000     
  -1.6921477720427486E-002   7.9289155713123283E-002   0.0000000000000000     
  -1.7585481038098649E-002   8.5606080110276220E-002   0.0000000000000000     
  -1.8231686034372873E-002   9.2081173354294540E-002   0.0000000000000000     
  -1.8860092709250174E-002   9.8714435445178300E-002   0.0000000000000000     
  -1.9470701062730550E-002  0.10550586638292749        0.0000000000000000     
   3.0205425123033727E-005  0.10515969019230478        0.0000000000000000     
   2.6234320310987999E-005  0.11211746927444446        0.0000000000000000     
   2.3109222240591380E-005  0.11921277769795394        0.0000000000000000     
   2.0830130911848990E-005  0.12644561546283326        0.0000000000000000     
   1.9397046324756521E-005  0.13381598256908236        0.0000000000000000     
  -4.7682346423561289E-003  0.10519574519521130        0.0000000000000000     
  -4.9219810602733893E-003  0.11215091470965180        0.0000000000000000     
  -5.0660684584220165E-003  0.11924385223722180        0.0000000000000000     
  -5.2004968368020172E-003  0.12647455777792121        0.0000000000000000     
  -5.3252661954133838E-003  0.13384303133175007        0.0000000000000000     
  -9.6178657461581142E-003  0.10526545956128393        0.0000000000000000     
  -9.9184420641682831E-003  0.11221666147533700        0.0000000000000000     
  -1.0201126254650162E-002  0.11930568182088828        0.0000000000000000     
  -1.0465918317603750E-002  0.12653252059793779        0.0000000000000000     
  -1.0712818253029048E-002  0.13389717780648552        0.0000000000000000     
  -1.4518687886282921E-002  0.10536883329052266        0.0000000000000000     
  -1.4963148691373699E-002  0.11231470957150004        0.0000000000000000     
  -1.5382064166443840E-002  0.11939826644895350        0.0000000000000000     
  -1.5775434311493357E-002  0.12661950392288307        0.0000000000000000     
  -1.6143259126522234E-002  0.13397842199328874        0.0000000000000000     
  -1.9470701062730550E-002  0.10550586638292749        0.0000000000000000     
  -2.0056100941889629E-002  0.11244505899814089        0.0000000000000000     
  -2.0608882193803055E-002  0.11952160612141741        0.0000000000000000     
  -2.1129044818470822E-002  0.12673550775275702        0.0000000000000000     
  -2.1616588815892939E-002  0.13408676389215970        0.0000000000000000     
   1.9397046324756521E-005  0.13381598256908236        0.0000000000000000     
   1.8162788371836949E-005  0.14131028992832742        0.0000000000000000     
   1.6480176945617804E-005  0.14891494845219450        0.0000000000000000     
   1.4349212046094043E-005  0.15662995814068356        0.0000000000000000     
   1.1769893673266914E-005  0.16445531899379467        0.0000000000000000     
  -5.3252661954133838E-003  0.13384303133175007        0.0000000000000000     
  -5.4422986030688708E-003  0.14133534137962001        0.0000000000000000     
  -5.5535161285812252E-003  0.14893755640244261        0.0000000000000000     
  -5.6589187719504495E-003  0.15664967640021785        0.0000000000000000     
  -5.7585065331765446E-003  0.16447170137294570        0.0000000000000000     
  -1.0712818253029048E-002  0.13389717780648552        0.0000000000000000     
  -1.0944726276211680E-002  0.14138563189302344        0.0000000000000000     
  -1.1164542602437275E-002  0.14898386130404354        0.0000000000000000     
  -1.1372267231705830E-002  0.15669186603954585        0.0000000000000000     
  -1.1567900164017351E-002  0.16450964609953028        0.0000000000000000     
  -1.6143259126522234E-002  0.13397842199328874        0.0000000000000000     
  -1.6489120231056590E-002  0.14146116146853779        0.0000000000000000     
  -1.6816599244622525E-002  0.14905386315699737        0.0000000000000000     
  -1.7125696167220053E-002  0.15675652705866758        0.0000000000000000     
  -1.7416410998849156E-002  0.16456915317354837        0.0000000000000000     
  -2.1616588815892939E-002  0.13408676389215970        0.0000000000000000     
  -2.2075480467603600E-002  0.14156193010616294        0.0000000000000000     
  -2.2509686055136986E-002  0.14914756196130402        0.0000000000000000     
  -2.2919205578493102E-002  0.15684365945758305        0.0000000000000000     
  -2.3304039037671954E-002  0.16465022259499998        0.0000000000000000     
   1.1769893673266914E-005  0.16445531899379467        0.0000000000000000     
   9.2588165986448763E-006  0.17238009239064975        0.0000000000000000     
   7.3325755937294484E-006  0.18039333971037075        0.0000000000000000     
   5.9911706585262688E-006  0.18849506095295770        0.0000000000000000     
   5.2346017930296994E-006  0.19668525611841062        0.0000000000000000     
  -5.7585065331765446E-003  0.16447170137294570        0.0000000000000000     
  -5.8507578029625296E-003  0.17239326182081705        0.0000000000000000     
  -5.9341509720114314E-003  0.18040398824402260        0.0000000000000000     
  -6.0086860403232526E-003  0.18850388064256235        0.0000000000000000     
  -6.0743630078979862E-003  0.19669293901643631        0.0000000000000000     
  -1.1567900164017351E-002  0.16450964609953028        0.0000000000000000     
  -1.1749118920986125E-002  0.17242703208819271        0.0000000000000000     
  -1.1913601024226454E-002  0.18043385460972877        0.0000000000000000     
  -1.2061346473738339E-002  0.18853011366413855        0.0000000000000000     
  -1.2192355269521777E-002  0.19671580925142204        0.0000000000000000     
  -1.7416410998849156E-002  0.16456915317354837        0.0000000000000000     
  -1.7685824537472153E-002  0.17248140319277666        0.0000000000000000     
  -1.7931017581051343E-002  0.18048293880748933        0.0000000000000000     
  -1.8151990129586740E-002  0.18857376001768641        0.0000000000000000     
  -1.8348742183078331E-002  0.19675386682336787        0.0000000000000000     
  -2.3304039037671954E-002  0.16465022259499998        0.0000000000000000     
  -2.3660874652420602E-002  0.17255637513456898        0.0000000000000000     
  -2.3986400642486097E-002  0.18055124083730428        0.0000000000000000     
  -2.4280617007868453E-002  0.18863481970320586        0.0000000000000000     
  -2.4543523748567660E-002  0.19680711173227375        0.0000000000000000     
   5.2346017930296994E-006  0.19668525611841062        0.0000000000000000     
   4.7758338042722028E-006  0.20494471864301103        0.0000000000000000     
   4.3278314992789774E-006  0.21325424196304058        0.0000000000000000     
   3.8905948780511344E-006  0.22161382607849930        0.0000000000000000     
   3.4641239405898937E-006  0.23002347098938714        0.0000000000000000     
  -6.0743630078979862E-003  0.19669293901643631        0.0000000000000000     
  -6.1320440059839890E-003  0.20495177445591678        0.0000000000000000     
  -6.1825911658296021E-003  0.21326099805127594        0.0000000000000000     
  -6.2260044874348280E-003  0.22162060980251383        0.0000000000000000     
  -6.2622839707996668E-003  0.23003060970963049        0.0000000000000000     
  -1.2192355269521777E-002  0.19671580925142204        0.0000000000000000     
  -1.2307808242383278E-002  0.20497207047605812        0.0000000000000000     
  -1.2408886223129365E-002  0.21328002644252564        0.0000000000000000     
  -1.2495589211760035E-002  0.22163967715082464        0.0000000000000000     
  -1.2567917208275286E-002  0.23005102260095503        0.0000000000000000     
  -1.8348742183078331E-002  0.19675386682336787        0.0000000000000000     
  -1.8522516875393597E-002  0.20500560670343515        0.0000000000000000     
  -1.8674557340400005E-002  0.21331132713678974        0.0000000000000000     
  -1.8804863578097561E-002  0.22167102812343165        0.0000000000000000     
  -1.8913435588486262E-002  0.23008470966336081        0.0000000000000000     
  -2.4543523748567660E-002  0.19680711173227375        0.0000000000000000     
  -2.4776169905014949E-002  0.20505238313804786        0.0000000000000000     
  -2.4979604517641533E-002  0.21335490013406827        0.0000000000000000     
  -2.5153827586447415E-002  0.22171466272033491        0.0000000000000000     
  -2.5298839111432599E-002  0.23013167089684777        0.0000000000000000     
   3.4641239405898937E-006  0.23002347098938714        0.0000000000000000     
   3.0872786022529547E-006  0.23845214506241066        0.0000000000000000     
   2.7989187783999687E-006  0.24686881666427649        0.0000000000000000     
   2.5990444690303393E-006  0.25527348579498454        0.0000000000000000     
   2.4876556741432534E-006  0.26366615245453495        0.0000000000000000     
  -6.2622839707996668E-003  0.23003060970963049        0.0000000000000000     
  -6.2927171613240511E-003  0.23846028299919503        0.0000000000000000     
  -6.3185916044079188E-003  0.24687891489777672        0.0000000000000000     
  -6.3399073000512639E-003  0.25528650540537551        0.0000000000000000     
  -6.3566642482540906E-003  0.26368305452199142        0.0000000000000000     
  -1.2567917208275286E-002  0.23005102260095503        0.0000000000000000     
  -1.2628653346116674E-002  0.23848406560395366        0.0000000000000000     
  -1.2680580758725753E-002  0.24690880897085732        0.0000000000000000     
  -1.2723699446102524E-002  0.25532525270166589        0.0000000000000000     
  -1.2758009408246986E-002  0.26373339679637953        0.0000000000000000     
  -1.8913435588486262E-002  0.23008470966336081        0.0000000000000000     
  -1.9004721275775613E-002  0.23852349287668662        0.0000000000000000     
  -1.9083168544175102E-002  0.24695849888351820        0.0000000000000000     
  -1.9148777393684754E-002  0.25538972768385576        0.0000000000000000     
  -1.9201547824304548E-002  0.26381717927769910        0.0000000000000000     
  -2.5298839111432599E-002  0.23013167089684777        0.0000000000000000     
  -2.5420920950300862E-002  0.23857856481739370        0.0000000000000000     
  -2.5526354960755972E-002  0.24702798463575948        0.0000000000000000     
  -2.5615141142797945E-002  0.25547993035194499        0.0000000000000000     
  -2.5687279496426775E-002  0.26393440196595047        0.0000000000000000     
   2.4876556741432534E-006  0.26366615245453495        0.0000000000000000     
   2.4138915603591146E-006  0.27198656803189608        0.0000000000000000     
   2.3268912942975674E-006  0.28017448391603644        0.0000000000000000     
   2.2266548759585305E-006  0.28822990010695582        0.0000000000000000     
   2.1131823053407300E-006  0.29615281660465453        0.0000000000000000     
  -6.3566642482540906E-003  0.26368305452199142        0.0000000000000000     
  -6.3727805375199797E-003  0.27200860029360363        0.0000000000000000     
  -6.3921742563525161E-003  0.28020318076619127        0.0000000000000000     
  -6.4148454047517007E-003  0.28826679593975446        0.0000000000000000     
  -6.4407939827175308E-003  0.29619944581429319        0.0000000000000000     
  -1.2758009408246986E-002  0.26373339679637953        0.0000000000000000     
  -1.2790745420955200E-002  0.27207421839941648        0.0000000000000000     
  -1.2829142260023229E-002  0.28028869465519524        0.0000000000000000     
  -1.2873199925451068E-002  0.28837682556371591        0.0000000000000000     
  -1.2922918417238725E-002  0.29633861112497834        0.0000000000000000     
  -1.9201547824304548E-002  0.26381717927769910        0.0000000000000000     
  -1.9251480758745308E-002  0.27218342234933462        0.0000000000000000     
  -1.9308577119717840E-002  0.28043102558304828        0.0000000000000000     
  -1.9372836907222152E-002  0.28855998897883994        0.0000000000000000     
  -1.9444260121258244E-002  0.29657031253670990        0.0000000000000000     
  -2.5687279496426775E-002  0.26393440196595047        0.0000000000000000     
  -2.5754986550890296E-002  0.27233621214335801        0.0000000000000000     
  -2.5830478835436356E-002  0.28063017354975012        0.0000000000000000     
  -2.5913756350064949E-002  0.28881628618512684        0.0000000000000000     
  -2.6004819094776081E-002  0.29689455004948795        0.0000000000000000     
  -1.3932996371876115E-002   5.5821028738095080E-002   0.0000000000000000     
  -1.4735780103090124E-002   6.1409954309379747E-002   0.0000000000000000     
  -1.5501454904920020E-002   6.7184283995645994E-002   0.0000000000000000     
  -1.6230020777365812E-002   7.3144017796893848E-002   0.0000000000000000     
  -1.6921477720427486E-002   7.9289155713123283E-002   0.0000000000000000     
  -1.7764447791768875E-002   5.5936200191787230E-002   0.0000000000000000     
  -1.8714854283458624E-002   6.1556964242121703E-002   0.0000000000000000     
  -1.9628760648957227E-002   6.7354614334131827E-002   0.0000000000000000     
  -2.0506166888264680E-002   7.3329150467817572E-002   0.0000000000000000     
  -2.1347073001380980E-002   7.9480572643178968E-002   0.0000000000000000     
  -2.1557912685768153E-002   5.6189573344454485E-002   0.0000000000000000     
  -2.2691156295183760E-002   6.1815596619326597E-002   0.0000000000000000     
  -2.3780287043225601E-002   6.7615824226563329E-002   0.0000000000000000     
  -2.4825304929893672E-002   7.3590256166164644E-002   0.0000000000000000     
  -2.5826209955187984E-002   7.9738892438130593E-002   0.0000000000000000     
  -2.5313391053873941E-002   5.6581148196096852E-002   0.0000000000000000     
  -2.6664686138265524E-002   6.2185851440994422E-002   0.0000000000000000     
  -2.7956034087725144E-002   6.7967913672940514E-002   0.0000000000000000     
  -2.9187434902252805E-002   7.3927334891935093E-002   0.0000000000000000     
  -3.0358888581848504E-002   8.0064115097978159E-002   0.0000000000000000     
  -2.9030882896086248E-002   5.7110924746714316E-002   0.0000000000000000     
  -3.0635443812703923E-002   6.2667728707125170E-002   0.0000000000000000     
  -3.2156001782455861E-002   6.8410882673263354E-002   0.0000000000000000     
  -3.3592556805342066E-002   7.4340386645128848E-002   0.0000000000000000     
  -3.4945108881362527E-002   8.0456240622721664E-002   0.0000000000000000     
  -1.6921477720427486E-002   7.9289155713123283E-002   0.0000000000000000     
  -1.7585481038098649E-002   8.5606080110276220E-002   0.0000000000000000     
  -1.8231686034372873E-002   9.2081173354294540E-002   0.0000000000000000     
  -1.8860092709250174E-002   9.8714435445178300E-002   0.0000000000000000     
  -1.9470701062730550E-002  0.10550586638292749        0.0000000000000000     
  -2.1347073001380980E-002   7.9480572643178968E-002   0.0000000000000000     
  -2.2160118754898008E-002   8.5798236973814446E-002   0.0000000000000000     
  -2.2953943915407615E-002   9.2271499573322494E-002   0.0000000000000000     
  -2.3728548482909811E-002   9.8900360441703097E-002   0.0000000000000000     
  -2.4483932457404593E-002  0.10568481957895627        0.0000000000000000     
  -2.5826209955187984E-002   7.9738892438130593E-002   0.0000000000000000     
  -2.6794233857207354E-002   8.6051637590550303E-002   0.0000000000000000     
  -2.7740608374050589E-002   9.2518396171512918E-002   0.0000000000000000     
  -2.8665333505717688E-002   9.9139168181018464E-002   0.0000000000000000     
  -2.9568409252208661E-002  0.10591395361906694        0.0000000000000000     
  -3.0358888581848504E-002   8.0064115097978159E-002   0.0000000000000000     
  -3.1487826345026684E-002   8.6366281960483723E-002   0.0000000000000000     
  -3.2591679410301777E-002   9.2821863148865799E-002   0.0000000000000000     
  -3.3670447777673806E-002   9.9430858663124386E-002   0.0000000000000000     
  -3.4724131447142745E-002  0.10619326850325946        0.0000000000000000     
  -3.4945108881362527E-002   8.0456240622721664E-002   0.0000000000000000     
  -3.6240896218355988E-002   8.6742170083614761E-002   0.0000000000000000     
  -3.7507157024161207E-002   9.3181900505381179E-002   0.0000000000000000     
  -3.8743891298778151E-002   9.9775431888020849E-002   0.0000000000000000     
  -3.9951099042206853E-002  0.10652276423153383        0.0000000000000000     
  -1.9470701062730550E-002  0.10550586638292749        0.0000000000000000     
  -2.0056100941889629E-002  0.11244505899814089        0.0000000000000000     
  -2.0608882193803055E-002  0.11952160612141741        0.0000000000000000     
  -2.1129044818470822E-002  0.12673550775275702        0.0000000000000000     
  -2.1616588815892939E-002  0.13408676389215970        0.0000000000000000     
  -2.4483932457404593E-002  0.10568481957895627        0.0000000000000000     
  -2.5209997336701175E-002  0.11261554298538981        0.0000000000000000     
  -2.5896644618608754E-002  0.11968319666131148        0.0000000000000000     
  -2.6543874303127355E-002  0.12688778060672132        0.0000000000000000     
  -2.7151686390256950E-002  0.13422929482161930        0.0000000000000000     
  -2.9568409252208661E-002  0.10591395361906694        0.0000000000000000     
  -3.0437536396793426E-002  0.11283399476337697        0.0000000000000000     
  -3.1260415722741915E-002  0.11989053389166722        0.0000000000000000     
  -3.2037047230054114E-002  0.12708357100393766        0.0000000000000000     
  -3.2767430918730044E-002  0.13441310610018833        0.0000000000000000     
  -3.4724131447142745E-002  0.10619326850325946        0.0000000000000000     
  -3.5738718122166391E-002  0.11310041433210243        0.0000000000000000     
  -3.6700195506202522E-002  0.12014361781248462        0.0000000000000000     
  -3.7608563599251119E-002  0.12732287894440608        0.0000000000000000     
  -3.8463822401312207E-002  0.13463819772786681        0.0000000000000000     
  -3.9951099042206853E-002  0.10652276423153383        0.0000000000000000     
  -4.1113542512820067E-002  0.11341480169156612        0.0000000000000000     
  -4.2215983968990574E-002  0.12044244842376368        0.0000000000000000     
  -4.3258423410718373E-002  0.12760570442812655        0.0000000000000000     
  -4.4240860838003458E-002  0.13490456970465473        0.0000000000000000     
  -2.1616588815892939E-002  0.13408676389215970        0.0000000000000000     
  -2.2075480467603600E-002  0.14156193010616294        0.0000000000000000     
  -2.2509686055136986E-002  0.14914756196130402        0.0000000000000000     
  -2.2919205578493102E-002  0.15684365945758305        0.0000000000000000     
  -2.3304039037671954E-002  0.16465022259499998        0.0000000000000000     
  -2.7151686390256950E-002  0.13422929482161930        0.0000000000000000     
  -2.7724328834916347E-002  0.14169475508675777        0.0000000000000000     
  -2.8266049592024341E-002  0.14927117718288901        0.0000000000000000     
  -2.8776848661580926E-002  0.15695856111001305        0.0000000000000000     
  -2.9256726043586100E-002  0.16475690686812985        0.0000000000000000     
  -3.2767430918730044E-002  0.13441310610018833        0.0000000000000000     
  -3.3456187182058499E-002  0.14186645369118106        0.0000000000000000     
  -3.4107936413328301E-002  0.14943092828767771        0.0000000000000000     
  -3.4722678612539450E-002  0.15710652988967827        0.0000000000000000     
  -3.5300413779691932E-002  0.16489325849718278        0.0000000000000000     
  -3.8463822401312207E-002  0.13463819772786681        0.0000000000000000     
  -3.9271055509030026E-002  0.14207702591943283        0.0000000000000000     
  -4.0035346519048852E-002  0.14962681527567015        0.0000000000000000     
  -4.0756695431368659E-002  0.15728756579657879        0.0000000000000000     
  -4.1435102245989473E-002  0.16505927748215879        0.0000000000000000     
  -4.4240860838003458E-002  0.13490456970465473        0.0000000000000000     
  -4.5168933815830960E-002  0.14232647177151303        0.0000000000000000     
  -4.6048279909186002E-002  0.14985883814686635        0.0000000000000000     
  -4.6878899118068577E-002  0.15750166883071459        0.0000000000000000     
  -4.7660791442478687E-002  0.16525496382305785        0.0000000000000000     
  -2.3304039037671954E-002  0.16465022259499998        0.0000000000000000     
  -2.3660874652420602E-002  0.17255637513456898        0.0000000000000000     
  -2.3986400642486097E-002  0.18055124083730428        0.0000000000000000     
  -2.4280617007868453E-002  0.18863481970320586        0.0000000000000000     
  -2.4543523748567660E-002  0.19680711173227375        0.0000000000000000     
  -2.9256726043586100E-002  0.16475690686812985        0.0000000000000000     
  -2.9702117055099408E-002  0.17265477373417407        0.0000000000000000     
  -3.0109457013180383E-002  0.18064072098508027        0.0000000000000000     
  -3.0478745917829033E-002  0.18871474862084850        0.0000000000000000     
  -3.0809983769045354E-002  0.19687685664147872        0.0000000000000000     
  -3.5300413779691932E-002  0.16489325849718278        0.0000000000000000     
  -3.5837399534776500E-002  0.17277942481219635        0.0000000000000000     
  -3.6329893497783865E-002  0.18075333953672409        0.0000000000000000     
  -3.6777895668714020E-002  0.18881500267076595        0.0000000000000000     
  -3.7181406047566985E-002  0.19696441421432198        0.0000000000000000     
  -4.1435102245989473E-002  0.16505927748215879        0.0000000000000000     
  -4.2066722091451896E-002  0.17293032836863581        0.0000000000000000     
  -4.2647710096296546E-002  0.18088909649223561        0.0000000000000000     
  -4.3178066260523444E-002  0.18893558185295814        0.0000000000000000     
  -4.3657790584132578E-002  0.19706978445080342        0.0000000000000000     
  -4.7660791442478687E-002  0.16525496382305785        0.0000000000000000     
  -4.8390084725125564E-002  0.17310748440349250        0.0000000000000000     
  -4.9062906808718429E-002  0.18104799185161491        0.0000000000000000     
  -4.9679257693257262E-002  0.18907648616742515        0.0000000000000000     
  -5.0239137378742110E-002  0.19719296735092312        0.0000000000000000     
  -2.4543523748567660E-002  0.19680711173227375        0.0000000000000000     
  -2.4776169905014949E-002  0.20505238313804786        0.0000000000000000     
  -2.4979604517641533E-002  0.21335490013406827        0.0000000000000000     
  -2.5153827586447415E-002  0.22171466272033491        0.0000000000000000     
  -2.5298839111432599E-002  0.23013167089684777        0.0000000000000000     
  -3.0809983769045354E-002  0.19687685664147872        0.0000000000000000     
  -3.1103793408124733E-002  0.20511348666509294        0.0000000000000000     
  -3.1360797676362566E-002  0.21341108030981312        0.0000000000000000     
  -3.1580996573758860E-002  0.22176963757563933        0.0000000000000000     
  -3.1764390100313601E-002  0.23018915846257149        0.0000000000000000     
  -3.7181406047566985E-002  0.19696441421432198        0.0000000000000000     
  -3.7540413461600357E-002  0.20519000416976710        0.0000000000000000     
  -3.7854906738071750E-002  0.21348020253947642        0.0000000000000000     
  -3.8124885876981152E-002  0.22183500932344988        0.0000000000000000     
  -3.8350350878328582E-002  0.23025442452168746        0.0000000000000000     
  -4.3657790584132578E-002  0.19706978445080342        0.0000000000000000     
  -4.4086030065441817E-002  0.20528193565207045        0.0000000000000000     
  -4.4461931702769068E-002  0.21356226682305812        0.0000000000000000     
  -4.4785495496114290E-002  0.22191077796376657        0.0000000000000000     
  -4.5056721445477524E-002  0.23032746907419571        0.0000000000000000     
  -5.0239137378742110E-002  0.19719296735092312        0.0000000000000000     
  -5.0740643219649127E-002  0.20538928111200286        0.0000000000000000     
  -5.1181872570454534E-002  0.21365727316055833        0.0000000000000000     
  -5.1562825431158289E-002  0.22199694349658941        0.0000000000000000     
  -5.1883501801760434E-002  0.23040829212009617        0.0000000000000000     
  -2.5298839111432599E-002  0.23013167089684777        0.0000000000000000     
  -2.5420920950300862E-002  0.23857856481739370        0.0000000000000000     
  -2.5526354960755972E-002  0.24702798463575948        0.0000000000000000     
  -2.5615141142797945E-002  0.25547993035194499        0.0000000000000000     
  -2.5687279496426775E-002  0.26393440196595047        0.0000000000000000     
  -3.1764390100313601E-002  0.23018915846257149        0.0000000000000000     
  -3.1918799711408131E-002  0.23864475917445857        0.0000000000000000     
  -3.2052046862423786E-002  0.24711155591514961        0.0000000000000000     
  -3.2164131553360571E-002  0.25558954868464462        0.0000000000000000     
  -3.2255053784218481E-002  0.26407873748294342        0.0000000000000000     
  -3.8350350878328582E-002  0.23025442452168746        0.0000000000000000     
  -3.8539904900813146E-002  0.23871755369626471        0.0000000000000000     
  -3.8702151103133978E-002  0.24720350240925731        0.0000000000000000     
  -3.8837089485291097E-002  0.25571227066066504        0.0000000000000000     
  -3.8944720047284477E-002  0.26424385845048820        0.0000000000000000     
  -4.5056721445477524E-002  0.23032746907419571        0.0000000000000000     
  -4.5284236518515888E-002  0.23879694838281212        0.0000000000000000     
  -4.5476667682886551E-002  0.24730382411808241        0.0000000000000000     
  -4.5634014938589512E-002  0.25584809628000665        0.0000000000000000     
  -4.5756278285624764E-002  0.26442976486858472        0.0000000000000000     
  -5.1883501801760434E-002  0.23040829212009617        0.0000000000000000     
  -5.2151794564516366E-002  0.23888294323410075        0.0000000000000000     
  -5.2375596601681507E-002  0.24741252104162506        0.0000000000000000     
  -5.2554907913255823E-002  0.25599702554266912        0.0000000000000000     
  -5.2689728499239349E-002  0.26463645673723302        0.0000000000000000     
  -2.5687279496426775E-002  0.26393440196595047        0.0000000000000000     
  -2.5754986550890296E-002  0.27233621214335801        0.0000000000000000     
  -2.5830478835436356E-002  0.28063017354975012        0.0000000000000000     
  -2.5913756350064949E-002  0.28881628618512684        0.0000000000000000     
  -2.6004819094776081E-002  0.29689455004948795        0.0000000000000000     
  -3.2255053784218481E-002  0.26407873748294342        0.0000000000000000     
  -3.2339651922318330E-002  0.27252623682700566        0.0000000000000000     
  -3.2432764334980962E-002  0.28087916123379048        0.0000000000000000     
  -3.2534391022206351E-002  0.28913751070329796        0.0000000000000000     
  -3.2644531983994522E-002  0.29730128523552823        0.0000000000000000     
  -3.8944720047284477E-002  0.26424385845048820        0.0000000000000000     
  -3.9043865997957575E-002  0.27274714544579615        0.0000000000000000     
  -3.9153350546153827E-002  0.28117101131365846        0.0000000000000000     
  -3.9273173691873255E-002  0.28951545605407519        0.0000000000000000     
  -3.9403335435115858E-002  0.29778047966704629        0.0000000000000000     
  -4.5756278285624764E-002  0.26442976486858472        0.0000000000000000     
  -4.5867628777808027E-002  0.27299893799972957        0.0000000000000000     
  -4.5992237468954991E-002  0.28150572378935412        0.0000000000000000     
  -4.6130104359065664E-002  0.28995012223745836        0.0000000000000000     
  -4.6281229448140060E-002  0.29833213334404229        0.0000000000000000     
  -5.2689728499239349E-002  0.26463645673723302        0.0000000000000000     
  -5.2810940261869672E-002  0.27328161448880600        0.0000000000000000     
  -5.2949425103384427E-002  0.28188329866087747        0.0000000000000000     
  -5.3105183023783573E-002  0.29044150925344753        0.0000000000000000     
  -5.3278214023067157E-002  0.29895624626651612        0.0000000000000000     
  -2.9030882896086248E-002   5.7110924746714316E-002   0.0000000000000000     
  -3.0635443812703923E-002   6.2667728707125170E-002   0.0000000000000000     
  -3.2156001782455861E-002   6.8410882673263354E-002   0.0000000000000000     
  -3.3592556805342066E-002   7.4340386645128848E-002   0.0000000000000000     
  -3.4945108881362527E-002   8.0456240622721664E-002   0.0000000000000000     
  -3.2846578588362603E-002   5.7710878024757981E-002   0.0000000000000000     
  -3.4704015354770995E-002   6.3217477280516035E-002   0.0000000000000000     
  -3.6454282425841041E-002   6.8918922300750904E-002   0.0000000000000000     
  -3.8097379801572726E-002   7.4815213085462615E-002   0.0000000000000000     
  -3.9633307481966057E-002   8.0906349634651126E-002   0.0000000000000000     
  -3.6896668506660561E-002   5.8312983058678942E-002   0.0000000000000000     
  -3.8970986800738787E-002   6.3791346023964191E-002   0.0000000000000000     
  -4.0924968316303954E-002   6.9466223628622203E-002   0.0000000000000000     
  -4.2758613053356057E-002   7.5337615872652988E-002   0.0000000000000000     
  -4.4471921011895101E-002   8.1405522756056545E-002   0.0000000000000000     
  -4.1181152650980095E-002   5.8917239848477208E-002   0.0000000000000000     
  -4.3436358150607285E-002   6.4389334937469636E-002   0.0000000000000000     
  -4.5568059453844595E-002   7.0052786656877225E-002   0.0000000000000000     
  -4.7576256560692053E-002   7.5907595006699996E-002   0.0000000000000000     
  -4.9460949471149651E-002   8.1953759986937921E-002   0.0000000000000000     
  -4.5700031021321239E-002   5.9523648394152757E-002   0.0000000000000000     
  -4.8100129404376496E-002   6.5011444021032358E-002   0.0000000000000000     
  -5.0383555838463004E-002   7.0678611385515983E-002   0.0000000000000000     
  -5.2550310323580735E-002   7.6525150487603610E-002   0.0000000000000000     
  -5.4600392859729702E-002   8.2551061327295283E-002   0.0000000000000000     
  -3.4945108881362527E-002   8.0456240622721664E-002   0.0000000000000000     
  -3.6240896218355988E-002   8.6742170083614761E-002   0.0000000000000000     
  -3.7507157024161207E-002   9.3181900505381179E-002   0.0000000000000000     
  -3.8743891298778151E-002   9.9775431888020849E-002   0.0000000000000000     
  -3.9951099042206853E-002  0.10652276423153383        0.0000000000000000     
  -3.9633307481966057E-002   8.0906349634651126E-002   0.0000000000000000     
  -4.1098441136498284E-002   8.7172289442317613E-002   0.0000000000000000     
  -4.2529156434646637E-002   9.3592990002463183E-002   0.0000000000000000     
  -4.3925453376411093E-002  0.10016845131508788        0.0000000000000000     
  -4.5287331961791702E-002  0.10689867338019170        0.0000000000000000     
  -4.4471921011895101E-002   8.1405522756056545E-002   0.0000000000000000     
  -4.6105458758756553E-002   8.7649627518966391E-002   0.0000000000000000     
  -4.7699792860775837E-002   9.4049613401516019E-002   0.0000000000000000     
  -4.9254923317953003E-002  0.10060548040370546        0.0000000000000000     
  -5.0770850130288016E-002  0.10731722852553469        0.0000000000000000     
  -4.9460949471149651E-002   8.1953759986937921E-002   0.0000000000000000     
  -5.1261949085130765E-002   8.8174184313561124E-002   0.0000000000000000     
  -5.3019066302548844E-002   9.4551770702539673E-002   0.0000000000000000     
  -5.4732301123403854E-002  0.10108651915387354        0.0000000000000000     
  -5.6401653547695794E-002  0.10777842966756278        0.0000000000000000     
  -5.4600392859729702E-002   8.2551061327295283E-002   0.0000000000000000     
  -5.6567912115620983E-002   8.8745959826101825E-002   0.0000000000000000     
  -5.8486976759965628E-002   9.5099461905534144E-002   0.0000000000000000     
  -6.0357586792763658E-002  0.10161156756559218        0.0000000000000000     
  -6.2179742214015052E-002  0.10828227680627597        0.0000000000000000     
  -3.9951099042206853E-002  0.10652276423153383        0.0000000000000000     
  -4.1113542512820067E-002  0.11341480169156612        0.0000000000000000     
  -4.2215983968990574E-002  0.12044244842376368        0.0000000000000000     
  -4.3258423410718373E-002  0.12760570442812655        0.0000000000000000     
  -4.4240860838003458E-002  0.13490456970465473        0.0000000000000000     
  -4.5287331961791702E-002  0.10689867338019170        0.0000000000000000     
  -4.6598516393273018E-002  0.11377385185534154        0.0000000000000000     
  -4.7842730873339678E-002  0.12078418239810440        0.0000000000000000     
  -4.9019975401991663E-002  0.12792966500848021        0.0000000000000000     
  -5.0130249979228984E-002  0.13521029968646903        0.0000000000000000     
  -5.0770850130288016E-002  0.10731722852553469        0.0000000000000000     
  -5.2230146588043848E-002  0.11417425983700226        0.0000000000000000     
  -5.3615385981483445E-002  0.12116597640810679        0.0000000000000000     
  -5.4926568310606820E-002  0.12829237823884823        0.0000000000000000     
  -5.6163693575413967E-002  0.13555346532922657        0.0000000000000000     
  -5.6401653547695794E-002  0.10777842966756278        0.0000000000000000     
  -5.8008433097132522E-002  0.11461602563654824        0.0000000000000000     
  -5.9533949293421873E-002  0.12158783045377083        0.0000000000000000     
  -6.0978202136563825E-002  0.12869384411923057        0.0000000000000000     
  -6.2341191626558407E-002  0.13593406663292745        0.0000000000000000     
  -6.2179742214015052E-002  0.10828227680627597        0.0000000000000000     
  -6.3933375920539062E-002  0.11509914925397947        0.0000000000000000     
  -6.5598420809154956E-002  0.12204974453509657        0.0000000000000000     
  -6.7174876879862719E-002  0.12913406264962729        0.0000000000000000     
  -6.8662744132662323E-002  0.13635210359757163        0.0000000000000000     
  -4.4240860838003458E-002  0.13490456970465473        0.0000000000000000     
  -4.5168933815830960E-002  0.14232647177151303        0.0000000000000000     
  -4.6048279909186002E-002  0.14985883814686635        0.0000000000000000     
  -4.6878899118068577E-002  0.15750166883071459        0.0000000000000000     
  -4.7660791442478687E-002  0.16525496382305785        0.0000000000000000     
  -5.0130249979228984E-002  0.13521029968646903        0.0000000000000000     
  -5.1180010777296212E-002  0.14261343759687076        0.0000000000000000     
  -5.2175713968437926E-002  0.15012642990448555        0.0000000000000000     
  -5.3117359552654127E-002  0.15774927660931323        0.0000000000000000     
  -5.4004947529944829E-002  0.16548197771135395        0.0000000000000000     
  -5.6163693575413967E-002  0.13555346532922657        0.0000000000000000     
  -5.7334475068260692E-002  0.14293656974495511        0.0000000000000000     
  -5.8446626081502778E-002  0.15042902355174700        0.0000000000000000     
  -5.9500146615140255E-002  0.15803082674960237        0.0000000000000000     
  -6.0495036669173094E-002  0.16574197933852108        0.0000000000000000     
  -6.2341191626558407E-002  0.13593406663292745        0.0000000000000000     
  -6.3632326688724400E-002  0.14329586821576601        0.0000000000000000     
  -6.4861016248380574E-002  0.15076661908865083        0.0000000000000000     
  -6.6027260305526927E-002  0.15834631925158191        0.0000000000000000     
  -6.7131058860163503E-002  0.16603496870455922        0.0000000000000000     
  -6.8662744132662323E-002  0.13635210359757163        0.0000000000000000     
  -7.0073565638687343E-002  0.14369133300930356        0.0000000000000000     
  -7.1418884469071311E-002  0.15113921651519693        0.0000000000000000     
  -7.2698700623814214E-002  0.15869575411525191        0.0000000000000000     
  -7.3913014102916036E-002  0.16636094580946839        0.0000000000000000     
  -4.7660791442478687E-002  0.16525496382305785        0.0000000000000000     
  -4.8390084725125564E-002  0.17310748440349250        0.0000000000000000     
  -4.9062906808718429E-002  0.18104799185161491        0.0000000000000000     
  -4.9679257693257262E-002  0.18907648616742515        0.0000000000000000     
  -5.0239137378742110E-002  0.19719296735092312        0.0000000000000000     
  -5.4004947529944829E-002  0.16548197771135395        0.0000000000000000     
  -5.4834505715181489E-002  0.17331382008583732        0.0000000000000000     
  -5.5602061923235586E-002  0.18123409060799314        0.0000000000000000     
  -5.6307616154107135E-002  0.18924278927782132        0.0000000000000000     
  -5.6951168407796120E-002  0.19733991609532192        0.0000000000000000     
  -6.0495036669173094E-002  0.16574197933852108        0.0000000000000000     
  -6.1427003341003622E-002  0.17355226258474135        0.0000000000000000     
  -6.2291753728034138E-002  0.18145145775450136        0.0000000000000000     
  -6.3089287830264643E-002  0.18943956484780111        0.0000000000000000     
  -6.3819605647695135E-002  0.19751658386464060        0.0000000000000000     
  -6.7131058860163503E-002  0.16603496870455922        0.0000000000000000     
  -6.8167577602591956E-002  0.17382281190020454        0.0000000000000000     
  -6.9131982223114050E-002  0.18170009329113962        0.0000000000000000     
  -7.0024272721729786E-002  0.18966681287736450        0.0000000000000000     
  -7.0844449098439150E-002  0.19772297065887914        0.0000000000000000     
  -7.3913014102916036E-002  0.16636094580946839        0.0000000000000000     
  -7.5056228499946517E-002  0.17412546803222687        0.0000000000000000     
  -7.6122747408475369E-002  0.18197999721790792        0.0000000000000000     
  -7.7112570828502564E-002  0.18992453336651149        0.0000000000000000     
  -7.8025698760028156E-002  0.19795907647803762        0.0000000000000000     
  -5.0239137378742110E-002  0.19719296735092312        0.0000000000000000     
  -5.0740643219649127E-002  0.20538928111200286        0.0000000000000000     
  -5.1181872570454534E-002  0.21365727316055833        0.0000000000000000     
  -5.1562825431158289E-002  0.22199694349658941        0.0000000000000000     
  -5.1883501801760434E-002  0.23040829212009617        0.0000000000000000     
  -5.6951168407796120E-002  0.19733991609532192        0.0000000000000000     
  -5.7530193081601878E-002  0.20551850125691501        0.0000000000000000     
  -5.8042164572823726E-002  0.21377157495902063        0.0000000000000000     
  -5.8487082881461670E-002  0.22209913720163890        0.0000000000000000     
  -5.8864948007515676E-002  0.23050118798476973        0.0000000000000000     
  -6.3819605647695135E-002  0.19751658386464060        0.0000000000000000     
  -6.4480619808679654E-002  0.20567605679415735        0.0000000000000000     
  -6.5070242941572237E-002  0.21391152562548904        0.0000000000000000     
  -6.5588475046372899E-002  0.22222299035863555        0.0000000000000000     
  -6.6035316123081597E-002  0.23061045099359703        0.0000000000000000     
  -7.0844449098439150E-002  0.19772297065887914        0.0000000000000000     
  -7.1591923400882454E-002  0.20586194772372998        0.0000000000000000     
  -7.2266107676700081E-002  0.21407712515996341        0.0000000000000000     
  -7.2867001925891989E-002  0.22236850296757943        0.0000000000000000     
  -7.3394606148458205E-002  0.23073608114657806        0.0000000000000000     
  -7.8025698760028156E-002  0.19795907647803762        0.0000000000000000     
  -7.8864103858210299E-002  0.20607617404563289        0.0000000000000000     
  -7.9629758778207244E-002  0.21426837356244385        0.0000000000000000     
  -8.0322663520018975E-002  0.22253567502847046        0.0000000000000000     
  -8.0942818083645479E-002  0.23087807844371286        0.0000000000000000     
  -5.1883501801760434E-002  0.23040829212009617        0.0000000000000000     
  -5.2151794564516366E-002  0.23888294323410075        0.0000000000000000     
  -5.2375596601681507E-002  0.24741252104162506        0.0000000000000000     
  -5.2554907913255823E-002  0.25599702554266912        0.0000000000000000     
  -5.2689728499239349E-002  0.26463645673723302        0.0000000000000000     
  -5.8864948007515676E-002  0.23050118798476973        0.0000000000000000     
  -5.9181644450638768E-002  0.23897700174105405        0.0000000000000000     
  -5.9443056710483895E-002  0.24752585290313264        0.0000000000000000     
  -5.9649184787051050E-002  0.25614774147100561        0.0000000000000000     
  -5.9800028680340248E-002  0.26484266744467294        0.0000000000000000     
  -6.6035316123081597E-002  0.23061045099359703        0.0000000000000000     
  -6.6412851588707272E-002  0.23908058739459540        0.0000000000000000     
  -6.6723166860258823E-002  0.24764007942585273        0.0000000000000000     
  -6.6966261937736221E-002  0.25628892708736906        0.0000000000000000     
  -6.7142136821139495E-002  0.26502713037914438        0.0000000000000000     
  -7.3394606148458205E-002  0.23073608114657806        0.0000000000000000     
  -7.3845415978721907E-002  0.23919370019472480        0.0000000000000000     
  -7.4215927051006270E-002  0.24775520060978529        0.0000000000000000     
  -7.4506139365311336E-002  0.25642058239175947        0.0000000000000000     
  -7.4716052921637077E-002  0.26518984554064734        0.0000000000000000     
  -8.0942818083645479E-002  0.23087807844371286        0.0000000000000000     
  -8.1479337620682615E-002  0.23931634014144235        0.0000000000000000     
  -8.1921337282726270E-002  0.24787121645493035        0.0000000000000000     
  -8.2268817069776401E-002  0.25654270738417678        0.0000000000000000     
  -8.2521776981833009E-002  0.26533081292918181        0.0000000000000000     
  -5.2689728499239349E-002  0.26463645673723302        0.0000000000000000     
  -5.2810940261869672E-002  0.27328161448880600        0.0000000000000000     
  -5.2949425103384427E-002  0.28188329866087747        0.0000000000000000     
  -5.3105183023783573E-002  0.29044150925344753        0.0000000000000000     
  -5.3278214023067157E-002  0.29895624626651612        0.0000000000000000     
  -5.9800028680340248E-002  0.26484266744467294        0.0000000000000000     
  -5.9932522945119908E-002  0.27356647058924827        0.0000000000000000     
  -6.0083602136158439E-002  0.28227499066984546        0.0000000000000000     
  -6.0253266253455867E-002  0.29096822768646452        0.0000000000000000     
  -6.0441515297012166E-002  0.29964618163910528        0.0000000000000000     
  -6.7142136821139495E-002  0.26502713037914438        0.0000000000000000     
  -6.7291099322536074E-002  0.27382480197727932        0.0000000000000000     
  -6.7453457253993349E-002  0.28265205455787484        0.0000000000000000     
  -6.7629210615511373E-002  0.29150888812093068        0.0000000000000000     
  -6.7818359407090106E-002  0.30039530266644709        0.0000000000000000     
  -7.4716052921637077E-002  0.26518984554064734        0.0000000000000000     
  -7.4886669394118158E-002  0.27405660865289927        0.0000000000000000     
  -7.5058990456889157E-002  0.28301449032496562        0.0000000000000000     
  -7.5233016109950118E-002  0.29206349055684644        0.0000000000000000     
  -7.5408746353300998E-002  0.30120360934854162        0.0000000000000000     
  -8.2521776981833009E-002  0.26533081292918181        0.0000000000000000     
  -8.2719233159866151E-002  0.27426189061610790        0.0000000000000000     
  -8.2900201744845844E-002  0.28336229797111778        0.0000000000000000     
  -8.3064682736772061E-002  0.29263203499421148        0.0000000000000000     
  -8.3212676135644842E-002  0.30207110168538887        0.0000000000000000     
  -4.5700031021321239E-002   5.9523648394152757E-002   0.0000000000000000     
  -4.8100129404376496E-002   6.5011444021032358E-002   0.0000000000000000     
  -5.0383555838463004E-002   7.0678611385515983E-002   0.0000000000000000     
  -5.2550310323580735E-002   7.6525150487603610E-002   0.0000000000000000     
  -5.4600392859729702E-002   8.2551061327295283E-002   0.0000000000000000     
  -5.0388443642119862E-002   6.0191904297029968E-002   0.0000000000000000     
  -5.2938147764363647E-002   6.5687323495559002E-002   0.0000000000000000     
  -5.5375946612011409E-002   7.1352826210092340E-002   0.0000000000000000     
  -5.7701840185063115E-002   7.7188412440629989E-002   0.0000000000000000     
  -5.9915828483518799E-002   8.3194082187171961E-002   0.0000000000000000     
  -5.5181530537811871E-002   6.0981703158433209E-002   0.0000000000000000     
  -5.7926260432885970E-002   6.6446623581956188E-002   0.0000000000000000     
  -6.0549720916342094E-002   7.2084559526160191E-002   0.0000000000000000     
  -6.3051911988180262E-002   7.7895510991045233E-002   0.0000000000000000     
  -6.5432833648400468E-002   8.3879477976611327E-002   0.0000000000000000     
  -6.0079291708397264E-002   6.1893044978362469E-002   0.0000000000000000     
  -6.3064467409943425E-002   6.7289344280223914E-002   0.0000000000000000     
  -6.5904878751455065E-002   7.2873811333719507E-002   0.0000000000000000     
  -6.8600525732932169E-002   7.8646446138849344E-002   0.0000000000000000     
  -7.1151408354374723E-002   8.4607248695613382E-002   0.0000000000000000     
  -6.5081727153876043E-002   6.2925929756817767E-002   0.0000000000000000     
  -6.8352768695536067E-002   6.8215485590362140E-002   0.0000000000000000     
  -7.1441420117350315E-002   7.3720581632770329E-002   0.0000000000000000     
  -7.4347681419318787E-002   7.9441217884042292E-002   0.0000000000000000     
  -7.7071552601441509E-002   8.5377394344178098E-002   0.0000000000000000     
  -5.4600392859729702E-002   8.2551061327295283E-002   0.0000000000000000     
  -5.6567912115620983E-002   8.8745959826101825E-002   0.0000000000000000     
  -5.8486976759965628E-002   9.5099461905534144E-002   0.0000000000000000     
  -6.0357586792763658E-002  0.10161156756559218        0.0000000000000000     
  -6.2179742214015052E-002  0.10828227680627597        0.0000000000000000     
  -5.9915828483518799E-002   8.3194082187171961E-002   0.0000000000000000     
  -6.2047535389590902E-002   8.9364389667278513E-002   0.0000000000000000     
  -6.4126584785491866E-002   9.5693889098509927E-002   0.0000000000000000     
  -6.6152976671221692E-002  0.10218258048086622        0.0000000000000000     
  -6.8126711046780378E-002  0.10883046381434737        0.0000000000000000     
  -6.5432833648400468E-002   8.3879477976611327E-002   0.0000000000000000     
  -6.7725006446404251E-002   9.0028909447781191E-002   0.0000000000000000     
  -6.9960950931593185E-002   9.6336254369477597E-002   0.0000000000000000     
  -7.2140667103967215E-002  0.10280151274170052        0.0000000000000000     
  -7.4264154963526355E-002  0.10942468456444994        0.0000000000000000     
  -7.1151408354374723E-002   8.4607248695613382E-002   0.0000000000000000     
  -7.3600325286061058E-002   9.0739519167609861E-002   0.0000000000000000     
  -7.5990075198269572E-002   9.7026557718437101E-002   0.0000000000000000     
  -7.8320658091000223E-002  0.10346836434809503        0.0000000000000000     
  -8.0592073964253039E-002  0.11006493905658372        0.0000000000000000     
  -7.7071552601441509E-002   8.5377394344178098E-002   0.0000000000000000     
  -7.9673491908561309E-002   9.1496218826764536E-002   0.0000000000000000     
  -8.2213957585521052E-002   9.7764799145388437E-002   0.0000000000000000     
  -8.4692949632320727E-002  0.10418313530004986        0.0000000000000000     
  -8.7110468048960360E-002  0.11075122729074871        0.0000000000000000     
  -6.2179742214015052E-002  0.10828227680627597        0.0000000000000000     
  -6.3933375920539062E-002  0.11509914925397947        0.0000000000000000     
  -6.5598420809154956E-002  0.12204974453509657        0.0000000000000000     
  -6.7174876879862719E-002  0.12913406264962729        0.0000000000000000     
  -6.8662744132662323E-002  0.13635210359757163        0.0000000000000000     
  -6.8126711046780378E-002  0.10883046381434737        0.0000000000000000     
  -7.0026326459911178E-002  0.11562463307687958        0.0000000000000000     
  -7.1830361458357347E-002  0.12255218224638909        0.0000000000000000     
  -7.3538816042118885E-002  0.12961311132287587        0.0000000000000000     
  -7.5151690211195776E-002  0.13680742030633997        0.0000000000000000     
  -7.4264154963526355E-002  0.10942468456444994        0.0000000000000000     
  -7.6308636116896561E-002  0.11619347949283217        0.0000000000000000     
  -7.8251332170703722E-002  0.12309560718195348        0.0000000000000000     
  -8.0092243124947796E-002  0.13013106763181387        0.0000000000000000     
  -8.1831368979628852E-002  0.13729986084241333        0.0000000000000000     
  -8.0592073964253039E-002  0.11006493905658372        0.0000000000000000     
  -8.2780304891495238E-002  0.11680568850183726        0.0000000000000000     
  -8.4861332946194024E-002  0.12368001934178975        0.0000000000000000     
  -8.6835158128349479E-002  0.13068793157644124        0.0000000000000000     
  -8.8701780437961564E-002  0.13782942520579172        0.0000000000000000     
  -8.7110468048960360E-002  0.11075122729074871        0.0000000000000000     
  -8.9441332783707153E-002  0.11746126010389484        0.0000000000000000     
  -9.1660363784828336E-002  0.12430541872589793        0.0000000000000000     
  -9.3767561052323908E-002  0.13128370315675800        0.0000000000000000     
  -9.5762924586193870E-002  0.13839611339647509        0.0000000000000000     
  -6.8662744132662323E-002  0.13635210359757163        0.0000000000000000     
  -7.0073565638687343E-002  0.14369133300930356        0.0000000000000000     
  -7.1418884469071311E-002  0.15113921651519693        0.0000000000000000     
  -7.2698700623814214E-002  0.15869575411525191        0.0000000000000000     
  -7.3913014102916036E-002  0.16636094580946839        0.0000000000000000     
  -7.5151690211195776E-002  0.13680742030633997        0.0000000000000000     
  -7.6682348748239731E-002  0.14412274660182564        0.0000000000000000     
  -7.8144156435902473E-002  0.15154672761437721        0.0000000000000000     
  -7.9537113274183946E-002  0.15907936334399467        0.0000000000000000     
  -8.0861219263084164E-002  0.16672065379067799        0.0000000000000000     
  -8.1831368979628852E-002  0.13729986084241333        0.0000000000000000     
  -8.3482832847471794E-002  0.14458989146959034        0.0000000000000000     
  -8.5060757841201498E-002  0.15198906416918334        0.0000000000000000     
  -8.6565143960818033E-002  0.15949737894119242        0.0000000000000000     
  -8.7995991206321345E-002  0.16711483578561753        0.0000000000000000     
  -8.8701780437961564E-002  0.13782942520579172        0.0000000000000000     
  -9.0475017936383462E-002  0.14509276761259762        0.0000000000000000     
  -9.2168688684968442E-002  0.15246622617961542        0.0000000000000000     
  -9.3782792683716476E-002  0.15994980090684524        0.0000000000000000     
  -9.5317329932627537E-002  0.16754349179428693        0.0000000000000000     
  -9.5762924586193870E-002  0.13839611339647509        0.0000000000000000     
  -9.7658904014974790E-002  0.14563137503084747        0.0000000000000000     
  -9.9467948967203262E-002  0.15297821364567346        0.0000000000000000     
 -0.10119005944287926       0.16043662924095306        0.0000000000000000     
 -0.10282523544200280       0.16800662181668630        0.0000000000000000     
  -7.3913014102916036E-002  0.16636094580946839        0.0000000000000000     
  -7.5056228499946517E-002  0.17412546803222687        0.0000000000000000     
  -7.6122747408475369E-002  0.18197999721790792        0.0000000000000000     
  -7.7112570828502564E-002  0.18992453336651149        0.0000000000000000     
  -7.8025698760028156E-002  0.19795907647803762        0.0000000000000000     
  -8.0861219263084164E-002  0.16672065379067799        0.0000000000000000     
  -8.2110584317663937E-002  0.17446142157498767        0.0000000000000000     
  -8.3279318352984077E-002  0.18229248931748407        0.0000000000000000     
  -8.4367421369044557E-002  0.19021385701816720        0.0000000000000000     
  -8.5374893365845361E-002  0.19822552467703713        0.0000000000000000     
  -8.7995991206321345E-002  0.16711483578561753        0.0000000000000000     
  -8.9348273340340914E-002  0.17483186312266619        0.0000000000000000     
  -9.0616964125506211E-002  0.18263888937254591        0.0000000000000000     
  -9.1802063561817249E-002  0.19053591453525681        0.0000000000000000     
  -9.2903571649274014E-002  0.19852293861079875        0.0000000000000000     
  -9.5317329932627537E-002  0.16754349179428693        0.0000000000000000     
  -9.6769295567977406E-002  0.17523679267526240        0.0000000000000000     
  -9.8135684726041783E-002  0.18301919738309352        0.0000000000000000     
  -9.9416497406820667E-002  0.19089070591778021        0.0000000000000000     
 -0.10061173361031409       0.19885131827932251        0.0000000000000000     
 -0.10282523544200280       0.16800662181668630        0.0000000000000000     
 -0.10437365100057344       0.17567621023277644        0.0000000000000000     
 -0.10583548015459079       0.18343341334912686        0.0000000000000000     
 -0.10721072290405483       0.19127823116573753        0.0000000000000000     
 -0.10849937924896555       0.19921066368260845        0.0000000000000000     
  -7.8025698760028156E-002  0.19795907647803762        0.0000000000000000     
  -7.8864103858210299E-002  0.20607617404563289        0.0000000000000000     
  -7.9629758778207244E-002  0.21426837356244385        0.0000000000000000     
  -8.0322663520018975E-002  0.22253567502847046        0.0000000000000000     
  -8.0942818083645479E-002  0.23087807844371286        0.0000000000000000     
  -8.5374893365845361E-002  0.19822552467703713        0.0000000000000000     
  -8.6306255393616735E-002  0.20631947595560282        0.0000000000000000     
  -8.7166028502588783E-002  0.21448769451537336        0.0000000000000000     
  -8.7954212692761546E-002  0.22273018035634876        0.0000000000000000     
  -8.8670807964135026E-002  0.23104693347852900        0.0000000000000000     
  -9.2903571649274014E-002  0.19852293861079875        0.0000000000000000     
  -9.3927472220055278E-002  0.20659259364937660        0.0000000000000000     
  -9.4879749106339756E-002  0.21473751170119507        0.0000000000000000     
  -9.5760402308127490E-002  0.22295769276625418        0.0000000000000000     
  -9.6569431825418481E-002  0.23125313684455395        0.0000000000000000     
 -0.10061173361031409       0.19885131827932251        0.0000000000000000     
 -0.10172775433752593       0.20689552712695419        0.0000000000000000     
 -0.10277092058946016       0.21501782511990891        0.0000000000000000     
 -0.10374123236611679       0.22321821225818680        0.0000000000000000     
 -0.10463868966749580       0.23149668854178776        0.0000000000000000     
 -0.10849937924896555       0.19921066368260845        0.0000000000000000     
 -0.10970710174602871       0.20722827638833563        0.0000000000000000     
 -0.11083954295194999       0.21532863477151501        0.0000000000000000     
 -0.11189670286672943       0.22351173883214662        0.0000000000000000     
 -0.11287858149036702       0.23177758857023045        0.0000000000000000     
  -8.0942818083645479E-002  0.23087807844371286        0.0000000000000000     
  -8.1479337620682615E-002  0.23931634014144235        0.0000000000000000     
  -8.1921337282726270E-002  0.24787121645493035        0.0000000000000000     
  -8.2268817069776401E-002  0.25654270738417678        0.0000000000000000     
  -8.2521776981833009E-002  0.26533081292918181        0.0000000000000000     
  -8.8670807964135026E-002  0.23104693347852900        0.0000000000000000     
  -8.9301159663340249E-002  0.23946349725411137        0.0000000000000000     
  -8.9830613137008228E-002  0.24800541505529336        0.0000000000000000     
  -9.0259168385138991E-002  0.25667268688207479        0.0000000000000000     
  -9.0586825407732524E-002  0.26546531273445584        0.0000000000000000     
  -9.6569431825418481E-002  0.23125313684455395        0.0000000000000000     
  -9.7297425255445574E-002  0.23965016155209548        0.0000000000000000     
  -9.7934970195441659E-002  0.24817508450487991        0.0000000000000000     
  -9.8482066645406749E-002  0.25682790570290726        0.0000000000000000     
  -9.8938714605340872E-002  0.26560862514617750        0.0000000000000000     
 -0.10463868966749580       0.23149668854178776        0.0000000000000000     
 -0.10546813439699859       0.23987633303539460        0.0000000000000000     
 -0.10623440845802655       0.24838022480369007        0.0000000000000000     
 -0.10693751185057970       0.25700836384667419        0.0000000000000000     
 -0.10757744457465800       0.26576075016434692        0.0000000000000000     
 -0.11287858149036702       0.23177758857023045        0.0000000000000000     
 -0.11381328708799932       0.24014201170400876        0.0000000000000000     
 -0.11472892792476291       0.24862083595172374        0.0000000000000000     
 -0.11562550400065780       0.25721406131337543        0.0000000000000000     
 -0.11650301531568399       0.26592168778896386        0.0000000000000000     
  -8.2521776981833009E-002  0.26533081292918181        0.0000000000000000     
  -8.2719233159866151E-002  0.27426189061610790        0.0000000000000000     
  -8.2900201744845844E-002  0.28336229797111778        0.0000000000000000     
  -8.3064682736772061E-002  0.29263203499421148        0.0000000000000000     
  -8.3212676135644842E-002  0.30207110168538887        0.0000000000000000     
  -9.0586825407732524E-002  0.26546531273445584        0.0000000000000000     
  -9.0843943589344001E-002  0.27444633008512320        0.0000000000000000     
  -9.1060882314528552E-002  0.28367877640676387        0.0000000000000000     
  -9.1237641583286205E-002  0.29316265169937755        0.0000000000000000     
  -9.1374221395616975E-002  0.30289795596296459        0.0000000000000000     
  -9.8938714605340872E-002  0.26560862514617750        0.0000000000000000     
  -9.9315953652115541E-002  0.27461560927816303        0.0000000000000000     
  -9.9624823362602422E-002  0.28394722454233606        0.0000000000000000     
  -9.9865323736801487E-002  0.29360347093869665        0.0000000000000000     
 -0.10003745477471272       0.30358434846724458        0.0000000000000000     
 -0.10757744457465800       0.26576075016434692        0.0000000000000000     
 -0.10813526334818081       0.27476972819522721        0.0000000000000000     
 -0.10859202488906743       0.28416764237783443        0.0000000000000000     
 -0.10894772919731786       0.29395449271216828        0.0000000000000000     
 -0.10920237627293210       0.30413027919822888        0.0000000000000000     
 -0.11650301531568399       0.26592168778896386        0.0000000000000000     
 -0.11730187267753980       0.27490868683631609        0.0000000000000000     
 -0.11796248689392359       0.28434002991325902        0.0000000000000000     
 -0.11848485796483538       0.29421571701979288        0.0000000000000000     
 -0.11886898589027511       0.30453574815591744        0.0000000000000000     
 </DataArray>
 <DataArray  type="Float64" Name="stress" NumberOfComponents="3" format="ascii">
   6396205452.5126076        289571053.73549438        127138832.94903639     
   6042380748.6845722        125426154.49712348        67228147.945692822     
   5702263881.5142155        6974044.1177263260        24444876.885167431     
   5375854851.0015736       -65785277.402660847       -1210980.2325269787     
   5063153657.1466188       -92851810.064075708       -9739423.4073878452     
   5896762404.4051504        182781549.10131526        221090162.45665994     
   5598637043.3870039        77210220.658150434        190153679.00017250     
   5308856131.2864780       -546278.05958271027        171418452.04034200     
   5027419668.1035910       -50487947.051873684        164884481.57715696     
   4754327653.8383303       -72614786.318735361        170551767.61063656     
   5450386347.7767429        91912141.910854578        334271584.02505618     
   5193885594.0079985        40691963.594739676        326052016.41867834     
   4940365901.4168053       -591344.12948155403        325107547.86278731     
   4689827270.0031824       -31937781.261824131        331438178.35737890     
   4442269699.7671337       -53347347.802271128        345043907.90245217     
   5057077282.6274052        16962832.164112806        466683097.65421289     
   4828126400.5475540        15871383.306905270        474923160.20121372     
   4596793191.9052038        6838845.9080350399        485512164.35252571     
   4363077656.7003593       -10134780.032493830        498450110.10814375     
   4126979794.9330120       -35049494.514689207        513736997.46807313     
   4716835208.9571123       -42066380.138915300        618324703.34415126     
   4501359463.0056725        2748479.7946367264        636767110.34777880     
   4278138002.7516770        21744292.052989721        652632301.50954640     
   4047170828.1951103        14921056.636109829        665920276.82944691     
   3808457939.3359814       -17721226.455976725        676631036.30749261     
   5063153657.1466188       -92851810.064075708       -9739423.4073878452     
   4946995082.1777573       -45367318.743808031       -7807398.2363416124     
   4827406629.8803225       -9315751.8521096706       -1520750.9003322385     
   4704388300.2543068        15302890.610980988        9120518.6006357931     
   4577940093.2997265        28488608.645520687        24116410.266568247     
   4754327653.8383303       -72614786.318735361        170551767.61063656     
   4645888927.0882463       -36031906.019161701        167938886.57923070     
   4535246674.4832983       -6794111.9024505615        169425484.55593786     
   4422400896.0234995        15098596.031409740        175011561.54074779     
   4307351591.7088289        29646217.782375097        184697117.53365794     
   4442269699.7671337       -53347347.802271128        345043907.90245217     
   4340821840.7876625       -27884772.657840252        339316864.05460775     
   4238396807.4270554       -5679445.4505448341        337434156.05800188     
   4134994599.6852994        13268633.819593668        339395783.91265911     
   4030615217.5624046        28959465.152604580        345201747.61856031     
   4126979794.9330120       -35049494.514689207        513736997.46807313     
   4031793823.2760062       -20925918.659832716        506326534.18977576     
   3936857028.7115803       -5971752.4964084625        502505263.60587388     
   3842169411.2397180        9813003.9755766392        502273185.71636719     
   3747730970.8604341        26428350.756153584        505630300.52125686     
   3808457939.3359814       -17721226.455976725        676631036.30749261     
   3718804874.5532866       -15155344.025152445        668967896.98474848     
   3630627338.3368735       -7671033.0400536060        664638807.19954324     
   3543925330.6867557        4731706.4993560314        663643766.95187747     
   3458698851.6029177        22052874.593042135        665982776.24175203     
   4577940093.2997265        28488608.645520687        24116410.266568247     
   4361784169.3744602        11141439.080549479        18725913.388722554     
   4146670932.1129570       -2730108.2718882561        15647720.503391394     
   3932600381.5152283       -13126033.411740303        14881831.610570926     
   3719572517.5812607       -20046336.339050055        16428246.710275240     
   4307351591.7088289        29646217.782375097        184697117.53365794     
   4098747398.1682396        13939730.792988300        178609986.63782281     
   3890904329.1818781        770325.65104913712        175640956.06636965     
   3683822384.7497597       -9861997.6434230804        175790025.81932884     
   3477501564.8718820       -17957239.090416431        179057195.89669502     
   4030615217.5624046        28959465.152604580        345201747.61856031     
   3831865029.6404276        15584343.308959723        338089493.57693630     
   3633594404.1631656        3807762.9476962090        334901136.19160593     
   3435803341.1306105       -6370275.9311966896        335636675.46255624     
   3238491840.5427775       -14949773.327700615        340296111.38979757     
   3747730970.8604341        26428350.756153584        505630300.52125686     
   3561137063.7910304        16075276.628453732        497164434.20607835     
   3374741157.0568218        6382203.6180474758        493428260.87907392     
   3188543250.6577992       -2650868.2750620842        494421780.54024231     
   3002543344.5939584       -11023939.050886273        500144993.18957621     
   3458698851.6029177        22052874.593042135        665982776.24175203     
   3286563500.6200485        15412530.751469135        655834808.52524292     
   3114344587.8628426        8493647.6621062756        651222330.12878644     
   2942042113.3312988        1296225.3249518871        652145341.05238605     
   2769656077.0254169       -6179736.2599982023        658603841.29603958     
   3719572517.5812607       -20046336.339050055        16428246.710275240     
   3554983957.8423557       -12232911.049004555        7812966.5134054106     
   3389485856.6872797       -7451290.4795286655        5009367.8005885398     
   3223078214.1160045       -5701474.6307055950        8017450.5718508903     
   3055761030.1285992       -6983463.5023384094        16837214.827185415     
   3477501564.8718820       -17957239.090416431        179057195.89669502     
   3327119584.9961410       -9107989.7496714592        170134290.32062310     
   3176083846.7994089       -2437934.8122425079        166088805.29735926     
   3024394350.2816968        2052925.7219321728        166920740.82691380     
   2872051095.4429903        4364591.8527796268        172630096.90930462     
   3238491840.5427775       -14949773.327700615        340296111.38979757     
   3099647123.5837779       -5865495.0201997757        331363994.04556459     
   2960404431.3989835        1892199.2013055086        326375036.32290441     
   2820763763.9883785        8323309.3367869854        325329238.22183055     
   2680725121.3519850        13427835.386298895        328226599.74231803     
   3002543344.5939584       -11023939.050886273        500144993.18957621     
   2872566573.6052852       -2505426.8605520725        491502077.68824840     
   2742447610.4859953        5539111.5610774755        485868060.87724620     
   2612186455.2360888        13109676.213983655        483242942.75657517     
   2481783107.8555779        20206267.098207712        483626723.32622021     
   2769656077.0254169       -6179736.2599982023        658603841.29603958     
   2645877935.0606380        972214.72923612595        650548541.24866629     
   2522213384.0604405        8502802.2670718431        644567878.96036983     
   2398662424.0248156        16412026.353473306        640661854.43114972     
   2275225054.9537644        24699886.988474607        638830467.66101468     
   3055761030.1285992       -6983463.5023384094        16837214.827185415     
   2888373282.7583857       -8684949.1855314970        11817086.279898047     
   2721632443.0923033       -8230075.8549536467        7323511.3510154821     
   2555538511.1302967       -5618843.5107837915        3356490.0405146624     
   2390091486.8723984       -851252.15293180943       -83977.651586477121     
   2872051095.4429903        4364591.8527796268        172630096.90930462     
   2706889076.6193128        2469300.2561095953        165915961.94913426     
   2542142577.5240445        1959074.4208014011        160432096.69410238     
   2377811598.1571975        2833914.3469048738        156178501.14418596     
   2213896138.5187922        5093820.0344682932        153155175.29942083     
   2680725121.3519850        13427835.386298895        328226599.74231803     
   2519799448.4654994        11941923.093288541        319548505.73097020     
   2359057907.3317556        11069783.309425950        312804397.51149130     
   2198500497.9507427        10811416.034666538        307994275.08386540     
   2038127220.3224661        11166821.269012332        305118138.44811618     
   2481783107.8555779        20206267.098207712        483626723.32622021     
   2327104398.2969589        19732919.326082706        472714717.62539399     
   2172378432.5153995        19102050.810804129        464440413.80316687     
   2017605210.5108883        18313661.552368402        458803811.85953659     
   1862784732.2834203        17367751.550747275        455804911.79450405     
   2275225054.9537644        24699886.988474607        638830467.66101468     
   2128803926.1136918        25842288.954448938        625414597.63240659     
   1982104153.0749846        26055876.924963355        615340145.56913161     
   1835125735.8376460        25340650.900060296        608607111.47119367     
   1687868674.4016743        23696610.879685283        605215495.33859146     
   2390091486.8723984       -851252.15293180943       -83977.651586477121     
   2248246516.3166237        7001432.0641307831       -6775538.3764296519     
   2103120227.1217461        3916387.4841917753       -11270068.131289475     
   1954712619.2877576       -10106385.892782450       -13567566.916167228     
   1803023692.8146536       -35066888.066818118       -13668034.731064191     
   2213896138.5187922        5093820.0344682932        153155175.29942083     
   2076503331.3301718        12611965.932771087        142972410.24215922     
   1936915737.0345910        12814154.807865381        134094556.41707863     
   1795133355.6320512        5700386.6597551107        126521613.82413228     
   1651156187.1225390       -8729338.5115734339        120253582.46337077     
   2038127220.3224661        11166821.269012332        305118138.44811618     
   1902637662.9643686        17585754.787575841        292711789.17929393     
   1766039850.0314519        20310503.056753635        280718231.40480351     
   1628333781.5237083        19341066.076514304        269137465.12464827     
   1489519457.4411538        14677443.846876681        257969490.33883896     
   1862784732.2834203        17367751.550747275        455804911.79450405     
   1726649511.2192087        21922798.628588676        442442598.43494910     
   1590492566.1123199        26405432.230845809        428600956.83190572     
   1454313896.9627490        30815652.357482195        414279986.98536772     
   1318113503.7705061        35153459.008574665        399479688.89535123     
   1687868674.4016743        23696610.879685283        605215495.33859146     
   1548538876.0947034        25623097.455798030        592164838.00913656     
   1410273885.2772002        31098942.330124915        577742732.69836855     
   1273073701.9491649        40124145.502681851        561949179.40629435     
   1136938326.1105993        52698706.973474979        544784178.13290060     
   1803023692.8146536       -35066888.066818118       -13668034.731064191     
   1771796692.2272470       -16587862.916896462       -8167225.9841125691     
   1748664823.1745081        28874934.015262246       -41456125.823088244     
   1733628085.6564322        101321502.72961336       -113534734.24802580     
   1726686479.6730223        200751843.22620767       -224403051.25888297     
   1651156187.1225390       -8729338.5115734339        120253582.46337077     
   1528172433.7789264       -13818011.046242416        135726010.33945760     
   1409389859.6874864       -4902752.7403365374        124844728.76237269     
   1294808464.8482156        18016436.406150818        87609737.732146770     
   1184428249.2611358        54939556.393263578        24021037.248741411     
   1489519457.4411538        14677443.846876681        257969490.33883896     
   1310310377.4349713       -3319498.5443054438        278870593.01449674     
   1131408524.3984797       -20292351.036530733        285853985.36975503     
   952813898.33166742       -36241113.629824519        278919667.40463102     
   774526499.23454797       -51165786.324130923        258067639.11912799     
   1318113503.7705061        35153459.008574665        399479688.89535123     
   1118210523.1953990        14907674.588953137        421266522.04099178     
   914720817.30749571       -17293860.873318136        441571643.99902868     
   707644386.10677230       -61451147.378310561        460395054.76943952     
   496981229.59326726       -117564184.92593995        477736754.35225242     
   1136938326.1105993        52698706.973474979        544784178.13290060     
   951872871.06021225        40863508.353547275        562913797.41896415     
   759326738.41453409        4092717.7493210733        591997704.65019166     
   559299928.17355144       -57613664.839259356        632035899.82657754     
   351792440.33727634       -144255639.41214198        683028382.94812882     
   1726686479.6730223        200751843.22620767       -224403051.25888297     
   1456414689.2777040        184620824.35762089       -96716578.573958933     
   1153940753.6939306        61149321.527550399        60112733.274424285     
   819264672.92170441       -169662665.26403487        246084884.28629744     
   452386446.96102285       -507815136.01716065        461199874.46161437     
   1184428249.2611358        54939556.393263578        24021037.248741411     
   977511253.73823369        11867499.977236748        155501460.05094838     
   732744193.84951735       -157371437.65814823        312790663.79480243     
   450127069.59500515       -452777256.51286423        495888648.48028046     
   129659880.97468066       -874349956.58695447        704795414.10742092     
   774526499.23454797       -51165786.324130923        258067639.11912799     
   621438417.95027018       -124036644.47771540        386752772.99836665     
   424852353.12282604       -341900781.10850698        537912629.59741712     
   184768304.75221175       -704758196.21652269        711547208.91629040     
  -98813727.161545098       -1212608889.8017135        907656510.95496666     
   496981229.59326726       -117564184.92593995        477736754.35225242     
   388196181.91379905       -223091609.00724977        597037360.26828110     
   230265231.51382938       -492438708.82359558        735478630.68230331     
   23188378.393346608       -925605484.37500226        893060565.59431279     
  -233034377.44767404       -1522591935.6614699        1069783165.0043027     
   351792440.33727634       -144255639.41214198        683028382.94812882     
   277784545.62885076       -285297393.61128736        786355221.86071539     
   148982829.02254415       -608985220.80336928        905488667.04946268     
  -34612709.481610119       -1115319120.9882989        1040428718.5143547     
  -273002069.88365579       -1804299094.1661556        1191175376.2554190     
   4716835208.9571123       -42066380.138915300        618324703.34415126     
   4501359463.0056725        2748479.7946367264        636767110.34777880     
   4278138002.7516770        21744292.052989721        652632301.50954640     
   4047170828.1951103        14921056.636109829        665920276.82944691     
   3808457939.3359814       -17721226.455976725        676631036.30749261     
   4417996338.4589911        36643220.868512869        791128281.58267713     
   4189741787.2137427        39351676.405999422        786872592.84073973     
   3957733335.5912166        29547130.685867071        785081132.26759458     
   3721970983.5913992        7229583.7081103325        785753899.86325264     
   3482454731.2142954       -27600964.527261019        788890895.62769651     
   4066269727.4247293        99486499.715103388        946883008.31045425     
   3839640496.6304145        64409788.579935789        924586340.06911266     
   3613249179.3840866        30126122.604742289        909795344.00722170     
   3387095775.6857510       -3364498.2104716301        902510020.12478352     
   3161180285.5354133       -36062073.865708947        902730368.42179680     
   3661655375.8543406        146463456.40085423        1085588883.5274916     
   3451055591.2556777        77922816.316447735        1049908352.0328981     
   3244685534.1302905        23481267.809620023        1026774936.7284179     
   3042545204.4781723       -16861189.119631886        1016188637.6140465     
   2844634602.2993236       -43104554.471318364        1018149454.6897814     
   3204153283.7478127        177574090.92576170        1207245907.2337816     
   3023987071.0895433        79890759.615548968        1162838628.7321000     
   2852042399.8298235        9612566.3004964590        1136019910.4311903     
   2688319269.9686584       -33260489.019372821        1126789752.3310399     
   2532817681.5060391       -48728406.344082832        1135148154.4316580     
   3808457939.3359814       -17721226.455976725        676631036.30749261     
   3718804874.5532866       -15155344.025152445        668967896.98474848     
   3630627338.3368735       -7671033.0400536060        664638807.19954324     
   3543925330.6867557        4731706.4993560314        663643766.95187747     
   3458698851.6029177        22052874.593042135        665982776.24175203     
   3482454731.2142954       -27600964.527261019        788890895.62769651     
   3402865035.2965322       -18970117.744788170        784032853.70081902     
   3324051280.2483883       -7752801.3969204426        782182208.05134296     
   3246013466.0698676        6050984.5163635015        783338958.67928636     
   3168751592.7609663        22441239.995039463        787503105.58463275     
   3161180285.5354133       -36062073.865708947        902730368.42179680     
   3090720663.4536419       -21646251.240269184        899861238.24466336     
   3020337394.5448251       -6975918.0383174419        899672851.08481741     
   2950030478.8089647        7948925.7401633263        902165206.94225311     
   2879799916.2460628        23128280.095159054        907338305.81696796     
   2844634602.2993236       -43104554.471318364        1018149454.6897814     
   2782371759.0246058       -23183744.511590004        1016453050.6162928     
   2719485681.2261796       -5340382.9642374516        1017110736.2999579     
   2655976368.9040475        10425530.170765638        1020122511.7407787     
   2591843822.0582004        24113994.893390179        1025488376.9387504     
   2532817681.5060391       -48728406.344082832        1135148154.4316580     
   2477818322.0094361       -23582597.558754444        1133808290.8157024     
   2421496140.2924600       -2846196.1746752262        1134495863.6967690     
   2363851136.3551083        13480797.808149695        1137210873.0748670     
   2304883310.1973805        25398384.389730811        1141953318.9499850     
   3458698851.6029177        22052874.593042135        665982776.24175203     
   3286563500.6200485        15412530.751469135        655834808.52524292     
   3114344587.8628426        8493647.6621062756        651222330.12878644     
   2942042113.3312988        1296225.3249518871        652145341.05238605     
   2769656077.0254169       -6179736.2599982023        658603841.29603958     
   3168751592.7609663        22441239.995039463        787503105.58463275     
   3010785311.8149614        15914834.420809150        777601168.04902613     
   2852896712.7937684        9647368.5959354639        773036732.39079332     
   2695085795.6973805        3638842.5204209089        773809798.60994124     
   2537352560.5257993       -2110743.8057378531        779920366.70646238     
   2879799916.2460628        23128280.095159054        907338305.81696796     
   2735437026.9292746        16546109.265971184        897870516.11126304     
   2591313063.2364383        10760357.183288932        893542240.84025621     
   2447428025.1675539        5771023.8471143246        894353480.00395107     
   2303781912.7226281        1578109.2574613094        900304233.60234833     
   2591843822.0582004        24113994.893390179        1025488376.9387504     
   2460518645.9629774        17306355.286945820        1016642852.7119513     
   2329593639.1908526        11832613.424153447        1012738855.4771749     
   2199068801.7418342        7692769.3050547838        1013776385.2344279     
   2068944133.6159086        4886822.9295935631        1019755441.9837009     
   2304883310.1973805        25398384.389730811        1141953318.9499850     
   2186030168.9160771        18195572.483746171        1133918177.8510978     
   2067738440.6570191        12864137.318567634        1130626576.3015580     
   1950008125.4202013        9404078.8941997290        1132078514.3013616     
   1832839223.2056336        7815397.2106590271        1138273991.8505154     
   2769656077.0254169       -6179736.2599982023        658603841.29603958     
   2645877935.0606380        972214.72923612595        650548541.24866629     
   2522213384.0604405        8502802.2670718431        644567878.96036983     
   2398662424.0248156        16412026.353473306        640661854.43114972     
   2275225054.9537644        24699886.988474607        638830467.66101468     
   2537352560.5257993       -2110743.8057378531        779920366.70646238     
   2419506632.4249902        4405348.5308473110        771838056.03796864     
   2301780486.0531278        11320713.297258615        766391085.65636754     
   2184174121.4102073        18635350.493469715        763579455.56165779     
   2066687538.4962268        26349260.119493008        763403165.75384319     
   2303781912.7226281        1578109.2574613094        900304233.60234833     
   2193470205.7081175        7938945.1081078053        892202134.87116158     
   2083284471.1869130        14719689.269788623        887296078.95468533     
   1973224709.1590228        21920341.742510200        885586065.85291564     
   1863290919.6244400        29540902.526253223        887072095.56584692     
   2068944133.6159086        4886822.9295935631        1019755441.9837009     
   1967768654.9100111        11573004.460992932        1011640777.7482518     
   1866725339.4617918        18699730.184643269        1007282858.8553247     
   1765814187.2712569        26267000.100567698        1006681685.3049242     
   1665035198.3383887        34274814.208729208        1009837257.0970318     
   1832839223.2056336        7815397.2106590271        1138273991.8505154     
   1742401980.0306745        15307526.589496017        1130153984.6692371     
   1652103090.8777637        23260836.041815758        1126351425.3582897     
   1561942555.7469025        31675325.567642748        1126866313.9176733     
   1471920374.6380768        40550995.166920304        1131698650.3473902     
   2275225054.9537644        24699886.988474607        638830467.66101468     
   2128803926.1136918        25842288.954448938        625414597.63240659     
   1982104153.0749846        26055876.924963355        615340145.56913161     
   1835125735.8376460        25340650.900060296        608607111.47119367     
   1687868674.4016743        23696610.879685283        605215495.33859146     
   2066687538.4962268        26349260.119493008        763403165.75384319     
   1929252089.4828701        27965261.590904593        751570604.34828472     
   1791622189.5154164        28933093.215331912        743199394.18899357     
   1653797838.5938830        29252754.992819846        738289535.27596867     
   1515779036.7182498        28924246.923313260        736841027.60921025     
   1863290919.6244400        29540902.526253223        887072095.56584692     
   1735183816.9547319        31733303.458170533        876921068.23531091     
   1606966456.5754733        33558178.691588998        870351325.43196952     
   1478638838.4866796        35015528.226547360        867362867.15582561     
   1350200962.6883292        36105352.062999129        867955693.40687799     
   1665035198.3383887        34274814.208729208        1009837257.0970318     
   1546599108.5292802        37146414.556249738        1001465989.2934813     
   1428136954.2551579        39931133.353733897        996795939.29805720     
   1309648735.5160418        42628970.601238012        995827107.11075926     
   1191134452.3119297        45239926.298738003        998559492.73158455     
   1471920374.6380768        40550995.166920304        1131698650.3473902     
   1363497964.2065015        44204594.885107517        1125205367.5228007     
   1255133682.5544672        48051957.201769412        1122533235.7872589     
   1146827529.6819785        52093082.116918385        1123682255.1407769     
   1038579505.5890297        56327969.630526662        1128652425.5833437     
   1687868674.4016743        23696610.879685283        605215495.33859146     
   1548538876.0947034        25623097.455798030        592164838.00913656     
   1410273885.2772002        31098942.330124915        577742732.69836855     
   1273073701.9491649        40124145.502681851        561949179.40629435     
   1136938326.1105993        52698706.973474979        544784178.13290060     
   1515779036.7182498        28924246.923313260        736841027.60921025     
   1374310210.7448907        27621643.936277986        727748745.08609736     
   1233075997.6894143        27101084.008846939        719127679.16164458     
   1092076397.5518386        27362567.141092896        710977829.83584940     
   951311410.33215582        28406093.332970917        703299197.10872591     
   1350200962.6883292        36105352.062999129        867955693.40687799     
   1211857864.9913599        33153086.295635939        861853225.35659838     
   1072919185.6407014        28215548.349312544        858064638.48495471     
   933384924.63636327        21292738.224052906        856589932.79194057     
   793255081.97833681        12384655.919837534        857429108.27757204     
   1191134452.3119297        45239926.298738003        998559492.73158455     
   1061181838.8341236        42217424.533882201        994478278.82063925     
   929803449.13106167        34442335.351495922        994553610.66829669     
   796999283.20273709        21914658.751567602        998785488.27456176     
   662769341.04915166        4634394.7341025472        1007173911.6394341     
   1038579505.5890297        56327969.630526662        1128652425.5833437     
   922282132.27318001        54814658.651029646        1125623905.4782183     
   803728788.16048670        45781445.015392065        1128594595.7116756     
   682919473.25096262        29228328.723649353        1137564496.2837083     
   559854187.54459691        5155309.7757567465        1152533607.1943221     
   1136938326.1105993        52698706.973474979        544784178.13290060     
   951872871.06021225        40863508.353547275        562913797.41896415     
   759326738.41453409        4092717.7493210733        591997704.65019166     
   559299928.17355144       -57613664.839259356        632035899.82657754     
   351792440.33727634       -144255639.41214198        683028382.94812882     
   951311410.33215582        28406093.332970917        703299197.10872591     
   791985047.69506919        11172492.858210295        721258224.42645586     
   624044700.24467099       -34774390.327591568        749308050.69883597     
   447490367.98094118       -109434556.22448605        787448675.92586160     
   262322050.90391096       -212808004.83240426        835680100.10754120     
   793255081.97833681        12384655.919837534        857429108.27757204     
   657200700.35308242       -10987479.830183119        873895351.87261343     
   511399026.69649279       -66850589.017985374        899588905.43178713     
   355850061.00855637       -155204671.64361179        934509768.95508981     
   190553803.28927833       -276049727.70704341        978657942.44252157     
   662769341.04915166        4634394.7341025472        1007173911.6394341     
   547519829.03425801       -25616409.711609572        1020825179.7574322     
   421389717.76999295       -92135878.321875721        1042840268.8490429     
   284379007.25636822       -194924011.09668857        1073219178.9142586     
   136487697.49337420       -333980808.03606564        1111961909.9531026     
   559854187.54459691        5155309.7757567465        1152533607.1943221     
   462942433.73857570       -32714296.786120027        1162047708.0809095     
   354016773.46517479       -110630258.23926820        1179062140.9505870     
   233077206.72438532       -228592574.58370879        1203576905.8033624     
   100123733.51619998       -386601245.81946892        1235592002.6392384     
   351792440.33727634       -144255639.41214198        683028382.94812882     
   277784545.62885076       -285297393.61128736        786355221.86071539     
   148982829.02254415       -608985220.80336928        905488667.04946268     
  -34612709.481610119       -1115319120.9882989        1040428718.5143547     
  -273002069.88365579       -1804299094.1661556        1191175376.2554190     
   262322050.90391096       -212808004.83240426        835680100.10754120     
   223622055.75794554       -352406194.24347812        885038456.67488158     
   140679844.95333347       -639478435.85005736        945416999.37071931     
   13495418.490087807       -1074024729.6520820        1016815728.1950479     
  -157931223.63181996       -1656045075.6496189        1099234643.1478608     
   190553803.28927833       -276049727.70704341        978657942.44252157     
   173486221.56959003       -418306998.17091727        986358023.94372368     
   122728030.43048650       -672866300.03283048        1000291871.4257504     
   38279229.871962726       -1039727633.2928253        1020459484.8886021     
  -79860180.105980396       -1518890997.9508679        1046860864.3322774     
   136487697.49337420       -333980808.03606564        1111961909.9531026     
   127377043.06377944       -482999805.39355963        1090313923.6672447     
   95127385.453979403       -709148813.35173798        1070113283.2145548     
   39738724.664002657       -1012427831.9105061        1051359988.5950307     
  -38788939.306170762       -1392836861.0699394        1034054039.8086605     
   100123733.51619998       -386601245.81946892        1235592002.6392384     
   85294520.240504742       -546484615.91147459        1196906155.8454468     
   57877910.023848772       -748325975.80668259        1154881234.7371356     
   17873902.866217196       -992125325.50514829        1109517239.3143108     
  -34717501.232373893       -1277882665.0068011        1060814169.5770144     
   3204153283.7478127        177574090.92576170        1207245907.2337816     
   3023987071.0895433        79890759.615548968        1162838628.7321000     
   2852042399.8298235        9612566.3004964590        1136019910.4311903     
   2688319269.9686584       -33260489.019372821        1126789752.3310399     
   2532817681.5060391       -48728406.344082832        1135148154.4316580     
   2706956996.7174339        69171819.532966614        1216268832.0379777     
   2580409561.6315184        20522164.497751474        1196722043.3569639     
   2458175744.1196318       -13748765.290717721        1189516444.2366180     
   2340255544.1817689       -33640969.832430959        1194652034.6769338     
   2226648961.8179345       -39154449.127393126        1212128814.6779144     
   2267394992.7538533       -21940166.939792156        1240243703.3051808     
   2179473847.6971531       -26053891.962949276        1240998159.9828875     
   2091958396.3899508       -28815304.487780213        1248846435.5811617     
   2004848638.8322475       -30224404.514276981        1263788530.0999966     
   1918144575.0240455       -30281192.042441964        1285824443.5393929     
   1885467271.8570836       -95761868.492506385        1279170521.0353951     
   1821179929.2864461       -59837409.766547680        1295666978.6098788     
   1753390356.6407840       -35587051.290684104        1314009884.4648237     
   1682098553.9200938       -23010793.064910293        1334199238.6002288     
   1607304521.1243780       -22108635.089222729        1356235041.0160937     
   1561173834.0271132       -152293285.12518072        1333049285.2286212     
   1505527806.3993962       -80828388.913053989        1360728499.2379279     
   1442471624.8721266       -34064005.699442744        1385006790.8875964     
   1372005289.4453030       -12000135.484339893        1405884160.1776285     
   1294128800.1189291       -14636778.267737865        1423360607.1080167     
   2532817681.5060391       -48728406.344082832        1135148154.4316580     
   2477818322.0094361       -23582597.558754444        1133808290.8157024     
   2421496140.2924600       -2846196.1746752262        1134495863.6967690     
   2363851136.3551083        13480797.808149695        1137210873.0748670     
   2304883310.1973805        25398384.389730811        1141953318.9499850     
   2226648961.8179345       -39154449.127393126        1212128814.6779144     
   2175302786.4823723       -20650756.121936202        1208881057.5133302     
   2123163246.4465852       -4791612.1172257662        1207948801.4632638     
   2070230341.7105803        8422982.8867486715        1209332046.5277092     
   2016504072.2743573        18993028.890007496        1213030792.7066669     
   1918144575.0240455       -30281192.042441964        1285824443.5393929     
   1871274625.6137769       -18172702.287587523        1281286493.2663660     
   1824140769.0234399       -6943903.1329610348        1279352108.7253377     
   1776743005.2530377        3405205.4214531183        1280021289.9163160     
   1729081334.3025725        12874623.375647426        1283294036.8392966     
   1607304521.1243780       -22108635.089222729        1356235041.0160937     
   1565733839.4036572       -16148436.055691063        1351024598.0747993     
   1524428708.0230198       -9303069.2218734622        1348705785.4829950     
   1483389126.9824772       -1572534.5877510309        1349278603.2406855     
   1442615096.2820165        7043167.8466534019        1352743051.3478665     
   1294128800.1189291       -14636778.267737865        1423360607.1080167     
   1258680427.8520091       -14577957.426254749        1418095371.9386339     
   1224027063.4453299       -11869110.383968592        1416009831.7362354     
   1190168706.8988943       -6510237.1408706307        1417103986.5008159     
   1157105358.2127032        1498662.3030456305        1421377836.2323797     
   2304883310.1973805        25398384.389730811        1141953318.9499850     
   2186030168.9160771        18195572.483746171        1133918177.8510978     
   2067738440.6570191        12864137.318567634        1130626576.3015580     
   1950008125.4202013        9404078.8941997290        1132078514.3013616     
   1832839223.2056336        7815397.2106590271        1138273991.8505154     
   2016504072.2743573        18993028.890007496        1213030792.7066669     
   1910752547.9298470        13376386.351187110        1206010502.5296249     
   1805412556.1517687        9131519.0338196754        1203958800.5929592     
   1700484096.9401302        6258426.9379090071        1206875686.8966639     
   1595967170.2949257        4757110.0634472370        1214761161.4407501     
   1729081334.3025725        12874623.375647426        1283294036.8392966     
   1637074423.1549389        9037049.0820381045        1277113737.0523164     
   1545329164.1179256        6071648.4905036688        1276127074.1967442     
   1453845557.1915438        3978421.6010669470        1280334048.2725763     
   1362623602.3757825        2757368.4137049913        1289734659.2798152     
   1442615096.2820165        7043167.8466534019        1352743051.3478665     
   1364995794.5913436        5177560.6762762070        1347227881.4191759     
   1287488264.5554864        3684525.6886172295        1347131397.1129196     
   1210092506.1744442        2564062.8836727142        1352453598.4290988     
   1132808519.4482138        1816172.2614351511        1363194485.3677111     
   1157105358.2127032        1498662.3030456305        1421377836.2323797     
   1094516662.2390716        1797921.1339129806        1416352935.6301999     
   1031889857.4644476        1970150.6281392574        1416971769.3414814     
   969224943.88882768        2015350.7857154012        1423234337.3662286     
   906521921.51221085        1933521.6066348553        1435140639.7044396     
   1832839223.2056336        7815397.2106590271        1138273991.8505154     
   1742401980.0306745        15307526.589496017        1130153984.6692371     
   1652103090.8777637        23260836.041815758        1126351425.3582897     
   1561942555.7469025        31675325.567642748        1126866313.9176733     
   1471920374.6380768        40550995.166920304        1131698650.3473902     
   1595967170.2949257        4757110.0634472370        1214761161.4407501     
   1516592087.7214870        11658653.255026042        1208053030.9476836     
   1437372707.8637185        19079205.498830974        1205673096.0132823     
   1358309030.7216122        27018766.794841290        1207621356.6375470     
   1279401056.2951691        35477337.143067837        1213897812.8204837     
   1362623602.3757825        2757368.4137049913        1289734659.2798152     
   1294341388.0848238        9077537.7223133445        1284458645.6175165     
   1226232225.2031527        15974545.061880112        1283521575.2022221     
   1158296113.7307611        23448390.432381570        1286923448.0339305     
   1090533053.6676567        31499073.833833933        1294664264.1126366     
   1132808519.4482138        1816172.2614351511        1363194485.3677111     
   1075649881.1206875        7564179.9913586974        1359370828.6787395     
   1018681642.8960676        13946854.730965078        1359896862.9251060     
   961903804.77435112        20964196.480245888        1364772588.1068075     
   905316366.75553799        28616205.239211559        1373998004.2238426     
   906521921.51221085        1933521.6066348553        1435140639.7044396     
   860517566.82907510        7118580.0621579885        1432789580.1313519     
   814720960.94246554        12996134.506098270        1434798959.1819322     
   769132103.85237813        19566184.938450515        1441168776.8561888     
   723750995.55881655        26828731.359221578        1451899033.1541128     
   1471920374.6380768        40550995.166920304        1131698650.3473902     
   1363497964.2065015        44204594.885107517        1125205367.5228007     
   1255133682.5544672        48051957.201769412        1122533235.7872589     
   1146827529.6819785        52093082.116918385        1123682255.1407769     
   1038579505.5890297        56327969.630526662        1128652425.5833437     
   1279401056.2951691        35477337.143067837        1213897812.8204837     
   1181247345.8968379        38315769.630371809        1208907049.4059589     
   1083039196.2536118        40972737.968023300        1208182250.4427702     
   984776607.36547267        43448242.155965924        1211723415.9309220     
   886459579.23243010        45742282.194230765        1219530545.8704119     
   1090533053.6676567        31499073.833833933        1294664264.1126366     
   1003918938.6233788        33903607.686498940        1291044690.7463293     
   917137816.30975676        35751450.641343862        1292135895.1936388     
   830189686.72678041        37042602.698344290        1297937877.4545729     
   743074549.87446010        37777063.857530385        1308450637.5291240     
   905316366.75553799        28616205.239211559        1373998004.2238426     
   831512742.38612211        30968109.053479433        1371618291.5438979     
   757429542.72291243        32388095.221764296        1374394170.0398595     
   683066767.76591253        32876163.744083196        1382325639.7117219     
   608424417.51511431        32432314.620403945        1395412700.5594873     
   723750995.55881655        26828731.359221578        1451899033.1541128     
   664028757.18506956        29509273.731324434        1450627851.7986825     
   603914375.49308670        30882671.709313661        1454957074.9814334     
   543407850.48286378        30948925.293163747        1464886702.7023711     
   482509182.15440357        29708034.482894704        1480416734.9614940     
   1038579505.5890297        56327969.630526662        1128652425.5833437     
   922282132.27318001        54814658.651029646        1125623905.4782183     
   803728788.16048670        45781445.015392065        1128594595.7116756     
   682919473.25096262        29228328.723649353        1137564496.2837083     
   559854187.54459691        5155309.7757567465        1152533607.1943221     
   886459579.23243010        45742282.194230765        1219530545.8704119     
   785463657.96256709        43745812.770439327        1216875632.6599939     
   682223159.55008900        34267419.537931889        1220103354.9412031     
   576738083.99504077        17307102.496853799        1229213712.7140489     
   469008431.29738426       -7135138.3529125154        1244206705.9785233     
   743074549.87446010        37777063.857530385        1308450637.5291240     
   657047009.65928876        35197514.692026138        1306182623.8100300     
   568786285.95575893        25174020.565325320        1309680670.7356257     
   478292378.76389122        7706581.4775032103        1318944778.3058975     
   385565288.08366150       -17204802.571528167        1333974946.5208473     
   608424417.51511431        32432314.620403945        1395412700.5594873     
   537032187.36335456        29169764.415821135        1393544878.9283397     
   463418167.37748820        18501248.097546533        1397326543.0949275     
   387582357.55751187        426765.66557039320        1406757693.0592422     
   309524757.90342611       -25053682.880097598        1421838328.8212900     
   482509182.15440357        29708034.482894704        1480416734.9614940     
   425419191.07476568        25662561.941829786        1478962398.0149150     
   366118803.81525624        14249102.134526104        1483040972.0191185     
   304608020.37590277       -4532344.9389213920        1492652456.9740980     
   240886840.75667512       -30681779.278621718        1507796852.8798664     
   559854187.54459691        5155309.7757567465        1152533607.1943221     
   462942433.73857570       -32714296.786120027        1162047708.0809095     
   354016773.46517479       -110630258.23926820        1179062140.9505870     
   233077206.72438532       -228592574.58370879        1203576905.8033624     
   100123733.51619998       -386601245.81946892        1235592002.6392384     
   469008431.29738426       -7135138.3529125154        1244206705.9785233     
   391140506.15861982       -41437238.393615633        1242787690.6397507     
   303109436.76115900       -109616485.96331231        1247694171.5570557     
   204915223.10501301       -211672881.06195801        1258926148.7304087     
   96557865.190168157       -347606423.68959713        1276483622.1598237     
   385565288.08366150       -17204802.571528167        1333974946.5208473     
   323384518.10632354       -48946398.142829999        1323782037.5335519     
   252891366.07898691       -108395933.88078998        1318739789.0752733     
   174085832.00165671       -195553409.78539574        1318848201.1460164     
   86967915.874327362       -310418825.85666806        1324107273.7457824     
   309524757.90342611       -25053682.880097598        1421838328.8212900     
   259674469.58168918       -55241776.033740804        1405030748.7622776     
   203362561.41865399       -106968601.99171588        1392198993.5052350     
   140589033.41431403       -180234160.75403935        1383343063.0501778     
   71353885.568677604       -275038452.32068169        1378462957.3971124     
   240886840.75667512       -30681779.278621718        1507796852.8798664     
   200010360.58471754       -60323372.066352800        1486533824.3259349     
   154523022.78015590       -105334490.29610302        1468071784.8469505     
   104424827.34299141       -165715133.96785992        1452410734.4429085     
   49715774.273220748       -241465303.08163741        1439550673.1138148     
   100123733.51619998       -386601245.81946892        1235592002.6392384     
   85294520.240504742       -546484615.91147459        1196906155.8454468     
   57877910.023848772       -748325975.80668259        1154881234.7371356     
   17873902.866217196       -992125325.50514829        1109517239.3143108     
  -34717501.232373893       -1277882665.0068011        1060814169.5770144     
   96557865.190168157       -347606423.68959713        1276483622.1598237     
   79699368.084855765       -488768968.77605963        1222104969.3080397     
   51457645.544823885       -667875598.64493704        1165184212.8236217     
   11832697.570043981       -884926313.29629529        1105721352.7065573     
  -39175475.839453161       -1139921112.7300529        1043716388.9568920     
   86967915.874327362       -310418825.85666806        1324107273.7457824     
   70357194.030464411       -432177428.21026421        1255440681.5932796     
   43567418.258101493       -587866210.32553244        1185028956.4900246     
   6598588.5572508276       -777485172.20242786        1112872098.4360061     
  -40549295.072095692       -1001034313.8409735        1038970107.4312227     
   71353885.568677604       -275038452.32068169        1378462957.3971124     
   57267998.077329263       -376709994.21408689        1296913292.7011778     
   34207228.163712591       -508297810.84839189        1214415465.7363589     
   2171575.8278405964       -669801902.22354567        1130969476.5026431     
  -38838958.930289954       -861222268.33956623        1046575325.0000474     
   49715774.273220748       -241465303.08163741        1439550673.1138148     
   40431780.225442365       -322366666.78756166        1346522802.6317163     
   23377075.261632442       -429170400.21358538        1253343740.5626009     
  -1448340.6181920469       -561876503.35965371        1160013486.9064651     
  -34044467.414041281       -720484976.22581267        1066532041.6633356     
   1561173834.0271132       -152293285.12518072        1333049285.2286212     
   1505527806.3993962       -80828388.913053989        1360728499.2379279     
   1442471624.8721266       -34064005.699442744        1385006790.8875964     
   1372005289.4453030       -12000135.484339893        1405884160.1776285     
   1294128800.1189291       -14636778.267737865        1423360607.1080167     
   1294846544.2665598        1876547.4993012547        1457791886.2601283     
   1222138594.6413453        23077177.955260038        1457388777.7875884     
   1145672792.3370137        31751632.814158916        1458861482.2357173     
   1065449137.3535614        27899912.075988591        1462209999.6045322     
   981467629.69099486        11522015.740775347        1467434329.8940248     
   959359198.45517421        135298363.30853504        1563040251.6475728     
   884665713.34766126        110757643.96288255        1538815838.7836769     
   809866676.78146625        85865086.421620637        1521743974.1207836     
   734962088.75658810        60620690.684750974        1511824657.6588881     
   659951949.27302897        35024456.752275854        1509057889.3979957     
   554711796.59295380        247972162.30251765        1648794381.3909466     
   493109162.51834345        182213009.10981408        1605009682.2262099     
   435053278.20548624        128276355.12295406        1573654266.5427964     
   380544143.65438354        86162200.341942340        1554728134.3407013     
   329581758.86503291        55870544.766772322        1548231285.6199298     
   80904338.679900393        339897944.48125035        1715054275.4902465     
   47468942.153393477        237443273.39605927        1655970308.1151822     
   21232596.609074961        158985438.91816139        1614592359.5017538     
   2195302.0469458811        104524441.04755954        1590920429.6499691     
  -9642941.5329958722        74060279.784252286        1584954518.5598228     
   1294128800.1189291       -14636778.267737865        1423360607.1080167     
   1258680427.8520091       -14577957.426254749        1418095371.9386339     
   1224027063.4453299       -11869110.383968592        1416009831.7362354     
   1190168706.8988943       -6510237.1408706307        1417103986.5008159     
   1157105358.2127032        1498662.3030456305        1421377836.2323797     
   981467629.69099486        11522015.740775347        1467434329.8940248     
   953594726.60162783        7555611.7723370790        1460223828.7355287     
   926564672.45169270        6398704.2686740756        1456589814.6258421     
   900377467.24119735        8051293.2298085093        1456532287.5649633     
   875033110.97013915        12513378.655732870        1460051247.5528975     
   659951949.27302897        35024456.752275854        1509057889.3979957     
   640788207.02358270        27372935.472623974        1499957936.8427727     
   622515154.79276621        22690380.921736687        1494831263.4181921     
   605132792.58057833        20976793.099610984        1493677869.1242502     
   588641120.38702095        22232172.006253868        1496497753.9609473     
   329581758.86503291        55870544.766772322        1548231285.6199298     
   320260869.11787766        44874013.674617447        1537297696.2603741     
   311878510.46854424        37005919.575200602        1530734178.1132889     
   304434682.91703773        32266262.468540303        1528540731.1786747     
   297929386.46334809        30655042.354603469        1530717355.4565263     
  -9642941.5329958722        74060279.784252286        1584954518.5598228     
  -7987287.1154884882        60058846.378312588        1572243106.9883301     
  -5345260.5209664889        49345320.229087919        1564298558.7111342     
  -1716861.7494311072        41919701.336575381        1561120873.7282374     
   2897909.1991263609        37781989.700801753        1562710052.0396397     
   1157105358.2127032        1498662.3030456305        1421377836.2323797     
   1094516662.2390716        1797921.1339129806        1416352935.6301999     
   1031889857.4644476        1970150.6281392574        1416971769.3414814     
   969224943.88882768        2015350.7857154012        1423234337.3662286     
   906521921.51221085        1933521.6066348553        1435140639.7044396     
   875033110.97013915        12513378.655732870        1460051247.5528975     
   827076852.19962168        11506737.091373771        1453641060.8686719     
   779144674.44103611        10580365.566783965        1453144222.4261246     
   731236577.69437635        9734264.0819492042        1458560732.2252524     
   683352561.95963919        8968432.6368558705        1469890590.2660613     
   588641120.38702095        22232172.006253868        1496497753.9609473     
   556087624.32880497        20150727.699436992        1488774835.9764204     
   523620399.09543478        18356852.808774263        1487234880.1617811     
   491239444.68691337        16850547.334272593        1491877886.5170381     
   458944761.10323691        15631811.275921002        1502703855.0421798     
   297929386.46334809        30655042.354603469        1530717355.4565263     
   281548978.62661266        27729892.958079681        1521754260.9534378     
   265317031.42764449        25299612.354109973        1519243742.5484517     
   249233544.86644214        23364200.542693645        1523185800.2415674     
   233298518.94300517        21923657.523830637        1533580434.0327947     
   2897909.1991263609        37781989.700801753        1562710052.0396397     
   3460915.0930520380        34244232.867318489        1552579335.7997279     
   4234571.4376623742        31408644.202784777        1549170809.5861330     
   5218878.2329640277        29275223.707221773        1552484473.3988562     
   6413835.4789511180        27843971.380610228        1562520327.2378950     
   906521921.51221085        1933521.6066348553        1435140639.7044396     
   860517566.82907510        7118580.0621579885        1432789580.1313519     
   814720960.94246554        12996134.506098270        1434798959.1819322     
   769132103.85237813        19566184.938450515        1441168776.8561888     
   723750995.55881655        26828731.359221578        1451899033.1541128     
   683352561.95963919        8968432.6368558705        1469890590.2660613     
   648165545.19677293        12139467.782946587        1467294820.1588695     
   613038689.33381498        15511039.262064695        1469124415.2073178     
   577971994.37077284        19083147.074235171        1475379375.4114010     
   542965460.30763853        22855791.219432533        1486059700.7711170     
   458944761.10323691        15631811.275921002        1502703855.0421798     
   434760586.63768387        16844474.425694123        1499691188.5215025     
   410488985.17542660        17765714.253119752        1501168813.6884296     
   386129956.71646845        18395530.758210108        1507136730.5429547     
   361683501.26080918        18733923.940961391        1517594939.0850852     
   233298518.94300517        21923657.523830637        1533580434.0327947     
   220302691.15180889        21233599.990401737        1529978685.2192495     
   207071848.46729776        19760159.479257658        1530932154.6252728     
   193605990.88946733        17503335.990382686        1536440842.2508593     
   179905118.41831914        14463129.523782060        1546504748.0960145     
   6413835.4789511180        27843971.380610228        1562520327.2378950     
   4791858.7391489968        25306844.477073882        1558157310.2521036     
   2787279.2094196919        21494374.940448314        1558414438.0178425     
   400096.88976263069        16406562.770730227        1563291710.5351107     
  -2369688.2198213842        10043407.967920903        1572789127.8039112     
   723750995.55881655        26828731.359221578        1451899033.1541128     
   664028757.18506956        29509273.731324434        1450627851.7986825     
   603914375.49308670        30882671.709313661        1454957074.9814334     
   543407850.48286378        30948925.293163747        1464886702.7023711     
   482509182.15440357        29708034.482894704        1480416734.9614940     
   542965460.30763853        22855791.219432533        1486059700.7711170     
   497348323.34807068        23307107.486589521        1484379646.3588939     
   451579939.54850566        23254267.620419756        1488463702.2128448     
   405660308.90895331        22697271.620958850        1498311868.3329616     
   359589431.42940396        21636119.488177508        1513924144.7192543     
   361683501.26080918        18733923.940961391        1517594939.0850852     
   330639196.36679846        17096333.298557565        1515787057.5073574     
   299684541.11103970        15757574.783660352        1519906991.9237912     
   268819535.49353731        14717648.396285638        1529954742.3343816     
   238044179.51429361        13976554.136437058        1545930308.7391248     
   179905118.41831914        14463129.523782060        1546504748.0960145     
   163901376.24125418        10876951.167244829        1544850085.2440820     
   148228180.18069032        8392593.1990459114        1549286944.1142817     
   132885530.23662402        7010055.6191715673        1559815324.7066271     
   117873426.40906450        6729338.4276559800        1576435227.0211105     
  -2369688.2198213842        10043407.967920903        1572789127.8039112     
  -2865137.0285573993        4648961.0926618958        1571568729.5690472     
  -2789143.2425501058        1159322.8665458581        1576603558.7843111     
  -2141706.8617918193       -425506.71039950737        1587893615.4497008     
  -922827.88627778157       -105527.63815903440        1605438899.5652146     
   482509182.15440357        29708034.482894704        1480416734.9614940     
   425419191.07476568        25662561.941829786        1478962398.0149150     
   366118803.81525624        14249102.134526104        1483040972.0191185     
   304608020.37590277       -4532344.9389213920        1492652456.9740980     
   240886840.75667512       -30681779.278621718        1507796852.8798664     
   359589431.42940396        21636119.488177508        1513924144.7192543     
   317171439.02292275        18888175.629607707        1510639909.7342849     
   273069974.39200252        10528657.689579785        1512809486.9280753     
   227285037.53665429       -3442434.3318787664        1520432876.3006327     
   179816628.45685852       -23025100.434826285        1533510077.8519585     
   238044179.51429361        13976554.136437058        1545930308.7391248     
   210072189.28948641        12458340.012915924        1541430920.3304293     
   180943650.79567215        7084964.9927038029        1542306245.3284769     
   150658564.03284195       -2143570.9242252856        1548556283.7332742     
   119216929.00100161       -15227267.737859599        1560181035.5448108     
   117873426.40906450        6729338.4276559800        1576435227.0211105     
   104121441.87445682        6373055.0917520188        1571335429.8033481     
   89739833.026269078        3918024.0439160131        1571531247.2203166     
   74728599.864484519       -635754.71590867266        1577022679.2720044     
   59087742.389111683       -7288281.1876944974        1587809725.9584203     
  -922827.88627778157       -105527.63815903440        1605438899.5652146     
  -680803.22217186668        632320.86609504733        1600353438.1530452     
  -541478.91621579183        1027834.8431836891        1600484492.6035869     
  -504854.96843414847        1081014.2930245730        1605832062.9168329     
  -570931.37881593313        791859.21565264207        1616396149.0927939     
   240886840.75667512       -30681779.278621718        1507796852.8798664     
   200010360.58471754       -60323372.066352800        1486533824.3259349     
   154523022.78015590       -105334490.29610302        1468071784.8469505     
   104424827.34299141       -165715133.96785992        1452410734.4429085     
   49715774.273220748       -241465303.08163741        1439550673.1138148     
   179816628.45685852       -23025100.434826285        1533510077.8519585     
   148553507.80652222       -45527318.496680893        1507784024.6211855     
   113843438.39968416       -79519365.746876121        1485004326.2415090     
   75686420.236358136       -125001242.18536659        1465170982.7129304     
   34082453.316521727       -181972947.81221941        1448283994.0354538     
   119216929.00100161       -15227267.737859599        1560181035.5448108     
   97982498.661304191       -30465511.837119117        1531349851.3259797     
   74465028.441208810       -53313888.871037796        1505610387.7344005     
   48664518.340720549       -83772398.839601398        1482962644.7700799     
   20580968.359834217       -121841041.74282461        1463406622.4330039     
   59087742.389111683       -7288281.1876944974        1587809725.9584203     
   48297333.149062023       -15137952.087669585        1557231304.4403212     
   36387792.904724076       -26718059.668608539        1529889969.3256252     
   23359121.656091891       -42028603.930526771        1505785720.6143420     
   9211319.4031660594       -61069584.873424001        1484918558.3064697     
  -570931.37881593313        791859.21565264207        1616396149.0927939     
  -501988.73019863444        455360.75168106036        1585428383.9642115     
  -388268.20976804593        268121.86042183178        1557843071.0151901     
  -229769.81753066462        230142.54185052513        1533640210.2457321     
  -26493.553476150584        341422.79600438173        1512819801.6558402     
   49715774.273220748       -241465303.08163741        1439550673.1138148     
   40431780.225442365       -322366666.78756166        1346522802.6317163     
   23377075.261632442       -429170400.21358538        1253343740.5626009     
  -1448340.6181920469       -561876503.35965371        1160013486.9064651     
  -34044467.414041281       -720484976.22581267        1066532041.6633356     
   34082453.316521727       -181972947.81221941        1448283994.0354538     
   29890669.854525581       -241790066.65068257        1347745828.0998623     
   19869526.413462594       -321038385.41937113        1246410343.8478549     
   4019022.9933086932       -419717904.11835659        1144277541.2794361     
  -17660840.405906081       -537828622.74755728        1041347420.3946116     
   20580968.359834217       -121841041.74282461        1463406622.4330039     
   19635319.113929562       -161127738.62471381        1357623070.4703479     
   14801660.825897634       -213374465.64702863        1250396073.4618914     
   6079993.4957326949       -278581222.80978578        1141725631.4076326     
  -6529682.8765586466       -356748010.11296499        1031611744.3075521     
   9211319.4031660594       -61069584.873424001        1484918558.3064697     
   9665728.0036560334       -80379682.709645033        1376154529.7431962     
   8173478.4989644960       -106178640.89647663        1265300929.4047189     
   4734570.8890815377       -138466459.43394259        1152357757.2910371     
  -650994.82597169280       -177243138.32198077        1037325013.4021688     
  -26493.553476150584        341422.79600438173        1512819801.6558402     
  -18103.476293235086        454101.09452770418        1403340205.9183841     
  -15020.567348256183        549088.83225651679        1291124911.6763246     
  -17244.826644302055        626386.00918364828        1176173918.9296830     
  -24776.254166252009        685992.62535568455        1058487227.6784421     
   80904338.679900393        339897944.48125035        1715054275.4902465     
   47468942.153393477        237443273.39605927        1655970308.1151822     
   21232596.609074961        158985438.91816139        1614592359.5017538     
   2195302.0469458811        104524441.04755954        1590920429.6499691     
  -9642941.5329958722        74060279.784252286        1584954518.5598228     
  -483844686.57271987        113680466.20435140        1561141118.3925996     
  -459501240.75972593        73326951.879653186        1533370266.0203509     
  -431568199.85700351        44938754.520717323        1518007622.0490420     
  -400045563.86455625        28515874.127529651        1515053186.4786696     
  -364933332.78237891        24058310.700109437        1524506959.3092358     
  -969540445.23137796       -88821032.094360590        1426551748.0240083     
  -902554758.10946321       -71614369.967736602        1425882978.7800426     
  -835588931.79028237       -54473910.516893506        1432324607.5763090     
  -768642966.27383649       -37399653.741831988        1445876634.4128122     
  -701716861.56012404       -20391599.642548710        1466539059.2895484     
  -1376182937.2960753       -267606550.41488436        1311286164.3844724     
  -1281691609.8958194       -197380692.14611295        1333508446.3942487     
  -1190829599.1907609       -139252556.19466257        1357543316.0835555     
  -1103596905.1808963       -93222142.560530007        1383390773.4523957     
  -1019993527.8662279       -59289451.243714392        1411050818.5007656     
  -1703772162.7668102       -422676088.75721765        1215344367.4739926     
  -1596911796.1187930       -303972014.65547115        1256246668.8629730     
  -1497290202.0584364       -209397182.51259083        1293663747.5707810     
  -1404907380.5857344       -138951592.32855910        1327595603.5974181     
  -1319763331.7006891       -92635244.103384078        1358042236.9428840     
  -9642941.5329958722        74060279.784252286        1584954518.5598228     
  -7987287.1154884882        60058846.378312588        1572243106.9883301     
  -5345260.5209664889        49345320.229087919        1564298558.7111342     
  -1716861.7494311072        41919701.336575381        1561120873.7282374     
   2897909.1991263609        37781989.700801753        1562710052.0396397     
  -364933332.78237891        24058310.700109437        1524506959.3092358     
  -349358400.44436234        19570547.982341632        1518486065.3967309     
  -333528454.18536198        15932831.667850882        1516209982.5853553     
  -317443494.00538749        13145161.756608337        1517678710.8751116     
  -301103519.90442663        11207538.248654038        1522892250.2659991     
  -701716861.56012404       -20391599.642548710        1466539059.2895484     
  -675142800.42493093       -16241736.409136117        1466355431.7373228     
  -649045083.62479496       -13679687.625910699        1468894563.0930605     
  -623423711.15971518       -12705453.292873442        1474156453.3567586     
  -598278683.02968836       -13319033.410014659        1482141102.5284216     
  -1019993527.8662279       -59289451.243714392        1411050818.5007656     
  -985340487.05719817       -47378006.796129227        1415851206.0101104     
  -951895148.83925724       -39492237.652172744        1422352300.2342505     
  -919657513.21240938       -35632143.811861873        1430554101.1731851     
  -888627580.17665470       -35797725.275192231        1440456608.8269155     
  -1319763331.7006891       -92635244.103384078        1358042236.9428840     
  -1279951460.3411562       -73838263.178619742        1366973388.2150915     
  -1242078649.8287523       -61504818.410946369        1376583194.0089259     
  -1206144900.1634760       -55634909.800368249        1386871654.3243885     
  -1172150211.3453259       -56228537.346877933        1397838769.1614769     
   2897909.1991263609        37781989.700801753        1562710052.0396397     
   3460915.0930520380        34244232.867318489        1552579335.7997279     
   4234571.4376623742        31408644.202784777        1549170809.5861330     
   5218878.2329640277        29275223.707221773        1552484473.3988562     
   6413835.4789511180        27843971.380610228        1562520327.2378950     
  -301103519.90442663        11207538.248654038        1522892250.2659991     
  -282805614.90790999        10382828.384475514        1515112858.1653652     
  -264416217.65098017        9863092.7216742188        1513627418.3551855     
  -245935328.13362855        9648331.2602787316        1518435930.8354557     
  -227362946.35586190        9738544.0002672225        1529538395.6061802     
  -598278683.02968836       -13319033.410014659        1482141102.5284216     
  -563469415.31876910       -11797757.221341521        1476574016.6784210     
  -528687813.53770226       -10368700.798846900        1476872645.3830073     
  -493933877.68649191       -9031864.1425388753        1483036988.6421781     
  -459207607.76513851       -7787247.2524198294        1495067046.4559336     
  -888627580.17665470       -35797725.275192231        1440456608.8269155     
  -838530486.13952100       -32297523.950123966        1436962811.3388968     
  -788580216.22251296       -29286736.358807892        1438906490.6695955     
  -738776770.42562938       -26765362.501242071        1446287646.8190134     
  -689120148.74887478       -24733402.377435654        1459106279.7871492     
  -1172150211.3453259       -56228537.346877933        1397838769.1614769     
  -1107988827.3701670       -51116471.801871359        1396279242.1467879     
  -1044093425.7054027       -46891013.958178520        1399728954.2149518     
  -980464006.35104251       -43552163.815832734        1408187905.3659694     
  -917100569.30707633       -41099921.374801040        1421656095.5998414     
   6413835.4789511180        27843971.380610228        1562520327.2378950     
   4791858.7391489968        25306844.477073882        1558157310.2521036     
   2787279.2094196919        21494374.940448314        1558414438.0178425     
   400096.88976263069        16406562.770730227        1563291710.5351107     
  -2369688.2198213842        10043407.967920903        1572789127.8039112     
  -227362946.35586190        9738544.0002672225        1529538395.6061802     
  -216946648.36117756        7244291.5998381525        1525527140.7171686     
  -206712594.27888244        4142559.4914453626        1526146058.2947409     
  -196660784.10897857        433347.67508450150        1531395148.3389075     
  -186791217.85145831       -3883343.8492275402        1541274410.8496556     
  -459207607.76513851       -7787247.2524198294        1495067046.4559336     
  -436724384.42152512       -10230029.965420559        1491641305.6874974     
  -414223046.11275667       -12612429.461236298        1492855765.1007056     
  -391703592.83884132       -14934445.739897743        1498710424.6955593     
  -369166024.59977382       -17196078.801382884        1509205284.4720540     
  -689120148.74887478       -24733402.377435654        1459106279.7871492     
  -654541349.44188237       -27116120.218663841        1456499805.1630926     
  -619744076.29219723       -28770591.917584330        1458543558.4357314     
  -584728329.29982674       -29696817.474216789        1465237539.6050708     
  -549494108.46476150       -29894796.888538212        1476581748.6711099     
  -917100569.30707633       -41099921.374801040        1421656095.5998414     
  -870397543.42225957       -43413979.159929693        1420102639.1439519     
  -823275684.81721079       -44331927.877613366        1423209438.2998180     
  -775734993.49193358       -43853767.527871251        1430976493.0674429     
  -727775469.44642425       -41979498.110689402        1443403803.4468231     
  -2369688.2198213842        10043407.967920903        1572789127.8039112     
  -2865137.0285573993        4648961.0926618958        1571568729.5690472     
  -2789143.2425501058        1159322.8665458581        1576603558.7843111     
  -2141706.8617918193       -425506.71039950737        1587893615.4497008     
  -922827.88627778157       -105527.63815903440        1605438899.5652146     
  -186791217.85145831       -3883343.8492275402        1541274410.8496556     
  -170439591.63639915       -6069767.8496912569        1541135680.0586200     
  -153783315.22108087       -7240691.1826262251        1546960697.3261945     
  -136822388.60549733       -7396113.8480101600        1558749462.6523774     
  -119556811.78966050       -6536035.8458845504        1576501976.0371778     
  -369166024.59977382       -17196078.801382884        1509205284.4720540     
  -336800121.62238503       -16424319.405479342        1509836963.3312764     
  -304396360.83922702       -15526367.323677093        1516140910.8575914     
  -271954742.25029856       -14502222.555976376        1528117127.0509982     
  -239475265.85560209       -13351885.102377728        1545765611.9115098     
  -549494108.46476150       -29894796.888538212        1476581748.6711099     
  -501946726.98651689       -26414693.574712038        1477672579.3870175     
  -454628280.09699011       -23697705.556615949        1484144199.3785009     
  -407538767.79618639       -21743832.834261820        1495996608.6455662     
  -360678190.08409983       -20553075.407631099        1513229807.1882119     
  -727775469.44642425       -41979498.110689402        1443403803.4468231     
  -665879407.72879410       -36040890.357385010        1444642528.2258410     
  -604479072.99437129       -31754705.881440282        1450970562.8889263     
  -543574465.24315917       -29120944.682862759        1462387907.4360759     
  -483165584.47515893       -28139606.761659518        1478894561.8672926     
  -922827.88627778157       -105527.63815903440        1605438899.5652146     
  -680803.22217186668        632320.86609504733        1600353438.1530452     
  -541478.91621579183        1027834.8431836891        1600484492.6035869     
  -504854.96843414847        1081014.2930245730        1605832062.9168329     
  -570931.37881593313        791859.21565264207        1616396149.0927939     
  -119556811.78966050       -6536035.8458845504        1576501976.0371778     
  -105518355.71074949       -5397746.9879970327        1571252292.4253783     
  -90962782.528689787       -2535734.4529441372        1571306323.1883483     
  -75890092.243480757        2050001.7592730857        1576664068.3260810     
  -60300284.855112575        8359461.6486846358        1587325527.8385773     
  -239475265.85560209       -13351885.102377728        1545765611.9115098     
  -211391239.75602615       -11738414.309128806        1541074826.4716222     
  -182170279.09197775       -6335161.6343094856        1541774953.9185572     
  -151812383.86346900        2857872.9220457673        1547865994.2523069     
  -120317554.07049033        15840689.359968975        1559347947.4728811     
  -360678190.08409983       -20553075.407631099        1513229807.1882119     
  -318299455.35798776       -18389681.097267702        1509821040.2917721     
  -274163968.60608727       -10370446.700937957        1511890384.7942038     
  -228271729.82840642        3504627.7813237011        1519437840.6955121     
  -180622739.02493584        23235542.349551313        1532463407.9956894     
  -483165584.47515893       -28139606.761659518        1478894561.8672926     
  -426243002.51663029       -25351547.352384284        1477490933.8858304     
  -366943851.07100594       -14641589.652787521        1481652615.8152988     
  -305268130.13828784        3990266.3371205032        1491379607.6556978     
  -241215839.71846130        30544020.617389664        1506671909.4070201     
  -570931.37881593313        791859.21565264207        1616396149.0927939     
  -501988.73019863444        455360.75168106036        1585428383.9642115     
  -388268.20976804593        268121.86042183178        1557843071.0151901     
  -229769.81753066462        230142.54185052513        1533640210.2457321     
  -26493.553476150584        341422.79600438173        1512819801.6558402     
  -60300284.855112575        8359461.6486846358        1587325527.8385773     
  -49299134.395082995        15853979.562790964        1556885377.2654736     
  -37126097.673457123        27254785.015552308        1529665007.5112534     
  -23781174.690221906        42561878.007010043        1505664418.5759268     
  -9264365.4453870207        61775258.537135452        1484883610.4594872     
  -120317554.07049033        15840689.359968975        1559347947.4728811     
  -98848971.115264788        31026791.057281673        1530750371.2433372     
  -75081393.508644789        53876208.259238198        1505209904.4720123     
  -49014821.250638589        84388940.965818197        1482726547.1589005     
  -20649254.341228262        122564989.17707741        1463300299.3040047     
  -180622739.02493584        23235542.349551313        1532463407.9956894     
  -149151498.89072984        45973795.235199057        1507023365.8978090     
  -114254155.71533191        80132391.591485083        1484477761.8974645     
  -75930709.498756886        125711331.41835938        1464826595.9946597     
  -34181160.241004474        182710614.71583056        1448069868.1893926     
  -241215839.71846130        30544020.617389664        1506671909.4070201     
  -200206717.72147933        60694992.096537769        1485704361.2288764     
  -154644384.29353011        106023335.01224533        1467468579.7876000     
  -104528839.43460870        166529049.36452556        1451964565.0831883     
  -49860083.144700944        242212135.15342766        1439192317.1156392     
  -26493.553476150584        341422.79600438173        1512819801.6558402     
  -18103.476293235086        454101.09452770418        1403340205.9183841     
  -15020.567348256183        549088.83225651679        1291124911.6763246     
  -17244.826644302055        626386.00918364828        1176173918.9296830     
  -24776.254166252009        685992.62535568455        1058487227.6784421     
  -9264365.4453870207        61775258.537135452        1484883610.4594872     
  -9721210.9105735645        81227989.546386391        1376110867.0834458     
  -8230307.3238403425        107173217.39537264        1265252859.6307764     
  -4791654.6851953641        139610942.08406270        1152309588.1014814     
   594747.00535520166        178541163.61244214        1037281052.4955423     
  -20649254.341228262        122564989.17707741        1463300299.3040047     
  -19712951.268868007        161915288.12108412        1357512973.8795485     
  -14875842.924452975        214268271.30527174        1250290818.8064344     
  -6137929.3079751730        279623938.72966623        1141633834.0846410     
   6500789.5805474520        357982290.39421654        1031542019.7142071     
  -34181160.241004474        182710614.71583056        1448069868.1893926     
  -29993324.551196113        242515996.81855679        1347546526.3066914     
  -19951627.369191587        321834250.56193686        1246238789.2032843     
  -4056068.6949785948        420665375.94601941        1144146656.8791885     
   17693351.471417844        539009372.97070098        1041270129.3343961     
  -49860083.144700944        242212135.15342766        1439192317.1156392     
  -40562330.757554397        323030115.63881373        1346211524.3648641     
  -23457660.658059388        429871155.16536146        1253096770.8213546     
   1453927.1537851095        562735253.73307240        1159848056.4851208     
   34172432.677959651        721622411.34188688        1066465381.3561332     
  -1703772162.7668102       -422676088.75721765        1215344367.4739926     
  -1596911796.1187930       -303972014.65547115        1256246668.8629730     
  -1497290202.0584364       -209397182.51259083        1293663747.5707810     
  -1404907380.5857344       -138951592.32855910        1327595603.5974181     
  -1319763331.7006891       -92635244.103384078        1358042236.9428840     
  -1927120591.8201232       -224333355.44100767        1270052582.8066292     
  -1838368524.8748589       -162093939.91347277        1278660166.2465088     
  -1753161004.5160670       -111669679.67418438        1289853816.8825679     
  -1671498030.7437506       -73060574.723142445        1303633534.7148087     
  -1593379603.5579057       -46266625.060345531        1319999319.7432292     
  -2233440716.2149525       -50882130.727250934        1302978075.7936842     
  -2145450406.4657218       -39903411.021905184        1283600871.6191795     
  -2057310417.3017824       -28425759.934203386        1272881024.5182035     
  -1969020748.7231345       -16449177.464134455        1270818534.4907596     
  -1880581400.7297752       -3973663.6117044687        1277413401.5368474     
  -2622732535.9513111        97677585.384045482        1314120846.4351602     
  -2518157440.8913918        62599572.019216180        1271068784.9809813     
  -2409738440.4155831        40334576.707353592        1242745370.4776835     
  -2297475534.5238853        30882599.448459387        1229150602.9252665     
  -2181368723.2162910        34243640.242545247        1230284482.3237352     
  -3094996051.0291820        221345792.89288974        1303480894.7310576     
  -2956489628.1518602        145415009.20989799        1241063906.3319168     
  -2810445073.8574686        94611330.250482798        1199446854.7610080     
  -2656862388.1460018        68934756.014651179        1178629740.0183358     
  -2495741571.0174613        68385286.502395034        1178612562.1038940     
  -1319763331.7006891       -92635244.103384078        1358042236.9428840     
  -1279951460.3411562       -73838263.178619742        1366973388.2150915     
  -1242078649.8287523       -61504818.410946369        1376583194.0089259     
  -1206144900.1634760       -55634909.800368249        1386871654.3243885     
  -1172150211.3453259       -56228537.346877933        1397838769.1614769     
  -1593379603.5579057       -46266625.060345531        1319999319.7432292     
  -1554148926.5347624       -38509496.897315145        1322648902.5359364     
  -1516233370.9147720       -35136106.744794786        1326720416.5701947     
  -1479632936.6979504       -36146454.602836788        1332213861.8460071     
  -1444347623.8842819       -41540540.471396208        1339129238.3633659     
  -1880581400.7297752       -3973663.6117044687        1277413401.5368474     
  -1839808270.2718055       -6619293.8790351152        1274509345.2013505     
  -1799726321.7730188       -11568864.010321498        1273770496.8273287     
  -1760335555.2334344       -18822374.005608320        1275196856.4147820     
  -1721635970.6530385       -28379823.864857972        1278788423.9637132     
  -2181368723.2162910        34243640.242545247        1230284482.3237352     
  -2136929491.5522804        21832345.876218677        1222554716.2113283     
  -2092557502.4034934        9196909.7924752235        1217733434.7803204     
  -2048252755.7699299       -3662668.0086765289        1215820638.0307143     
  -2004015251.6515946       -16746387.527256370        1216816325.9625082     
  -2495741571.0174613        68385286.502395034        1178612562.1038940     
  -2445512590.3762007        46845422.368425727        1166785015.5658734     
  -2394726912.8061857        27161214.663630724        1158609230.4291775     
  -2343384538.3074408        9332663.3879415989        1154085206.6938040     
  -2291485466.8799486       -6640231.4585940838        1153212944.3597562     
  -1172150211.3453259       -56228537.346877933        1397838769.1614769     
  -1107988827.3701670       -51116471.801871359        1396279242.1467879     
  -1044093425.7054027       -46891013.958178520        1399728954.2149518     
  -980464006.35104251       -43552163.815832734        1408187905.3659694     
  -917100569.30707633       -41099921.374801040        1421656095.5998414     
  -1444347623.8842819       -41540540.471396208        1339129238.3633659     
  -1367241949.8549495       -36794250.329845369        1335486139.3666728     
  -1290407351.5793240       -32951546.033977270        1336875357.1911335     
  -1213843829.0574017       -30012427.583789945        1343296891.8367476     
  -1137551382.2891874       -27976894.979298711        1354750743.3035178     
  -1721635970.6530385       -28379823.864857972        1278788423.9637132     
  -1631520070.1743860       -23979528.208213985        1273055810.6344860     
  -1541680338.8927472       -20499796.541616917        1272378591.8647153     
  -1452116776.8081231       -17940628.865065992        1276756767.6543992     
  -1362829383.9205093       -16302025.178554595        1286190338.0035396     
  -2004015251.6515946       -16746387.527256370        1216816325.9625082     
  -1900823188.3284733       -12672305.436985254        1208988255.9502234     
  -1797912387.6456754       -9535765.4811097383        1206238658.2356977     
  -1695282849.6031990       -7336767.6596466303        1208567532.8189299     
  -1592934574.2010443       -6075311.9725836515        1215974879.6999185     
  -2291485466.8799486       -6640231.4585940838        1153212944.3597562     
  -2175151304.3172126       -2872582.0161336660        1143283475.3138883     
  -2059103497.8381109       -59452.852458596230        1138455556.3040814     
  -1943342047.4426322        1799156.0324728489        1138729187.3303294     
  -1827866953.1307862        2703244.6386320591        1144104368.3926392     
  -917100569.30707633       -41099921.374801040        1421656095.5998414     
  -870397543.42225957       -43413979.159929693        1420102639.1439519     
  -823275684.81721079       -44331927.877613366        1423209438.2998180     
  -775734993.49193358       -43853767.527871251        1430976493.0674429     
  -727775469.44642425       -41979498.110689402        1443403803.4468231     
  -1137551382.2891874       -27976894.979298711        1354750743.3035178     
  -1079215254.0785470       -31421934.606170535        1351818700.3623886     
  -1020669814.9476657       -34169271.165578544        1353435937.8697717     
  -961915064.89654839       -36218904.657533348        1359602455.8256662     
  -902951003.92519939       -37570835.082048744        1370318254.2300737     
  -1362829383.9205093       -16302025.178554595        1286190338.0035396     
  -1293177225.2790232       -20973168.215656400        1281635266.4771802     
  -1223525277.5172970       -25645014.185290515        1281518500.2360821     
  -1153873540.6353295       -30317563.087452173        1285840039.2802546     
  -1084222014.6331244       -34990814.922156334        1294599883.6096904     
  -1592934574.2010443       -6075311.9725836515        1215974879.6999185     
  -1512283457.0237007       -12067679.988415122        1209552337.4883225     
  -1431842072.5261111       -18759156.936760247        1207457125.3987532     
  -1351610420.7082763       -26149742.817620635        1209689243.4312046     
  -1271588501.5701988       -34239437.631000459        1216248691.5856788     
  -1827866953.1307862        2703244.6386320591        1144104368.3926392     
  -1736533949.3125691       -4705469.9244244099        1135569913.3958225     
  -1645620199.9741054       -13511699.419985712        1131251813.3577847     
  -1555125705.1153877       -23715443.848035514        1131150068.2785249     
  -1465050464.7364247       -35316703.208603263        1135264678.1580398     
  -727775469.44642425       -41979498.110689402        1443403803.4468231     
  -665879407.72879410       -36040890.357385010        1444642528.2258410     
  -604479072.99437129       -31754705.881440282        1450970562.8889263     
  -543574465.24315917       -29120944.682862759        1462387907.4360759     
  -483165584.47515893       -28139606.761659518        1478894561.8672926     
  -902951003.92519939       -37570835.082048744        1370318254.2300737     
  -828992773.24597156       -34570141.451529235        1368845255.8502867     
  -755339871.19510150       -32587209.915534705        1372239519.2775393     
  -681992297.77260149       -31622040.474112958        1380501044.5118253     
  -608950052.97846448       -31674633.127229303        1393629831.5531499     
  -1084222014.6331244       -34990814.922156334        1294599883.6096904     
  -998836038.06952357       -35118362.337577522        1290637293.4850898     
  -913564991.77944255       -35629010.664725751        1291319917.0904946     
  -828408875.76288009       -36522759.903610647        1296647754.4259033     
  -743367690.01984191       -37799610.054237247        1306620805.4913218     
  -1271588501.5701988       -34239437.631000459        1216248691.5856788     
  -1175409202.1994512       -37685553.015515983        1210018641.1302447     
  -1079154434.7473855       -40880108.128977358        1208211756.3277888     
  -982824199.21399629       -43823102.971354663        1210828037.1783059     
  -886418495.59928274       -46514537.542655915        1217867483.6817999     
  -1465050464.7364247       -35316703.208603263        1135264678.1580398     
  -1358712265.6357722       -42271713.485429049        1126989298.7857590     
  -1252108200.0989411       -48340502.308326125        1122915036.9894204     
  -1145238268.1259484       -53523069.677352726        1123041892.7690353     
  -1038102469.7167917       -57819415.592494965        1127369866.1245885     
  -483165584.47515893       -28139606.761659518        1478894561.8672926     
  -426243002.51663029       -25351547.352384284        1477490933.8858304     
  -366943851.07100594       -14641589.652787521        1481652615.8152988     
  -305268130.13828784        3990266.3371205032        1491379607.6556978     
  -241215839.71846130        30544020.617389664        1506671909.4070201     
  -608950052.97846448       -31674633.127229303        1393629831.5531499     
  -537523619.65865541       -29140895.447090268        1391992656.6457827     
  -463766973.90241420       -18839782.978844836        1396005670.1967380     
  -387680115.70974839       -771295.72252026200        1405668872.2060089     
  -309263045.08065867        25064566.321884975        1420982262.6735988     
  -743367690.01984191       -37799610.054237247        1306620805.4913218     
  -657194895.20334935       -35447441.062606871        1304696000.4322686     
  -568738245.00109267       -25482420.785103977        1308506262.3789263     
  -477997739.41308355       -7904549.2217568755        1318051591.3312867     
  -384973378.43931878        17286173.627444759        1333331987.2893643     
  -886418495.59928274       -46514537.542655915        1217867483.6817999     
  -785256829.15070701       -44271184.198917598        1215600965.2452765     
  -681857664.36703074       -34569503.071520656        1219154392.3618536     
  -576221001.24828053       -17409494.160542011        1228527765.0315254     
  -468346839.79443955        7208842.5340780020        1243721083.2543051     
  -1038102469.7167917       -57819415.592494965        1127369866.1245885     
  -921709421.50072825       -55612124.856024116        1124707551.0848093     
  -803125232.00023961       -46101029.838138491        1127950060.1455286     
  -682349901.21534514       -29286130.538897365        1137097393.3067312     
  -559383429.14602971       -5167426.9582562149        1152149550.5684257     
  -241215839.71846130        30544020.617389664        1506671909.4070201     
  -200206717.72147933        60694992.096537769        1485704361.2288764     
  -154644384.29353011        106023335.01224533        1467468579.7876000     
  -104528839.43460870        166529049.36452556        1451964565.0831883     
  -49860083.144700944        242212135.15342766        1439192317.1156392     
  -309263045.08065867        25064566.321884975        1420982262.6735988     
  -259474389.57245094        55587006.844441265        1404337293.0704713     
  -203263131.32633978        107518123.16000159        1391628320.4214056     
  -140629270.34233814        180857915.26853251        1382855344.7264004     
  -71572806.620431259        275606383.17008376        1378018365.9854569     
  -384973378.43931878        17286173.627444759        1333331987.2893643     
  -322964531.65645981        49212280.522440255        1323190552.7859962     
  -252663690.82877898        108778367.56684235        1318189345.4538836     
  -174070855.95626920        195984434.76067227        1318328365.2930317     
  -87186027.038929209        310830482.10393965        1323607612.3034451     
  -468346839.79443955        7208842.5340780020        1243721083.2543051     
  -390677143.97351331        41570813.130522519        1242264140.3754456     
  -302846062.80083489        109804068.23280473        1247151654.8850439     
  -204853596.27639818        211908607.84095603        1258383626.7830966     
  -96699744.400207713        347884431.95493972        1275960056.0696146     
  -559383429.14602971       -5167426.9582562149        1152149550.5684257     
  -462612226.52360767        32662604.668689191        1161558055.8388209     
  -353810247.24250835        110595225.15789185        1178515248.7148752     
  -232977491.30273008        228630434.50935474        1203021129.1965861     
  -100113958.70425844        386768232.72313476        1235075697.2839484     
  -49860083.144700944        242212135.15342766        1439192317.1156392     
  -40562330.757554397        323030115.63881373        1346211524.3648641     
  -23457660.658059388        429871155.16536146        1253096770.8213546     
   1453927.1537851095        562735253.73307240        1159848056.4851208     
   34172432.677959651        721622411.34188688        1066465381.3561332     
  -71572806.620431259        275606383.17008376        1378018365.9854569     
  -57421250.142657697        377269595.29773974        1296570204.4725192     
  -34272813.062548250        508922409.43317866        1214179261.1353505     
  -2127495.3801008463        670564825.57641304        1130845535.9739449     
   39014702.904669076        862196843.72739887        1046569028.9883097     
  -87186027.038929209        310830482.10393965        1323607612.3034451     
  -70491583.703387350        432645650.70399451        1255080372.0666740     
  -43610296.875518739        588416964.27847207        1184801528.9741595     
  -6542166.5553281605        778144422.82735825        1112771083.0259302     
   40712807.257188737        1001828026.3506672        1038989034.2219522     
  -96699744.400207713        347884431.95493972        1275960056.0696146     
  -79773331.439756125        489158281.85753590        1221742027.1473212     
  -51470112.096977085        668354819.70121539        1164963574.3377948     
  -11790086.371891260        885474045.48592579        1105624697.6410468     
   39266745.735504866        1140515959.2116678        1043725397.0570571     
  -100113958.70425844        386768232.72313476        1235075697.2839484     
  -85266493.351745874        546807488.75842428        1196555169.7144597     
  -57852258.726929247        748735975.70139408        1154665397.2262485     
  -17871254.829805017        992553693.55204749        1109406379.8193011     
   34676518.339627087        1278260642.3104105        1060778117.4936241     
  -3094996051.0291820        221345792.89288974        1303480894.7310576     
  -2956489628.1518602        145415009.20989799        1241063906.3319168     
  -2810445073.8574686        94611330.250482798        1199446854.7610080     
  -2656862388.1460018        68934756.014651179        1178629740.0183358     
  -2495741571.0174613        68385286.502395034        1178612562.1038940     
  -3651613961.7396879        58491790.964141846        1090178635.0024533     
  -3450322963.4391847        43575735.133696318        1060615860.1691329     
  -3245815026.1388016        39382809.302851677        1044468653.9440544     
  -3038090149.8385396        45913013.471607327        1041737016.3272176     
  -2827148334.5383959        63166347.639966607        1052420947.3186227     
  -4121738710.7380185       -78414262.450953484        895619899.78346431     
  -3878761331.9285989       -38645048.903132677        893869947.36257303     
  -3636888206.5364838       -2556680.0796830654        898151195.32993042     
  -3396119334.5616879        29850844.019383669        908463643.68554020     
  -3156454716.0042019        58577523.394079685        924807292.42940128     
  -4505370298.0241833       -189372367.35240030        719804689.07409191     
  -4241804733.6200991       -101247342.90058756        740826167.91223478     
  -3983664615.0505219       -31207137.897125721        760494478.91863883     
  -3730949942.3154492        20748247.657981157        778809622.09330261     
  -3483660715.4148855        54618813.764731407        795771597.43622470     
  -4802508723.5981750       -274382523.74019289        562733002.87433267     
  -4539453168.5136957       -144231146.85867095        601484521.81812155     
  -4286144251.6809068       -46568564.149470329        631498504.71017849     
  -4042581973.0998249        18605224.387379408        652774951.55050576     
  -3808766332.7704401        51290218.751918554        665313862.33909786     
  -2495741571.0174613        68385286.502395034        1178612562.1038940     
  -2445512590.3762007        46845422.368425727        1166785015.5658734     
  -2394726912.8061857        27161214.663630724        1158609230.4291775     
  -2343384538.3074408        9332663.3879415989        1154085206.6938040     
  -2291485466.8799486       -6640231.4585940838        1153212944.3597562     
  -2827148334.5383959        63166347.639966607        1052420947.3186227     
  -2767766212.2989950        40829274.247843981        1041997967.0442528     
  -2707725754.0983233        20686654.059945583        1035148074.8882405     
  -2647026959.9363761        2738487.0762972832        1031871270.8505851     
  -2585669829.8131700       -13015226.703138709        1032167554.9312900     
  -3156454716.0042019        58577523.394079685        924807292.42940128     
  -3088144232.9751372        35375806.501249313        915907457.28996217     
  -3019073774.9522762        14707339.587738991        910502036.98591411     
  -2949243341.9356189       -3427877.3464493752        908591031.51725960     
  -2878652933.9251642       -19029844.301316857        910174440.88399339     
  -3483660715.4148855        54618813.764731407        795771597.43622470     
  -3406646652.4046326        30485019.128646612        788513486.30300069     
  -3328770975.3680592        9223271.2469713688        784671116.72220254     
  -3250033684.3051596       -9166429.8802820444        784244488.69382799     
  -3170434779.2159395       -24684084.253131747        787233602.21788418     
  -3808766332.7704401        51290218.751918554        665313862.33909786     
  -3723273470.5874734        26156912.130049944        659816054.08336842     
  -3636817355.3456669        4234449.0376594067        657655314.09710252     
  -3549397987.0449991       -14477170.525202036        658831642.38028979     
  -3461015365.6854849       -29977946.558571100        663345038.93294132     
  -2291485466.8799486       -6640231.4585940838        1153212944.3597562     
  -2175151304.3172126       -2872582.0161336660        1143283475.3138883     
  -2059103497.8381109       -59452.852458596230        1138455556.3040814     
  -1943342047.4426322        1799156.0324728489        1138729187.3303294     
  -1827866953.1307862        2703244.6386320591        1144104368.3926392     
  -2585669829.8131700       -13015226.703138709        1032167554.9312900     
  -2455449460.6598330       -7555018.5792305470        1022364901.9159086     
  -2325521526.2407489       -3069592.9028387070        1017751805.7769043     
  -2195886026.5559182        441050.32604062557        1018328266.5142730     
  -2066542961.6053491        2976911.1073905230        1024094284.1280212     
  -2878652933.9251642       -19029844.301316857        910174440.88399339     
  -2734294910.0660343       -11801643.061397552        900491512.14003754     
  -2590235399.5917807       -5568486.4377431870        896086147.11277282     
  -2446474402.5024147       -330374.43036794662        896958345.80220258     
  -2303011918.7979236        3912692.9607421160        903108108.20832574     
  -3170434779.2159395       -24684084.253131747        787233602.21788418     
  -3011687652.5358205       -15612455.462638617        777663305.98628199     
  -2853245117.8912039       -7556133.4571517706        773458580.31169522     
  -2695107175.2821050       -515118.23672807217        774619425.19411576     
  -2537273824.7085047        5510590.1986933947        781145840.63354778     
  -3461015365.6854849       -29977946.558571100        663345038.93294132     
  -3287627688.0691919       -18987455.782958746        653880283.45463657     
  -3114550681.1390233       -9032533.9611010551        649869105.37366295     
  -2941784344.8949962       -113181.09304904938        651311504.69001400     
  -2769328679.3371000        7770602.8212405443        658207481.40369248     
  -1827866953.1307862        2703244.6386320591        1144104368.3926392     
  -1736533949.3125691       -4705469.9244244099        1135569913.3958225     
  -1645620199.9741054       -13511699.419985712        1131251813.3577847     
  -1555125705.1153877       -23715443.848035514        1131150068.2785249     
  -1465050464.7364247       -35316703.208603263        1135264678.1580398     
  -2066542961.6053491        2976911.1073905230        1024094284.1280212     
  -1964766168.4497430       -3735796.0305219889        1015602079.6012787     
  -1863342228.2834747       -11624679.799569607        1010766587.1233351     
  -1762271141.1065364       -20689740.199712634        1009587806.6941847     
  -1661552906.9189386       -30930977.230989337        1012065738.3138392     
  -2303011918.7979236        3912692.9607421160        903108108.20832574     
  -2192390316.0477271       -2583700.6748726368        894735622.55713904     
  -2082055164.7964501       -10034932.640227437        889460206.04477406     
  -1972006465.0440962       -18441002.935322881        887281858.67122138     
  -1862244216.7906623       -27801911.560151696        888200580.43649638     
  -2537273824.7085047        5510590.1986933947        781145840.63354778     
  -2419406392.1065154       -1249183.8574662209        772970542.26340485     
  -2301759009.5130324       -8742457.9419779778        767332670.12209570     
  -2184331676.9280553       -16969232.054841280        764232224.20962930     
  -2067124394.3515890       -25929506.196078181        763669204.52600336     
  -2769328679.3371000        7770602.8212405443        658207481.40369248     
  -2645814396.6261153        267754.42170989513        650306838.72007334     
  -2522453762.4332209       -7747255.7047952414        644383979.35530972     
  -2399246776.7584209       -16274427.558284760        640438903.30940485     
  -2276193439.6017141       -25313761.138750911        638471610.58236182     
  -1465050464.7364247       -35316703.208603263        1135264678.1580398     
  -1358712265.6357722       -42271713.485429049        1126989298.7857590     
  -1252108200.0989411       -48340502.308326125        1122915036.9894204     
  -1145238268.1259484       -53523069.677352726        1123041892.7690353     
  -1038102469.7167917       -57819415.592494965        1127369866.1245885     
  -1661552906.9189386       -30930977.230989337        1012065738.3138392     
  -1544102968.5268800       -36243836.559158921        1002533272.8964121     
  -1426360265.2058532       -40580812.790765584        996968223.75443649     
  -1308324796.9558620       -43941905.925821424        995370590.88790095     
  -1189996563.7769029       -46327115.964326203        997740374.29681480     
  -1862244216.7906623       -27801911.560151696        888200580.43649638     
  -1734350257.1086211       -31672935.340083718        877442410.54885888     
  -1606136634.0048223       -34478414.380815506        870417955.63616586     
  -1477603347.4792552       -36218348.682317257        867127215.69842052     
  -1348750397.5319271       -36892738.244617939        867570190.73561847     
  -2067124394.3515890       -25929506.196078181        763669204.52600336     
  -1929454131.3810024       -28559009.828214765        751716711.74308217     
  -1791437306.4958553       -30033307.078484535        743264232.63460898     
  -1653073919.6961429       -30352397.946866572        738311767.20058346     
  -1514363970.9818728       -29516282.433396161        736859315.44100595     
  -2276193439.6017141       -25313761.138750911        638471610.58236182     
  -2129414591.3440027       -26902060.023504734        625356176.47909665     
  -1982262282.6789515       -27245490.883784175        615507054.74977493     
  -1834736513.6065159       -26344053.719465852        608924245.39439857     
  -1686837284.1267319       -24197748.530634940        605607748.41296697     
  -1038102469.7167917       -57819415.592494965        1127369866.1245885     
  -921709421.50072825       -55612124.856024116        1124707551.0848093     
  -803125232.00023961       -46101029.838138491        1127950060.1455286     
  -682349901.21534514       -29286130.538897365        1137097393.3067312     
  -559383429.14602971       -5167426.9582562149        1152149550.5684257     
  -1189996563.7769029       -46327115.964326203        997740374.29681480     
  -1060181232.9296772       -42749715.010604024        993851916.80057085     
  -928999448.31355393       -34617468.160549372        994067288.71613598     
  -796451209.92855501       -21930375.414253056        998386490.04350567     
  -662536517.77465987       -4688436.7716229558        1006809520.7826840     
  -1348750397.5319271       -36892738.244617939        867570190.73561847     
  -1210658483.1640663       -33488936.806811035        861493455.34813309     
  -1072024802.5428411       -28279247.857785523        857719554.68376338     
  -932849355.66825426       -21263671.397555530        856248488.74252272     
  -793132142.54029679       -12442207.426091731        857080257.52440548     
  -1514363970.9818728       -29516282.433396161        736859315.44100595     
  -1373141172.2038956       -27829790.244655848        727632166.72748852     
  -1232201294.6880894       -27086368.929809868        718906858.04841292     
  -1091544338.4344344       -27286018.488808930        710683389.40377760     
  -951170303.44293571       -28428738.921657801        702961760.79358673     
  -1686837284.1267319       -24197748.530634940        605607748.41296697     
  -1547629300.0491683       -25772275.324130416        592268050.93864477     
  -1409528924.7492852       -31038831.376575291        577629198.81008291     
  -1272536158.2270963       -39997416.687991023        561691192.02727878     
  -1136651000.4825859       -52648031.258340538        544454030.59023225     
  -559383429.14602971       -5167426.9582562149        1152149550.5684257     
  -462612226.52360767        32662604.668689191        1161558055.8388209     
  -353810247.24250835        110595225.15789185        1178515248.7148752     
  -232977491.30273008        228630434.50935474        1203021129.1965861     
  -100113958.70425844        386768232.72313476        1235075697.2839484     
  -662536517.77465987       -4688436.7716229558        1006809520.7826840     
  -547321798.49123108        25541854.527500480        1020409068.6173595     
  -421210888.23980045        92092782.386639446        1042401035.5843451     
  -284203787.02035415        194964346.80581647        1072785421.6836392     
  -136300494.83289713        334156547.78504837        1111562226.9152389     
  -793132142.54029679       -12442207.426091731        857080257.52440548     
  -657063245.09114254        10911541.996620357        873547164.61757696     
  -511232742.36464775        66803975.677135527        899250222.36970830     
  -355640634.36081761        155235093.61543345        934189430.78079987     
  -190286921.07964680        276204895.81153536        978364789.85085511     
  -951170303.44293571       -28428738.921657801        702961760.79358673     
  -791836566.32333052       -11228332.923930228        720972343.83946776     
  -623875809.61706245        34728805.029340535        749062809.07096255     
  -447288033.32411802        109442674.93819577        787233156.48807216     
  -262073237.44451582        212913276.80258313        835483386.09079778     
  -1136651000.4825859       -52648031.258340538        544454030.59023225     
  -951641762.18781126       -40877770.234185338        562684606.28303540     
  -759140089.99702716       -4132729.5566878915        591838795.68811035     
  -559145983.91025662        57587090.774101257        631916598.80545080     
  -351659443.92749453        144281690.75821137        682918015.63505805     
  -100113958.70425844        386768232.72313476        1235075697.2839484     
  -85266493.351745874        546807488.75842428        1196555169.7144597     
  -57852258.726929247        748735975.70139408        1154665397.2262485     
  -17871254.829805017        992553693.55204749        1109406379.8193011     
   34676518.339627087        1278260642.3104105        1060778117.4936241     
  -136300494.83289713        334156547.78504837        1111562226.9152389     
  -127244528.46717966        483286630.39428461        1090029845.3561189     
  -95067997.436586887        709485261.88643408        1069929211.0549775     
  -39770901.741126120        1012752442.2614974        1051260324.0118219     
   38646758.619223177        1393088171.5194860        1034023184.2266307     
  -190286921.07964680        276204895.81153536        978364789.85085511     
  -173305333.19584855        418540941.14617091        986133315.59343374     
  -122649385.25461024        673124853.33895278        1000134580.7707007     
  -38319077.255922794        1039956632.3898981        1020368585.3826514     
   79685590.800201595        1519036278.2989764        1046835329.4292803     
  -262073237.44451582        212913276.80258313        835483386.09079778     
  -223448907.53776670        352570421.01407087        884865580.42641282     
  -140596422.18098614        639654750.05899155        945281506.37341905     
  -13515781.374198616        1074166263.9372518        1016731163.9318181     
   157793014.88259435        1656104962.6488912        1099214553.1015978     
  -351659443.92749453        144281690.75821137        682918015.63505805     
  -277675251.49291652        285375069.99800789        786226639.85503912     
  -148909108.21573505        609074952.04647171        905369987.86311901     
   34638985.904034615        1115381336.9035599        1040348059.6592859     
   272969030.86637121        1804294224.5692210        1191160855.2435594     
  -4802508723.5981750       -274382523.74019289        562733002.87433267     
  -4539453168.5136957       -144231146.85867095        601484521.81812155     
  -4286144251.6809068       -46568564.149470329        631498504.71017849     
  -4042581973.0998249        18605224.387379408        652774951.55050576     
  -3808766332.7704401        51290218.751918554        665313862.33909786     
  -5036199127.7005434       -111127164.60092974        494494288.45407516     
  -4807330920.3844204       -64426897.628461123        492845865.06569397     
  -4580474350.9516068       -24432090.267042398        492894966.34778100     
  -4355629419.4021091        8857257.4833137989        494641592.30034393     
  -4132796125.7359338        35441145.622615576        498085742.92337519     
  -5380628041.1777372        18906641.725881577        393591603.72461677     
  -5156132722.4236555       -8899863.4488012791        360567405.10050356     
  -4925914041.1845074       -17628493.673261642        339675791.86906958     
  -4689971997.4603014       -7279248.9475269318        330916764.03031588     
  -4448306591.2510252        22147870.728441954        334290321.58423924     
  -5835795464.0297270        115718895.24025798        260024948.68595827     
  -5585858574.6313934        22349955.680313110        204649141.92255917     
  -5322463322.3796186       -26157774.368161201        171840981.27405289     
  -5045609707.2743959       -29804294.905137777        161600466.74042544     
  -4755297729.3157272        11410394.069375515        173927598.32168421     
  -6401701396.2565212        179309595.94219279        93794323.338093936     
  -6096508477.0076523        29322559.758850574        25091075.531865966     
  -5770122194.5369358       -50019932.351706982       -10609465.437274504     
  -5422542548.8444061       -58717880.389533520       -13307299.569330355     
  -5053769539.9300365        3228715.6454372406        16997573.135707062     
  -3808766332.7704401        51290218.751918554        665313862.33909786     
  -3723273470.5874734        26156912.130049944        659816054.08336842     
  -3636817355.3456669        4234449.0376594067        657655314.09710252     
  -3549397987.0449991       -14477170.525202036        658831642.38028979     
  -3461015365.6854849       -29977946.558571100        663345038.93294132     
  -4132796125.7359338        35441145.622615576        498085742.92337519     
  -4036084130.6049232        20806397.630706310        495770798.97404021     
  -3939590550.2745461        5443600.3033547401        496326144.72375077     
  -3843315384.7448058       -10647246.359450102        499751780.17250663     
  -3747258634.0157027       -27466142.357716799        506047705.32030779     
  -4448306591.2510252        22147870.728441954        334290321.58423924     
  -4341709116.2302923        17611585.449011803        333779629.43855852     
  -4236511723.8696828        8408357.9691538811        335672448.42151219     
  -4132714414.1691875       -5461811.7110774517        339968778.53309584     
  -4030317187.1288233       -23998923.591739655        346668619.77332205     
  -4755297729.3157272        11410394.069375515        173927598.32168421     
  -4640148427.4635878        16572475.584920168        173842545.47692719     
  -4527580876.1310616        13128722.035106182        175694225.19038856     
  -4417595075.3181543        1079133.4198980331        179482637.46207124     
  -4310191025.0248365       -19576290.260627270        185207782.29197499     
  -5053769539.9300365        3228715.6454372406        16997573.135707062     
  -4931402064.3048210        17689068.038457632        15959547.089132549     
  -4812798007.0587006        19604692.501157284        16391475.030375507     
  -4697957368.1916695        8975589.0335628986        18293356.959416401     
  -4586880147.7037439       -14198242.364382982        21665192.876267720     
  -3461015365.6854849       -29977946.558571100        663345038.93294132     
  -3287627688.0691919       -18987455.782958746        653880283.45463657     
  -3114550681.1390233       -9032533.9611010551        649869105.37366295     
  -2941784344.8949962       -113181.09304904938        651311504.69001400     
  -2769328679.3371000        7770602.8212405443        658207481.40369248     
  -3747258634.0157027       -27466142.357716799        506047705.32030779     
  -3560810204.7519932       -17686032.127005100        497153810.09879357     
  -3374485227.0600080       -8317427.1353704929        493132388.10371006     
  -3188283700.9397507        639672.61716747284        493983439.33505625     
  -3002205626.3912053        9185267.1306532621        499706963.79283249     
  -4030317187.1288233       -23998923.591739655        346668619.77332205     
  -3832468303.8488321       -15927283.195274830        338564007.10873836     
  -3634555653.0261545       -7643084.3231978416        334750763.49969125     
  -3436579234.6607904        853673.02450203896        335228888.94617772     
  -3238539048.7527380        9562988.8478378057        339998383.44820470     
  -4310191025.0248365       -19576290.260627270        185207782.29197499     
  -4102601985.3597002       -13711208.987760544        178110874.48447406     
  -3894761959.0374632       -7009505.5245621204        174724231.56160921     
  -3686670946.0581264        528820.12896227837        175047853.52338365     
  -3478328946.4217019        8903767.9727964401        179081740.36979768     
  -4586880147.7037439       -14198242.364382982        21665192.876267720     
  -4371211249.2845869       -11037809.504431725        15794412.225993682     
  -4155104145.0939331       -6416690.7394952774        13052792.289457908     
  -3938558835.1317663       -334886.06950998306        13440333.066669203     
  -3721575319.3980842        7207604.5055227280        16957034.557622924     
  -2769328679.3371000        7770602.8212405443        658207481.40369248     
  -2645814396.6261153        267754.42170989513        650306838.72007334     
  -2522453762.4332209       -7747255.7047952414        644383979.35530972     
  -2399246776.7584209       -16274427.558284760        640438903.30940485     
  -2276193439.6017141       -25313761.138750911        638471610.58236182     
  -3002205626.3912053        9185267.1306532621        499706963.79283249     
  -2872508504.5668325        863570.50526559353        491091728.95488185     
  -2742656945.6685076       -6943335.8736094236        485443705.86048710     
  -2612650949.6962276       -14235452.005974531        482762894.50965399     
  -2482490516.6499867       -21012777.891807079        483049294.90237933     
  -3238539048.7527380        9562988.8478378057        339998383.44820470     
  -3099832149.4586983        1270525.5034731627        331027989.64664429     
  -2960662727.4986520       -5480195.6208751202        326014236.01334178     
  -2821030782.8726053       -10689174.525225997        324957122.54829490     
  -2680936315.5805597       -14356411.209563136        327856649.25151032     
  -3478328946.4217019        8903767.9727964401        179081740.36979768     
  -3327785331.3016987        1488619.4163520336        170115620.79534462     
  -3176471107.9236526       -3357834.9465870857        166095569.81385309     
  -3024386276.2875600       -5635595.1160486937        167021587.42532769     
  -2871530836.3934102       -5344661.0919910669        172893673.62975094     
  -3721575319.3980842        7207604.5055227280        16957034.557622924     
  -3556368050.0958481        1517852.2438931465        8354622.4010082427     
  -3390082086.9435201       -576253.85078573227        5687707.2620486598     
  -3222717429.9410887        925286.22154653072        8956289.1407555435     
  -3054274079.0885644        6022472.4608764648        18160368.037106317     
  -2276193439.6017141       -25313761.138750911        638471610.58236182     
  -2129414591.3440027       -26902060.023504734        625356176.47909665     
  -1982262282.6789515       -27245490.883784175        615507054.74977493     
  -1834736513.6065159       -26344053.719465852        608924245.39439857     
  -1686837284.1267319       -24197748.530634940        605607748.41296697     
  -2482490516.6499867       -21012777.891807079        483049294.90237933     
  -2327399275.0081244       -20080495.680695653        472538099.59815633     
  -2172310581.0875015       -19156705.873739004        464573068.11645025     
  -2017224434.8881345       -18241408.470953941        459154200.45725310     
  -1862140836.4100056       -17334603.472313404        456281496.62057102     
  -2680936315.5805597       -14356411.209563136        327856649.25151032     
  -2519590247.8443460       -11520818.089513183        319511016.59628832     
  -2358622735.9579787       -9947077.8022994995        312991399.21215039     
  -2198033779.9214668       -9635190.3479496241        308297797.09909022     
  -2037823379.7348175       -10585155.726449728        305430210.25710416     
  -2871530836.3934102       -5344661.0919910669        172893673.62975094     
  -2705987509.8526578       -1223027.2499461174        166274927.47349444     
  -2541198747.2903662        383393.33055746555        160762048.03687492     
  -2377164548.7065430       -525399.35049164295        156355035.31991297     
  -2213884914.1011648       -3949405.2930386066        153053889.32259366     
  -3054274079.0885644        6022472.4608764648        18160368.037106317     
  -2886591061.0330858        10812876.837972641        12829832.229764262     
  -2720038615.0846643        11834707.524867773        7885014.5906404443     
  -2554616741.2433228        9087964.5214968920        3325915.1197214164     
  -2390325439.5090551        2572647.8278899193       -847466.18298321590     
  -1686837284.1267319       -24197748.530634940        605607748.41296697     
  -1547629300.0491683       -25772275.324130416        592268050.93864477     
  -1409528924.7492852       -31038831.376575291        577629198.81008291     
  -1272536158.2270963       -39997416.687991023        561691192.02727878     
  -1136651000.4825859       -52648031.258340538        544454030.59023225     
  -1862140836.4100056       -17334603.472313404        456281496.62057102     
  -1726110863.0719609       -22070439.327618241        442634391.31986225     
  -1590029915.6249223       -26636361.486299038        428571349.88803351     
  -1453897994.0688946       -31032369.948332429        414092372.32507545     
  -1317715098.4038727       -35258464.713731587        399197458.63100183     
  -2037823379.7348175       -10585155.726449728        305430210.25710416     
  -1902447935.6416698       -17725256.195192456        292827377.16446888     
  -1765862934.5528440       -20833500.011693358        280691826.46383196     
  -1628068376.4683588       -19909887.175979793        269023558.15519351     
  -1489064261.3881946       -14954417.688016415        257822572.23854125     
  -2213884914.1011648       -3949405.2930386066        153053889.32259366     
  -2076640517.7582817       -12736725.926801920        142847008.47248608     
  -1937027981.5330634       -13630246.952784419        133990628.53749354     
  -1795047305.4254870       -6629968.3709099293        126484749.51761560     
  -1650698489.4355686        8264109.8187812567        120329371.41285352     
  -2390325439.5090551        2572647.8278899193       -847466.18298321590     
  -2248688609.4218287       -7104848.5225517750       -7306714.7561031077     
  -2103525056.5655668       -5026602.3095538616       -11532243.890992867     
  -1954834780.9402843        8807386.4668476582       -13524053.587641284     
  -1802617782.5459833        34397117.806653500       -13282143.846079422     
  -1136651000.4825859       -52648031.258340538        544454030.59023225     
  -951641762.18781126       -40877770.234185338        562684606.28303540     
  -759140089.99702716       -4132729.5566878915        591838795.68811035     
  -559145983.91025662        57587090.774101257        631916598.80545080     
  -351659443.92749453        144281690.75821137        682918015.63505805     
  -1317715098.4038727       -35258464.713731587        399197458.63100183     
  -1117881757.9012871       -14895973.143366992        421068532.43129146     
  -914477334.66078568        17370127.553389132        441436325.63003784     
  -707501828.68235981        61539837.376548558        460300838.22724330     
  -496955239.96601707        117613156.32611492        477662070.22291386     
  -1489064261.3881946       -14954417.688016415        257822572.23854125     
  -1309912231.0029728        3348680.7310000062        278759234.46189010     
  -1131110469.0379016        20484217.749486327        285765721.76989758     
  -952658975.49298930        36452193.367451549        278842034.16255718     
  -774557750.36823022        51252607.584917903        257988171.63986558     
  -1650698489.4355686        8264109.8187812567        120329371.41285352     
  -1527733181.4928734        13856191.388863385        135756712.37483957     
  -1409039493.1283984        5209541.0315489769        124826984.10768469     
  -1294617424.3421602       -17675841.253214598        87540186.611370355     
  -1184466975.1341279       -54799955.465347826        23896319.885901380     
  -1802617782.5459833        34397117.806653500       -13282143.846079422     
  -1771344609.3709714        16626558.830320835       -7939033.8298555529     
  -1748264406.9322658       -28453902.600399613       -41379887.356595829     
  -1733377175.2298622       -100844266.48544347       -113604704.42629416     
  -1726682914.2637477       -200544532.82478333       -224613485.03897139     
  -351659443.92749453        144281690.75821137        682918015.63505805     
  -277675251.49291652        285375069.99800789        786226639.85503912     
  -148909108.21573505        609074952.04647171        905369987.86311901     
   34638985.904034615        1115381336.9035599        1040348059.6592859     
   272969030.86637121        1804294224.5692210        1191160855.2435594     
  -496955239.96601707        117613156.32611492        477662070.22291386     
  -388157863.57397497        223122556.50072452        596951328.02163064     
  -230210133.70734143        492466468.25729191        735396921.78380191     
  -23112050.366102576        925644891.59587562        892998851.50943041     
   233136386.44971505        1522657826.5164275        1069757117.1985033     
  -774557750.36823022        51252607.584917903        257988171.63986558     
  -621456869.51771688        124025124.84460619        386687866.08800036     
  -424837232.56060588        341860162.45960796        537865508.67494678     
  -184698839.49687961        704757720.43001604        711521099.40070558     
   98958309.673454762        1212717798.7557526        907654638.26527870     
  -1184466975.1341279       -54799955.465347826        23896319.885901380     
  -977572269.32414269       -11917224.970329046        155436254.05413914     
  -732790404.77552795        157256034.65344343        312775748.53654510     
  -450121381.48830128        452719823.40593493        495914803.33312440     
  -129565199.46243858        874474141.28720105        704853418.44387090     
  -1726682914.2637477       -200544532.82478333       -224613485.03897139     
  -1456504062.9932444       -184704492.94405371       -96803508.079947352     
  -1154069650.3521237       -61345915.161276519        60127641.368606508     
  -819379676.34033394        169531200.52373695        246179963.30667481     
  -452434140.95794755        507926854.11073822        461353457.73427808     
 </DataArray>
 <DataArray  type="Float64" Name="VM" NumberOfComponents="1" format="ascii">
   6260322074.9136896     
   5981787619.3174505     
   5698937341.9831629     
   5409047936.9135790     
   5110240108.3816881     
   5820140819.7348328     
   5570179658.2485876     
   5317424817.5073872     
   5060917142.8544445     
   4800146096.7581034     
   5435937359.2836561     
   5204390814.3288450     
   4972647363.2236500     
   4740763263.4483137     
   4508963875.0863228     
   5112916522.6769981     
   4889896054.1101074     
   4669719889.2280111     
   4452653784.1247005     
   4239058428.2642689     
   4857540578.1161499     
   4633172750.0991602     
   4414487429.5405025     
   4201163616.2685862     
   3993199862.3952022     
   5110240108.3816881     
   4969852443.0630522     
   4832071958.6682644     
   4696782118.6487799     
   4563953632.3976212     
   4800146096.7581034     
   4673071031.2561350     
   4548124505.3572416     
   4425265274.3256378     
   4304509150.3152885     
   4508963875.0863228     
   4394310235.6205444     
   4281319530.9154110     
   4170019084.0443249     
   4060476075.7093158     
   4239058428.2642689     
   4136335092.1741452     
   4034838718.2126236     
   3934652959.9540105     
   3835899573.9524035     
   3993199862.3952022     
   3902390714.4568014     
   3812426866.0529599     
   3723429799.5599995     
   3635575470.0019188     
   4563953632.3976212     
   4356344878.3081417     
   4148125201.4380102     
   3939264132.3203874     
   3729744633.7170672     
   4304509150.3152885     
   4103473369.8108554     
   3902395298.4264765     
   3701307994.2894239     
   3500281468.8774676     
   4060476075.7093158     
   3868672756.1275353     
   3677725280.6527972     
   3487782695.1251860     
   3299071376.3429661     
   3835899573.9524035     
   3655985060.4359632     
   3478188417.8888493     
   3302820943.9481578     
   3130323140.0071020     
   3635575470.0019188     
   3470077926.6339450     
   3308327942.9567723     
   3150822204.5824184     
   2998237111.6275444     
   3729744633.7170672     
   3561141883.5119967     
   3393228730.7820301     
   3225962618.8680110     
   3059397736.9819484     
   3500281468.8774676     
   3344689535.6141729     
   3190300002.2785168     
   3037160539.8331389     
   2885405459.3353310     
   3299071376.3429661     
   3155223280.4019222     
   3012965033.9770379     
   2872423495.9456301     
   2733801245.4640074     
   3130323140.0071020     
   2997259561.5872164     
   2866018522.7060528     
   2736789404.9529505     
   2609826150.8874407     
   2998237111.6275444     
   2875367601.6301465     
   2754376521.5493679     
   2635493635.6005359     
   2519002666.2573967     
   3059397736.9819484     
   2892797945.7039256     
   2725786314.5068130     
   2558359166.0141172     
   2390517231.0466166     
   2885405459.3353310     
   2720873897.8429475     
   2556311375.5731163     
   2391742604.3908010     
   2227207757.2173934     
   2733801245.4640074     
   2574057956.0947738     
   2415098810.3400722     
   2257063101.2720666     
   2100147398.8636887     
   2609826150.8874407     
   2457694309.3277860     
   2307641816.4710937     
   2160004456.0229669     
   2015239580.8060405     
   2519002666.2573967     
   2377160295.4669662     
   2239129474.7605753     
   2105476948.9814067     
   1976947852.5227091     
   2390517231.0466166     
   2244784665.9967732     
   2101255443.1556749     
   1959926243.4323153     
   1820964304.7099144     
   2227207757.2173934     
   2084984337.5208664     
   1944461593.0929620     
   1805637411.2683647     
   1668588993.4919822     
   2100147398.8636887     
   1960591897.9953721     
   1822045083.6876242     
   1684534414.9130254     
   1548116945.5487804     
   2015239580.8060405     
   1879152072.8472831     
   1743405445.2804091     
   1608118965.3478765     
   1473456748.9406543     
   1976947852.5227091     
   1846869897.2820938     
   1716782323.1377707     
   1587011734.0147326     
   1458032967.2655044     
   1820964304.7099144     
   1780204793.6042829     
   1735893336.3957374     
   1696687652.7874863     
   1681125276.8366473     
   1668588993.4919822     
   1553023785.3972492     
   1428311003.4129059     
   1294817406.7005637     
   1158683606.7719035     
   1548116945.5487804     
   1398063053.1630602     
   1244424955.7085669     
   1084936552.3033884     
   917570276.40964055     
   1473456748.9406543     
   1329038578.1166694     
   1199078336.1165595     
   1088077754.3599944     
   1001966113.5502706     
   1458032967.2655044     
   1348870176.8262222     
   1274703880.4849043     
   1243690957.8534122     
   1262893095.1351664     
   1681125276.8366473     
   1383620759.1325445     
   1129423052.0459499     
   1010273212.0912484     
   1153418556.9290118     
   1158683606.7719035     
   1008271087.6510574     
   985143049.66543329     
   1161527260.7759585     
   1544304817.6638615     
   917570276.40964055     
   963008335.81838512     
   1144859383.8137133     
   1476461550.5661552     
   1957519627.9853749     
   1001966113.5502706     
   1164658869.0100923     
   1425375712.1041987     
   1808706174.3885162     
   2334755451.8963900     
   1262893095.1351664     
   1446676767.0381219     
   1715667917.1662948     
   2110451686.1359286     
   2663483488.7726865     
   4857540578.1161499     
   4633172750.0991602     
   4414487429.5405025     
   4201163616.2685862     
   3993199862.3952022     
   4608231399.3989182     
   4387267585.5271883     
   4170928395.1205544     
   3959600932.1954174     
   3753853808.1971850     
   4339316813.9695148     
   4130890585.8598380     
   3928206554.1077418     
   3731942925.6714749     
   3543039139.2139482     
   4053194123.7995100     
   3867022540.8329082     
   3689870806.3329725     
   3522298197.5887647     
   3365457720.2270579     
   3755194303.7038493     
   3600815566.6218691     
   3460989239.4929543     
   3335647914.4011478     
   3225933048.2890005     
   3993199862.3952022     
   3902390714.4568014     
   3812426866.0529599     
   3723429799.5599995     
   3635575470.0019188     
   3753853808.1971850     
   3672672815.7088633     
   3593128824.4141231     
   3515374550.6918154     
   3439602153.5660467     
   3543039139.2139482     
   3471192308.1230087     
   3401733379.2300596     
   3334816279.7921081     
   3270621662.5403881     
   3365457720.2270579     
   3302448530.9761076     
   3242483112.4892321     
   3185683446.1336808     
   3132190193.4127212     
   3225933048.2890005     
   3170983583.8541021     
   3119581110.5933232     
   3071783364.2785125     
   3027666426.0206795     
   3635575470.0019188     
   3470077926.6339450     
   3308327942.9567723     
   3150822204.5824184     
   2998237111.6275444     
   3439602153.5660467     
   3291072174.1910868     
   3147117275.9069796     
   3008328191.5092607     
   2875473092.9113169     
   3270621662.5403881     
   3139449482.5041337     
   3013700205.9511256     
   2894031361.1258588     
   2781262503.1413441     
   3132190193.4127212     
   3018701206.9925857     
   2911443168.2089672     
   2811098276.8827300     
   2718482413.0010376     
   3027666426.0206795     
   2931994919.8561988     
   2843247692.1433220     
   2762080263.7282662     
   2689245130.8075070     
   2998237111.6275444     
   2875367601.6301465     
   2754376521.5493679     
   2635493635.6005359     
   2519002666.2573967     
   2875473092.9113169     
   2762349531.7756367     
   2652231071.3980670     
   2545470835.3273926     
   2442496501.1634827     
   2781262503.1413441     
   2679931842.2350278     
   2582926354.3990884     
   2490708841.7470279     
   2403824687.6253328     
   2718482413.0010376     
   2630537132.9571447     
   2548325368.9339232     
   2472373577.0334511     
   2403281519.0868769     
   2689245130.8075070     
   2615582383.1295114     
   2549030990.4903259     
   2490115640.4992433     
   2439412150.9248900     
   2519002666.2573967     
   2377160295.4669662     
   2239129474.7605753     
   2105476948.9814067     
   1976947852.5227091     
   2442496501.1634827     
   2315905602.8331590     
   2194526381.8418260     
   2079119810.2385645     
   1970630364.3707404     
   2403824687.6253328     
   2294292580.7960296     
   2191363677.1330857     
   2095895658.6325200     
   2008889746.1360753     
   2403281519.0868769     
   2311860815.4720101     
   2228216542.9229813     
   2153179728.6568480     
   2087660001.3303304     
   2439412150.9248900     
   2366235243.3298292     
   2301651693.4623475     
   2246368340.8822403     
   2201110639.6699009     
   1976947852.5227091     
   1846869897.2820938     
   1716782323.1377707     
   1587011734.0147326     
   1458032967.2655044     
   1970630364.3707404     
   1854827623.0408556     
   1743337903.4021962     
   1637060163.2113032     
   1537096791.6228688     
   2008889746.1360753     
   1912562346.6619210     
   1824966702.2666895     
   1747290879.1207180     
   1680814338.5587723     
   2087660001.3303304     
   2012473598.0743010     
   1949642731.3111937     
   1900247220.0060725     
   1865317937.2874835     
   2201110639.6699009     
   2145726433.5895674     
   2105340192.1570694     
   2080728636.0563719     
   2072577673.7920163     
   1458032967.2655044     
   1348870176.8262222     
   1274703880.4849043     
   1243690957.8534122     
   1262893095.1351664     
   1537096791.6228688     
   1476196793.1100707     
   1448008799.9182043     
   1456509771.0000687     
   1504994361.0309105     
   1680814338.5587723     
   1652372150.2043021     
   1651655499.2624640     
   1681033275.3132737     
   1743109472.9087379     
   1865317937.2874835     
   1854915577.2644668     
   1867466440.1478264     
   1905176449.7296388     
   1971074379.8139482     
   2072577673.7920163     
   2069201630.0763206     
   2085016665.0823705     
   2122651966.9415298     
   2185922239.3200493     
   1262893095.1351664     
   1446676767.0381219     
   1715667917.1662948     
   2110451686.1359286     
   2663483488.7726865     
   1504994361.0309105     
   1613344958.9475622     
   1788889354.8783615     
   2066385330.6521235     
   2476052653.0919361     
   1743109472.9087379     
   1787835330.3804433     
   1884712781.0466466     
   2060658027.1478021     
   2340910423.5695572     
   1971074379.8139482     
   1969108977.8245609     
   2003703582.9159293     
   2093536564.9481795     
   2257271740.5385761     
   2185922239.3200493     
   2156452125.9341998     
   2146603168.0485132     
   2166898890.7234478     
   2228408540.7630296     
   3755194303.7038493     
   3600815566.6218691     
   3460989239.4929543     
   3335647914.4011478     
   3225933048.2890005     
   3403393218.1274042     
   3301879771.0802655     
   3212703225.0431008     
   3136596347.1508389     
   3074809046.7001157     
   3131440847.2002964     
   3070471972.4317570     
   3019313321.1308494     
   2978659309.4784522     
   2949290213.6509600     
   2941690789.8849201     
   2909555000.0834899     
   2884078380.1673293     
   2865127272.6147571     
   2852643052.3195410     
   2833597442.6735730     
   2819500441.0827880     
   2808158211.1965714     
   2797952391.0158253     
   2787793341.7800646     
   3225933048.2890005     
   3170983583.8541021     
   3119581110.5933232     
   3071783364.2785125     
   3027666426.0206795     
   3074809046.7001157     
   3026792121.6338992     
   2982522326.1890955     
   2942097737.3154435     
   2905629191.8804183     
   2949290213.6509600     
   2908795338.5765166     
   2872356153.7708092     
   2840095180.6484637     
   2812144644.3164182     
   2852643052.3195410     
   2820083292.1096716     
   2791983736.7223573     
   2768471907.5897346     
   2749685187.5956030     
   2787793341.7800646     
   2763299002.5931401     
   2743749764.6246729     
   2729256920.8958845     
   2719945919.6480665     
   3027666426.0206795     
   2931994919.8561988     
   2843247692.1433220     
   2762080263.7282662     
   2689245130.8075070     
   2905629191.8804183     
   2826478243.2321801     
   2755297099.0449729     
   2692710483.3682241     
   2639408207.4024181     
   2812144644.3164182     
   2749246897.8602824     
   2695217490.9264708     
   2650597017.0761175     
   2615958696.8440514     
   2749685187.5956030     
   2702081026.0347219     
   2664054208.6780667     
   2636023501.8581648     
   2618415299.3015475     
   2719945919.6480665     
   2685920515.6902461     
   2661990714.9185977     
   2648440231.9889631     
   2645546998.2897048     
   2689245130.8075070     
   2615582383.1295114     
   2549030990.4903259     
   2490115640.4992433     
   2439412150.9248900     
   2639408207.4024181     
   2580829796.8290615     
   2529806955.3768253     
   2486781378.5662651     
   2452219333.9087019     
   2615958696.8440514     
   2571605458.6054435     
   2535072988.3590240     
   2506702099.9482980     
   2486839444.3408132     
   2618415299.3015475     
   2587008044.7987747     
   2563524494.2891378     
   2548204375.3510647     
   2541283423.5861130     
   2645546998.2897048     
   2625466327.4565330     
   2613292000.5859346     
   2609176187.5999951     
   2613264313.2277012     
   2439412150.9248900     
   2366235243.3298292     
   2301651693.4623475     
   2246368340.8822403     
   2201110639.6699009     
   2452219333.9087019     
   2394978444.8965473     
   2347209116.2774434     
   2309481936.2359719     
   2282349341.0736222     
   2486839444.3408132     
   2444454007.8736548     
   2412151829.3633342     
   2390347858.5399113     
   2379421133.6067491     
   2541283423.5861130     
   2512097191.6581316     
   2493410276.0409708     
   2485493302.9635682     
   2488579781.5976930     
   2613264313.2277012     
   2595221276.5939312     
   2587994608.3900189     
   2591739028.9605875     
   2606580980.1762428     
   2201110639.6699009     
   2145726433.5895674     
   2105340192.1570694     
   2080728636.0563719     
   2072577673.7920163     
   2282349341.0736222     
   2242067131.9299626     
   2215667226.4710321     
   2203597908.5954714     
   2206245054.4939747     
   2379421133.6067491     
   2351204448.0216169     
   2335727576.2893238     
   2333234445.2403097     
   2343940623.2032347     
   2488579781.5976930     
   2469714828.0304437     
   2462537163.9148874     
   2467175810.5412893     
   2483759388.0698342     
   2606580980.1762428     
   2594747007.5334916     
   2593696344.0719223     
   2603501728.2075911     
   2624254699.3712220     
   2072577673.7920163     
   2069201630.0763206     
   2085016665.0823705     
   2122651966.9415298     
   2185922239.3200493     
   2206245054.4939747     
   2191912282.6198721     
   2192564510.6087604     
   2210170988.1266828     
   2247654131.3656335     
   2343940623.2032347     
   2319482367.3630118     
   2306586224.5289235     
   2306658150.6638355     
   2321788095.6991172     
   2483759388.0698342     
   2450951157.7680745     
   2426768661.1298971     
   2412157263.8895001     
   2408493920.3250151     
   2624254699.3712220     
   2585547676.1322021     
   2552832469.9536691     
   2526689860.0776629     
   2507927472.3751535     
   2185922239.3200493     
   2156452125.9341998     
   2146603168.0485132     
   2166898890.7234478     
   2228408540.7630296     
   2247654131.3656335     
   2182847530.1964383     
   2134487235.8048120     
   2112241649.9128652     
   2127047157.6521225     
   2321788095.6991172     
   2224978240.4276791     
   2141489551.0837185     
   2079689871.4852638     
   2049755926.8009498     
   2408493920.3250151     
   2283137257.5743136     
   2168257140.7519202     
   2070596459.9424374     
   1998930468.1758466     
   2507927472.3751535     
   2357532572.1934361     
   2215260270.2245827     
   2086093809.8682621     
   1976917015.7386167     
   2833597442.6735730     
   2819500441.0827880     
   2808158211.1965714     
   2797952391.0158253     
   2787793341.7800646     
   2837194530.6098657     
   2799624606.9220376     
   2768036814.1542449     
   2742336336.2210245     
   2722534392.2812448     
   2852746128.5943537     
   2792987602.3782377     
   2746057490.9047637     
   2712218947.1200981     
   2691731035.9835677     
   2896068200.7196517     
   2813303318.6355762     
   2753013327.4602065     
   2714956346.6885552     
   2698961296.9535422     
   2986437745.8596087     
   2876469087.5477734     
   2800549407.0520911     
   2757495993.8032408     
   2746367518.7455530     
   2787793341.7800646     
   2763299002.5931401     
   2743749764.6246729     
   2729256920.8958845     
   2719945919.6480665     
   2722534392.2812448     
   2701657988.7821622     
   2686558372.0705280     
   2677303516.2248135     
   2673974353.9772224     
   2691731035.9835677     
   2672721456.9624147     
   2660352680.3073535     
   2654647379.0791955     
   2655639744.0682130     
   2698961296.9535422     
   2679563757.6951823     
   2667683951.3766522     
   2663307890.4042749     
   2666431225.4147749     
   2746367518.7455530     
   2723966910.8582358     
   2709947829.4586887     
   2704279446.8168840     
   2706938216.5252986     
   2719945919.6480665     
   2685920515.6902461     
   2661990714.9185977     
   2648440231.9889631     
   2645546998.2897048     
   2673974353.9772224     
   2648374703.4890089     
   2633214599.2819567     
   2628665415.6187577     
   2634892331.2651196     
   2655639744.0682130     
   2635865221.1699758     
   2626881428.6353927     
   2628768031.6608853     
   2641601244.9368887     
   2666431225.4147749     
   2649422492.4460831     
   2643600844.9315228     
   2648985664.2500162     
   2665595793.0291576     
   2706938216.5252986     
   2689344513.2397122     
   2683404931.0902638     
   2689117998.9020414     
   2706482432.3226514     
   2645546998.2897048     
   2625466327.4565330     
   2613292000.5859346     
   2609176187.5999951     
   2613264313.2277012     
   2634892331.2651196     
   2621308799.7600546     
   2615631434.6357017     
   2617941781.7006221     
   2628315863.0284572     
   2641601244.9368887     
   2632337017.4079938     
   2630978452.8024507     
   2637558539.1011543     
   2652107343.4529705     
   2665595793.0291576     
   2658347353.8934345     
   2659029377.0053897     
   2667649205.0081067     
   2684213823.5188355     
   2706482432.3226514     
   2698908064.7439446     
   2699328906.9919739     
   2707749192.1978502     
   2724174591.8398809     
   2613264313.2277012     
   2595221276.5939312     
   2587994608.3900189     
   2591739028.9605875     
   2606580980.1762428     
   2628315863.0284572     
   2616573260.7247295     
   2615441955.0841546     
   2625011130.3589220     
   2645352813.6807976     
   2652107343.4529705     
   2645145186.1862178     
   2648714521.4372225     
   2662857243.8653603     
   2687607653.0139318     
   2684213823.5188355     
   2680463500.8839040     
   2687316154.7931609     
   2704782377.8701739     
   2732872169.2480340     
   2724174591.8398809     
   2722044811.7247834     
   2730759729.7420983     
   2750313120.1031218     
   2780701880.1149907     
   2606580980.1762428     
   2594747007.5334916     
   2593696344.0719223     
   2603501728.2075911     
   2624254699.3712220     
   2645352813.6807976     
   2634589627.5723004     
   2633928745.1410446     
   2643407109.4831290     
   2663074153.6183805     
   2687607653.0139318     
   2677628844.8251138     
   2677243822.5156755     
   2686467054.8509464     
   2705319664.0990524     
   2732872169.2480340     
   2723509393.7179174     
   2723389132.8067737     
   2732514203.0182195     
   2750889729.8817797     
   2780701880.1149907     
   2771893698.3285642     
   2772120801.7307725     
   2781383075.3963165     
   2799680506.3269219     
   2624254699.3712220     
   2585547676.1322021     
   2552832469.9536691     
   2526689860.0776629     
   2507927472.3751535     
   2663074153.6183805     
   2617468647.1825037     
   2577605470.7575846     
   2543814589.7557297     
   2516556662.1866632     
   2705319664.0990524     
   2654922015.0310454     
   2610161939.5009942     
   2571185993.0667911     
   2538198820.0452223     
   2750889729.8817797     
   2697814100.2086496     
   2650415079.2161698     
   2608728754.1259060     
   2572805132.2365518     
   2799680506.3269219     
   2746042638.0466452     
   2698263409.7646666     
   2656342794.5367460     
   2620280783.2678895     
   2507927472.3751535     
   2357532572.1934361     
   2215260270.2245827     
   2086093809.8682621     
   1976917015.7386167     
   2516556662.1866632     
   2348582467.5777097     
   2184137257.4598379     
   2026321643.2541542     
   1879703800.3754318     
   2538198820.0452223     
   2357738894.1307788     
   2177011040.3508573     
   1997486042.0752113     
   1821441929.1003921     
   2572805132.2365518     
   2385106940.3778496     
   2194349079.8478599     
   2000908833.0516489     
   1805389077.1243551     
   2620280783.2678895     
   2430656581.1314244     
   2236294015.2460675     
   2037193085.1468055     
   1833353790.6446903     
   2986437745.8596087     
   2876469087.5477734     
   2800549407.0520911     
   2757495993.8032408     
   2746367518.7455530     
   2759260298.2084651     
   2702570105.5934672     
   2668465132.2389374     
   2656767910.5949240     
   2667376843.6689215     
   2639494636.6776633     
   2618114708.4366755     
   2609658946.5989728     
   2614410352.0173106     
   2632626764.1076722     
   2599159746.6986527     
   2600662545.0536103     
   2607759940.6704226     
   2620123456.0959044     
   2637540599.9820151     
   2606249546.6449041     
   2625181299.1623430     
   2644408148.3096161     
   2661839295.5815263     
   2675992543.6599231     
   2746367518.7455530     
   2723966910.8582358     
   2709947829.4586887     
   2704279446.8168840     
   2706938216.5252986     
   2667376843.6689215     
   2654556691.0616994     
   2648298939.2188444     
   2648615113.8985558     
   2655516142.9728270     
   2632626764.1076722     
   2625968556.5750451     
   2624027750.0219007     
   2626844003.4109092     
   2634458773.4226246     
   2637540599.9820151     
   2634456489.5535178     
   2634260757.7317715     
   2636991720.0595222     
   2642702278.5659728     
   2675992543.6599231     
   2674895730.5694938     
   2674900421.1973572     
   2676007465.8635550     
   2678254869.9007154     
   2706938216.5252986     
   2689344513.2397122     
   2683404931.0902638     
   2689117998.9020414     
   2706482432.3226514     
   2655516142.9728270     
   2640023496.1167531     
   2635493324.4492278     
   2641948744.6941795     
   2659410845.2009749     
   2634458773.4226246     
   2617594654.2390947     
   2611052458.3827820     
   2614916296.0714865     
   2629264673.8703766     
   2642702278.5659728     
   2621389023.2646980     
   2609784894.6085744     
   2608060149.8252001     
   2616376777.4963746     
   2678254869.9007154     
   2649981664.4206347     
   2630797347.8008380     
   2620970175.3663359     
   2620760969.4395304     
   2706482432.3226514     
   2698908064.7439446     
   2699328906.9919739     
   2707749192.1978502     
   2724174591.8398809     
   2659410845.2009749     
   2651488096.1400461     
   2651597433.6987510     
   2659750773.1661577     
   2675959845.2739925     
   2629264673.8703766     
   2619417204.7273221     
   2617703278.1697717     
   2624157708.2051435     
   2638812767.6722827     
   2616376777.4963746     
   2602995598.8256574     
   2597908389.2064619     
   2601189668.5921245     
   2612908617.0167503     
   2620760969.4395304     
   2602261276.9439325     
   2592262735.6336656     
   2590897566.8909187     
   2598290088.2425008     
   2724174591.8398809     
   2722044811.7247834     
   2730759729.7420983     
   2750313120.1031218     
   2780701880.1149907     
   2675959845.2739925     
   2674574642.9618559     
   2683626359.1212673     
   2703120932.6476517     
   2733062488.2628989     
   2638812767.6722827     
   2635715336.4776869     
   2642767834.5992322     
   2660009701.1202822     
   2687471527.3770485     
   2612908617.0167503     
   2605750993.3609905     
   2608548795.9476051     
   2621395953.6704526     
   2644369771.3748331     
   2598290088.2425008     
   2584892947.0610690     
   2581308772.4969964     
   2587706900.3648849     
   2604233496.6941767     
   2780701880.1149907     
   2771893698.3285642     
   2772120801.7307725     
   2781383075.3963165     
   2799680506.3269219     
   2733062488.2628989     
   2723434412.1042733     
   2723060903.4995971     
   2731945796.7687049     
   2750094012.3667350     
   2687471527.3770485     
   2677139800.4243498     
   2676430849.5244322     
   2685359647.4813333     
   2703947340.1157699     
   2644369771.3748331     
   2633339708.2977672     
   2632464212.8474164     
   2641778629.5814242     
   2661333053.5880589     
   2604233496.6941767     
   2592384666.2156639     
   2591403663.3744149     
   2601357733.3847885     
   2622339880.3161931     
   2799680506.3269219     
   2746042638.0466452     
   2698263409.7646666     
   2656342794.5367460     
   2620280783.2678895     
   2750094012.3667350     
   2697246665.5125208     
   2650048705.1860890     
   2608536994.8079920     
   2572763558.7901607     
   2703947340.1157699     
   2653938741.6464086     
   2609512508.4625654     
   2570815881.3625298     
   2538054913.0665479     
   2661333053.5880589     
   2616213885.7563977     
   2576752480.8819814     
   2543278402.1963654     
   2516250347.3857141     
   2622339880.3161931     
   2584157600.4492636     
   2551851062.3694062     
   2525998532.3807411     
   2507399657.1025991     
   2620280783.2678895     
   2430656581.1314244     
   2236294015.2460675     
   2037193085.1468055     
   1833353790.6446903     
   2572763558.7901607     
   2385062992.4932795     
   2194317730.2781701     
   2000908619.3579106     
   1805443729.2822156     
   2538054913.0665479     
   2357609257.6831651     
   2176924665.3739505     
   1997480154.2533572     
   1821566147.1014006     
   2516250347.3857141     
   2348325443.9952865     
   2183971114.3822165     
   2026301254.8036807     
   1879903647.3411105     
   2507399657.1025991     
   2357106916.8961377     
   2214989344.1504469     
   2086048284.6831074     
   1977193034.4123635     
   2606249546.6449041     
   2625181299.1623430     
   2644408148.3096161     
   2661839295.5815263     
   2675992543.6599231     
   2858479051.9364429     
   2830689022.7706046     
   2807389767.0438151     
   2788459088.1136217     
   2773891396.0896111     
   3157603489.9235091     
   3076009189.2390943     
   3005916145.3156753     
   2947857485.6038876     
   2902496234.6521916     
   3510724974.1542468     
   3368904681.0602345     
   3246368767.8382187     
   3143681471.9965634     
   3061868687.8534217     
   3925588643.7093310     
   3716532425.7403193     
   3534044571.9038792     
   3378509153.8709931     
   3251377747.0069523     
   2675992543.6599231     
   2674895730.5694938     
   2674900421.1973572     
   2676007465.8635550     
   2678254869.9007154     
   2773891396.0896111     
   2757755016.6892333     
   2743626219.9386501     
   2731577937.7221689     
   2721703151.5793638     
   2902496234.6521916     
   2871564428.6358452     
   2843554416.3226347     
   2818578173.9055357     
   2796761628.0321937     
   3061868687.8534217     
   3016209307.9487524     
   2974348786.0615273     
   2936411103.4386945     
   2902537418.8319120     
   3251377747.0069523     
   3190838324.1925678     
   3134904218.1136608     
   3083690354.9152369     
   3037339959.3770280     
   2678254869.9007154     
   2649981664.4206347     
   2630797347.8008380     
   2620970175.3663359     
   2620760969.4395304     
   2721703151.5793638     
   2677866204.4728017     
   2642995115.7999911     
   2617484824.4044113     
   2601735848.9841290     
   2796761628.0321937     
   2735931827.8386602     
   2683735497.1781588     
   2640688668.2727604     
   2607337638.9513326     
   2902537418.8319120     
   2823855410.1909676     
   2753265427.7159119     
   2691376286.6023803     
   2638860476.9472246     
   3037339959.3770280     
   2940465007.8956161     
   2850969652.5579219     
   2769510861.5282125     
   2696844544.0450850     
   2620760969.4395304     
   2602261276.9439325     
   2592262735.6336656     
   2590897566.8909187     
   2598290088.2425008     
   2601735848.9841290     
   2571774342.2429099     
   2550181440.6649790     
   2537185331.1823592     
   2533006871.9826078     
   2607337638.9513326     
   2563862721.5826168     
   2528470574.8179789     
   2501502446.2101693     
   2483302337.2562079     
   2638860476.9472246     
   2580299924.7853174     
   2529332244.9821286     
   2486409956.2511759     
   2452010159.1499672     
   2696844544.0450850     
   2622204830.8475966     
   2554448135.8521161     
   2494112931.5952744     
   2441793818.0200739     
   2598290088.2425008     
   2584892947.0610690     
   2581308772.4969964     
   2587706900.3648849     
   2604233496.6941767     
   2533006871.9826078     
   2506187885.7603889     
   2489198610.6231179     
   2482316833.3869920     
   2485789110.5381207     
   2483302337.2562079     
   2441528847.7555399     
   2409531570.3668828     
   2387723936.3325486     
   2376488820.1513577     
   2452010159.1499672     
   2393981283.0022030     
   2345518380.1627493     
   2307185963.8271432     
   2279533642.7830067     
   2441793818.0200739     
   2366593641.0125089     
   2300521408.3924818     
   2244283409.2174063     
   2198605419.2293639     
   2604233496.6941767     
   2592384666.2156639     
   2591403663.3744149     
   2601357733.3847885     
   2622339880.3161931     
   2485789110.5381207     
   2467194273.3284988     
   2460323752.6855173     
   2465301682.5260153     
   2482256066.5936017     
   2376488820.1513577     
   2348735986.5844302     
   2333706415.5276461     
   2331640185.8683405     
   2342750647.3276930     
   2279533642.7830067     
   2239839524.5791945     
   2213947998.8521862     
   2202304117.2758470     
   2205289860.1248131     
   2198605419.2293639     
   2143894580.6840186     
   2104025797.7245133     
   2079770930.2818005     
   2071808801.6797893     
   2622339880.3161931     
   2584157600.4492636     
   2551851062.3694062     
   2525998532.3807411     
   2507399657.1025991     
   2482256066.5936017     
   2449761208.1524472     
   2425823296.1922383     
   2411386905.3238354     
   2407822941.6710224     
   2342750647.3276930     
   2318430821.7713342     
   2305650769.1213584     
   2305817593.8445988     
   2321018828.1821237     
   2205289860.1248131     
   2190949135.2521987     
   2191617702.0059342     
   2209268781.9389358     
   2246828197.3195133     
   2071808801.6797893     
   2068293593.6164622     
   2084043495.9949703     
   2121696407.1198735     
   2185078786.5691414     
   2507399657.1025991     
   2357106916.8961377     
   2214989344.1504469     
   2086048284.6831074     
   1977193034.4123635     
   2407822941.6710224     
   2282668553.4007359     
   2168020452.3144827     
   2070633529.5754259     
   1999296723.3468525     
   2321018828.1821237     
   2224484079.6435618     
   2141275650.0557227     
   2079764588.3115957     
   2050127882.6978488     
   2246828197.3195133     
   2182343267.5814486     
   2134283960.3832872     
   2112311772.1926806     
   2127351003.8884633     
   2185078786.5691414     
   2155951294.5024757     
   2146398157.6559169     
   2166925920.0706515     
   2228582003.3505683     
   3925588643.7093310     
   3716532425.7403193     
   3534044571.9038792     
   3378509153.8709931     
   3251377747.0069523     
   4137241064.3279743     
   3928319712.6552296     
   3733288069.6510530     
   3553482189.4711251     
   3390886001.9988413     
   4367846232.3894129     
   4158533207.3830061     
   3954452011.7008944     
   3756569340.7276311     
   3566138049.0375075     
   4586435124.1392574     
   4384079971.6034737     
   4181063792.5151014     
   3977117287.3882613     
   3772122203.3008661     
   4771965700.1363020     
   4588905974.8710871     
   4401133112.9834633     
   4206705803.8844805     
   4004074391.0209327     
   3251377747.0069523     
   3190838324.1925678     
   3134904218.1136608     
   3083690354.9152369     
   3037339959.3770280     
   3390886001.9988413     
   3321518028.1444311     
   3256196415.1233654     
   3195040380.6340666     
   3138202410.6606364     
   3566138049.0375075     
   3487662720.9543905     
   3412692073.0938339     
   3341339758.7666068     
   3273755804.9365005     
   3772122203.3008661     
   3684465089.1736236     
   3599809677.8947058     
   3518256673.5272617     
   3439944323.3068542     
   4004074391.0209327     
   3907289410.0024652     
   3813055187.2393699     
   3721455067.3076496     
   3632609506.5601010     
   3037339959.3770280     
   2940465007.8956161     
   2850969652.5579219     
   2769510861.5282125     
   2696844544.0450850     
   3138202410.6606364     
   3024306225.2148552     
   2916912340.3907413     
   2816711115.3866639     
   2724530766.4270749     
   3273755804.9365005     
   3142752559.7392378     
   3017256683.1127663     
   2897935762.0506954     
   2785624337.7651529     
   3439944323.3068542     
   3292076408.3314109     
   3148685411.9456596     
   3010368817.0076680     
   2877904997.9876642     
   3632609506.5601010     
   3468300870.5633359     
   3307471059.5271802     
   3150616164.9328661     
   2998411635.4235196     
   2696844544.0450850     
   2622204830.8475966     
   2554448135.8521161     
   2494112931.5952744     
   2441793818.0200739     
   2724530766.4270749     
   2635777463.9515743     
   2552541070.5919933     
   2475352364.0751114     
   2404818602.0399656     
   2785624337.7651529     
   2683760979.6492691     
   2586035479.3019242     
   2492908157.5412660     
   2404922729.2163119     
   2877904997.9876642     
   2764589833.0199819     
   2654137565.5798554     
   2546895968.8449230     
   2443286321.3401184     
   2998411635.4235196     
   2875715437.0779548     
   2754810891.4828849     
   2635922903.1843243     
   2519328548.7431183     
   2441793818.0200739     
   2366593641.0125089     
   2300521408.3924818     
   2244283409.2174063     
   2198605419.2293639     
   2404818602.0399656     
   2311887165.7746243     
   2227129198.5779796     
   2151381467.7763042     
   2085561429.9686813     
   2404922729.2163119     
   2294288032.7249050     
   2190517942.4539433     
   2094477474.8429968     
   2007178049.1932847     
   2443286321.3401184     
   2315974871.7950039     
   2194008202.9115329     
   2078151267.6788080     
   1969354210.1711357     
   2519328548.7431183     
   2377194907.0054517     
   2238893737.6510959     
   2104990236.5900097     
   1976226233.1408501     
   2198605419.2293639     
   2143894580.6840186     
   2104025797.7245133     
   2079770930.2818005     
   2071808801.6797893     
   2085561429.9686813     
   2010898862.8986168     
   1948483527.9601212     
   1899388256.1587491     
   1864635779.8958566     
   2007178049.1932847     
   1911225974.8996859     
   1823943349.3084035     
   1746513293.7802653     
   1680209746.7092352     
   1969354210.1711357     
   1853759060.7728484     
   1742457762.7007828     
   1636350301.8903642     
   1536541011.0165782     
   1976226233.1408501     
   1846152503.0759206     
   1716086111.5038300     
   1586360896.5077972     
   1457461988.8587353     
   2071808801.6797893     
   2068293593.6164622     
   2084043495.9949703     
   2121696407.1198735     
   2185078786.5691414     
   1864635779.8958566     
   1854156722.9182148     
   1866678850.9465067     
   1904415442.5201247     
   1970405003.8122528     
   1680209746.7092352     
   1651748978.9389668     
   1651038144.6272349     
   1680451064.4509931     
   1742598468.4014440     
   1536541011.0165782     
   1475684105.8922739     
   1447542349.2522309     
   1456092308.4440567     
   1504629782.4618757     
   1457461988.8587353     
   1348419052.3657534     
   1274359806.0404072     
   1243429072.5311818     
   1262675983.0491631     
   2185078786.5691414     
   2155951294.5024757     
   2146398157.6559169     
   2166925920.0706515     
   2228582003.3505683     
   1970405003.8122528     
   1968691928.1195226     
   2003522436.6188567     
   2093554899.7639205     
   2257423690.8107905     
   1742598468.4014440     
   1787490806.5668433     
   1884543931.1164117     
   2060651469.2155538     
   2341018651.2948413     
   1504629782.4618757     
   1613064808.9056132     
   1788723036.5171945     
   2066339956.1641431     
   2476101449.6762176     
   1262675983.0491631     
   1446458107.8803368     
   1715496275.8442795     
   2110358254.7428126     
   2663468761.5853925     
   4771965700.1363020     
   4588905974.8710871     
   4401133112.9834633     
   4206705803.8844805     
   4004074391.0209327     
   5054657869.2408075     
   4851139157.5881910     
   4647393676.8370485     
   4443441901.9428034     
   4239339470.1217747     
   5433045944.6623354     
   5189404738.7466946     
   4952195714.1417036     
   4721257095.8219862     
   4496853637.2227306     
   5911687600.5476303     
   5608279864.7847815     
   5317768725.8005352     
   5038554247.6981182     
   4770534450.2383251     
   6495245285.1302176     
   6111377041.4766922     
   5745304926.1078377     
   5393472585.5779324     
   5055470395.9759169     
   4004074391.0209327     
   3907289410.0024652     
   3813055187.2393699     
   3721455067.3076496     
   3632609506.5601010     
   4239339470.1217747     
   4136635159.4190283     
   4034955739.3756323     
   3934402281.1717515     
   3835105182.4256439     
   4496853637.2227306     
   4388785609.0357065     
   4280391614.3235888     
   4171752924.5647979     
   4062984949.3668804     
   4770534450.2383251     
   4658198634.0449305     
   4544359986.4403267     
   4429058211.3962469     
   4312384273.3022890     
   5055470395.9759169     
   4940347685.2371712     
   4822713807.2952089     
   4702558332.4298611     
   4579951264.5003748     
   3632609506.5601010     
   3468300870.5633359     
   3307471059.5271802     
   3150616164.9328661     
   2998411635.4235196     
   3835105182.4256439     
   3654885940.6288123     
   3476879541.8932099     
   3301401481.1364970     
   3128900797.7109113     
   4062984949.3668804     
   3869225107.3144078     
   3676744241.4913483     
   3485706026.5892816     
   3296360635.0186687     
   4312384273.3022890     
   4107365319.1727738     
   3903012319.5486703     
   3699380729.6673884     
   3496574406.4259305     
   4579951264.5003748     
   4365788521.2651138     
   4151961071.3934956     
   3938460202.8094907     
   3725300132.0186758     
   2998411635.4235196     
   2875715437.0779548     
   2754810891.4828849     
   2635922903.1843243     
   2519328548.7431183     
   3128900797.7109113     
   2996214232.4819083     
   2865333997.6092815     
   2736445760.9800472     
   2609798180.7342925     
   3296360635.0186687     
   3153036310.3909311     
   3011342666.3001609     
   2871404854.8528118     
   2733424035.5172925     
   3496574406.4259305     
   3341545930.6117439     
   3187801299.2926021     
   3035389352.8836432     
   2884449205.2674932     
   3725300132.0186758     
   3557156652.7198820     
   3389808311.7587118     
   3223217502.8657417     
   3057451569.3298969     
   2519328548.7431183     
   2377194907.0054517     
   2238893737.6510959     
   2104990236.5900097     
   1976226233.1408501     
   2609798180.7342925     
   2457708698.6137276     
   2307633058.3681936     
   2159906917.9460011     
   2014985836.8160934     
   2733424035.5172925     
   2574043875.8023219     
   2415290789.7427588     
   2257301365.7455182     
   2100268633.9397612     
   2884449205.2674932     
   2720662135.8284507     
   2556599070.4721255     
   2392279937.2505369     
   2227742121.7455311     
   3057451569.3298969     
   2892098034.1875176     
   2726009447.8348851     
   2559179309.3068705     
   2391613251.6415987     
   1976226233.1408501     
   1846152503.0759206     
   1716086111.5038300     
   1586360896.5077972     
   1457461988.8587353     
   2014985836.8160934     
   1878729731.4856884     
   1742863225.4320374     
   1607507997.8577113     
   1472831104.2098563     
   2100268633.9397612     
   1960393984.3634083     
   1821614815.8195984     
   1683956474.7643731     
   1547477094.0113957     
   2227742121.7455311     
   2085033396.9862821     
   1944150580.7778666     
   1805085276.0792894     
   1667918710.5504255     
   2391613251.6415987     
   2245180285.2584596     
   2101111211.8043387     
   1959393343.9463160     
   1820205519.6945341     
   1457461988.8587353     
   1348419052.3657534     
   1274359806.0404072     
   1243429072.5311818     
   1262675983.0491631     
   1472831104.2098563     
   1328580334.4294717     
   1198771535.2161577     
   1087895271.4632263     
   1001862764.7461489     
   1547477094.0113957     
   1397636532.4484122     
   1244181077.1372700     
   1084837792.1257615     
   917571977.00750935     
   1667918710.5504255     
   1552616786.6194475     
   1428112463.8669319     
   1294779174.8069942     
   1158779278.0021298     
   1820205519.6945341     
   1779769259.6898818     
   1735692945.5401258     
   1696668186.3333018     
   1681287848.8417020     
   1262675983.0491631     
   1446458107.8803368     
   1715496275.8442795     
   2110358254.7428126     
   2663468761.5853925     
   1001862764.7461489     
   1164521206.8487983     
   1425242645.0364616     
   1808614671.4977295     
   2334736250.0410409     
   917571977.00750935     
   962938033.01667726     
   1144765428.5726838     
   1476398274.0386360     
   1957544260.0590327     
   1158779278.0021298     
   1008276202.5196297     
   985105556.61354733     
   1161523932.3453698     
   1544425008.1206214     
   1681287848.8417020     
   1383694239.4666464     
   1129463863.9991088     
   1010370241.6274763     
   1153703094.3142931     
 </DataArray>
 <DataArray  type="Float64" Name="strain" NumberOfComponents="3" format="ascii">
  0.10515556893986600       -2.7154843033638132E-002   5.5093494277915767E-003
  0.10007921503892392       -2.8121467835137470E-002   2.9132197443133556E-003
   9.5002861137981620E-002  -2.8395085338942305E-002   1.0592779983572553E-003
   8.9926507237039544E-002  -2.7975695545052220E-002  -5.2475810076169083E-005
   8.4850153336097356E-002  -2.6863298453467688E-002  -4.2204168098680661E-004
   9.7365465661245931E-002  -2.6437452870337164E-002   9.5805737064552643E-003
   9.2924566286492649E-002  -2.6706348205965846E-002   8.2399927566741415E-003
   8.8483666911739201E-002  -2.6553385290758763E-002   7.4281329217481540E-003
   8.4042767536985891E-002  -2.5978564124715851E-002   7.1449942016768020E-003
   7.9601868162232525E-002  -2.4981884707837243E-002   7.3905765964609182E-003
   9.0380211753391448E-002  -2.5720062707036140E-002   1.4485101974419101E-002
   8.6361300082159614E-002  -2.5291228576794333E-002   1.4128920711476062E-002
   8.2342388410927503E-002  -2.4711685242575387E-002   1.4087993740720783E-002
   7.8323476739695502E-002  -2.3981432704379649E-002   1.4362321062153086E-002
   7.4304565068463585E-002  -2.3100470962206854E-002   1.4951902675772927E-002
   8.4199807216302852E-002  -2.5002672543735144E-002   2.0222934231682560E-002
   8.0389416425924703E-002  -2.3876108947622682E-002   2.0580003608719262E-002
   7.6579025635546541E-002  -2.2869985194392095E-002   2.1038860455276115E-002
   7.2768634845168462E-002  -2.1984301284043363E-002   2.1599504771352897E-002
   6.8958244054790313E-002  -2.1219057216576548E-002   2.2261936556949836E-002
   7.8824252049979782E-002  -2.4285282380434148E-002   2.6794070478246557E-002
   7.5008915317788027E-002  -2.2460989318451086E-002   2.7593241448403749E-002
   7.1193578585596329E-002  -2.1028285146208553E-002   2.8280733065413677E-002
   6.7378241853404630E-002  -1.9987169863707056E-002   2.8856545329276034E-002
   6.3562905121212904E-002  -1.9337643470946186E-002   2.9320678239991349E-002
   8.4850153336097356E-002  -2.6863298453467688E-002  -4.2204168098680661E-004
   8.2676754630015004E-002  -2.5491097389952255E-002  -3.3832059024146988E-004
   8.0503355923932596E-002  -2.4292295680270110E-002  -6.5899205681063666E-005
   7.8329957217850216E-002  -2.3266893324421854E-002   3.9522247269421773E-004
   7.6156558511767836E-002  -2.2414890322406622E-002   1.0450444448846241E-003
   7.9601868162232525E-002  -2.4981884707837243E-002   7.3905765964609182E-003
   7.7611641648233254E-002  -2.3829976402427261E-002   7.2773517517666642E-003
   7.5621415134233899E-002  -2.2789468570790672E-002   7.3417709974239742E-003
   7.3631188620234614E-002  -2.1860361212927337E-002   7.5838343334324043E-003
   7.1640962106235273E-002  -2.1042654328837895E-002   8.0035417597918435E-003
   7.4304565068463585E-002  -2.3100470962206854E-002   1.4951902675772927E-002
   7.2486454543083584E-002  -2.2168855414902322E-002   1.4703730775699669E-002
   7.0668344017703652E-002  -2.1286641461311026E-002   1.4622146762513416E-002
   6.8850233492323692E-002  -2.0453829101433268E-002   1.4707150636215229E-002
   6.7032122966943719E-002  -1.9670418335268613E-002   1.4958742396804281E-002
   6.8958244054790313E-002  -2.1219057216576548E-002   2.2261936556949836E-002
   6.7301193314565938E-002  -2.0507734427377244E-002   2.1940816481556949E-002
   6.5644142574341716E-002  -1.9783814351831373E-002   2.1775228089587869E-002
   6.3987091834117410E-002  -1.9047296989938976E-002   2.1765171381042579E-002
   6.2330041093893132E-002  -1.8298182341699609E-002   2.1910646355921132E-002
   6.3562905121212904E-002  -1.9337643470946186E-002   2.9320678239991349E-002
   6.2055857962680538E-002  -1.8846613439852306E-002   2.8988608869339100E-002
   6.0548810804148159E-002  -1.8280987242351929E-002   2.8801014978646872E-002
   5.9041763645615815E-002  -1.7640764878444511E-002   2.8757896567914693E-002
   5.7534716487083415E-002  -1.6925946348130549E-002   2.8859253637142590E-002
   7.6156558511767836E-002  -2.2414890322406622E-002   1.0450444448846241E-003
   7.2640695627504914E-002  -2.1623230195529808E-002   8.1145624684464401E-004
   6.9124832743242048E-002  -2.0778856465096252E-002   6.7806788848029376E-004
   6.5608969858979183E-002  -1.9881769131105148E-002   6.4487936979140681E-004
   6.2093106974716261E-002  -1.8931968193557136E-002   7.1189069077859379E-004
   7.1640962106235273E-002  -2.1042654328837895E-002   8.0035417597918435E-003
   6.8242757982172386E-002  -2.0261408144291393E-002   7.7397660876389884E-003
   6.4844553858109388E-002  -1.9441682885058570E-002   7.6111080962093514E-003
   6.1446349734046446E-002  -1.8583478551139183E-002   7.6175677855042506E-003
   5.8048145609983448E-002  -1.7686795142533018E-002   7.7591451555234503E-003
   6.7032122966943719E-002  -1.9670418335268613E-002   1.4958742396804281E-002
   6.3786495444128996E-002  -1.8899586093052811E-002   1.4650544721667241E-002
   6.0540867921314273E-002  -1.8104509305020888E-002   1.4512382568302923E-002
   5.7295240398499495E-002  -1.7285187971172997E-002   1.4544255936710770E-002
   5.4049612875684799E-002  -1.6441622091508901E-002   1.4746164826891228E-002
   6.2330041093893132E-002  -1.8298182341699609E-002   2.1910646355921132E-002
   5.9271908013374910E-002  -1.7537764041814258E-002   2.1543792148930062E-002
   5.6213774932856793E-002  -1.6767335724983318E-002   2.1381891304759870E-002
   5.3155641852338634E-002  -1.5986897391206699E-002   2.1424943823410501E-002
   5.0097508771820398E-002  -1.5196449040484561E-002   2.1672949704881636E-002
   5.7534716487083415E-002  -1.6925946348130549E-002   2.8859253637142590E-002
   5.4698995689910129E-002  -1.6175941990575760E-002   2.8419508369427193E-002
   5.1863274892736844E-002  -1.5430162144945775E-002   2.8219634305580749E-002
   4.9027554095563558E-002  -1.4688606811240630E-002   2.8259631445603395E-002
   4.6191833298390272E-002  -1.3951275989460388E-002   2.8539499789495049E-002
   6.2093106974716261E-002  -1.8931968193557136E-002   7.1189069077859379E-004
   5.9310897185950950E-002  -1.7978801640028519E-002   3.3856188224756778E-004
   5.6528687397185640E-002  -1.7071617458095212E-002   2.1707260469217005E-004
   5.3746477608420273E-002  -1.6210415647758450E-002   3.4742285811353857E-004
   5.0964267819655018E-002  -1.5395196209015305E-002   7.2961264251136804E-004
   5.8048145609983448E-002  -1.7686795142533018E-002   7.7591451555234503E-003
   5.5497533032017377E-002  -1.6787397754141897E-002   7.3724859138936671E-003
   5.2946920454051360E-002  -1.5921051480867754E-002   7.1971815628855684E-003
   5.0396307876085289E-002  -1.5087756322709617E-002   7.2332321024995982E-003
   4.7845695298119273E-002  -1.4287512279668624E-002   7.4806375327365338E-003
   5.4049612875684799E-002  -1.6441622091508901E-002   1.4746164826891228E-002
   5.1690112868163968E-002  -1.5595993868255553E-002   1.4359106408641131E-002
   4.9330612860643192E-002  -1.4770485503639824E-002   1.4142918240659191E-002
   4.6971112853122374E-002  -1.3965096997662109E-002   1.4097600322945991E-002
   4.4611612845601584E-002  -1.3179828350321610E-002   1.4223152655500448E-002
   5.0097508771820398E-002  -1.5196449040484561E-002   2.1672949704881636E-002
   4.7888636694390842E-002  -1.4404589982368959E-002   2.1298423366490765E-002
   4.5679764616961202E-002  -1.3619919526412019E-002   2.1054282638014003E-002
   4.3470892539531562E-002  -1.2842437672614049E-002   2.0940527519451590E-002
   4.1262020462101930E-002  -1.2072144420974429E-002   2.0957158010802876E-002
   4.6191833298390272E-002  -1.3951275989460388E-002   2.8539499789495049E-002
   4.4093104510697784E-002  -1.3213186096482588E-002   2.8190436787442208E-002
   4.1994375723005323E-002  -1.2469353549184339E-002   2.7931274754949359E-002
   3.9895646935312890E-002  -1.1719778347566188E-002   2.7762013692016488E-002
   3.7796918147620373E-002  -1.0964460491627581E-002   2.7682653598643969E-002
   5.0964267819655018E-002  -1.5395196209015305E-002   7.2961264251136804E-004
   4.8182979458567421E-002  -1.4586615566884120E-002   5.1207373879558205E-004
   4.5401691097479824E-002  -1.3745330146377410E-002   3.1735215854400423E-004
   4.2620402736392199E-002  -1.2871339947497881E-002   1.4544790175563538E-004
   3.9839114375304630E-002  -1.1964644970244187E-002  -3.6390315687473418E-006
   4.7845695298119273E-002  -1.4287512279668624E-002   7.4806375327365338E-003
   4.5102471442374670E-002  -1.3493290378828071E-002   7.1896916844624847E-003
   4.2359247586630067E-002  -1.2678061647273531E-002   6.9520575234111037E-003
   3.9616023730885436E-002  -1.1841826085004239E-002   6.7677350495813915E-003
   3.6872799875140860E-002  -1.0984583692019489E-002   6.6367242629749024E-003
   4.4611612845601584E-002  -1.3179828350321610E-002   1.4223152655500448E-002
   4.1936947858958545E-002  -1.2399965190772688E-002   1.3847101915008708E-002
   3.9262282872315465E-002  -1.1610793148168347E-002   1.3554857225497957E-002
   3.6587617885672379E-002  -1.0812312222509272E-002   1.3346418586967501E-002
   3.3912952899029375E-002  -1.0004522413795458E-002   1.3221785999418367E-002
   4.1262020462101930E-002  -1.2072144420974429E-002   2.0957158010802876E-002
   3.8686408708318909E-002  -1.1306640002716750E-002   2.0484304430433739E-002
   3.6110796954535965E-002  -1.0543524649063593E-002   2.0125751264803898E-002
   3.3535185200752965E-002  -9.7827983600149680E-003   1.9881498513913253E-002
   3.0959573446969937E-002  -9.0244611355713156E-003   1.9751546177761842E-002
   3.7796918147620373E-002  -1.0964460491627581E-002   2.7682653598643969E-002
   3.5350853990455955E-002  -1.0213314814660979E-002   2.7101299230737619E-002
   3.2904789833291592E-002  -9.4762561499588671E-003   2.6664739641329038E-002
   3.0458725676127132E-002  -8.7532844975205595E-003   2.6372974830418394E-002
   2.8012661518962811E-002  -8.0443998573469511E-003   2.6226004798005631E-002
   3.9839114375304630E-002  -1.1964644970244187E-002  -3.6390315687473418E-006
   3.7435768111623080E-002  -1.1124542047180941E-002  -2.9360666297861826E-004
   3.5032421847941475E-002  -1.0450328010872201E-002  -4.8836961902254394E-004
   3.2629075584259870E-002  -9.9420028613184941E-003  -5.8792789970057990E-004
   3.0225729320578321E-002  -9.5995665985202372E-003  -5.9228150501278165E-004
   3.6872799875140860E-002  -1.0984583692019489E-002   6.6367242629749024E-003
   3.4545329025839011E-002  -1.0172317224438010E-002   6.1954711104935667E-003
   3.2217858176537190E-002  -9.4710094383751997E-003   5.8107641114067410E-003
   2.9890387327235410E-002  -8.8806603338310031E-003   5.4826032657123991E-003
   2.7562916477933519E-002  -8.4012699108055866E-003   5.2109885734127337E-003
   3.3912952899029375E-002  -1.0004522413795458E-002   1.3221785999418367E-002
   3.1622698942134930E-002  -9.2200924016955788E-003   1.2684177531102736E-002
   2.9332444985240430E-002  -8.4916908658780321E-003   1.2164456694208153E-002
   2.7042191028345902E-002  -7.8193178063433039E-003   1.1662623488734758E-002
   2.4751937071451513E-002  -7.2029732230911581E-003   1.1178677914683022E-002
   3.0959573446969937E-002  -9.0244611355713156E-003   1.9751546177761842E-002
   2.8667877860510532E-002  -8.2678675789528977E-003   1.9172512598847793E-002
   2.6376182274051106E-002  -7.5123722933808368E-003   1.8572708129382581E-002
   2.4084486687591739E-002  -6.7579752788557088E-003   1.7952132769365935E-002
   2.1792791101132226E-002  -6.0046765353762854E-003   1.7310786518798554E-002
   2.8012661518962811E-002  -8.0443998573469511E-003   2.6226004798005631E-002
   2.5680865780966067E-002  -7.3156427562102166E-003   2.5660476313729252E-002
   2.3349070042969378E-002  -6.5330537208839190E-003   2.5035518416929303E-002
   2.1017274304972675E-002  -5.6966327513677945E-003   2.4351131107606089E-002
   1.8685478566975944E-002  -4.8063798476617459E-003   2.3607314385759026E-002
   3.0225729320578321E-002  -9.5995665985202372E-003  -5.9228150501278165E-004
   2.9612884185038602E-002  -9.1354478430845099E-003  -3.5391312597821134E-004
   2.9000039049498827E-002  -8.2620752156181698E-003  -1.7964321190004906E-003
   2.8387193913959136E-002  -6.9794487161219387E-003  -4.9198384840811182E-003
   2.7774348778419333E-002  -5.2875683445949839E-003  -9.7241322212182624E-003
   2.7562916477933519E-002  -8.4012699108055866E-003   5.2109885734127337E-003
   2.5538630618213320E-002  -7.8711623529986730E-003   5.8814604480431631E-003
   2.3514344758493122E-002  -7.1286618441097072E-003   5.4099382463694834E-003
   2.1490058898772840E-002  -6.1737683841385643E-003   3.7964219683930267E-003
   1.9465773039052614E-002  -5.0064819730846200E-003   1.0409116141121277E-003
   2.4751937071451513E-002  -7.2029732230911581E-003   1.1178677914683022E-002
   2.1855103783304380E-002  -6.6068768629132801E-003   1.2084392363961527E-002
   1.8958270495157317E-002  -5.9952484726012445E-003   1.2387006032689385E-002
   1.6061437207010247E-002  -5.3680880521554120E-003   1.2086518920867345E-002
   1.3164603918863121E-002  -4.7253956015749221E-003   1.1182931028495546E-002
   2.1792791101132226E-002  -6.0046765353762854E-003   1.7310786518798554E-002
   1.8562303680311885E-002  -5.3425913728277763E-003   1.8254882621776311E-002
   1.5331816259491520E-002  -4.8618351010927818E-003   1.9134771239957910E-002
   1.2101328838671091E-002  -4.5624077201723706E-003   1.9950452373342378E-002
   8.8708414178508208E-003  -4.4443092300653353E-003   2.0701926021930939E-002
   1.8685478566975944E-002  -4.8063798476617459E-003   2.3607314385759026E-002
   1.5660230309235801E-002  -4.0783058827419394E-003   2.4392931221488445E-002
   1.2634982051495630E-002  -3.7284217295839861E-003   2.5653233868174974E-002
   9.6097337937554872E-003  -3.7567273881887464E-003   2.7388222325818362E-002
   6.5844855360153165E-003  -4.1632228585554154E-003   2.9597896594418915E-002
   2.7774348778419333E-002  -5.2875683445949839E-003  -9.7241322212182624E-003
   2.3350474032840296E-002  -4.2050597070948381E-003  -4.1910517382048873E-003
   1.8926599287261092E-002  -4.7505484096771466E-003   2.6048851085583857E-003
   1.4502724541681916E-002  -6.9240344523424369E-003   1.0663678319072889E-002
   1.0078849796102851E-002  -1.0725517835091125E-002   1.9985327893336624E-002
   1.9465773039052614E-002  -5.0064819730846200E-003   1.0409116141121277E-003
   1.6232516729084379E-002  -4.6897646024038897E-003   6.7383966022077635E-003
   1.2999260419116032E-002  -6.2865782635500578E-003   1.3554262097774772E-002
   9.7660041091477412E-003  -9.7969229565227633E-003   2.1488508100812154E-002
   6.5327477991794503E-003  -1.5220798681322645E-002   3.0541134611321574E-002
   1.3164603918863121E-002  -4.7253956015749221E-003   1.1182931028495546E-002
   1.0977490188226413E-002  -5.1744694977132744E-003   1.6759286829929221E-002
   8.7903764575896354E-003  -7.8226081174225803E-003   2.3309547282554743E-002
   6.6032627269528091E-003  -1.2669811460703104E-002   3.0833712386372586E-002
   4.4161489963161493E-003  -1.9716079527554164E-002   3.9331782141381888E-002
   8.8708414178508208E-003  -4.4443092300653353E-003   2.0701926021930939E-002
   7.5853944102662330E-003  -5.6591743930231586E-003   2.5871618944958846E-002
   6.2999474026818013E-003  -9.3586379712957413E-003   3.1870740662899813E-002
   5.0145003950974546E-003  -1.5542699964883437E-002   3.8699291175753554E-002
   3.7290533875127818E-003  -2.4211360373786128E-002   4.6357270483519786E-002
   6.5844855360153165E-003  -4.1632228585554154E-003   2.9597896594418915E-002
   6.0562293952039492E-003  -6.1438792883323767E-003   3.4075392947297667E-002
   5.5279732543925819E-003  -1.0894667825168874E-002   3.9237842238810050E-002
   4.9997171135813256E-003  -1.8415588469063597E-002   4.5085244468955371E-002
   4.4714609727698473E-003  -2.8706641220017648E-002   5.1617599637734823E-002
   7.8824252049979782E-002  -2.4285282380434148E-002   2.6794070478246557E-002
   7.5008915317788027E-002  -2.2460989318451086E-002   2.7593241448403749E-002
   7.1193578585596329E-002  -2.1028285146208553E-002   2.8280733065413677E-002
   6.7378241853404630E-002  -1.9987169863707056E-002   2.8856545329276034E-002
   6.3562905121212904E-002  -1.9337643470946186E-002   2.9320678239991349E-002
   7.3450056203307301E-002  -2.1479261344486411E-002   3.4282225535249344E-002
   6.9632271404865720E-002  -2.0292847662635394E-002   3.4097812356432056E-002
   6.5814486606424277E-002  -1.9296214499858300E-002   3.4020182398262433E-002
   6.1996701807982765E-002  -1.8489361856155156E-002   3.4049335660740948E-002
   5.8178917009541226E-002  -1.7872289731525826E-002   3.4185272143866852E-002
   6.7273729625169976E-002  -1.8673240308538591E-002   4.1031597026786354E-002
   6.3671959334273900E-002  -1.8124706006819813E-002   4.0065408069661551E-002
   6.0070189043377728E-002  -1.7564143853508060E-002   3.9424464906979609E-002
   5.6468418752481542E-002  -1.6991553848603281E-002   3.9108767538740617E-002
   5.2866648461585432E-002  -1.6406935992105548E-002   3.9118315964944528E-002
   6.0295272315568069E-002  -1.5867219272590799E-002   4.7042184952857967E-002
   5.7127979106012389E-002  -1.5956564351004260E-002   4.5496028588092249E-002
   5.3960685896456743E-002  -1.5832073207157786E-002   4.4493580591564774E-002
   5.0793392686901029E-002  -1.5493745841051393E-002   4.4034840963275347E-002
   4.7626099477345321E-002  -1.4941582252685257E-002   4.4119809703223864E-002
   5.2514684274501400E-002  -1.3061198236643035E-002   5.2313989313463871E-002
   5.0000330720081310E-002  -1.3788422695188568E-002   5.0389673911724331E-002
   4.7485977165661247E-002  -1.4100002560807512E-002   4.9227529452018248E-002
   4.4971623611241171E-002  -1.3995937833499505E-002   4.8827555934345068E-002
   4.2457270056821067E-002  -1.3476228513264910E-002   4.9189753358705179E-002
   6.3562905121212904E-002  -1.9337643470946186E-002   2.9320678239991349E-002
   6.2055857962680538E-002  -1.8846613439852306E-002   2.8988608869339100E-002
   6.0548810804148159E-002  -1.8280987242351929E-002   2.8801014978646872E-002
   5.9041763645615815E-002  -1.7640764878444511E-002   2.8757896567914693E-002
   5.7534716487083415E-002  -1.6925946348130549E-002   2.8859253637142590E-002
   5.8178917009541226E-002  -1.7872289731525826E-002   3.4185272143866852E-002
   5.6809267843666147E-002  -1.7330493805562466E-002   3.3974756993702157E-002
   5.5439618677791069E-002  -1.6749469757857280E-002   3.3894562348891530E-002
   5.4069969511915970E-002  -1.6129217588409944E-002   3.3944688209435740E-002
   5.2700320346040913E-002  -1.5469737297220842E-002   3.4125134575334087E-002
   5.2866648461585432E-002  -1.6406935992105548E-002   3.9118315964944528E-002
   5.1620242313762048E-002  -1.5814374171272697E-002   3.8993986990602081E-002
   5.0373836165938671E-002  -1.5217952273362749E-002   3.8985823547008754E-002
   4.9127430018115259E-002  -1.4617670298375433E-002   3.9093825634164303E-002
   4.7881023870291917E-002  -1.4013528246310997E-002   3.9317993252068612E-002
   4.7626099477345321E-002  -1.4941582252685257E-002   4.4119809703223864E-002
   4.6488781372968052E-002  -1.4298254536982864E-002   4.4046298860039357E-002
   4.5351463268590846E-002  -1.3686434788868187E-002   4.4074798572998175E-002
   4.4214145164213632E-002  -1.3106123008340811E-002   4.4205308842100409E-002
   4.3076827059836384E-002  -1.2557319195401165E-002   4.4437829667345850E-002
   4.2457270056821067E-002  -1.3476228513264910E-002   4.9189753358705179E-002
   4.1414885021284376E-002  -1.2782134902693087E-002   4.9131692602013777E-002
   4.0372499985747712E-002  -1.2154917304373555E-002   4.9161487426859996E-002
   3.9330114950211055E-002  -1.1594575718306379E-002   4.9279137833244238E-002
   3.8287729914674357E-002  -1.1101110144491388E-002   4.9484643821166019E-002
   5.7534716487083415E-002  -1.6925946348130549E-002   2.8859253637142590E-002
   5.4698995689910129E-002  -1.6175941990575760E-002   2.8419508369427193E-002
   5.1863274892736844E-002  -1.5430162144945775E-002   2.8219634305580749E-002
   4.9027554095563558E-002  -1.4688606811240630E-002   2.8259631445603395E-002
   4.6191833298390272E-002  -1.3951275989460388E-002   2.8539499789495049E-002
   5.2700320346040913E-002  -1.5469737297220842E-002   3.4125134575334087E-002
   5.0100181024811979E-002  -1.4788679318727987E-002   3.3696050615457801E-002
   4.7500041703583129E-002  -1.4103694087369917E-002   3.3498258403601044E-002
   4.4899902382354237E-002  -1.3414781603146554E-002   3.3531757939764123E-002
   4.2299763061125345E-002  -1.2721941866057962E-002   3.3796549223946704E-002
   4.7881023870291917E-002  -1.4013528246310997E-002   3.9317993252068612E-002
   4.5507886569158058E-002  -1.3401416646880188E-002   3.8907722364821401E-002
   4.3134749268024200E-002  -1.2777226029794045E-002   3.8720163769744437E-002
   4.0761611966890328E-002  -1.2140956395052530E-002   3.8755317466837878E-002
   3.8388474665756497E-002  -1.1492607742655453E-002   3.9013183456101760E-002
   4.3076827059836384E-002  -1.2557319195401165E-002   4.4437829667345850E-002
   4.0922112322948227E-002  -1.2014153975032457E-002   4.4054523617517889E-002
   3.8767397586060112E-002  -1.1450757972218374E-002   4.3885350404010912E-002
   3.6612682849171962E-002  -1.0867131186958258E-002   4.3930310026825209E-002
   3.4457968112283847E-002  -1.0263273619252986E-002   4.4189402485960372E-002
   3.8287729914674357E-002  -1.1101110144491388E-002   4.9484643821166019E-002
   3.6342858286182556E-002  -1.0626891303184616E-002   4.9136454373547578E-002
   3.4397986657690810E-002  -1.0124289914642301E-002   4.8993818306400844E-002
   3.2453115029199023E-002  -9.5933059788643436E-003   4.9056735619725664E-002
   3.0508243400707263E-002  -9.0339394958505181E-003   4.9325206313522330E-002
   4.6191833298390272E-002  -1.3951275989460388E-002   2.8539499789495049E-002
   4.4093104510697784E-002  -1.3213186096482588E-002   2.8190436787442208E-002
   4.1994375723005323E-002  -1.2469353549184339E-002   2.7931274754949359E-002
   3.9895646935312890E-002  -1.1719778347566188E-002   2.7762013692016488E-002
   3.7796918147620373E-002  -1.0964460491627581E-002   2.7682653598643969E-002
   4.2299763061125345E-002  -1.2721941866057962E-002   3.3796549223946704E-002
   4.0303083797762262E-002  -1.2024110686610828E-002   3.3446315761645307E-002
   3.8306404534399166E-002  -1.1320223875311328E-002   3.3210280378442592E-002
   3.6309725271036104E-002  -1.0610281432159873E-002   3.3088443074338503E-002
   3.4313046007672987E-002  -9.8942833571562527E-003   3.3080803849333207E-002
   3.8388474665756497E-002  -1.1492607742655453E-002   3.9013183456101760E-002
   3.6518142036261421E-002  -1.0835035276738791E-002   3.8662092511083671E-002
   3.4647809406766275E-002  -1.0171094201438087E-002   3.8449496754703029E-002
   3.2777476777271164E-002  -9.5007845167532790E-003   3.8375396186959676E-002
   3.0907144147776067E-002  -8.8241062226846467E-003   3.8439790807853369E-002
   3.4457968112283847E-002  -1.0263273619252986E-002   4.4189402485960372E-002
   3.2738279226195217E-002  -9.6459598668668378E-003   4.3837767035757577E-002
   3.1018590340106646E-002  -9.0219645275649053E-003   4.3648923883730741E-002
   2.9298901454018110E-002  -8.3912876013468238E-003   4.3622873029880049E-002
   2.7579212567929497E-002  -7.7539290882131240E-003   4.3759614474204712E-002
   3.0508243400707263E-002  -9.0339394958505181E-003   4.9325206313522330E-002
   2.8963495367563763E-002  -8.4568844569951063E-003   4.8973339335666943E-002
   2.7418747334420318E-002  -7.8728348536918902E-003   4.8808561765525893E-002
   2.5873999301276832E-002  -7.2817906859404674E-003   4.8830873603099179E-002
   2.4329251268133345E-002  -6.6837519537417123E-003   4.9040274848386911E-002
   3.7796918147620373E-002  -1.0964460491627581E-002   2.7682653598643969E-002
   3.5350853990455955E-002  -1.0213314814660979E-002   2.7101299230737619E-002
   3.2904789833291592E-002  -9.4762561499588671E-003   2.6664739641329038E-002
   3.0458725676127132E-002  -8.7532844975205595E-003   2.6372974830418394E-002
   2.8012661518962811E-002  -8.0443998573469511E-003   2.6226004798005631E-002
   3.4313046007672987E-002  -9.8942833571562527E-003   3.3080803849333207E-002
   3.2014375183426647E-002  -9.1801727542326073E-003   3.2568059521759007E-002
   2.9715704359180278E-002  -8.4758927273215490E-003   3.2205307081523055E-002
   2.7417033534933952E-002  -7.7814432764224187E-003   3.1992546528625307E-002
   2.5118362710687597E-002  -7.0968244015360282E-003   3.1929777863065778E-002
   3.0907144147776067E-002  -8.8241062226846467E-003   3.8439790807853369E-002
   2.8761063765288017E-002  -8.1470306938041526E-003   3.7999912956863474E-002
   2.6614983382799946E-002  -7.4755293046842169E-003   3.7715224102052011E-002
   2.4468903000311921E-002  -6.8096020553242743E-003   3.7585724243419112E-002
   2.2322822617823826E-002  -6.1492489457249944E-003   3.7611413380964714E-002
   2.7579212567929497E-002  -7.7539290882131240E-003   4.3759614474204712E-002
   2.5590919736040090E-002  -7.1138886333755730E-003   4.3396859536050859E-002
   2.3602626904150631E-002  -6.4751658820468919E-003   4.3194490702915811E-002
   2.1614334072261175E-002  -5.8377608342262428E-003   4.3152507974799567E-002
   1.9626041240371806E-002  -5.2016734899140160E-003   4.3270911351701996E-002
   2.4329251268133345E-002  -6.6837519537417123E-003   4.9040274848386911E-002
   2.2503943095682821E-002  -6.0807465729473820E-003   4.8758899259321364E-002
   2.0678634923232270E-002  -5.4748024594095113E-003   4.8643106884114551E-002
   1.8853326750781718E-002  -4.8659196131279198E-003   4.8692897722766998E-002
   1.7028018578331194E-002  -4.2540980341030377E-003   4.8908271775278234E-002
   2.8012661518962811E-002  -8.0443998573469511E-003   2.6226004798005631E-002
   2.5680865780966067E-002  -7.3156427562102166E-003   2.5660476313729252E-002
   2.3349070042969378E-002  -6.5330537208839190E-003   2.5035518416929303E-002
   2.1017274304972675E-002  -5.6966327513677945E-003   2.4351131107606089E-002
   1.8685478566975944E-002  -4.8063798476617459E-003   2.3607314385759026E-002
   2.5118362710687597E-002  -7.0968244015360282E-003   3.1929777863065778E-002
   2.2767061959400120E-002  -6.4111903214531529E-003   3.1535778953730886E-002
   2.0415761208112670E-002  -5.7136952549662889E-003   3.1162199430337933E-002
   1.8064460456825179E-002  -5.0043392020743122E-003   3.0809039292886808E-002
   1.5713159705537744E-002  -4.2831221627779303E-003   3.0476298541378122E-002
   2.2322822617823826E-002  -6.1492489457249944E-003   3.7611413380964714E-002
   2.0031865651711153E-002  -5.5067378866962002E-003   3.7346973098785929E-002
   1.7740908685598460E-002  -4.8943367890482981E-003   3.7182801001014704E-002
   1.5449951719485790E-002  -4.3120456527809339E-003   3.7118897087650760E-002
   1.3158994753373093E-002  -3.7598644778943924E-003   3.7155261358694791E-002
   1.9626041240371806E-002  -5.2016734899140160E-003   4.3270911351701996E-002
   1.7475276857899315E-002  -4.6022854519392475E-003   4.3094058748894368E-002
   1.5324512475426882E-002  -4.0749783231303766E-003   4.3097323128959523E-002
   1.3173748092954449E-002  -3.6197521034875592E-003   4.3280704491897679E-002
   1.1022983710482014E-002  -3.2366067930107156E-003   4.3644202837708812E-002
   1.7028018578331194E-002  -4.2540980341030377E-003   4.8908271775278234E-002
   1.5097295577964520E-002  -3.6978330171820728E-003   4.8777035904056132E-002
   1.3166572577597818E-002  -3.2556198572125661E-003   4.8905765814172608E-002
   1.1235849577231130E-002  -2.9274585541939901E-003   4.9294461505627357E-002
   9.3051265768644975E-003  -2.7133491081270389E-003   4.9943122978420629E-002
   1.8685478566975944E-002  -4.8063798476617459E-003   2.3607314385759026E-002
   1.5660230309235801E-002  -4.0783058827419394E-003   2.4392931221488445E-002
   1.2634982051495630E-002  -3.7284217295839861E-003   2.5653233868174974E-002
   9.6097337937554872E-003  -3.7567273881887464E-003   2.7388222325818362E-002
   6.5844855360153165E-003  -4.1632228585554154E-003   2.9597896594418915E-002
   1.5713159705537744E-002  -4.2831221627779303E-003   3.0476298541378122E-002
   1.3143888330626768E-002  -3.7737170241718410E-003   3.1254523058479755E-002
   1.0574616955715807E-002  -3.6997966733498810E-003   3.2470015530282892E-002
   8.0053455808047833E-003  -4.0613611103128069E-003   3.4122775956787338E-002
   5.4360742058938705E-003  -4.8584103350596264E-003   3.6212804337993454E-002
   1.3158994753373093E-002  -3.7598644778943924E-003   3.7155261358694791E-002
   1.1008282405035624E-002  -3.4691281656017980E-003   3.7868798581146584E-002
   8.8575700566981413E-003  -3.6711716171155540E-003   3.8982185902044109E-002
   6.7068577083606654E-003  -4.3659948324363124E-003   4.0495423321387225E-002
   4.5561453600231894E-003  -5.5535978115637818E-003   4.2408510839175934E-002
   1.1022983710482014E-002  -3.2366067930107156E-003   4.3644202837708812E-002
   9.2534125324623476E-003  -3.1645393070314498E-003   4.4235757789488732E-002
   7.4838413544425948E-003  -3.6425465608812269E-003   4.5189744983458527E-002
   5.7142701764229132E-003  -4.6706285545599843E-003   4.6506164419617871E-002
   3.9446989984032316E-003  -6.2487852880679651E-003   4.8185016097967777E-002
   9.3051265768644975E-003  -2.7133491081270389E-003   4.9943122978420629E-002
   7.8792787129068620E-003  -2.8599504484615457E-003   5.0355400683506080E-002
   6.4534308489492542E-003  -3.6139215046470108E-003   5.1092692774525439E-002
   5.0275829849916326E-003  -4.9752622766837395E-003   5.2154999251479039E-002
   3.6017351210340109E-003  -6.9439727645721483E-003   5.3542320114366992E-002
   6.5844855360153165E-003  -4.1632228585554154E-003   2.9597896594418915E-002
   6.0562293952039492E-003  -6.1438792883323767E-003   3.4075392947297667E-002
   5.5279732543925819E-003  -1.0894667825168874E-002   3.9237842238810050E-002
   4.9997171135813256E-003  -1.8415588469063597E-002   4.5085244468955371E-002
   4.4714609727698473E-003  -2.8706641220017648E-002   5.1617599637734823E-002
   5.4360742058938705E-003  -4.8584103350596264E-003   3.6212804337993454E-002
   5.4890652338498158E-003  -6.9915468495143629E-003   3.8351666455911537E-002
   5.5420562618058444E-003  -1.1361373155600957E-002   4.0968069972731169E-002
   5.5950472897618730E-003  -1.7967889253318471E-002   4.4062014888452072E-002
   5.6480383177177629E-003  -2.6811095142667885E-002   4.7633501203073969E-002
   4.5561453600231894E-003  -5.5535978115637818E-003   4.2408510839175934E-002
   4.9829720170144198E-003  -7.8392144106965711E-003   4.2742181037561361E-002
   5.4097986740055948E-003  -1.1828078486032942E-002   4.3345981095115851E-002
   5.8366253309968391E-003  -1.7520190037573571E-002   4.4219911011839426E-002
   6.2634519879880002E-003  -2.4915549065317899E-002   4.5363970787732022E-002
   3.9446989984032316E-003  -6.2487852880679651E-003   4.8185016097967777E-002
   4.5379497446974559E-003  -8.6868819718782242E-003   4.7246936692247270E-002
   5.1312004909916803E-003  -1.2294783816465531E-002   4.6371575605964041E-002
   5.7244512372859081E-003  -1.7072490821828448E-002   4.5558932839117994E-002
   6.3177019835801845E-003  -2.3020002987968136E-002   4.4809008391708621E-002
   3.6017351210340109E-003  -6.9439727645721483E-003   5.3542320114366992E-002
   4.1539984168991184E-003  -9.5345495330604324E-003   5.1865933419969368E-002
   4.7062617127642259E-003  -1.2761489146897287E-002   5.0044853505275877E-002
   5.2585250086293611E-003  -1.6624791606083558E-002   4.8079080370286797E-002
   5.8107883044944408E-003  -2.1124456910618150E-002   4.5968614015003961E-002
   5.2514684274501400E-002  -1.3061198236643035E-002   5.2313989313463871E-002
   5.0000330720081310E-002  -1.3788422695188568E-002   5.0389673911724331E-002
   4.7485977165661247E-002  -1.4100002560807512E-002   4.9227529452018248E-002
   4.4971623611241171E-002  -1.3995937833499505E-002   4.8827555934345068E-002
   4.2457270056821067E-002  -1.3476228513264910E-002   4.9189753358705179E-002
   4.4770090847625732E-002  -1.2381921324704392E-002   5.2704982721645699E-002
   4.2904215204703222E-002  -1.2560011733195070E-002   5.1857955212135098E-002
   4.1038339561780782E-002  -1.2520024808776786E-002   5.1545712583586784E-002
   3.9172463918858307E-002  -1.2261960551449361E-002   5.1768254836000463E-002
   3.7306588275935873E-002  -1.1785818961212891E-002   5.2525581969376289E-002
   3.7899617380596523E-002  -1.1702644412765806E-002   5.3743893809891169E-002
   3.6454833588100630E-002  -1.1331600771201586E-002   5.3776586932591797E-002
   3.5010049795604743E-002  -1.0940047056746088E-002   5.4116678875183677E-002
   3.3565266003108843E-002  -1.0527983269399188E-002   5.4764169637666518E-002
   3.2120482210612970E-002  -1.0095409409160927E-002   5.5719059220040362E-002
   3.1903263873413926E-002  -1.1023367500827191E-002   5.5430722578200461E-002
   3.0652185870273508E-002  -1.0103189809208026E-002   5.6145569073094745E-002
   2.9401107867133153E-002  -9.3600693047153211E-003   5.6940428326809026E-002
   2.8150029863992780E-002  -8.7940059873489740E-003   5.7815300339343248E-002
   2.6898951860852414E-002  -8.4049998571089357E-003   5.8770185110697398E-002
   2.6781030326077787E-002  -1.0344090588888577E-002   5.7765469026573590E-002
   2.5496272051221874E-002  -8.8747788472145483E-003   5.8964901633643541E-002
   2.4211513776365989E-002  -7.7800915526846787E-003   6.0016960938462510E-002
   2.2926755501510084E-002  -7.0600287052988465E-003   6.0921646941030569E-002
   2.1641997226654178E-002  -6.7145903050569444E-003   6.1678959641347397E-002
   4.2457270056821067E-002  -1.3476228513264910E-002   4.9189753358705179E-002
   4.1414885021284376E-002  -1.2782134902693087E-002   4.9131692602013777E-002
   4.0372499985747712E-002  -1.2154917304373555E-002   4.9161487426859996E-002
   3.9330114950211055E-002  -1.1594575718306379E-002   4.9279137833244238E-002
   3.8287729914674357E-002  -1.1101110144491388E-002   4.9484643821166019E-002
   3.7306588275935873E-002  -1.1785818961212891E-002   5.2525581969376289E-002
   3.6358300221982554E-002  -1.1220693201110798E-002   5.2384845825577647E-002
   3.5410012168029213E-002  -1.0695676434186688E-002   5.2344448063408100E-002
   3.4461724114075928E-002  -1.0210768660440423E-002   5.2404388682867398E-002
   3.3513436060122581E-002  -9.7659698798716610E-003   5.2564667683955568E-002
   3.2120482210612970E-002  -1.0095409409160927E-002   5.5719059220040362E-002
   3.1278773938334219E-002  -9.6592514995286760E-003   5.5522414708209192E-002
   3.0437065666055470E-002  -9.2364355639998827E-003   5.5438591378097972E-002
   2.9595357393776694E-002  -8.8269616025743024E-003   5.5467589229707029E-002
   2.8753649121497971E-002  -8.4308296152520723E-003   5.5609408263036189E-002
   2.6898951860852414E-002  -8.4049998571089357E-003   5.8770185110697398E-002
   2.6176306170339409E-002  -8.0978097979464703E-003   5.8544399249907966E-002
   2.5453660479826366E-002  -7.7771946938129909E-003   5.8443917370929785E-002
   2.4731014789313374E-002  -7.4431545447082364E-003   5.8468739473763041E-002
   2.4008369098800341E-002  -7.0956893506325253E-003   5.8618865558407549E-002
   2.1641997226654178E-002  -6.7145903050569444E-003   6.1678959641347397E-002
   2.1050896917998094E-002  -6.5363680963642923E-003   6.1450799450674137E-002
   2.0459796609342010E-002  -6.3179538236261268E-003   6.1360426041903532E-002
   1.9868696300685926E-002  -6.0593474868423161E-003   6.1407839415035359E-002
   1.9277595992029828E-002  -5.7605490860127562E-003   6.1593039570069785E-002
   3.8287729914674357E-002  -1.1101110144491388E-002   4.9484643821166019E-002
   3.6342858286182556E-002  -1.0626891303184616E-002   4.9136454373547578E-002
   3.4397986657690810E-002  -1.0124289914642301E-002   4.8993818306400844E-002
   3.2453115029199023E-002  -9.5933059788643436E-003   4.9056735619725664E-002
   3.0508243400707263E-002  -9.0339394958505181E-003   4.9325206313522330E-002
   3.3513436060122581E-002  -9.7659698798716610E-003   5.2564667683955568E-002
   3.1778993867074848E-002  -9.3308229671294485E-003   5.2260455109617077E-002
   3.0044551674027045E-002  -8.8748707968618473E-003   5.2171548025694903E-002
   2.8310109480979291E-002  -8.3981133690688332E-003   5.2297946432188769E-002
   2.6575667287931523E-002  -7.9005506837505068E-003   5.2639650329099175E-002
   2.8753649121497971E-002  -8.4308296152520723E-003   5.5609408263036189E-002
   2.7239388473838791E-002  -8.0347546310740592E-003   5.5341595272267050E-002
   2.5725127826179577E-002  -7.6254516790812341E-003   5.5298839881858915E-002
   2.4210867178520393E-002  -7.2029207592732691E-003   5.5481142091811639E-002
   2.2696606530861183E-002  -6.7671618716504955E-003   5.5888501902125326E-002
   2.4008369098800341E-002  -7.0956893506325253E-003   5.8618865558407549E-002
   2.2724042106474347E-002  -6.7386862950187809E-003   5.8379874861497622E-002
   2.1439715114148356E-002  -6.3760325613004785E-003   5.8375693874893178E-002
   2.0155388121822375E-002  -6.0077281494776763E-003   5.8606322598594281E-002
   1.8871061129496391E-002  -5.6337730595504842E-003   5.9071761032600811E-002
   1.9277595992029828E-002  -5.7605490860127562E-003   6.1593039570069785E-002
   1.8232954764981629E-002  -5.4426179589634749E-003   6.1375293877308668E-002
   1.7188313537933431E-002  -5.1266134435199173E-003   6.1402110004797533E-002
   1.6143672310885218E-002  -4.8125355396822153E-003   6.1673487952536576E-002
   1.5099031083837006E-002  -4.5003842474504729E-003   6.2189427720525714E-002
   3.0508243400707263E-002  -9.0339394958505181E-003   4.9325206313522330E-002
   2.8963495367563763E-002  -8.4568844569951063E-003   4.8973339335666943E-002
   2.7418747334420318E-002  -7.8728348536918902E-003   4.8808561765525893E-002
   2.5873999301276832E-002  -7.2817906859404674E-003   4.8830873603099179E-002
   2.4329251268133345E-002  -6.6837519537417123E-003   4.9040274848386911E-002
   2.6575667287931523E-002  -7.9005506837505068E-003   5.2639650329099175E-002
   2.5218241529082988E-002  -7.3886495510236683E-003   5.2348964674399617E-002
   2.3860815770234488E-002  -6.8688767810047430E-003   5.2245834160575572E-002
   2.2503390011385998E-002  -6.3412323736940397E-003   5.2330258787627038E-002
   2.1145964252537480E-002  -5.8057163290913816E-003   5.2602238555554293E-002
   2.2696606530861183E-002  -6.7671618716504955E-003   5.5888501902125326E-002
   2.1526968779468830E-002  -6.3204146450522303E-003   5.5659874643425714E-002
   2.0357331028076478E-002  -5.8649187083177623E-003   5.5619268258762955E-002
   1.9187693276684108E-002  -5.4006740614474455E-003   5.5766682748136995E-002
   1.8018055525291773E-002  -4.9276807044410509E-003   5.6102118111547583E-002
   1.8871061129496391E-002  -5.6337730595504842E-003   5.9071761032600811E-002
   1.7889677118721331E-002  -5.2521797390807923E-003   5.8906069242745385E-002
   1.6908293107946303E-002  -4.8609606356309204E-003   5.8928864060087925E-002
   1.5926909097171288E-002  -4.4601157492009900E-003   5.9140145484628329E-002
   1.4945525086396242E-002  -4.0496450797908312E-003   5.9539913516366519E-002
   1.5099031083837006E-002  -4.5003842474504729E-003   6.2189427720525714E-002
   1.4306366546840463E-002  -4.1839448331094098E-003   6.2087548472358589E-002
   1.3513702009843934E-002  -3.8570025629440230E-003   6.2174621564550392E-002
   1.2721037472847384E-002  -3.5195574369543819E-003   6.2450646997101511E-002
   1.1928372935850834E-002  -3.1716094551403895E-003   6.2915624770011558E-002
   2.4329251268133345E-002  -6.6837519537417123E-003   4.9040274848386911E-002
   2.2503943095682821E-002  -6.0807465729473820E-003   4.8758899259321364E-002
   2.0678634923232270E-002  -5.4748024594095113E-003   4.8643106884114551E-002
   1.8853326750781718E-002  -4.8659196131279198E-003   4.8692897722766998E-002
   1.7028018578331194E-002  -4.2540980341030377E-003   4.8908271775278234E-002
   2.1145964252537480E-002  -5.8057163290913816E-003   5.2602238555554293E-002
   1.9495876916795440E-002  -5.2676405689779937E-003   5.2385972140924886E-002
   1.7845789581053415E-002  -4.7323170151343380E-003   5.2354564185853381E-002
   1.6195702245311382E-002  -4.1997456675612645E-003   5.2508014690339957E-002
   1.4545614909569349E-002  -3.6699265262583047E-003   5.2846323654384519E-002
   1.8018055525291773E-002  -4.9276807044410509E-003   5.6102118111547583E-002
   1.6562464271957150E-002  -4.4545345650085777E-003   5.5945269932340932E-002
   1.5106873018622562E-002  -3.9898315708597198E-003   5.5992555458391019E-002
   1.3651281765287952E-002  -3.5335717219948312E-003   5.6243974689698162E-002
   1.2195690511953350E-002  -3.0857550184134608E-003   5.6699527626262042E-002
   1.4945525086396242E-002  -4.0496450797908312E-003   5.9539913516366519E-002
   1.3703705161167971E-002  -3.6414285610392866E-003   5.9436792633568908E-002
   1.2461885235939718E-002  -3.2473461265851572E-003   5.9557080701727251E-002
   1.1220065310711460E-002  -2.8673977764281759E-003   5.9900777720841278E-002
   9.9782453854832184E-003  -2.5015835105688389E-003   6.0467883690911120E-002
   1.1928372935850834E-002  -3.1716094551403895E-003   6.2915624770011558E-002
   1.0919599584427869E-002  -2.8283225570699400E-003   6.2860540244609575E-002
   9.9108262330048769E-003  -2.5048606823102060E-003   6.3048139915862111E-002
   8.9020528815819122E-003  -2.2012238308615900E-003   6.3478423783769417E-002
   7.8932795301589198E-003  -1.9174120027237729E-003   6.4151391848331407E-002
   1.7028018578331194E-002  -4.2540980341030377E-003   4.8908271775278234E-002
   1.5097295577964520E-002  -3.6978330171820728E-003   4.8777035904056132E-002
   1.3166572577597818E-002  -3.2556198572125661E-003   4.8905765814172608E-002
   1.1235849577231130E-002  -2.9274585541939901E-003   4.9294461505627357E-002
   9.3051265768644975E-003  -2.7133491081270389E-003   4.9943122978420629E-002
   1.4545614909569349E-002  -3.6699265262583047E-003   5.2846323654384519E-002
   1.2872331902190587E-002  -3.1982214103055129E-003   5.2731277415266398E-002
   1.1199048894811825E-002  -2.8399921387849136E-003   5.2871145380785467E-002
   9.5257658874330770E-003  -2.5952387116943074E-003   5.3265927550942116E-002
   7.8524828800543012E-003  -2.4639611290354635E-003   5.3915623925736011E-002
   1.2195690511953350E-002  -3.0857550184134608E-003   5.6699527626262042E-002
   1.0774795920861349E-002  -2.6986098034293415E-003   5.6601247031767971E-002
   9.3539013297693555E-003  -2.4243644203567061E-003   5.6752829065210453E-002
   7.9330067386773374E-003  -2.2630188691944025E-003   5.7154273726588892E-002
   6.5121121475853333E-003  -2.2145731499437771E-003   5.7805581015903384E-002
   9.9782453854832184E-003  -2.5015835105688389E-003   6.0467883690911120E-002
   8.8046876339768036E-003  -2.1989981965530869E-003   6.0386944753561385E-002
   7.6311298824704044E-003  -2.0087367019283320E-003   6.0550816867446858E-002
   6.4575721309640130E-003  -1.9307990266947198E-003   6.0959500032567164E-002
   5.2840143794575904E-003  -1.9651851708520907E-003   6.1612994248922567E-002
   7.8932795301589198E-003  -1.9174120027237729E-003   6.4151391848331407E-002
   6.9620070415369467E-003  -1.6993865896766658E-003   6.4088370580646314E-002
   6.0307345529149736E-003  -1.5931089835008461E-003   6.4265108787495140E-002
   5.0994620642929867E-003  -1.5985791841948704E-003   6.4681606468877578E-002
   4.1681895756710274E-003  -1.7157971917604042E-003   6.5337863624794212E-002
   9.3051265768644975E-003  -2.7133491081270389E-003   4.9943122978420629E-002
   7.8792787129068620E-003  -2.8599504484615457E-003   5.0355400683506080E-002
   6.4534308489492542E-003  -3.6139215046470108E-003   5.1092692774525439E-002
   5.0275829849916326E-003  -4.9752622766837395E-003   5.2154999251479039E-002
   3.6017351210340109E-003  -6.9439727645721483E-003   5.3542320114366992E-002
   7.8524828800543012E-003  -2.4639611290354635E-003   5.3915623925736011E-002
   6.7261946279450757E-003  -2.6463231706866930E-003   5.3854133261055870E-002
   5.5999063758358780E-003  -3.3424886165276668E-003   5.4066747434139084E-002
   4.4736181237266734E-003  -4.5524574665576981E-003   5.4553466444984378E-002
   3.3473298716174549E-003  -6.2762297207774598E-003   5.5314290293592361E-002
   6.5121121475853333E-003  -2.2145731499437771E-003   5.7805581015903384E-002
   5.6344739591528761E-003  -2.4326958929121179E-003   5.7363888293120585E-002
   4.7568357707203981E-003  -3.0710557284081008E-003   5.7145390859928508E-002
   3.8791975822879236E-003  -4.1296526564315456E-003   5.7150088716327374E-002
   3.0015593938554630E-003  -5.6084866769827713E-003   5.7377981862317240E-002
   5.2840143794575904E-003  -1.9651851708520907E-003   6.1612994248922567E-002
   4.6041167065301904E-003  -2.2190686151374595E-003   6.0884665779698692E-002
   3.9242190336028129E-003  -2.7996228402885348E-003   6.0328623051893515E-002
   3.2443213606754310E-003  -3.7068478463055596E-003   5.9944866065507703E-002
   2.5644236877480353E-003  -4.9407436331880827E-003   5.9733394820541533E-002
   4.1681895756710274E-003  -1.7157971917604042E-003   6.5337863624794212E-002
   3.6351228700770566E-003  -2.0054413373628011E-003   6.4416465720790517E-002
   3.1020561644831135E-003  -2.5281899521691631E-003   6.3616444010034523E-002
   2.5689894588891565E-003  -3.2840430361792891E-003   6.2937798492526037E-002
   2.0359227532951996E-003  -4.2730005893933942E-003   6.2380529168265308E-002
   3.6017351210340109E-003  -6.9439727645721483E-003   5.3542320114366992E-002
   4.1539984168991184E-003  -9.5345495330604324E-003   5.1865933419969368E-002
   4.7062617127642259E-003  -1.2761489146897287E-002   5.0044853505275877E-002
   5.2585250086293611E-003  -1.6624791606083558E-002   4.8079080370286797E-002
   5.8107883044944408E-003  -2.1124456910618150E-002   4.5968614015003961E-002
   3.3473298716174549E-003  -6.2762297207774598E-003   5.5314290293592361E-002
   3.7721676452945607E-003  -8.5446463200252731E-003   5.2957882003348389E-002
   4.1970054189717498E-003  -1.1388548205139737E-002   5.0491315889023614E-002
   4.6218431926488765E-003  -1.4807935376121809E-002   4.7914591950617480E-002
   5.0466809663260448E-003  -1.8802807832970281E-002   4.5227710188131987E-002
   3.0015593938554630E-003  -5.6084866769827713E-003   5.7377981862317240E-002
   3.3335070415590612E-003  -7.5547431069900584E-003   5.4402429535708785E-002
   3.6654546892626871E-003  -1.0015607263382714E-002   5.1351254781234396E-002
   3.9974023369663200E-003  -1.2991079146160052E-002   4.8224457598893600E-002
   4.3293499846699390E-003  -1.6481158755322411E-002   4.5022037988686314E-002
   2.5644236877480353E-003  -4.9407436331880827E-003   5.9733394820541533E-002
   2.8380166056925886E-003  -6.5648398939547603E-003   5.6199576017051042E-002
   3.1116095236371696E-003  -8.6426663216250948E-003   5.2624670181908882E-002
   3.3852024415817385E-003  -1.1174222916198299E-002   4.9008677315114532E-002
   3.6587953595263317E-003  -1.4159509677674653E-002   4.5351597416668721E-002
   2.0359227532951996E-003  -4.2730005893933942E-003   6.2380529168265308E-002
   2.2856963376951811E-003  -5.5749366809199064E-003   5.8349321447374369E-002
   2.5354699220951349E-003  -7.2697253798679196E-003   5.4311562091046039E-002
   2.7852435064950679E-003  -9.3573666862366012E-003   5.0267251099280152E-002
   3.0350170908950425E-003  -1.1837860600026673E-002   4.6216388472077874E-002
   2.6781030326077787E-002  -1.0344090588888577E-002   5.7765469026573590E-002
   2.5496272051221874E-002  -8.8747788472145483E-003   5.8964901633643541E-002
   2.4211513776365989E-002  -7.7800915526846787E-003   6.0016960938462510E-002
   2.2926755501510084E-002  -7.0600287052988465E-003   6.0921646941030569E-002
   2.1641997226654178E-002  -6.7145903050569444E-003   6.1678959641347397E-002
   2.1571393000279493E-002  -6.4429569296777789E-003   6.3170981737938892E-002
   2.0253590687579454E-002  -5.7260733406190589E-003   6.3153513704128833E-002
   1.8935788374879435E-002  -5.1991700814490865E-003   6.3217330896881085E-002
   1.7617986062179413E-002  -4.8622471521679970E-003   6.3362433316196398E-002
   1.6300183749479370E-002  -4.7153045527753845E-003   6.3588820962074410E-002
   1.5312828157710227E-002  -2.5418232704669530E-003   6.7731744238061484E-002
   1.4190640335979943E-002  -2.5773678340235973E-003   6.6682019680625995E-002
   1.3068452514249668E-002  -2.6182486102136540E-003   6.5942238878567289E-002
   1.1946264692519378E-002  -2.6644655990370903E-003   6.5512401831885156E-002
   1.0824076870789102E-002  -2.7160188004938801E-003   6.5392508540579819E-002
   8.0053357983699749E-003   1.3593103887438590E-003   7.1447756526941020E-002
   7.3074209964233208E-003   5.7133767257185053E-004   6.9550419563135762E-002
   6.6095061944766676E-003  -3.7327138978197200E-005   6.8191684883521175E-002
   5.9115913925300145E-003  -4.6668404590621219E-004   6.7371552488097064E-002
   5.2136765905833535E-003  -7.1673304821229245E-004   6.7090022376863623E-002
  -3.5108407774124550E-004   5.2604440479546710E-003   7.4319018604577347E-002
  -3.9606733109040504E-004   3.7200431791673538E-003   7.1758713351657899E-002
  -4.4105058443955764E-004   2.5435943322573151E-003   6.9965668911742662E-002
  -4.8603383778869982E-004   1.7310975072245965E-003   6.8939885284831998E-002
  -5.3101709113785936E-004   1.2825527040691842E-003   6.8681362470925655E-002
   2.1641997226654178E-002  -6.7145903050569444E-003   6.1678959641347397E-002
   2.1050896917998094E-002  -6.5363680963642923E-003   6.1450799450674137E-002
   2.0459796609342010E-002  -6.3179538236261268E-003   6.1360426041903532E-002
   1.9868696300685926E-002  -6.0593474868423161E-003   6.1407839415035359E-002
   1.9277595992029828E-002  -5.7605490860127562E-003   6.1593039570069785E-002
   1.6300183749479370E-002  -4.7153045527753845E-003   6.3588820962074410E-002
   1.5855467384498778E-002  -4.6420467701358548E-003   6.3276365911872912E-002
   1.5410751019518176E-002  -4.5261782911138956E-003   6.3118891967119825E-002
   1.4966034654537582E-002  -4.3676991157091793E-003   6.3116399127815082E-002
   1.4521318289556988E-002  -4.1666092439218150E-003   6.3268887393958889E-002
   1.0824076870789102E-002  -2.7160188004938801E-003   6.5392508540579819E-002
   1.0542938773029926E-002  -2.7477254439075144E-003   6.4998177263186824E-002
   1.0261800675270754E-002  -2.7344027586015535E-003   6.4776021414788332E-002
   9.9806625775115849E-003  -2.6760507445760424E-003   6.4726040995384176E-002
   9.6995244797524124E-003  -2.5726694018308738E-003   6.4848236004974386E-002
   5.2136765905833535E-003  -7.1673304821229245E-004   6.7090022376863623E-002
   5.1133110835915405E-003  -8.5340411767909768E-004   6.6616233504616207E-002
   5.0129455765997345E-003  -9.4262722608937782E-004   6.6331814384909191E-002
   4.9125800696079268E-003  -9.8440237344285010E-004   6.6236765017742574E-002
   4.8122145626161173E-003  -9.7872955974001585E-004   6.6331085403116136E-002
  -5.3101709113785936E-004   1.2825527040691842E-003   6.8681362470925655E-002
  -4.3341568381637108E-004   1.0409172085493190E-003   6.8130534636160978E-002
  -3.3581427649488106E-004   8.4914830642296435E-004   6.7786270877482485E-002
  -2.3821286917339538E-004   7.0724599769007856E-004   6.7648571194890289E-002
  -1.4061146185190276E-004   6.1521028235106412E-004   6.7717435588384389E-002
   1.9277595992029828E-002  -5.7605490860127562E-003   6.1593039570069785E-002
   1.8232954764981629E-002  -5.4426179589634749E-003   6.1375293877308668E-002
   1.7188313537933431E-002  -5.1266134435199173E-003   6.1402110004797533E-002
   1.6143672310885218E-002  -4.8125355396822153E-003   6.1673487952536576E-002
   1.5099031083837006E-002  -4.5003842474504729E-003   6.2189427720525714E-002
   1.4521318289556988E-002  -4.1666092439218150E-003   6.3268887393958889E-002
   1.3727080517870159E-002  -3.9436053094752122E-003   6.2991112637642455E-002
   1.2932842746183348E-002  -3.7193839460921141E-003   6.2969582971798735E-002
   1.2138604974496528E-002  -3.4939451537727290E-003   6.3204298396427605E-002
   1.1344367202809708E-002  -3.2672889325172649E-003   6.3695258911529329E-002
   9.6995244797524124E-003  -2.5726694018308738E-003   6.4848236004974386E-002
   9.1673734336495637E-003  -2.4445926599867412E-003   6.4513576225644881E-002
   8.6352223875467080E-003  -2.3121544486642692E-003   6.4446844807010517E-002
   8.1030713414438592E-003  -2.1753547678633571E-003   6.4648041749071655E-002
   7.5709202953410104E-003  -2.0341936175841679E-003   6.5117167051827796E-002
   4.8122145626161173E-003  -9.7872955974001585E-004   6.6331085403116136E-002
   4.5538335123198135E-003  -9.4558001049840218E-004   6.5942684641315641E-002
   4.2954524620235253E-003  -9.0492495123638966E-004   6.5833895510432908E-002
   4.0370714117272345E-003  -8.5676438195398351E-004   6.6004718010467922E-002
   3.7786903614309333E-003  -8.0109830265118198E-004   6.6455152141421100E-002
  -1.4061146185190276E-004   6.1521028235106412E-004   6.7717435588384389E-002
  -1.1353924611905847E-004   5.5343263899004791E-004   6.7278437884654874E-002
  -8.6467030386217641E-005   5.0230454619143439E-004   6.7130735082065768E-002
  -5.9394814653375080E-005   4.6182600395554274E-004   6.7274327180617099E-002
  -3.2322598920532519E-005   4.3199701228208154E-004   6.7709214180308785E-002
   1.5099031083837006E-002  -4.5003842474504729E-003   6.2189427720525714E-002
   1.4306366546840463E-002  -4.1839448331094098E-003   6.2087548472358589E-002
   1.3513702009843934E-002  -3.8570025629440230E-003   6.2174621564550392E-002
   1.2721037472847384E-002  -3.5195574369543819E-003   6.2450646997101511E-002
   1.1928372935850834E-002  -3.1716094551403895E-003   6.2915624770011558E-002
   1.1344367202809708E-002  -3.2672889325172649E-003   6.3695258911529329E-002
   1.0742061747698151E-002  -3.0385032629347553E-003   6.3582775540217684E-002
   1.0139756292586594E-002  -2.8066761256346634E-003   6.3662057992317111E-002
   9.5374508374750366E-003  -2.5718075206166112E-003   6.3933106267827375E-002
   8.9351453823634797E-003  -2.3338974478809837E-003   6.4395920366748405E-002
   7.5709202953410104E-003  -2.0341936175841679E-003   6.5117167051827796E-002
   7.1617874051662610E-003  -1.8930616927601840E-003   6.4986618169265112E-002
   6.7526545149915115E-003  -1.7563496883251373E-003   6.5050648593165283E-002
   6.3435216248167569E-003  -1.6240576042788404E-003   6.5309258323528033E-002
   5.9343887346420127E-003  -1.4961854406213559E-003   6.5762447360353693E-002
   3.7786903614309333E-003  -8.0109830265118198E-004   6.6455152141421100E-002
   3.5655435192448060E-003  -7.4762012258568211E-004   6.6299076359500816E-002
   3.3523966770586744E-003  -7.0602325101552788E-004   6.6340393367095157E-002
   3.1392498348725424E-003  -6.7630768794095866E-004   6.6579103164203901E-002
   2.9261029926864086E-003  -6.5847343336189468E-004   6.7015205750827297E-002
  -3.2322598920532519E-005   4.3199701228208154E-004   6.7709214180308785E-002
  -4.6669910066219483E-005   3.9782144758881977E-004   6.7520150110924493E-002
  -6.1017221211913386E-005   3.4430318629370682E-004   6.7531292314106511E-002
  -7.5364532357607289E-005   2.7144222839669066E-004   6.7742640789854799E-002
  -8.9711843503294253E-005   1.7923857389778863E-004   6.8154195538169482E-002
   1.1928372935850834E-002  -3.1716094551403895E-003   6.2915624770011558E-002
   1.0919599584427869E-002  -2.8283225570699400E-003   6.2860540244609575E-002
   9.9108262330048769E-003  -2.5048606823102060E-003   6.3048139915862111E-002
   8.9020528815819122E-003  -2.2012238308615900E-003   6.3478423783769417E-002
   7.8932795301589198E-003  -1.9174120027237729E-003   6.4151391848331407E-002
   8.9351453823634797E-003  -2.3338974478809837E-003   6.4395920366748405E-002
   8.1726031850348976E-003  -2.0982898252971949E-003   6.4323118008885405E-002
   7.4100609877063295E-003  -1.8703285707355327E-003   6.4500093762556610E-002
   6.6475187903777613E-003  -1.6500136841954526E-003   6.4926847627761672E-002
   5.8849765930491793E-003  -1.4373451656773950E-003   6.5603379604501022E-002
   5.9343887346420127E-003  -1.4961854406213559E-003   6.5762447360353693E-002
   5.4251716062871866E-003  -1.3682570935246996E-003   6.5684105825318820E-002
   4.9159544779323605E-003  -1.2357964591608595E-003   6.5862636316697615E-002
   4.4067373495775275E-003  -1.0988035375295926E-003   6.6298038834489870E-002
   3.8975202212227084E-003  -9.5727832863085061E-004   6.6990313378695404E-002
   2.9261029926864086E-003  -6.5847343336189468E-004   6.7015205750827297E-002
   2.6773048481846789E-003  -6.3822436175219044E-004   6.6943503693910222E-002
   2.4285067036829422E-003  -6.0126434758601965E-004   6.7135767578285543E-002
   2.1797085591812090E-003  -5.4759339086359396E-004   6.7591997403953843E-002
   1.9309104146794619E-003  -4.7721149158438947E-004   6.8312193170914789E-002
  -8.9711843503294253E-005   1.7923857389778863E-004   6.8154195538169482E-002
  -7.0997089272599456E-005   9.1808370020485253E-005   6.8101311614658711E-002
  -5.2282335041897721E-005   3.3267763988514831E-005   6.8319487547320146E-002
  -3.3567580811199454E-005   3.6167558023006419E-006   6.8808723336153704E-002
  -1.4852826580501188E-005   2.8553454620716678E-006   6.9569018981159303E-002
   7.8932795301589198E-003  -1.9174120027237729E-003   6.4151391848331407E-002
   6.9620070415369467E-003  -1.6993865896766658E-003   6.4088370580646314E-002
   6.0307345529149736E-003  -1.5931089835008461E-003   6.4265108787495140E-002
   5.0994620642929867E-003  -1.5985791841948704E-003   6.4681606468877578E-002
   4.1681895756710274E-003  -1.7157971917604042E-003   6.5337863624794212E-002
   5.8849765930491793E-003  -1.4373451656773950E-003   6.5603379604501022E-002
   5.1917497722340084E-003  -1.2710542679544856E-003   6.5461062755152344E-002
   4.4985229514188096E-003  -1.1898722438003495E-003   6.5555077766883268E-002
   3.8052961306036318E-003  -1.1937990932145842E-003   6.5885424639694087E-002
   3.1120693097884400E-003  -1.2828348161980641E-003   6.6452103373584870E-002
   3.8975202212227084E-003  -9.5727832863085061E-004   6.6990313378695404E-002
   3.4389114547601941E-003  -8.4272194623216667E-004   6.6795339880985266E-002
   2.9803026882976834E-003  -7.8663550409996397E-004   6.6833270630900665E-002
   2.5216939218351588E-003  -7.8901900223463106E-004   6.7104105628441879E-002
   2.0630851553726584E-003  -8.4987244063600142E-004   6.7607844873608464E-002
   1.9309104146794619E-003  -4.7721149158438947E-004   6.8312193170914789E-002
   1.7034920891155205E-003  -4.1438962450975059E-004   6.8091201958145081E-002
   1.4760737635515714E-003  -3.8339876439941190E-004   6.8099687379547053E-002
   1.2486554379876188E-003  -3.8423891125423382E-004   6.8337649435120190E-002
   1.0212371124236671E-003  -4.1691006507380002E-004   6.8805088124864883E-002
  -1.4852826580501188E-005   2.8553454620716678E-006   6.9569018981159303E-002
  -1.4508324700006348E-005   1.3942697212443456E-005   6.9348648986631956E-002
  -1.4163822819514976E-005   1.9837975300807109E-005   6.9354328012822097E-002
  -1.3819320939025340E-005   2.0541179725913628E-005   6.9586056059729423E-002
  -1.3474819058528764E-005   1.6052310488290367E-005   7.0043833127354405E-002
   4.1681895756710274E-003  -1.7157971917604042E-003   6.5337863624794212E-002
   3.6351228700770566E-003  -2.0054413373628011E-003   6.4416465720790517E-002
   3.1020561644831135E-003  -2.5281899521691631E-003   6.3616444010034523E-002
   2.5689894588891565E-003  -3.2840430361792891E-003   6.2937798492526037E-002
   2.0359227532951996E-003  -4.2730005893933942E-003   6.2380529168265308E-002
   3.1120693097884400E-003  -1.2828348161980641E-003   6.6452103373584870E-002
   2.7035283892587747E-003  -1.5015561806439592E-003   6.5337307733584704E-002
   2.2949874687291164E-003  -1.8945399544463559E-003   6.4350187470465392E-002
   1.8864465481994684E-003  -2.4617861376045672E-003   6.3490742584226989E-002
   1.4779056276697927E-003  -3.2032947301195991E-003   6.2758973074869662E-002
   2.0630851553726584E-003  -8.4987244063600142E-004   6.7607844873608464E-002
   1.7853692035406654E-003  -9.9767102392517293E-004   6.6358493557459125E-002
   1.5076532517086690E-003  -1.2608899567233406E-003   6.5243116801824028E-002
   1.2299372998766829E-003  -1.6395292390302928E-003   6.4261714606703463E-002
   9.5222134804469338E-004  -2.1335888708462480E-003   6.3414286972096834E-002
   1.0212371124236671E-003  -4.1691006507380002E-004   6.8805088124864883E-002
   8.8064531292271486E-004  -4.9378586720646989E-004   6.7480023192413918E-002
   7.4005351342177738E-004  -6.2723995900042934E-004   6.6295232004110430E-002
   5.9946171392083209E-004  -8.1727234045590562E-004   6.5250714559954820E-002
   4.5886991441988767E-004  -1.0638830115728970E-003   6.4346470859947019E-002
  -1.3474819058528764E-005   1.6052310488290367E-005   7.0043833127354405E-002
  -1.0643282595049208E-005   1.0099289512344178E-005   6.8701896638449167E-002
  -7.8117461315765913E-006   6.4100387225374256E-006   6.7506533077324904E-002
  -4.9802096680970354E-006   4.9845581184954080E-006   6.6457742443981727E-002
  -2.1486732046244184E-006   5.8228477007871149E-006   6.5555524738419746E-002
   2.0359227532951996E-003  -4.2730005893933942E-003   6.2380529168265308E-002
   2.2856963376951811E-003  -5.5749366809199064E-003   5.8349321447374369E-002
   2.5354699220951349E-003  -7.2697253798679196E-003   5.4311562091046039E-002
   2.7852435064950679E-003  -9.3573666862366012E-003   5.0267251099280152E-002
   3.0350170908950425E-003  -1.1837860600026673E-002   4.6216388472077874E-002
   1.4779056276697927E-003  -3.2032947301195991E-003   6.2758973074869662E-002
   1.7071281641621722E-003  -4.1792877934506700E-003   5.8402319217660703E-002
   1.9363507006545655E-003  -5.4499873890568318E-003   5.4011114900073709E-002
   2.1655732371469276E-003  -7.0153935169391529E-003   4.9585360122108901E-002
   2.3947957736393521E-003  -8.8755061770964261E-003   4.5125054883766502E-002
   9.5222134804469338E-004  -2.1335888708462480E-003   6.3414286972096834E-002
   1.1328940116890618E-003  -2.7836389059815447E-003   5.8830333053715073E-002
   1.3135666753334371E-003  -3.6302493982466322E-003   5.4183829850015297E-002
   1.4942393389778073E-003  -4.6734203476417602E-003   4.9474777360997410E-002
   1.6749120026221809E-003  -5.9131517541666234E-003   4.4703175586660593E-002
   4.5886991441988767E-004  -1.0638830115728970E-003   6.4346470859947019E-002
   5.6299388027582567E-004  -1.3879900185123639E-003   5.9633362955538505E-002
   6.6711784613179143E-004  -1.8105114074360995E-003   5.4829706940871151E-002
   7.7124181198773853E-004  -2.3314471783444507E-003   4.9935502815944943E-002
   8.7536577784370906E-004  -2.9507973312364877E-003   4.4950750580760646E-002
  -2.1486732046244184E-006   5.8228477007871149E-006   6.5555524738419746E-002
  -2.5722300775257723E-006   7.6588689569279111E-006   6.0811408923129973E-002
  -2.9957869504201873E-006   9.2265833743498948E-006   5.5948746172640729E-002
  -3.4193438233232759E-006   1.0525990952948983E-005   5.0967536486952930E-002
  -3.8429006962159562E-006   1.1557091693426003E-005   4.5867779866065828E-002
  -3.5108407774124550E-004   5.2604440479546710E-003   7.4319018604577347E-002
  -3.9606733109040504E-004   3.7200431791673538E-003   7.1758713351657899E-002
  -4.4105058443955764E-004   2.5435943322573151E-003   6.9965668911742662E-002
  -4.8603383778869982E-004   1.7310975072245965E-003   6.8939885284831998E-002
  -5.3101709113785936E-004   1.2825527040691842E-003   6.8681362470925655E-002
  -8.6324804405670877E-003   4.3138978696027896E-003   6.7649448463679318E-002
  -8.0249887720603638E-003   3.5196220684595159E-003   6.6446044860881875E-002
  -7.4174971035536452E-003   2.9068202412969729E-003   6.5780330288791822E-002
  -6.8100054350469195E-003   2.4754923881149422E-003   6.5652304747409018E-002
  -6.2025137665401957E-003   2.2256385089137187E-003   6.6061968236733548E-002
  -1.5714902260051164E-002   3.3673516912508805E-003   6.1817242414373696E-002
  -1.4684507451985703E-002   3.3192009577517056E-003   6.1788262413801850E-002
  -1.3654112643920238E-002   3.2700461503365197E-003   6.2067399661640058E-002
  -1.2623717835854781E-002   3.2198872690053157E-003   6.2654654157888526E-002
  -1.1593323027789326E-002   3.1687243137581422E-003   6.3550025902547103E-002
  -2.1598349536193502E-002   2.4208055128989714E-003   5.6822400456660468E-002
  -2.0374623370866426E-002   3.1187798470438816E-003   5.7785366010417449E-002
  -1.9150897205539367E-002   3.6332720593760942E-003   5.8826877030287404E-002
  -1.7927171040212287E-002   3.9642821498956475E-003   5.9946933516270479E-002
  -1.6703444874885225E-002   4.1118101186025657E-003   6.1145535468366513E-002
  -2.6282822268994081E-002   1.4742593345470900E-003   5.2664922590539676E-002
  -2.5095336528702529E-002   2.9183587363361130E-003   5.4437355650728825E-002
  -2.3907850788410987E-002   3.9964979684156687E-003   5.6058762394733841E-002
  -2.2720365048119445E-002   4.7086770307860210E-003   5.7529142822554780E-002
  -2.1532879307827900E-002   5.0548959234470447E-003   5.8848496934191641E-002
  -5.3101709113785936E-004   1.2825527040691842E-003   6.8681362470925655E-002
  -4.3341568381637108E-004   1.0409172085493190E-003   6.8130534636160978E-002
  -3.3581427649488106E-004   8.4914830642296435E-004   6.7786270877482485E-002
  -2.3821286917339538E-004   7.0724599769007856E-004   6.7648571194890289E-002
  -1.4061146185190276E-004   6.1521028235106412E-004   6.7717435588384389E-002
  -6.2025137665401957E-003   2.2256385089137187E-003   6.6061968236733548E-002
  -5.9204927473177470E-003   2.0729678019275055E-003   6.5801062833858337E-002
  -5.6384717280952880E-003   1.9331894653909915E-003   6.5702432578698733E-002
  -5.3564507088728324E-003   1.8063034993037429E-003   6.5766077471254833E-002
  -5.0744296896503803E-003   1.6923099036663669E-003   6.5991997511526623E-002
  -1.1593323027789326E-002   3.1687243137581422E-003   6.3550025902547103E-002
  -1.1171171325036502E-002   3.1050183953057198E-003   6.3542068708617325E-002
  -1.0749019622283695E-002   3.0172306243587965E-003   6.3652097734032617E-002
  -1.0326867919530885E-002   2.9053610009173517E-003   6.3880112978792869E-002
  -9.9047162167780669E-003   2.7694095249815309E-003   6.4226114442898274E-002
  -1.6703444874885225E-002   4.1118101186025657E-003   6.1145535468366513E-002
  -1.6185451416972658E-002   4.1370689886838369E-003   6.1353552260438121E-002
  -1.5667457959060091E-002   4.1012717833267404E-003   6.1635266343484187E-002
  -1.5149464501147514E-002   4.0044185025310160E-003   6.1990677717504689E-002
  -1.4631471043234950E-002   3.8465091462967366E-003   6.2419786382499676E-002
  -2.1532879307827900E-002   5.0548959234470447E-003   5.8848496934191641E-002
  -2.0963333023126175E-002   5.1691195820621205E-003   5.9235513489320629E-002
  -2.0393786738424475E-002   5.1853129422946564E-003   5.9651938407053462E-002
  -1.9824240453722761E-002   5.1034760041445762E-003   6.0097771687390167E-002
  -1.9254694169021043E-002   4.9236087676119977E-003   6.0573013330330661E-002
  -1.4061146185190276E-004   6.1521028235106412E-004   6.7717435588384389E-002
  -1.1353924611905847E-004   5.5343263899004791E-004   6.7278437884654874E-002
  -8.6467030386217641E-005   5.0230454619143439E-004   6.7130735082065768E-002
  -5.9394814653375080E-005   4.6182600395554274E-004   6.7274327180617099E-002
  -3.2322598920532519E-005   4.3199701228208154E-004   6.7709214180308785E-002
  -5.0744296896503803E-003   1.6923099036663669E-003   6.5991997511526623E-002
  -4.7653410570542114E-003   1.5870752142808087E-003   6.5654890520499165E-002
  -4.4562524244580407E-003   1.4864659669494712E-003   6.5590521462058043E-002
  -4.1471637918618692E-003   1.3904821616727882E-003   6.5798890336203078E-002
  -3.8380751592657011E-003   1.2991237984504300E-003   6.6279997142934477E-002
  -9.9047162167780669E-003   2.7694095249815309E-003   6.4226114442898274E-002
  -9.3321681358727766E-003   2.6207177895714862E-003   6.3984874056064914E-002
  -8.7596200549674708E-003   2.4706273877077300E-003   6.3997814633263650E-002
  -8.1870719740621701E-003   2.3191383193901446E-003   6.4264936174494386E-002
  -7.6145238931568764E-003   2.1662505846186952E-003   6.4786238679757122E-002
  -1.4631471043234950E-002   3.8465091462967366E-003   6.2419786382499676E-002
  -1.3814020482574730E-002   3.6543603648622053E-003   6.2268388491352189E-002
  -1.2996569921914509E-002   3.4547888084657669E-003   6.2352614595682469E-002
  -1.2179119361254279E-002   3.2477944771074456E-003   6.2672464695490579E-002
  -1.1361668800594069E-002   3.0333773707871131E-003   6.3227938790776470E-002
  -1.9254694169021043E-002   4.9236087676119977E-003   6.0573013330330661E-002
  -1.8210898097160096E-002   4.6880029401529799E-003   6.0505433826360810E-002
  -1.7167102025299155E-002   4.4389502292240396E-003   6.0654921349314578E-002
  -1.6123305953438211E-002   4.1764506348246667E-003   6.1021475899192004E-002
  -1.5079509881577267E-002   3.9005041569553645E-003   6.1605097475993131E-002
  -3.2322598920532519E-005   4.3199701228208154E-004   6.7709214180308785E-002
  -4.6669910066219483E-005   3.9782144758881977E-004   6.7520150110924493E-002
  -6.1017221211913386E-005   3.4430318629370682E-004   6.7531292314106511E-002
  -7.5364532357607289E-005   2.7144222839669066E-004   6.7742640789854799E-002
  -8.9711843503294253E-005   1.7923857389778863E-004   6.8154195538169482E-002
  -3.8380751592657011E-003   1.2991237984504300E-003   6.6279997142934477E-002
  -3.6519989306854836E-003   1.2054714351365237E-003   6.6106176097743968E-002
  -3.4659227021052678E-003   1.1026056295851683E-003   6.6132995859438770E-002
  -3.2798464735250658E-003   9.9052638179630143E-004   6.6360456428019327E-002
  -3.0937702449448344E-003   8.6923369177016596E-004   6.6788557803485082E-002
  -7.6145238931568764E-003   2.1662505846186952E-003   6.4786238679757122E-002
  -7.2275895905316500E-003   2.0131214226839500E-003   6.4637789913124882E-002
  -6.8406552879064298E-003   1.8609080728765118E-003   6.4690416487697244E-002
  -6.4537209852811991E-003   1.7096105351959105E-003   6.4944118403474235E-002
  -6.0667866826559832E-003   1.5592288096424878E-003   6.5398895660455675E-002
  -1.1361668800594069E-002   3.0333773707871131E-003   6.3227938790776470E-002
  -1.0773441889604721E-002   2.8207714102316817E-003   6.3114991557067346E-002
  -1.0185214978615367E-002   2.6192105161679143E-003   6.3203554198881698E-002
  -9.5969880676260288E-003   2.4286946885955204E-003   6.3493626716219734E-002
  -9.0087611566366677E-003   2.2492239275148374E-003   6.3985209109081426E-002
  -1.5079509881577267E-002   3.9005041569553645E-003   6.1605097475993131E-002
  -1.4289555827904678E-002   3.6284213977791357E-003   6.1537781029571248E-002
  -1.3499601774232112E-002   3.3775129594591641E-003   6.1672408992992117E-002
  -1.2709647720559538E-002   3.1477788419951476E-003   6.2008981366255864E-002
  -1.1919693666886957E-002   2.9392190453872979E-003   6.2547498149362335E-002
  -8.9711843503294253E-005   1.7923857389778863E-004   6.8154195538169482E-002
  -7.0997089272599456E-005   9.1808370020485253E-005   6.8101311614658711E-002
  -5.2282335041897721E-005   3.3267763988514831E-005   6.8319487547320146E-002
  -3.3567580811199454E-005   3.6167558023006419E-006   6.8808723336153704E-002
  -1.4852826580501188E-005   2.8553454620716678E-006   6.9569018981159303E-002
  -3.0937702449448344E-003   8.6923369177016596E-004   6.6788557803485082E-002
  -2.8103110213581958E-003   7.5103516068714127E-004   6.6782546135873533E-002
  -2.5268517977715503E-003   6.4823838972830061E-004   6.7034963550801768E-002
  -2.2433925741849048E-003   5.6084337889398400E-004   6.7545810048269692E-002
  -1.9599333505982523E-003   4.8885012818356000E-004   6.8315085628277705E-002
  -6.0667866826559832E-003   1.5592288096424878E-003   6.5398895660455675E-002
  -5.5312137633456871E-003   1.4102619513539361E-003   6.5426268411021976E-002
  -4.9956408440353980E-003   1.2632090154681835E-003   6.5699439470495627E-002
  -4.4600679247250941E-003   1.1180700019852198E-003   6.6218408838876586E-002
  -3.9244950054148128E-003   9.7484491090504832E-004   6.6983176516165421E-002
  -9.0087611566366677E-003   2.2492239275148374E-003   6.3985209109081426E-002
  -8.2337053152350542E-003   2.0694887420207170E-003   6.4032478440104096E-002
  -7.4586494738334216E-003   1.8781796412080179E-003   6.4312915306401708E-002
  -6.6835936324317977E-003   1.6752966250765684E-003   6.4826519707974539E-002
  -5.9085377910301756E-003   1.4608396936266477E-003   6.5573291644822521E-002
  -1.1919693666886957E-002   2.9392190453872979E-003   6.2547498149362335E-002
  -1.0917785677026309E-002   2.7287155326875534E-003   6.2601176223119781E-002
  -9.9158776871656543E-003   2.4931502669478522E-003   6.2875391058520136E-002
  -8.9139696973050062E-003   2.2325232481680835E-003   6.3370142655563289E-002
  -7.9120617074443511E-003   1.9468344763481360E-003   6.4085431014249350E-002
  -1.4852826580501188E-005   2.8553454620716678E-006   6.9569018981159303E-002
  -1.4508324700006348E-005   1.3942697212443456E-005   6.9348648986631956E-002
  -1.4163822819514976E-005   1.9837975300807109E-005   6.9354328012822097E-002
  -1.3819320939025340E-005   2.0541179725913628E-005   6.9586056059729423E-002
  -1.3474819058528764E-005   1.6052310488290367E-005   7.0043833127354405E-002
  -1.9599333505982523E-003   4.8885012818356000E-004   6.8315085628277705E-002
  -1.7316505269058396E-003   4.3762932875379690E-004   6.8087599338433058E-002
  -1.5033677032134426E-003   4.1255167176104668E-004   6.8089940671495097E-002
  -1.2750848795210446E-003   4.1361715720528852E-004   6.8322109627463518E-002
  -1.0468020558286328E-003   4.4082578508697345E-004   6.8784106206338347E-002
  -3.9244950054148128E-003   9.7484491090504832E-004   6.6983176516165421E-002
  -3.4644952577214585E-003   8.6131596029465074E-004   6.6779909147103633E-002
  -3.0044955100280817E-003   8.0526536822139727E-004   6.6810248003137479E-002
  -2.5444957623347122E-003   8.0669313468477444E-004   6.7074193084266640E-002
  -2.0844960146413506E-003   8.6559925968526796E-004   6.7571744390491517E-002
  -5.9085377910301756E-003   1.4608396936266477E-003   6.5573291644822521E-002
  -5.2130425171467900E-003   1.2850025918354768E-003   6.5425578412643459E-002
  -4.5175472432634313E-003   1.1979790646814703E-003   6.5515250007748826E-002
  -3.8220519693800592E-003   1.1997691121640938E-003   6.5842306430138858E-002
  -3.1265566954966875E-003   1.2903727342838678E-003   6.6406747679813208E-002
  -7.9120617074443511E-003   1.9468344763481360E-003   6.4085431014249350E-002
  -6.9772923051819175E-003   1.7086892233767470E-003   6.4024607135052647E-002
  -6.0425229029194942E-003   1.5906927611419042E-003   6.4204946685329611E-002
  -5.1077535006570675E-003   1.5928450896434479E-003   6.4626449665080243E-002
  -4.1729840983946373E-003   1.7151462088821345E-003   6.5289116074304210E-002
  -1.3474819058528764E-005   1.6052310488290367E-005   7.0043833127354405E-002
  -1.0643282595049208E-005   1.0099289512344178E-005   6.8701896638449167E-002
  -7.8117461315765913E-006   6.4100387225374256E-006   6.7506533077324904E-002
  -4.9802096680970354E-006   4.9845581184954080E-006   6.6457742443981727E-002
  -2.1486732046244184E-006   5.8228477007871149E-006   6.5555524738419746E-002
  -1.0468020558286328E-003   4.4082578508697345E-004   6.8784106206338347E-002
  -9.0092213773200480E-004   5.1072866468859779E-004   6.7465033014837195E-002
  -7.5504221963538024E-004   6.3987690529315744E-004   6.6285483658820976E-002
  -6.0916230153874873E-004   8.2827050690127690E-004   6.5245458138290163E-002
  -4.6328238344212763E-004   1.0759094695125260E-003   6.4344956453244451E-002
  -2.0844960146413506E-003   8.6559925968526796E-004   6.7571744390491517E-002
  -1.8026168072074883E-003   1.0113580398643518E-003   6.6332516087211274E-002
  -1.5207375997736043E-003   1.2733437718638607E-003   6.5225762527120534E-002
  -1.2388583923397343E-003   1.6515564556834963E-003   6.4251483710219021E-002
  -9.5697918490585815E-004   2.1459960913240983E-003   6.3409679636506872E-002
  -3.1265566954966875E-003   1.2903727342838678E-003   6.6406747679813208E-002
  -2.7157272910214927E-003   1.5119874150403001E-003   6.5304345855571724E-002
  -2.3048978865462906E-003   1.9068106384347444E-003   6.4327369682223468E-002
  -1.8940684820710784E-003   2.4748424044664409E-003   6.3475819159768590E-002
  -1.4832390775958940E-003   3.2160827131355318E-003   6.2749694288207009E-002
  -4.1729840983946373E-003   1.7151462088821345E-003   6.5289116074304210E-002
  -3.6402535891740112E-003   2.0126167902163594E-003   6.4380522319917977E-002
  -3.1075230799533955E-003   2.5402775050050730E-003   6.3590305124129332E-002
  -2.5747925707327729E-003   3.2981283532484695E-003   6.2918464486938164E-002
  -2.0420620615121537E-003   4.2861693349472985E-003   6.2365000408344362E-002
  -2.1486732046244184E-006   5.8228477007871149E-006   6.5555524738419746E-002
  -2.5722300775257723E-006   7.6588689569279111E-006   6.0811408923129973E-002
  -2.9957869504201873E-006   9.2265833743498948E-006   5.5948746172640729E-002
  -3.4193438233232759E-006   1.0525990952948983E-005   5.0967536486952930E-002
  -3.8429006962159562E-006   1.1557091693426003E-005   4.5867779866065828E-002
  -4.6328238344212763E-004   1.0759094695125260E-003   6.4344956453244451E-002
  -5.6816012957482467E-004   1.4024058803259742E-003   5.9631470906949313E-002
  -6.7303787570753559E-004   1.8273718265420791E-003   5.4827623917333645E-002
  -7.7791562184023610E-004   2.3508073081603548E-003   4.9933415484397531E-002
  -8.8279336797295743E-004   2.9727123251805931E-003   4.4948845608140164E-002
  -9.5697918490585815E-004   2.1459960913240983E-003   6.3409679636506872E-002
  -1.1381256284198876E-003   2.7971528916957422E-003   5.8825562201447107E-002
  -1.3192720719339083E-003   3.6455170697101275E-003   5.4179268814945489E-002
  -1.5004185154479173E-003   4.6910886253676461E-003   4.9470799477001108E-002
  -1.6815649589619584E-003   5.9338675586675382E-003   4.4700154187615637E-002
  -1.4832390775958940E-003   3.2160827131355318E-003   6.2749694288207009E-002
  -1.7124687266127192E-003   4.1918999030652604E-003   5.8393682806623298E-002
  -1.9416983756295439E-003   5.4636623128782383E-003   5.4003680865475648E-002
  -2.1709280246464072E-003   7.0313699425752166E-003   4.9579688464764841E-002
  -2.4001576736632077E-003   8.8950227921545943E-003   4.5121705604490497E-002
  -2.0420620615121537E-003   4.2861693349472985E-003   6.2365000408344362E-002
  -2.2911894241533087E-003   5.5866469144346675E-003   5.8335832722477443E-002
  -2.5403167867944637E-003   7.2818075560463214E-003   5.4300860068925372E-002
  -2.7894441494356100E-003   9.3716512597822807E-003   5.0260082447688564E-002
  -3.0385715120767737E-003   1.1856178025641650E-002   4.6213499858765772E-002
  -2.6282822268994081E-002   1.4742593345470900E-003   5.2664922590539676E-002
  -2.5095336528702529E-002   2.9183587363361130E-003   5.4437355650728825E-002
  -2.3907850788410987E-002   3.9964979684156687E-003   5.6058762394733841E-002
  -2.2720365048119445E-002   4.7086770307860210E-003   5.7529142822554780E-002
  -2.1532879307827900E-002   5.0548959234470447E-003   5.8848496934191641E-002
  -3.0997009753130349E-002   5.8967137017504889E-003   5.5035611921620597E-002
  -2.9829005715013620E-002   6.4902769591497489E-003   5.5408607204015387E-002
  -2.8661001676896860E-002   6.9046436946772621E-003   5.5893665398244613E-002
  -2.7492997638780131E-002   7.1398139083330460E-003   5.6490786504308374E-002
  -2.6324993600663371E-002   7.1957876001171039E-003   5.7199970522206600E-002
  -3.6969601283279627E-002   1.0319168068953916E-002   5.6462383284392986E-002
  -3.5557989719319172E-002   1.0062195181963524E-002   5.5622704436831108E-002
  -3.4146378155358689E-002   9.8127894209388555E-003   5.5158177729122154E-002
  -3.2734766591398234E-002   9.5709507858800988E-003   5.5068803161266250E-002
  -3.1323155027437731E-002   9.3366792767871354E-003   5.5354580733263381E-002
  -4.4200596859442082E-002   1.4741622436157314E-002   5.6945236678856939E-002
  -4.2282288541619278E-002   1.3634113404777229E-002   5.5079647349175864E-002
  -4.0363980223796489E-002   1.2720935147200477E-002   5.3852299387366291E-002
  -3.8445671905973720E-002   1.2002087663427082E-002   5.3263192793428213E-002
  -3.6527363588150910E-002   1.1477570953457208E-002   5.3312327567361865E-002
  -5.2689996481617485E-002   1.9164076803360741E-002   5.6484172105012498E-002
  -5.0001902181913832E-002   1.7206031627590934E-002   5.3779435941049725E-002
  -4.7313807882210221E-002   1.5629080873462056E-002   5.1976030372977017E-002
  -4.4625713582506617E-002   1.4433224540974194E-002   5.1073955400794555E-002
  -4.1937619282802999E-002   1.3618462630127226E-002   5.1073211024502074E-002
  -2.1532879307827900E-002   5.0548959234470447E-003   5.8848496934191641E-002
  -2.0963333023126175E-002   5.1691195820621205E-003   5.9235513489320629E-002
  -2.0393786738424475E-002   5.1853129422946564E-003   5.9651938407053462E-002
  -1.9824240453722761E-002   5.1034760041445762E-003   6.0097771687390167E-002
  -1.9254694169021043E-002   4.9236087676119977E-003   6.0573013330330661E-002
  -2.6324993600663371E-002   7.1957876001171039E-003   5.7199970522206600E-002
  -2.5709934624426133E-002   7.1289196843852265E-003   5.7314785776557242E-002
  -2.5094875648188894E-002   6.9955650754939466E-003   5.7491218051375109E-002
  -2.4479816671951656E-002   6.7957237734424716E-003   5.7729267346660312E-002
  -2.3864757695714382E-002   6.5293957782314727E-003   5.8028933662412518E-002
  -3.1323155027437731E-002   9.3366792767871354E-003   5.5354580733263381E-002
  -3.0630374701801584E-002   9.0887197867084435E-003   5.5228738292058523E-002
  -2.9937594376165375E-002   8.8058172086930703E-003   5.5196721529184242E-002
  -2.9244814050529200E-002   8.4879715427403669E-003   5.5258530444640554E-002
  -2.8552033724893018E-002   8.1351827888508921E-003   5.5414165038427568E-002
  -3.6527363588150910E-002   1.1477570953457208E-002   5.3312327567361865E-002
  -3.5724653255252439E-002   1.1048519889031716E-002   5.2977371035824221E-002
  -3.4921942922353934E-002   1.0616069341892055E-002   5.2768448840480556E-002
  -3.4119232589455449E-002   1.0180219312038373E-002   5.2685560981330953E-002
  -3.3316522256556964E-002   9.7409697994703670E-003   5.2728707458375351E-002
  -4.1937619282802999E-002   1.3618462630127226E-002   5.1073211024502074E-002
  -4.0992770284778809E-002   1.3008319991354766E-002   5.0560684007854517E-002
  -4.0047921286754586E-002   1.2426321475091442E-002   5.0206399985264355E-002
  -3.9103072288730389E-002   1.1872467081336231E-002   5.0010358956731504E-002
  -3.8158223290706172E-002   1.1346756810089842E-002   4.9972560922256104E-002
  -1.9254694169021043E-002   4.9236087676119977E-003   6.0573013330330661E-002
  -1.8210898097160096E-002   4.6880029401529799E-003   6.0505433826360810E-002
  -1.7167102025299155E-002   4.4389502292240396E-003   6.0654921349314578E-002
  -1.6123305953438211E-002   4.1764506348246667E-003   6.1021475899192004E-002
  -1.5079509881577267E-002   3.9005041569553645E-003   6.1605097475993131E-002
  -2.3864757695714382E-002   6.5293957782314727E-003   5.8028933662412518E-002
  -2.2603394579266599E-002   6.2229722437773249E-003   5.7871066039222485E-002
  -2.1342031462818850E-002   5.9028443239970002E-003   5.7931265478282451E-002
  -2.0080668346371077E-002   5.5690120188905089E-003   5.8209531979592402E-002
  -1.8819305229923297E-002   5.2214753284576254E-003   5.8705865543152436E-002
  -2.8552033724893018E-002   8.1351827888508921E-003   5.5414165038427568E-002
  -2.7072103528532031E-002   7.7579415474016977E-003   5.5165751794161055E-002
  -2.5592173332171033E-002   7.3667384187701204E-003   5.5136405647471000E-002
  -2.4112243135810056E-002   6.9615734029561827E-003   5.5326126598357298E-002
  -2.2632312939449048E-002   6.5424464999599696E-003   5.5734914646820052E-002
  -3.3316522256556964E-002   9.7409697994703670E-003   5.2728707458375351E-002
  -3.1617024944956294E-002   9.2929108510259456E-003   5.2389491091176354E-002
  -2.9917527633355711E-002   8.8306325135432163E-003   5.2270341856880231E-002
  -2.8218030321755086E-002   8.3541347870218843E-003   5.2371259755486961E-002
  -2.6518533010154489E-002   7.8634176714621612E-003   5.2692244786996467E-002
  -3.8158223290706172E-002   1.1346756810089842E-002   4.9972560922256104E-002
  -3.6238158828539535E-002   1.0827880154650499E-002   4.9542283930268494E-002
  -3.4318094366372884E-002   1.0294526608316243E-002   4.9333074106510194E-002
  -3.2398029904206233E-002   9.7466961710877091E-003   4.9344931450980942E-002
  -3.0477965442039595E-002   9.1843888429644638E-003   4.9577855963681028E-002
  -1.5079509881577267E-002   3.9005041569553645E-003   6.1605097475993131E-002
  -1.4289555827904678E-002   3.6284213977791357E-003   6.1537781029571248E-002
  -1.3499601774232112E-002   3.3775129594591641E-003   6.1672408992992117E-002
  -1.2709647720559538E-002   3.1477788419951476E-003   6.2008981366255864E-002
  -1.1919693666886957E-002   2.9392190453872979E-003   6.2547498149362335E-002
  -1.8819305229923297E-002   5.2214753284576254E-003   5.8705865543152436E-002
  -1.7829811228278262E-002   4.8723773602898923E-003   5.8578810349036836E-002
  -1.6840317226633202E-002   4.5338612219786856E-003   5.8648890641023438E-002
  -1.5850823224988139E-002   4.2059269135238525E-003   5.8916106419112199E-002
  -1.4861329223343080E-002   3.8885744349251850E-003   5.9380457683303189E-002
  -2.2632312939449048E-002   6.5424464999599696E-003   5.5734914646820052E-002
  -2.1448087913572104E-002   6.1163333228008432E-003   5.5537528214011145E-002
  -2.0263862887695168E-002   5.6902094844983112E-003   5.5532468343563561E-002
  -1.9079637861818231E-002   5.2640749850524447E-003   5.5719735035477697E-002
  -1.7895412835941291E-002   4.8379298244630164E-003   5.6099328289753253E-002
  -2.6518533010154489E-002   7.8634176714621612E-003   5.2692244786996467E-002
  -2.5144385883786272E-002   7.3602892853115859E-003   5.2413934624493980E-002
  -2.3770238757418051E-002   6.8465577470178847E-003   5.2323142100612639E-002
  -2.2396091631049837E-002   6.3222230565810377E-003   5.2419867215352203E-002
  -2.1021944504681644E-002   5.7872852140009867E-003   5.2704109968712748E-002
  -3.0477965442039595E-002   9.1843888429644638E-003   4.9577855963681028E-002
  -2.8918705138920697E-002   8.6042452478224396E-003   4.9208029580485646E-002
  -2.7359444835801827E-002   8.0029060095374305E-003   4.9020911912170673E-002
  -2.5800184532682950E-002   7.3803711281096793E-003   4.9016502958736080E-002
  -2.4240924229564059E-002   6.7366406035387350E-003   4.9194802720181730E-002
  -1.1919693666886957E-002   2.9392190453872979E-003   6.2547498149362335E-002
  -1.0917785677026309E-002   2.7287155326875534E-003   6.2601176223119781E-002
  -9.9158776871656543E-003   2.4931502669478522E-003   6.2875391058520136E-002
  -8.9139696973050062E-003   2.2325232481680835E-003   6.3370142655563289E-002
  -7.9120617074443511E-003   1.9468344763481360E-003   6.4085431014249350E-002
  -1.4861329223343080E-002   3.8885744349251850E-003   5.9380457683303189E-002
  -1.3643695513508546E-002   3.5687948420377036E-003   5.9316627753512430E-002
  -1.2426061803674018E-002   3.2335791907165956E-003   5.9463712502026700E-002
  -1.1208428093839462E-002   2.8829274809611255E-003   5.9821711928845764E-002
  -9.9907943840049293E-003   2.5168397127718345E-003   6.0390626033969830E-002
  -1.7895412835941291E-002   4.8379298244630164E-003   5.6099328289753253E-002
  -1.6471675489470837E-002   4.4088741513879925E-003   5.5927616051020562E-002
  -1.5047938143000414E-002   3.9740081144851169E-003   5.5957196407254772E-002
  -1.3624200796529949E-002   3.5333317137542231E-003   5.6188069358455814E-002
  -1.2200463450059512E-002   3.0868449491952554E-003   5.6620234904623951E-002
  -2.1021944504681644E-002   5.7872852140009867E-003   5.2704109968712748E-002
  -1.9401725604913274E-002   5.2489534607386562E-003   5.2434141115643942E-002
  -1.7781506705144872E-002   4.7144370382539713E-003   5.2355842774204187E-002
  -1.6161287805376498E-002   4.1837359465474039E-003   5.2469214944393258E-002
  -1.4541068905608100E-002   3.6568501856188151E-003   5.2774257626211331E-002
  -2.4240924229564059E-002   6.7366406035387350E-003   4.9194802720181730E-002
  -2.2433845859835724E-002   6.0890327700883762E-003   4.8836202947382890E-002
  -2.0626767490107389E-002   5.4548659620226037E-003   4.8659651602874887E-002
  -1.8819689120379041E-002   4.8341401793405292E-003   4.8665148686658194E-002
  -1.7012610750650720E-002   4.2268554220423749E-003   4.8852694198732172E-002
  -7.9120617074443511E-003   1.9468344763481360E-003   6.4085431014249350E-002
  -6.9772923051819175E-003   1.7086892233767470E-003   6.4024607135052647E-002
  -6.0425229029194942E-003   1.5906927611419042E-003   6.4204946685329611E-002
  -5.1077535006570675E-003   1.5928450896434479E-003   6.4626449665080243E-002
  -4.1729840983946373E-003   1.7151462088821345E-003   6.5289116074304210E-002
  -9.9907943840049293E-003   2.5168397127718345E-003   6.0390626033969830E-002
  -8.8130225170754729E-003   2.2019365075084396E-003   6.0319681787983914E-002
  -7.6352506501460131E-003   2.0048384865313240E-003   6.0493579041858647E-002
  -6.4574787832165394E-003   1.9255456498400714E-003   6.0912317795593723E-002
  -5.2797069162870691E-003   1.9640579974347094E-003   6.1575898049189282E-002
  -1.2200463450059512E-002   3.0868449491952554E-003   5.6620234904623951E-002
  -1.0776011048076121E-002   2.6951837916399657E-003   5.6536826685398306E-002
  -9.3515586460926909E-003   2.4189842119203969E-003   5.6701938036420138E-002
  -7.9271062441092742E-003   2.2582462100361363E-003   5.7115568957689093E-002
  -6.5026538421258696E-003   2.2129697859873398E-003   5.7777719449205789E-002
  -1.4541068905608100E-002   3.6568501856188151E-003   5.2774257626211331E-002
  -1.2866257898183863E-002   3.1884310757715750E-003   5.2676041827295308E-002
  -1.1191446890759576E-002   2.8331299373098098E-003   5.2830023669013654E-002
  -9.5166358833352997E-003   2.5909467702323694E-003   5.3236203151366103E-002
  -7.8418248759110493E-003   2.4618815745401645E-003   5.3894580274353218E-002
  -1.7012610750650720E-002   4.2268554220423749E-003   4.8852694198732172E-002
  -1.5083763067398684E-002   3.6816783599032399E-003   4.8737327213675075E-002
  -1.3154915384146634E-002   3.2472756626988897E-003   4.8877835939639569E-002
  -1.1226067700894599E-002   2.9236473304284361E-003   4.9274220376625016E-002
  -9.2972200176425490E-003   2.7107933630925451E-003   4.9926480524631778E-002
  -4.1729840983946373E-003   1.7151462088821345E-003   6.5289116074304210E-002
  -3.6402535891740112E-003   2.0126167902163594E-003   6.4380522319917977E-002
  -3.1075230799533955E-003   2.5402775050050730E-003   6.3590305124129332E-002
  -2.5747925707327729E-003   3.2981283532484695E-003   6.2918464486938164E-002
  -2.0420620615121537E-003   4.2861693349472985E-003   6.2365000408344362E-002
  -5.2797069162870691E-003   1.9640579974347094E-003   6.1575898049189282E-002
  -4.6025081937630559E-003   2.2238220619362759E-003   6.0854616033053754E-002
  -3.9253094712390045E-003   2.8082843759650589E-003   6.0303893884927573E-002
  -3.2481107487149653E-003   3.7174449395205658E-003   5.9923731604810682E-002
  -2.5709120261909399E-003   4.9513037526035530E-003   5.9714129192703136E-002
  -6.5026538421258696E-003   2.2129697859873398E-003   5.7777719449205789E-002
  -5.6288035968865315E-003   2.4350273336563033E-003   5.7338257287393168E-002
  -4.7549533516471950E-003   3.0762912469246007E-003   5.7121538303001623E-002
  -3.8811031064078481E-003   4.1367615257925511E-003   5.7127562496031375E-002
  -3.0072528611685186E-003   5.6164381702603072E-003   5.7356329866482619E-002
  -7.8418248759110493E-003   2.4618815745401645E-003   5.3894580274353218E-002
  -6.7191397985445012E-003   2.6462326053762752E-003   5.3831446082935976E-002
  -5.5964547211779393E-003   3.3442981178842535E-003   5.4043238378351899E-002
  -4.4737696438114172E-003   4.5560781120645918E-003   5.4529957160600849E-002
  -3.3510845664448271E-003   6.2815725879167006E-003   5.5291602429683305E-002
  -9.2972200176425490E-003   2.7107933630925451E-003   4.9926480524631778E-002
  -7.8735167987369070E-003   2.8574378770961917E-003   5.0334182419682238E-002
  -6.4498135798312650E-003   3.6123049888440728E-003   5.1068994110977928E-002
  -5.0261103609256091E-003   4.9753946983362302E-003   5.2130915598518734E-002
  -3.6024071420199810E-003   6.9467070055735380E-003   5.3519946882304437E-002
  -2.0420620615121537E-003   4.2861693349472985E-003   6.2365000408344362E-002
  -2.2911894241533087E-003   5.5866469144346675E-003   5.8335832722477443E-002
  -2.5403167867944637E-003   7.2818075560463214E-003   5.4300860068925372E-002
  -2.7894441494356100E-003   9.3716512597822807E-003   5.0260082447688564E-002
  -3.0385715120767737E-003   1.1856178025641650E-002   4.6213499858765772E-002
  -2.5709120261909399E-003   4.9513037526035530E-003   5.9714129192703136E-002
  -2.8433688121996606E-003   6.5749328390089512E-003   5.6184708860475829E-002
  -3.1158255982083639E-003   8.6534042225323848E-003   5.2614434649198516E-002
  -3.3882823842170794E-003   1.1186717903174055E-002   4.9003306558870946E-002
  -3.6607391702258435E-003   1.4174873880933303E-002   4.5351324589493425E-002
  -3.0072528611685186E-003   5.6164381702603072E-003   5.7356329866482619E-002
  -3.3380879819097618E-003   7.5632187635835124E-003   5.4386816122889203E-002
  -3.6689231026510059E-003   1.0025000889018795E-002   5.1341399588880246E-002
  -3.9997582233922604E-003   1.3001784546565944E-002   4.8220080264456976E-002
  -4.3305933441335244E-003   1.6493569736225178E-002   4.5022858149617928E-002
  -3.3510845664448271E-003   6.2815725879167006E-003   5.5291602429683305E-002
  -3.7753469332836151E-003   8.5515046881577128E-003   5.2942154509717253E-002
  -4.1996093001223618E-003   1.1396597555505143E-002   5.0481754887971103E-002
  -4.6238716669611503E-003   1.4816851189958220E-002   4.7910403564445356E-002
  -5.0481340337999248E-003   1.8812265591516941E-002   4.5228100539139143E-002
  -3.6024071420199810E-003   6.9467070055735380E-003   5.3519946882304437E-002
  -4.1551456663212194E-003   9.5397906127324683E-003   5.1850724020959915E-002
  -4.7078841906224578E-003   1.2768194221991214E-002   5.0035500546470768E-002
  -5.2606227149236545E-003   1.6631917833349816E-002   4.8074276458836385E-002
  -5.8133612392249345E-003   2.1130961446808705E-002   4.5967051758057043E-002
  -5.2689996481617485E-002   1.9164076803360741E-002   5.6484172105012498E-002
  -5.0001902181913832E-002   1.7206031627590934E-002   5.3779435941049725E-002
  -4.7313807882210221E-002   1.5629080873462056E-002   5.1976030372977017E-002
  -4.4625713582506617E-002   1.4433224540974194E-002   5.1073955400794555E-002
  -4.1937619282802999E-002   1.3618462630127226E-002   5.1073211024502074E-002
  -6.1152691650482177E-002   1.9232932991434137E-002   4.7241074183439646E-002
  -5.7723261399654890E-002   1.7977877069424192E-002   4.5960020607329094E-002
  -5.4293831148827618E-002   1.6885455285741535E-002   4.5260308337575689E-002
  -5.0864400898000366E-002   1.5955667640386154E-002   4.5141937374179431E-002
  -4.7434970647173093E-002   1.5188514133358089E-002   4.5604907717140319E-002
  -6.8303573866712208E-002   1.9301789179507534E-002   3.8810195657283456E-002
  -6.4452796954294317E-002   1.8749722511257449E-002   3.8734364385711498E-002
  -6.0602020041876314E-002   1.8141829698021035E-002   3.8919885130963651E-002
  -5.6751243129458381E-002   1.7478110739798165E-002   3.9366757893040075E-002
  -5.2900466217040434E-002   1.6758565636589007E-002   4.0074982671940720E-002
  -7.4142643130307731E-002   1.9370645367580916E-002   3.1191536526543984E-002
  -7.0190508845832056E-002   1.9521567953090707E-002   3.2102467276196839E-002
  -6.6238374561356395E-002   1.9398204110300511E-002   3.2954760753141014E-002
  -6.2286240276880726E-002   1.9000553839210264E-002   3.3748416957376445E-002
  -5.8334105992405086E-002   1.8328617139819953E-002   3.4483435888903069E-002
  -7.8669899441268620E-002   1.9439501555654326E-002   2.4385096791221084E-002
  -7.4936397074268246E-002   2.0293413394923965E-002   2.6064329278785270E-002
  -7.1202894707267761E-002   2.0654578522580028E-002   2.7364935204107738E-002
  -6.7469392340267317E-002   2.0522996938622116E-002   2.8286914567188584E-002
  -6.3735889973266929E-002   1.9898668643050843E-002   2.8830267368027573E-002
  -4.1937619282802999E-002   1.3618462630127226E-002   5.1073211024502074E-002
  -4.0992770284778809E-002   1.3008319991354766E-002   5.0560684007854517E-002
  -4.0047921286754586E-002   1.2426321475091442E-002   5.0206399985264355E-002
  -3.9103072288730389E-002   1.1872467081336231E-002   5.0010358956731504E-002
  -3.8158223290706172E-002   1.1346756810089842E-002   4.9972560922256104E-002
  -4.7434970647173093E-002   1.5188514133358089E-002   4.5604907717140319E-002
  -4.6333583242889137E-002   1.4519318965625708E-002   4.5153245238584286E-002
  -4.5232195838605119E-002   1.3883406338157378E-002   4.4856416578490418E-002
  -4.4130808434321094E-002   1.3280776250953502E-002   4.4714421736858689E-002
  -4.3029421030037138E-002   1.2711428704013539E-002   4.4727260713689238E-002
  -5.2900466217040434E-002   1.6758565636589007E-002   4.0074982671940720E-002
  -5.1645949582091871E-002   1.6030317939896510E-002   3.9689323149231695E-002
  -5.0391432947143294E-002   1.5340491201223695E-002   3.9455088269389614E-002
  -4.9136916312194738E-002   1.4689085420570605E-002   3.9372278032414582E-002
  -4.7882399677246154E-002   1.4076100597937208E-002   3.9440892438306382E-002
  -5.8334105992405086E-002   1.8328617139819953E-002   3.4483435888903069E-002
  -5.6929869302387109E-002   1.7541316914167271E-002   3.4168917739796696E-002
  -5.5525632612369182E-002   1.6797576064289822E-002   3.4002415057962108E-002
  -5.4121395922351247E-002   1.6097394590187764E-002   3.3983927843399216E-002
  -5.2717159232333333E-002   1.5440772491860835E-002   3.4113456096108316E-002
  -6.3735889973266929E-002   1.9898668643050843E-002   2.8830267368027573E-002
  -6.2185342403774810E-002   1.9052315888438198E-002   2.8592029010279296E-002
  -6.0634794834282746E-002   1.8254660927355990E-002   2.8498396944207777E-002
  -5.9084247264790640E-002   1.7505703759804963E-002   2.8549371169812557E-002
  -5.7533699695298562E-002   1.6805444385784574E-002   2.8744951687094122E-002
  -3.8158223290706172E-002   1.1346756810089842E-002   4.9972560922256104E-002
  -3.6238158828539535E-002   1.0827880154650499E-002   4.9542283930268494E-002
  -3.4318094366372884E-002   1.0294526608316243E-002   4.9333074106510194E-002
  -3.2398029904206233E-002   9.7466961710877091E-003   4.9344931450980942E-002
  -3.0477965442039595E-002   9.1843888429644638E-003   4.9577855963681028E-002
  -4.3029421030037138E-002   1.2711428704013539E-002   4.4727260713689238E-002
  -4.0886382584767726E-002   1.2151330326978654E-002   4.4302479083022706E-002
  -3.8743344139498287E-002   1.1576447749489766E-002   4.4102578250332522E-002
  -3.6600305694228841E-002   1.0986780971546935E-002   4.4127558215618500E-002
  -3.4457267248959436E-002   1.0382329993149919E-002   4.4377418978880923E-002
  -4.7882399677246154E-002   1.4076100597937208E-002   3.9440892438306382E-002
  -4.5512573619126917E-002   1.3474780499306879E-002   3.9021298859401629E-002
  -4.3142747561007631E-002   1.2858368890663184E-002   3.8830399708220158E-002
  -4.0772921502888401E-002   1.2226865772005940E-002   3.8868194984762114E-002
  -3.8403095444769102E-002   1.1580271143335319E-002   3.9134684689027449E-002
  -5.2717159232333333E-002   1.5440772491860835E-002   3.4113456096108316E-002
  -5.0116731931617149E-002   1.4798230671635125E-002   3.3698743259405556E-002
  -4.7516304630900966E-002   1.4140290031836821E-002   3.3516538480173462E-002
  -4.4915877330184775E-002   1.3466950572465056E-002   3.3566841758411681E-002
  -4.2315450029468543E-002   1.2778212293520747E-002   3.3849653094120406E-002
  -5.7533699695298562E-002   1.6805444385784574E-002   2.8744951687094122E-002
  -5.4698857522238409E-002   1.6121680843963315E-002   2.8334812283034250E-002
  -5.1864015349178214E-002   1.5422211173010097E-002   2.8160994566192060E-002
  -4.9029173176118025E-002   1.4707035372924164E-002   2.8223498536567276E-002
  -4.6194331003057865E-002   1.3976153443706174E-002   2.8522324194160009E-002
  -3.0477965442039595E-002   9.1843888429644638E-003   4.9577855963681028E-002
  -2.8918705138920697E-002   8.6042452478224396E-003   4.9208029580485646E-002
  -2.7359444835801827E-002   8.0029060095374305E-003   4.9020911912170673E-002
  -2.5800184532682950E-002   7.3803711281096793E-003   4.9016502958736080E-002
  -2.4240924229564059E-002   6.7366406035387350E-003   4.9194802720181730E-002
  -3.4457267248959436E-002   1.0382329993149919E-002   4.4377418978880923E-002
  -3.2727423827343109E-002   9.7615675750733488E-003   4.4009423449388740E-002
  -3.0997580405726734E-002   9.1229664780912156E-003   4.3799885442011188E-002
  -2.9267736984110376E-002   8.4665267022041371E-003   4.3748804956748003E-002
  -2.7537893562494031E-002   7.7922482474115373E-003   4.3856181993599697E-002
  -3.8403095444769102E-002   1.1580271143335319E-002   3.9134684689027449E-002
  -3.6526920097421089E-002   1.0918889902324092E-002   3.8771876977476027E-002
  -3.4650744750073029E-002   1.0243026946645126E-002   3.8543275595273541E-002
  -3.2774569402724989E-002   9.5526822762984319E-003   3.8448880542419593E-002
  -3.0898394055376949E-002   8.8478558912841176E-003   3.8488691818914844E-002
  -4.2315450029468543E-002   1.2778212293520747E-002   3.3849653094120406E-002
  -4.0317193949154589E-002   1.2076212229574806E-002   3.3495390164747542E-002
  -3.8318937868840650E-002   1.1363087415198862E-002   3.3251082371957480E-002
  -3.6320681788526710E-002   1.0638837850392919E-002   3.3116729715750602E-002
  -3.4322425708212763E-002   9.9034635351566425E-003   3.3092332196126811E-002
  -4.6194331003057865E-002   1.3976153443706174E-002   2.8522324194160009E-002
  -4.4098245382543810E-002   1.3233534556825743E-002   2.8179963011203180E-002
  -4.2002159762029700E-002   1.2483147883752849E-002   2.7923305772063423E-002
  -3.9906074141515591E-002   1.1724993424487358E-002   2.7752352476740877E-002
  -3.7809988521001481E-002   1.0959071179029389E-002   2.7667103125235681E-002
  -2.4240924229564059E-002   6.7366406035387350E-003   4.9194802720181730E-002
  -2.2433845859835724E-002   6.0890327700883762E-003   4.8836202947382890E-002
  -2.0626767490107389E-002   5.4548659620226037E-003   4.8659651602874887E-002
  -1.8819689120379041E-002   4.8341401793405292E-003   4.8665148686658194E-002
  -1.7012610750650720E-002   4.2268554220423749E-003   4.8852694198732172E-002
  -2.7537893562494031E-002   7.7922482474115373E-003   4.3856181993599697E-002
  -2.5553830292652208E-002   7.1164508999817522E-003   4.3443108492177862E-002
  -2.3569767022810391E-002   6.4554544461831731E-003   4.3201956362692251E-002
  -2.1585703752968595E-002   5.8092588860156197E-003   4.3132725605142377E-002
  -1.9601640483126750E-002   5.1778642194790780E-003   4.3235416219528644E-002
  -3.0898394055376949E-002   8.8478558912841176E-003   3.8488691818914844E-002
  -2.8747472941776604E-002   8.1438690298750449E-003   3.8022504457117218E-002
  -2.6596551828176294E-002   7.4560429303438536E-003   3.7718111410900521E-002
  -2.4445630714575999E-002   6.7843775926909877E-003   3.7575512680264891E-002
  -2.2294709600975696E-002   6.1288730169160033E-003   3.7594708265210136E-002
  -3.4322425708212763E-002   9.9034635351566425E-003   3.3092332196126811E-002
  -3.2014773807208970E-002   9.1712871597681017E-003   3.2574390842200228E-002
  -2.9707121906205166E-002   8.4566314145045340E-003   3.2208116747499724E-002
  -2.7399470005201383E-002   7.7594962993662725E-003   3.1993509912025285E-002
  -2.5091818104197569E-002   7.0798818143527620E-003   3.1930570335776925E-002
  -3.7809988521001481E-002   1.0959071179029389E-002   2.7667103125235681E-002
  -3.5355732888949193E-002   1.0198705289661603E-002   2.7098767647427524E-002
  -3.2901477256896933E-002   9.4572198986650202E-003   2.6671972372490249E-002
  -3.0447221624844603E-002   8.7346150060414809E-003   2.6386717300423940E-002
  -2.7992965992792357E-002   8.0308906117897427E-003   2.6243002431228568E-002
  -1.7012610750650720E-002   4.2268554220423749E-003   4.8852694198732172E-002
  -1.5083763067398684E-002   3.6816783599032399E-003   4.8737327213675075E-002
  -1.3154915384146634E-002   3.2472756626988897E-003   4.8877835939639569E-002
  -1.1226067700894599E-002   2.9236473304284361E-003   4.9274220376625016E-002
  -9.2972200176425490E-003   2.7107933630925451E-003   4.9926480524631778E-002
  -1.9601640483126750E-002   5.1778642194790780E-003   4.3235416219528644E-002
  -1.7455938640441600E-002   4.5884109144716523E-003   4.3066916394691401E-002
  -1.5310236797756484E-002   4.0680394388919461E-003   4.3076249177699227E-002
  -1.3164534955071319E-002   3.6167497927385578E-003   4.3263414568551914E-002
  -1.1018833112386217E-002   3.2345419760129168E-003   4.3628412567249641E-002
  -2.2294709600975696E-002   6.1288730169160033E-003   3.7594708265210136E-002
  -2.0010196702033717E-002   5.4951434690401479E-003   3.7331383065085766E-002
  -1.7725683803091759E-002   4.8888032150844474E-003   3.7167847369629747E-002
  -1.5441170904149794E-002   4.3098522550486795E-003   3.7104101178842649E-002
  -1.3156658005207822E-002   3.7582905889332885E-003   3.7140144492724236E-002
  -2.5091818104197569E-002   7.0798818143527620E-003   3.1930570335776925E-002
  -2.2746537252174980E-002   6.4018760236085465E-003   3.1530727224857835E-002
  -2.0401256400152439E-002   5.7095669912769487E-003   3.1152630515431226E-002
  -1.8055975548129863E-002   5.0029547173586902E-003   3.0796280207497029E-002
  -1.5710694696107308E-002   4.2820392018537157E-003   3.0461676301055424E-002
  -2.7992965992792357E-002   8.0308906117897427E-003   2.6243002431228568E-002
  -2.5664960290865485E-002   7.3086085781770005E-003   2.5664948874007942E-002
  -2.3336954588938544E-002   6.5303307674701716E-003   2.5030598615103594E-002
  -2.1008948887011651E-002   5.6960571796689646E-003   2.4339951654515413E-002
  -1.8680943185084731E-002   4.8057878147739208E-003   2.3593007992243398E-002
  -9.2972200176425490E-003   2.7107933630925451E-003   4.9926480524631778E-002
  -7.8735167987369070E-003   2.8574378770961917E-003   5.0334182419682238E-002
  -6.4498135798312650E-003   3.6123049888440728E-003   5.1068994110977928E-002
  -5.0261103609256091E-003   4.9753946983362302E-003   5.2130915598518734E-002
  -3.6024071420199810E-003   6.9467070055735380E-003   5.3519946882304437E-002
  -1.1018833112386217E-002   3.2345419760129168E-003   4.3628412567249641E-002
  -9.2497392474913537E-003   3.1623065679144968E-003   4.4217726306752247E-002
  -7.4806453825965388E-003   3.6409341476429935E-003   4.5170711541988290E-002
  -5.7115515177016511E-003   4.6704247151987122E-003   4.6487368272957699E-002
  -3.9424576528068606E-003   6.2507782705819581E-003   4.8167696499660351E-002
  -1.3156658005207822E-002   3.7582905889332885E-003   3.7140144492724236E-002
  -1.1005611794835477E-002   3.4671752587327187E-003   3.7853710466761670E-002
  -8.8545655844631393E-003   3.6695633064421640E-003   3.8967509636020692E-002
  -6.7035193740907946E-003   4.3654547320613121E-003   4.0481542000501330E-002
  -4.5524731637184568E-003   5.5548495355904892E-003   4.2395807560203724E-002
  -1.5710694696107308E-002   4.2820392018537157E-003   3.0461676301055424E-002
  -1.3141134440769191E-002   3.7720439495511487E-003   3.1242134899710269E-002
  -1.0571574185431077E-002   3.6981924652409875E-003   3.2459388393075043E-002
  -8.0020139300929459E-003   4.0604847489238531E-003   3.4113436781149795E-002
  -5.4324536747548460E-003   4.8589208005989648E-003   3.6204280063934571E-002
  -1.8680943185084731E-002   4.8057878147739208E-003   2.3593007992243398E-002
  -1.5656307185292595E-002   4.0769126403693012E-003   2.4382999605598199E-002
  -1.2631671185500348E-002   3.7268216240403385E-003   2.5646347813151449E-002
  -9.6070351857081154E-003   3.7555147657863039E-003   2.7383052614902870E-002
  -6.5823991859159658E-003   4.1629920656076624E-003   2.9593114010852517E-002
  -3.6024071420199810E-003   6.9467070055735380E-003   5.3519946882304437E-002
  -4.1551456663212194E-003   9.5397906127324683E-003   5.1850724020959915E-002
  -4.7078841906224578E-003   1.2768194221991214E-002   5.0035500546470768E-002
  -5.2606227149236545E-003   1.6631917833349816E-002   4.8074276458836385E-002
  -5.8133612392249345E-003   2.1130961446808705E-002   4.5967051758057043E-002
  -3.9424576528068606E-003   6.2507782705819581E-003   4.8167696499660351E-002
  -4.5371752930910836E-003   8.6909998155739743E-003   4.7234626632098486E-002
  -5.1318929333752858E-003   1.2300094351956836E-002   4.6363599145715695E-002
  -5.7266105736595886E-003   1.7078061879730586E-002   4.5554614040512281E-002
  -6.3213282139437110E-003   2.3024902398895319E-002   4.4807671316487330E-002
  -4.5524731637184568E-003   5.5548495355904892E-003   4.2395807560203724E-002
  -4.9811269256616643E-003   7.8422090184154247E-003   4.2732443675715465E-002
  -5.4097806876049342E-003   1.1831994481922264E-002   4.3339165166730365E-002
  -5.8384344495482042E-003   1.7524205926111251E-002   4.4215972033248230E-002
  -6.2670882114915227E-003   2.4918843350981934E-002   4.5362864275268810E-002
  -5.4324536747548460E-003   4.8589208005989648E-003   3.6204280063934571E-002
  -5.4870005640331324E-003   6.9934182212566809E-003   3.8344175151811224E-002
  -5.5415474533113927E-003   1.1363894611888123E-002   4.0962198609514826E-002
  -5.5960943425895698E-003   1.7970349972491858E-002   4.4058350437045452E-002
  -5.6506412318678839E-003   2.6812784303068549E-002   4.7632630634402567E-002
  -6.5823991859159658E-003   4.1629920656076624E-003   2.9593114010852517E-002
  -6.0547962082053153E-003   6.1446274240980481E-003   3.4069821060385030E-002
  -5.5271932304946092E-003   1.0895794741853204E-002   3.9232699474068489E-002
  -4.9995902527838892E-003   1.8416494018872492E-002   4.5081749251902392E-002
  -4.4719872750732526E-003   2.8706725255155163E-002   5.1616970393887573E-002
  -7.8669899441268620E-002   1.9439501555654326E-002   2.4385096791221084E-002
  -7.4936397074268246E-002   2.0293413394923965E-002   2.6064329278785270E-002
  -7.1202894707267761E-002   2.0654578522580028E-002   2.7364935204107738E-002
  -6.7469392340267317E-002   2.0522996938622116E-002   2.8286914567188584E-002
  -6.3735889973266929E-002   1.9898668643050843E-002   2.8830267368027573E-002
  -8.3381016305337757E-002   2.3328876228487228E-002   2.1428085833009924E-002
  -7.9800047518264708E-002   2.2962872974781084E-002   2.1356654152846738E-002
  -7.6219078731191561E-002   2.2495170250307325E-002   2.1358781875070509E-002
  -7.2638109944118401E-002   2.1925768055065780E-002   2.1434468999681572E-002
  -6.9057141157045310E-002   2.1254666389056598E-002   2.1583715526679592E-002
  -8.9771667228258370E-002   2.7218250901320046E-002   1.7055636161400059E-002
  -8.5891046056483594E-002   2.5632332554638260E-002   1.5624587554355154E-002
  -8.2010424884708805E-002   2.4335761978034838E-002   1.4719284314326349E-002
  -7.8129803712934043E-002   2.3328539171509385E-002   1.4339726441313688E-002
  -7.4249182541159295E-002   2.2610664135062492E-002   1.4485913935317035E-002
  -9.7841852210030070E-002   3.1107625574152933E-002   1.1267747776391526E-002
  -9.3209392688924780E-002   2.8301792134495518E-002   8.8681294833108971E-003
  -8.8576933167819519E-002   2.6176353705762077E-002   7.4464425218756253E-003
  -8.3944473646714257E-002   2.4731310287953022E-002   7.0026868920851021E-003
  -7.9312014125609009E-002   2.3966661881068232E-002   7.5368625939396493E-003
 -0.10759157125065300        3.4997000246985821E-002   4.0644206779840708E-003
 -0.10175508741558847        3.0971251714352444E-002   1.0872799397141919E-003
  -9.5918603580523731E-002   2.8016945433489565E-002  -4.5974350228189520E-004
  -9.0082119745459099E-002   2.6134081404396471E-002  -5.7664964800431540E-004
  -8.4245635910394467E-002   2.5322659627074140E-002   7.3656150254730601E-004
  -6.3735889973266929E-002   1.9898668643050843E-002   2.8830267368027573E-002
  -6.2185342403774810E-002   1.9052315888438198E-002   2.8592029010279296E-002
  -6.0634794834282746E-002   1.8254660927355990E-002   2.8498396944207777E-002
  -5.9084247264790640E-002   1.7505703759804963E-002   2.8549371169812557E-002
  -5.7533699695298562E-002   1.6805444385784574E-002   2.8744951687094122E-002
  -6.9057141157045310E-002   2.1254666389056598E-002   2.1583715526679592E-002
  -6.7372100831568915E-002   2.0527193946869721E-002   2.1483401288875076E-002
  -6.5687060506092548E-002   1.9788679423095312E-002   2.1507466271362533E-002
  -6.4002020180616181E-002   1.9039122817733192E-002   2.1655910474141955E-002
  -6.2316979855139801E-002   1.8278524130783236E-002   2.1928733897213337E-002
  -7.4249182541159295E-002   2.2610664135062492E-002   1.4485913935317035E-002
  -7.2449876531083271E-002   2.2002072005301659E-002   1.4463783942337535E-002
  -7.0650570521007150E-002   2.1322697918834309E-002   1.4545806098265529E-002
  -6.8851264510931071E-002   2.0572541875661314E-002   1.4731980403100819E-002
  -6.7051958500855019E-002   1.9751603875781787E-002   1.5022306856843956E-002
  -7.9312014125609009E-002   2.3966661881068232E-002   7.5368625939396493E-003
  -7.7418669502317738E-002   2.3476950063733279E-002   7.5331769706668446E-003
  -7.5525324879026565E-002   2.2856716414573746E-002   7.6134164249168374E-003
  -7.3631980255735391E-002   2.2105960933589072E-002   7.7775809566897535E-003
  -7.1738635632444134E-002   2.1224683620780394E-002   8.0256705659855834E-003
  -8.4245635910394467E-002   2.5322659627074140E-002   7.3656150254730601E-004
  -8.2278479745272637E-002   2.4951828122165065E-002   6.9158037386241045E-004
  -8.0311323580150806E-002   2.4390734910312795E-002   7.1029725131627197E-004
  -7.8344167415028976E-002   2.3639379991517731E-002   7.9271213490804404E-004
  -7.6377011249907145E-002   2.2697763365779000E-002   9.3882502463826789E-004
  -5.7533699695298562E-002   1.6805444385784574E-002   2.8744951687094122E-002
  -5.4698857522238409E-002   1.6121680843963315E-002   2.8334812283034250E-002
  -5.1864015349178214E-002   1.5422211173010097E-002   2.8160994566192060E-002
  -4.9029173176118025E-002   1.4707035372924164E-002   2.8223498536567276E-002
  -4.6194331003057865E-002   1.3976153443706174E-002   2.8522324194160009E-002
  -6.2316979855139801E-002   1.8278524130783236E-002   2.1928733897213337E-002
  -5.9258406585231529E-002   1.7509283821643212E-002   2.1543331770947721E-002
  -5.6199833315323279E-002   1.6733802349710530E-002   2.1369070151160768E-002
  -5.3141260045415015E-002   1.5952079714984878E-002   2.1405949037852437E-002
  -5.0082686775506688E-002   1.5164115917466914E-002   2.1653968431022741E-002
  -6.7051958500855019E-002   1.9751603875781787E-002   1.5022306856843956E-002
  -6.3794835314837497E-002   1.8896886799322915E-002   1.4671106974711995E-002
  -6.0537712128819920E-002   1.8045393526410811E-002   1.4505866418319954E-002
  -5.7280588942802350E-002   1.7197124057045651E-002   1.4526585187667702E-002
  -5.4023465756784822E-002   1.6352078391227653E-002   1.4733263282755538E-002
  -7.1738635632444134E-002   2.1224683620780394E-002   8.0256705659855834E-003
  -6.8308143711056202E-002   2.0284489777002493E-002   7.7181378943272094E-003
  -6.4877651789668242E-002   1.9356984703111278E-002   7.5713833676697324E-003
  -6.1447159868280254E-002   1.8442168399106673E-002   7.5854069860132912E-003
  -5.8016667946892350E-002   1.7540040864988449E-002   7.7602087493578997E-003
  -7.6377011249907145E-002   2.2697763365779000E-002   9.3882502463826789E-004
  -7.2798331773887615E-002   2.1672092754682404E-002   6.8442452979305957E-004
  -6.9219652297868084E-002   2.0668575879811413E-002   5.6562099920984266E-004
  -6.5640972821848553E-002   1.9687212741166998E-002   5.8241443288899880E-004
  -6.2062293345829023E-002   1.8728003338749133E-002   7.3480483083032677E-004
  -4.6194331003057865E-002   1.3976153443706174E-002   2.8522324194160009E-002
  -4.4098245382543810E-002   1.3233534556825743E-002   2.8179963011203180E-002
  -4.2002159762029700E-002   1.2483147883752849E-002   2.7923305772063423E-002
  -3.9906074141515591E-002   1.1724993424487358E-002   2.7752352476740877E-002
  -3.7809988521001481E-002   1.0959071179029389E-002   2.7667103125235681E-002
  -5.0082686775506688E-002   1.5164115917466914E-002   2.1653968431022741E-002
  -4.7879459595306872E-002   1.4376935364588589E-002   2.1280641588044880E-002
  -4.5676232415107078E-002   1.3597562463782381E-002   2.1035893920621107E-002
  -4.3473005234907255E-002   1.2825997215048228E-002   2.0919725428751673E-002
  -4.1269778054707412E-002   1.2062239618386483E-002   2.0932136112436439E-002
  -5.4023465756784822E-002   1.6352078391227653E-002   1.4733263282755538E-002
  -5.1670221785162340E-002   1.5520336172351379E-002   1.4344546218021254E-002
  -4.9316977813539831E-002   1.4711977043812011E-002   1.4127283560578144E-002
  -4.6963733841917293E-002   1.3927001005609261E-002   1.4081475310426111E-002
  -4.4610489870294839E-002   1.3165408057743411E-002   1.4207121467565448E-002
  -5.8016667946892350E-002   1.7540040864988449E-002   7.7602087493578997E-003
  -5.5470531952110075E-002   1.6663736980114363E-002   7.3716769011316005E-003
  -5.2924395957327945E-002   1.5826391623841814E-002   7.1974746919336342E-003
  -5.0378259962545760E-002   1.5028004796170323E-002   7.2376021217642004E-003
  -4.7832123967763547E-002   1.4268576497100532E-002   7.4920591906225409E-003
  -6.2062293345829023E-002   1.8728003338749133E-002   7.3480483083032677E-004
  -5.9280390096150271E-002   1.7807137787877458E-002   3.6203363737702388E-004
  -5.6498486846471407E-002   1.6940806203871173E-002   2.4646731468877525E-004
  -5.3716583596792544E-002   1.6129008586731219E-002   3.8810586276607356E-004
  -5.0934680347113792E-002   1.5371744936457432E-002   7.8694928160794042E-004
  -3.7809988521001481E-002   1.0959071179029389E-002   2.7667103125235681E-002
  -3.5355732888949193E-002   1.0198705289661603E-002   2.7098767647427524E-002
  -3.2901477256896933E-002   9.4572198986650202E-003   2.6671972372490249E-002
  -3.0447221624844603E-002   8.7346150060414809E-003   2.6386717300423940E-002
  -2.7992965992792357E-002   8.0308906117897427E-003   2.6243002431228568E-002
  -4.1269778054707412E-002   1.2062239618386483E-002   2.0932136112436439E-002
  -3.8689585438398594E-002   1.1302321447029029E-002   2.0476650982586775E-002
  -3.6109392822089664E-002   1.0542274474208524E-002   2.0131499618379511E-002
  -3.3529200205780804E-002   9.7820986999247739E-003   1.9896682019814302E-002
  -3.0949007589471861E-002   9.0217941241781396E-003   1.9772198186891410E-002
  -4.4610489870294839E-002   1.3165408057743411E-002   1.4207121467565448E-002
  -4.1935566706958201E-002   1.2405937604396511E-002   1.3845477385839161E-002
  -3.9260643543621479E-002   1.1627329049751570E-002   1.3562960632526516E-002
  -3.6585720380284702E-002   1.0829582393808174E-002   1.3359571207627242E-002
  -3.3910797216948042E-002   1.0012697636566592E-002   1.3235309111141180E-002
  -4.7832123967763547E-002   1.4268576497100532E-002   7.4920591906225409E-003
  -4.5093676694627896E-002   1.3509553761764187E-002   7.2052468571847592E-003
  -4.2355229421492224E-002   1.2712383625294456E-002   6.9663554149312461E-003
  -3.9616782148356594E-002   1.1877066087691188E-002   6.7753848638628950E-003
  -3.6878334875220894E-002   1.1003601148955183E-002   6.6323352039790590E-003
  -5.0934680347113792E-002   1.5371744936457432E-002   7.8694928160794042E-004
  -4.8163915401407964E-002   1.4613169919131641E-002   5.5595939662311800E-004
  -4.5393150455702080E-002   1.3797438200837786E-002   3.4168396559441927E-004
  -4.2622385509996197E-002   1.2924549781574896E-002   1.4412298852126137E-004
  -3.9851620564290369E-002   1.1994504661343441E-002  -3.6723534595939356E-005
  -2.7992965992792357E-002   8.0308906117897427E-003   2.6243002431228568E-002
  -2.5664960290865485E-002   7.3086085781770005E-003   2.5664948874007942E-002
  -2.3336954588938544E-002   6.5303307674701716E-003   2.5030598615103594E-002
  -2.1008948887011651E-002   5.6960571796689646E-003   2.4339951654515413E-002
  -1.8680943185084731E-002   4.8057878147739208E-003   2.3593007992243398E-002
  -3.0949007589471861E-002   9.0217941241781396E-003   1.9772198186891410E-002
  -2.8658162187894590E-002   8.2627136598995010E-003   1.9180823623860699E-002
  -2.6367316786317208E-002   7.5062102200196268E-003   1.8571425161814786E-002
  -2.4076471384739916E-002   6.7522838045389333E-003   1.7944002800753270E-002
  -2.1785625983162554E-002   6.0009344134571707E-003   1.7298556540676746E-002
  -3.3910797216948042E-002   1.0012697636566592E-002   1.3235309111141180E-002
  -3.1618839313051865E-002   9.2168187416218073E-003   1.2689186343793651E-002
  -2.9326881409155601E-002   8.4820896725693318E-003   1.2163312480099386E-002
  -2.7034923505259413E-002   7.8085104294087979E-003   1.1657687520058385E-002
  -2.4742965601363159E-002   7.1960810121406982E-003   1.1172311463670120E-002
  -3.6878334875220894E-002   1.1003601148955183E-002   6.6323352039790590E-003
  -3.4546991666337352E-002   1.0170923823344710E-002   6.1900370338077298E-003
  -3.2215648457453804E-002   9.4579691251189119E-003   5.8062605699580536E-003
  -2.9884305248570234E-002   8.8647370542789365E-003   5.4810058124300093E-003
  -2.7552962039686716E-002   8.3912276108241979E-003   5.2142727612236525E-003
  -3.9851620564290369E-002   1.1994504661343441E-002  -3.6723534595939356E-005
  -3.7442619247751052E-002   1.1125028905066614E-002  -3.1662430609780134E-004
  -3.5033617931211680E-002   1.0433848577668603E-002  -4.9973056860969089E-004
  -3.2624616614672308E-002   9.9209636791488809E-003  -5.8604232213112228E-004
  -3.0215615298132992E-002   9.5863742095074755E-003  -5.7555956666344166E-004
  -1.8680943185084731E-002   4.8057878147739208E-003   2.3593007992243398E-002
  -1.5656307185292595E-002   4.0769126403693012E-003   2.4382999605598199E-002
  -1.2631671185500348E-002   3.7268216240403385E-003   2.5646347813151449E-002
  -9.6070351857081154E-003   3.7555147657863039E-003   2.7383052614902870E-002
  -6.5823991859159658E-003   4.1629920656076624E-003   2.9593114010852517E-002
  -2.1785625983162554E-002   6.0009344134571707E-003   1.7298556540676746E-002
  -1.8556882765971283E-002   5.3411425704503190E-003   1.8246303072022629E-002
  -1.5328139548780040E-002   4.8618887991937476E-003   1.9128907443968307E-002
  -1.2099396331588741E-002   4.5631730996876091E-003   1.9946369656513877E-002
  -8.8706531143975254E-003   4.4449954719320006E-003   2.0698689709659601E-002
  -2.4742965601363159E-002   7.1960810121406982E-003   1.1172311463670120E-002
  -2.1848613920371213E-002   6.6053725005315311E-003   1.2079566826681903E-002
  -1.8954262239379127E-002   5.9969559743476147E-003   1.2383181276695562E-002
  -1.6059910558387080E-002   5.3708314335891398E-003   1.2083154813710813E-002
  -1.3165558877395095E-002   4.7269988782564498E-003   1.1179487437727509E-002
  -2.7552962039686716E-002   8.3912276108241979E-003   5.2142727612236525E-003
  -2.5531500648492210E-002   7.8696024306120910E-003   5.8827908695763820E-003
  -2.3510039257297721E-002   7.1320231495011419E-003   5.4091693113330029E-003
  -2.1488577866103264E-002   6.1784897674905578E-003   3.7934080864927156E-003
  -1.9467116474908727E-002   5.0090022845815096E-003   1.0355071950557265E-003
  -3.0215615298132992E-002   9.5863742095074755E-003  -5.7555956666344166E-004
  -2.9605542950334462E-002   9.1338323606935390E-003  -3.4402479929374064E-004
  -2.8995470602535767E-002   8.2670903246546690E-003  -1.7931284521191526E-003
  -2.8385398254737154E-002   6.9861481013919202E-003  -4.9228705251394139E-003
  -2.7775325906938542E-002   5.2910056909056813E-003  -9.7332510183554266E-003
  -6.5823991859159658E-003   4.1629920656076624E-003   2.9593114010852517E-002
  -6.0547962082053153E-003   6.1446274240980481E-003   3.4069821060385030E-002
  -5.5271932304946092E-003   1.0895794741853204E-002   3.9232699474068489E-002
  -4.9995902527838892E-003   1.8416494018872492E-002   4.5081749251902392E-002
  -4.4719872750732526E-003   2.8706725255155163E-002   5.1616970393887573E-002
  -8.8706531143975254E-003   4.4449954719320006E-003   2.0698689709659601E-002
  -7.5849105087365393E-003   5.6594985928819508E-003   2.5867890880937328E-002
  -6.2991679030754838E-003   9.3588251394915722E-003   3.1867199943964752E-002
  -5.0134252974144214E-003   1.5542975111761774E-002   3.8696616898741987E-002
  -3.7276826917535533E-003   2.4211948509691883E-002   4.6356141745268475E-002
  -1.3165558877395095E-002   4.7269988782564498E-003   1.1179487437727509E-002
  -1.0977740116184978E-002   5.1743697616653539E-003   1.6756474197146681E-002
  -8.7899213549748056E-003   7.8218555371298293E-003   2.3307505375914361E-002
  -6.6021025937647408E-003   1.2669456204651333E-002   3.0832580974030577E-002
  -4.4142838325545164E-003   1.9717171764228603E-002   3.9331700991495411E-002
  -1.9467116474908727E-002   5.0090022845815096E-003   1.0355071950557265E-003
  -1.6233285030550732E-002   4.6892409304485627E-003   6.7355710090126961E-003
  -1.2999453586192684E-002   6.2848859347683639E-003   1.3553615769916955E-002
  -9.7656221418346949E-003   9.7959372975404205E-003   2.1489641477768724E-002
  -6.5317906974766485E-003   1.5222395018765544E-002   3.0543648132567741E-002
  -2.7775325906938542E-002   5.2910056909056813E-003  -9.7332510183554266E-003
  -2.3351545251833805E-002   4.2041120992319936E-003  -4.1948186834643852E-003
  -1.8927764596729013E-002   4.7479163324060103E-003   2.6055311259729486E-003
  -1.4503983941624249E-002   6.9224183904306180E-003   1.0667798409955909E-002
  -1.0080203286519485E-002   1.0727618273302042E-002   1.9991983168485383E-002
 </DataArray>
 </PointData>
 </Piece>
 </UnstructuredGrid>
 </VTKFile>
