 <VTKFile type="UnstructuredGrid"  version="0.1"   >
 <UnstructuredGrid>
 <Piece  NumberOfPoints="          1600 "  NumberOfCells="         1024 ">
 <Points>
 <DataArray  type="Float64" NumberOfComponents="3"  format="ascii" >
   0.0000000000000000        0.0000000000000000        0.0000000000000000     
   3.1250000000000000E-002   0.0000000000000000        0.0000000000000000     
   6.2500000000000000E-002   0.0000000000000000        0.0000000000000000     
   9.3750000000000000E-002   0.0000000000000000        0.0000000000000000     
  0.12500000000000000        0.0000000000000000        0.0000000000000000     
   0.0000000000000000        3.1250000000000000E-002   0.0000000000000000     
   3.1250000000000000E-002   3.1250000000000000E-002   0.0000000000000000     
   6.2500000000000000E-002   3.1250000000000000E-002   0.0000000000000000     
   9.3750000000000000E-002   3.1250000000000000E-002   0.0000000000000000     
  0.12500000000000000        3.1250000000000000E-002   0.0000000000000000     
   0.0000000000000000        6.2500000000000000E-002   0.0000000000000000     
   3.1250000000000000E-002   6.2500000000000000E-002   0.0000000000000000     
   6.2500000000000000E-002   6.2500000000000000E-002   0.0000000000000000     
   9.3750000000000000E-002   6.2500000000000000E-002   0.0000000000000000     
  0.12500000000000000        6.2500000000000000E-002   0.0000000000000000     
   0.0000000000000000        9.3750000000000000E-002   0.0000000000000000     
   3.1250000000000000E-002   9.3750000000000000E-002   0.0000000000000000     
   6.2500000000000000E-002   9.3750000000000000E-002   0.0000000000000000     
   9.3750000000000000E-002   9.3750000000000000E-002   0.0000000000000000     
  0.12500000000000000        9.3750000000000000E-002   0.0000000000000000     
   0.0000000000000000       0.12500000000000000        0.0000000000000000     
   3.1250000000000000E-002  0.12500000000000000        0.0000000000000000     
   6.2500000000000000E-002  0.12500000000000000        0.0000000000000000     
   9.3750000000000000E-002  0.12500000000000000        0.0000000000000000     
  0.12500000000000000       0.12500000000000000        0.0000000000000000     
  0.12500000000000000        0.0000000000000000        0.0000000000000000     
  0.15625000000000000        0.0000000000000000        0.0000000000000000     
  0.18750000000000000        0.0000000000000000        0.0000000000000000     
  0.21875000000000000        0.0000000000000000        0.0000000000000000     
  0.25000000000000000        0.0000000000000000        0.0000000000000000     
  0.12500000000000000        3.1250000000000000E-002   0.0000000000000000     
  0.15625000000000000        3.1250000000000000E-002   0.0000000000000000     
  0.18750000000000000        3.1250000000000000E-002   0.0000000000000000     
  0.21875000000000000        3.1250000000000000E-002   0.0000000000000000     
  0.25000000000000000        3.1250000000000000E-002   0.0000000000000000     
  0.12500000000000000        6.2500000000000000E-002   0.0000000000000000     
  0.15625000000000000        6.2500000000000000E-002   0.0000000000000000     
  0.18750000000000000        6.2500000000000000E-002   0.0000000000000000     
  0.21875000000000000        6.2500000000000000E-002   0.0000000000000000     
  0.25000000000000000        6.2500000000000000E-002   0.0000000000000000     
  0.12500000000000000        9.3750000000000000E-002   0.0000000000000000     
  0.15625000000000000        9.3750000000000000E-002   0.0000000000000000     
  0.18750000000000000        9.3750000000000000E-002   0.0000000000000000     
  0.21875000000000000        9.3750000000000000E-002   0.0000000000000000     
  0.25000000000000000        9.3750000000000000E-002   0.0000000000000000     
  0.12500000000000000       0.12500000000000000        0.0000000000000000     
  0.15625000000000000       0.12500000000000000        0.0000000000000000     
  0.18750000000000000       0.12500000000000000        0.0000000000000000     
  0.21875000000000000       0.12500000000000000        0.0000000000000000     
  0.25000000000000000       0.12500000000000000        0.0000000000000000     
  0.25000000000000000        0.0000000000000000        0.0000000000000000     
  0.28125000000000000        0.0000000000000000        0.0000000000000000     
  0.31250000000000000        0.0000000000000000        0.0000000000000000     
  0.34375000000000000        0.0000000000000000        0.0000000000000000     
  0.37500000000000000        0.0000000000000000        0.0000000000000000     
  0.25000000000000000        3.1250000000000000E-002   0.0000000000000000     
  0.28125000000000000        3.1250000000000000E-002   0.0000000000000000     
  0.31250000000000000        3.1250000000000000E-002   0.0000000000000000     
  0.34375000000000000        3.1250000000000000E-002   0.0000000000000000     
  0.37500000000000000        3.1250000000000000E-002   0.0000000000000000     
  0.25000000000000000        6.2500000000000000E-002   0.0000000000000000     
  0.28125000000000000        6.2500000000000000E-002   0.0000000000000000     
  0.31250000000000000        6.2500000000000000E-002   0.0000000000000000     
  0.34375000000000000        6.2500000000000000E-002   0.0000000000000000     
  0.37500000000000000        6.2500000000000000E-002   0.0000000000000000     
  0.25000000000000000        9.3750000000000000E-002   0.0000000000000000     
  0.28125000000000000        9.3750000000000000E-002   0.0000000000000000     
  0.31250000000000000        9.3750000000000000E-002   0.0000000000000000     
  0.34375000000000000        9.3750000000000000E-002   0.0000000000000000     
  0.37500000000000000        9.3750000000000000E-002   0.0000000000000000     
  0.25000000000000000       0.12500000000000000        0.0000000000000000     
  0.28125000000000000       0.12500000000000000        0.0000000000000000     
  0.31250000000000000       0.12500000000000000        0.0000000000000000     
  0.34375000000000000       0.12500000000000000        0.0000000000000000     
  0.37500000000000000       0.12500000000000000        0.0000000000000000     
  0.37500000000000000        0.0000000000000000        0.0000000000000000     
  0.40625000000000000        0.0000000000000000        0.0000000000000000     
  0.43750000000000000        0.0000000000000000        0.0000000000000000     
  0.46875000000000000        0.0000000000000000        0.0000000000000000     
  0.50000000000000000        0.0000000000000000        0.0000000000000000     
  0.37500000000000000        3.1250000000000000E-002   0.0000000000000000     
  0.40625000000000000        3.1250000000000000E-002   0.0000000000000000     
  0.43750000000000000        3.1250000000000000E-002   0.0000000000000000     
  0.46875000000000000        3.1250000000000000E-002   0.0000000000000000     
  0.50000000000000000        3.1250000000000000E-002   0.0000000000000000     
  0.37500000000000000        6.2500000000000000E-002   0.0000000000000000     
  0.40625000000000000        6.2500000000000000E-002   0.0000000000000000     
  0.43750000000000000        6.2500000000000000E-002   0.0000000000000000     
  0.46875000000000000        6.2500000000000000E-002   0.0000000000000000     
  0.50000000000000000        6.2500000000000000E-002   0.0000000000000000     
  0.37500000000000000        9.3750000000000000E-002   0.0000000000000000     
  0.40625000000000000        9.3750000000000000E-002   0.0000000000000000     
  0.43750000000000000        9.3750000000000000E-002   0.0000000000000000     
  0.46875000000000000        9.3750000000000000E-002   0.0000000000000000     
  0.50000000000000000        9.3750000000000000E-002   0.0000000000000000     
  0.37500000000000000       0.12500000000000000        0.0000000000000000     
  0.40625000000000000       0.12500000000000000        0.0000000000000000     
  0.43750000000000000       0.12500000000000000        0.0000000000000000     
  0.46875000000000000       0.12500000000000000        0.0000000000000000     
  0.50000000000000000       0.12500000000000000        0.0000000000000000     
  0.50000000000000000        0.0000000000000000        0.0000000000000000     
  0.53125000000000000        0.0000000000000000        0.0000000000000000     
  0.56250000000000000        0.0000000000000000        0.0000000000000000     
  0.59375000000000000        0.0000000000000000        0.0000000000000000     
  0.62500000000000000        0.0000000000000000        0.0000000000000000     
  0.50000000000000000        3.1250000000000000E-002   0.0000000000000000     
  0.53125000000000000        3.1250000000000000E-002   0.0000000000000000     
  0.56250000000000000        3.1250000000000000E-002   0.0000000000000000     
  0.59375000000000000        3.1250000000000000E-002   0.0000000000000000     
  0.62500000000000000        3.1250000000000000E-002   0.0000000000000000     
  0.50000000000000000        6.2500000000000000E-002   0.0000000000000000     
  0.53125000000000000        6.2500000000000000E-002   0.0000000000000000     
  0.56250000000000000        6.2500000000000000E-002   0.0000000000000000     
  0.59375000000000000        6.2500000000000000E-002   0.0000000000000000     
  0.62500000000000000        6.2500000000000000E-002   0.0000000000000000     
  0.50000000000000000        9.3750000000000000E-002   0.0000000000000000     
  0.53125000000000000        9.3750000000000000E-002   0.0000000000000000     
  0.56250000000000000        9.3750000000000000E-002   0.0000000000000000     
  0.59375000000000000        9.3750000000000000E-002   0.0000000000000000     
  0.62500000000000000        9.3750000000000000E-002   0.0000000000000000     
  0.50000000000000000       0.12500000000000000        0.0000000000000000     
  0.53125000000000000       0.12500000000000000        0.0000000000000000     
  0.56250000000000000       0.12500000000000000        0.0000000000000000     
  0.59375000000000000       0.12500000000000000        0.0000000000000000     
  0.62500000000000000       0.12500000000000000        0.0000000000000000     
  0.62500000000000000        0.0000000000000000        0.0000000000000000     
  0.65625000000000000        0.0000000000000000        0.0000000000000000     
  0.68750000000000000        0.0000000000000000        0.0000000000000000     
  0.71875000000000000        0.0000000000000000        0.0000000000000000     
  0.75000000000000000        0.0000000000000000        0.0000000000000000     
  0.62500000000000000        3.1250000000000000E-002   0.0000000000000000     
  0.65625000000000000        3.1250000000000000E-002   0.0000000000000000     
  0.68750000000000000        3.1250000000000000E-002   0.0000000000000000     
  0.71875000000000000        3.1250000000000000E-002   0.0000000000000000     
  0.75000000000000000        3.1250000000000000E-002   0.0000000000000000     
  0.62500000000000000        6.2500000000000000E-002   0.0000000000000000     
  0.65625000000000000        6.2500000000000000E-002   0.0000000000000000     
  0.68750000000000000        6.2500000000000000E-002   0.0000000000000000     
  0.71875000000000000        6.2500000000000000E-002   0.0000000000000000     
  0.75000000000000000        6.2500000000000000E-002   0.0000000000000000     
  0.62500000000000000        9.3750000000000000E-002   0.0000000000000000     
  0.65625000000000000        9.3750000000000000E-002   0.0000000000000000     
  0.68750000000000000        9.3750000000000000E-002   0.0000000000000000     
  0.71875000000000000        9.3750000000000000E-002   0.0000000000000000     
  0.75000000000000000        9.3750000000000000E-002   0.0000000000000000     
  0.62500000000000000       0.12500000000000000        0.0000000000000000     
  0.65625000000000000       0.12500000000000000        0.0000000000000000     
  0.68750000000000000       0.12500000000000000        0.0000000000000000     
  0.71875000000000000       0.12500000000000000        0.0000000000000000     
  0.75000000000000000       0.12500000000000000        0.0000000000000000     
  0.75000000000000000        0.0000000000000000        0.0000000000000000     
  0.78125000000000000        0.0000000000000000        0.0000000000000000     
  0.81250000000000000        0.0000000000000000        0.0000000000000000     
  0.84375000000000000        0.0000000000000000        0.0000000000000000     
  0.87500000000000000        0.0000000000000000        0.0000000000000000     
  0.75000000000000000        3.1250000000000000E-002   0.0000000000000000     
  0.78125000000000000        3.1250000000000000E-002   0.0000000000000000     
  0.81250000000000000        3.1250000000000000E-002   0.0000000000000000     
  0.84375000000000000        3.1250000000000000E-002   0.0000000000000000     
  0.87500000000000000        3.1250000000000000E-002   0.0000000000000000     
  0.75000000000000000        6.2500000000000000E-002   0.0000000000000000     
  0.78125000000000000        6.2500000000000000E-002   0.0000000000000000     
  0.81250000000000000        6.2500000000000000E-002   0.0000000000000000     
  0.84375000000000000        6.2500000000000000E-002   0.0000000000000000     
  0.87500000000000000        6.2500000000000000E-002   0.0000000000000000     
  0.75000000000000000        9.3750000000000000E-002   0.0000000000000000     
  0.78125000000000000        9.3750000000000000E-002   0.0000000000000000     
  0.81250000000000000        9.3750000000000000E-002   0.0000000000000000     
  0.84375000000000000        9.3750000000000000E-002   0.0000000000000000     
  0.87500000000000000        9.3750000000000000E-002   0.0000000000000000     
  0.75000000000000000       0.12500000000000000        0.0000000000000000     
  0.78125000000000000       0.12500000000000000        0.0000000000000000     
  0.81250000000000000       0.12500000000000000        0.0000000000000000     
  0.84375000000000000       0.12500000000000000        0.0000000000000000     
  0.87500000000000000       0.12500000000000000        0.0000000000000000     
  0.87500000000000000        0.0000000000000000        0.0000000000000000     
  0.90625000000000000        0.0000000000000000        0.0000000000000000     
  0.93750000000000000        0.0000000000000000        0.0000000000000000     
  0.96875000000000000        0.0000000000000000        0.0000000000000000     
   1.0000000000000000        0.0000000000000000        0.0000000000000000     
  0.87500000000000000        3.1250000000000000E-002   0.0000000000000000     
  0.90625000000000000        3.1250000000000000E-002   0.0000000000000000     
  0.93750000000000000        3.1250000000000000E-002   0.0000000000000000     
  0.96875000000000000        3.1250000000000000E-002   0.0000000000000000     
   1.0000000000000000        3.1250000000000000E-002   0.0000000000000000     
  0.87500000000000000        6.2500000000000000E-002   0.0000000000000000     
  0.90625000000000000        6.2500000000000000E-002   0.0000000000000000     
  0.93750000000000000        6.2500000000000000E-002   0.0000000000000000     
  0.96875000000000000        6.2500000000000000E-002   0.0000000000000000     
   1.0000000000000000        6.2500000000000000E-002   0.0000000000000000     
  0.87500000000000000        9.3750000000000000E-002   0.0000000000000000     
  0.90625000000000000        9.3750000000000000E-002   0.0000000000000000     
  0.93750000000000000        9.3750000000000000E-002   0.0000000000000000     
  0.96875000000000000        9.3750000000000000E-002   0.0000000000000000     
   1.0000000000000000        9.3750000000000000E-002   0.0000000000000000     
  0.87500000000000000       0.12500000000000000        0.0000000000000000     
  0.90625000000000000       0.12500000000000000        0.0000000000000000     
  0.93750000000000000       0.12500000000000000        0.0000000000000000     
  0.96875000000000000       0.12500000000000000        0.0000000000000000     
   1.0000000000000000       0.12500000000000000        0.0000000000000000     
   0.0000000000000000       0.12500000000000000        0.0000000000000000     
   3.1250000000000000E-002  0.12500000000000000        0.0000000000000000     
   6.2500000000000000E-002  0.12500000000000000        0.0000000000000000     
   9.3750000000000000E-002  0.12500000000000000        0.0000000000000000     
  0.12500000000000000       0.12500000000000000        0.0000000000000000     
   0.0000000000000000       0.15625000000000000        0.0000000000000000     
   3.1250000000000000E-002  0.15625000000000000        0.0000000000000000     
   6.2500000000000000E-002  0.15625000000000000        0.0000000000000000     
   9.3750000000000000E-002  0.15625000000000000        0.0000000000000000     
  0.12500000000000000       0.15625000000000000        0.0000000000000000     
   0.0000000000000000       0.18750000000000000        0.0000000000000000     
   3.1250000000000000E-002  0.18750000000000000        0.0000000000000000     
   6.2500000000000000E-002  0.18750000000000000        0.0000000000000000     
   9.3750000000000000E-002  0.18750000000000000        0.0000000000000000     
  0.12500000000000000       0.18750000000000000        0.0000000000000000     
   0.0000000000000000       0.21875000000000000        0.0000000000000000     
   3.1250000000000000E-002  0.21875000000000000        0.0000000000000000     
   6.2500000000000000E-002  0.21875000000000000        0.0000000000000000     
   9.3750000000000000E-002  0.21875000000000000        0.0000000000000000     
  0.12500000000000000       0.21875000000000000        0.0000000000000000     
   0.0000000000000000       0.25000000000000000        0.0000000000000000     
   3.1250000000000000E-002  0.25000000000000000        0.0000000000000000     
   6.2500000000000000E-002  0.25000000000000000        0.0000000000000000     
   9.3750000000000000E-002  0.25000000000000000        0.0000000000000000     
  0.12500000000000000       0.25000000000000000        0.0000000000000000     
  0.12500000000000000       0.12500000000000000        0.0000000000000000     
  0.15625000000000000       0.12500000000000000        0.0000000000000000     
  0.18750000000000000       0.12500000000000000        0.0000000000000000     
  0.21875000000000000       0.12500000000000000        0.0000000000000000     
  0.25000000000000000       0.12500000000000000        0.0000000000000000     
  0.12500000000000000       0.15625000000000000        0.0000000000000000     
  0.15625000000000000       0.15625000000000000        0.0000000000000000     
  0.18750000000000000       0.15625000000000000        0.0000000000000000     
  0.21875000000000000       0.15625000000000000        0.0000000000000000     
  0.25000000000000000       0.15625000000000000        0.0000000000000000     
  0.12500000000000000       0.18750000000000000        0.0000000000000000     
  0.15625000000000000       0.18750000000000000        0.0000000000000000     
  0.18750000000000000       0.18750000000000000        0.0000000000000000     
  0.21875000000000000       0.18750000000000000        0.0000000000000000     
  0.25000000000000000       0.18750000000000000        0.0000000000000000     
  0.12500000000000000       0.21875000000000000        0.0000000000000000     
  0.15625000000000000       0.21875000000000000        0.0000000000000000     
  0.18750000000000000       0.21875000000000000        0.0000000000000000     
  0.21875000000000000       0.21875000000000000        0.0000000000000000     
  0.25000000000000000       0.21875000000000000        0.0000000000000000     
  0.12500000000000000       0.25000000000000000        0.0000000000000000     
  0.15625000000000000       0.25000000000000000        0.0000000000000000     
  0.18750000000000000       0.25000000000000000        0.0000000000000000     
  0.21875000000000000       0.25000000000000000        0.0000000000000000     
  0.25000000000000000       0.25000000000000000        0.0000000000000000     
  0.25000000000000000       0.12500000000000000        0.0000000000000000     
  0.28125000000000000       0.12500000000000000        0.0000000000000000     
  0.31250000000000000       0.12500000000000000        0.0000000000000000     
  0.34375000000000000       0.12500000000000000        0.0000000000000000     
  0.37500000000000000       0.12500000000000000        0.0000000000000000     
  0.25000000000000000       0.15625000000000000        0.0000000000000000     
  0.28125000000000000       0.15625000000000000        0.0000000000000000     
  0.31250000000000000       0.15625000000000000        0.0000000000000000     
  0.34375000000000000       0.15625000000000000        0.0000000000000000     
  0.37500000000000000       0.15625000000000000        0.0000000000000000     
  0.25000000000000000       0.18750000000000000        0.0000000000000000     
  0.28125000000000000       0.18750000000000000        0.0000000000000000     
  0.31250000000000000       0.18750000000000000        0.0000000000000000     
  0.34375000000000000       0.18750000000000000        0.0000000000000000     
  0.37500000000000000       0.18750000000000000        0.0000000000000000     
  0.25000000000000000       0.21875000000000000        0.0000000000000000     
  0.28125000000000000       0.21875000000000000        0.0000000000000000     
  0.31250000000000000       0.21875000000000000        0.0000000000000000     
  0.34375000000000000       0.21875000000000000        0.0000000000000000     
  0.37500000000000000       0.21875000000000000        0.0000000000000000     
  0.25000000000000000       0.25000000000000000        0.0000000000000000     
  0.28125000000000000       0.25000000000000000        0.0000000000000000     
  0.31250000000000000       0.25000000000000000        0.0000000000000000     
  0.34375000000000000       0.25000000000000000        0.0000000000000000     
  0.37500000000000000       0.25000000000000000        0.0000000000000000     
  0.37500000000000000       0.12500000000000000        0.0000000000000000     
  0.40625000000000000       0.12500000000000000        0.0000000000000000     
  0.43750000000000000       0.12500000000000000        0.0000000000000000     
  0.46875000000000000       0.12500000000000000        0.0000000000000000     
  0.50000000000000000       0.12500000000000000        0.0000000000000000     
  0.37500000000000000       0.15625000000000000        0.0000000000000000     
  0.40625000000000000       0.15625000000000000        0.0000000000000000     
  0.43750000000000000       0.15625000000000000        0.0000000000000000     
  0.46875000000000000       0.15625000000000000        0.0000000000000000     
  0.50000000000000000       0.15625000000000000        0.0000000000000000     
  0.37500000000000000       0.18750000000000000        0.0000000000000000     
  0.40625000000000000       0.18750000000000000        0.0000000000000000     
  0.43750000000000000       0.18750000000000000        0.0000000000000000     
  0.46875000000000000       0.18750000000000000        0.0000000000000000     
  0.50000000000000000       0.18750000000000000        0.0000000000000000     
  0.37500000000000000       0.21875000000000000        0.0000000000000000     
  0.40625000000000000       0.21875000000000000        0.0000000000000000     
  0.43750000000000000       0.21875000000000000        0.0000000000000000     
  0.46875000000000000       0.21875000000000000        0.0000000000000000     
  0.50000000000000000       0.21875000000000000        0.0000000000000000     
  0.37500000000000000       0.25000000000000000        0.0000000000000000     
  0.40625000000000000       0.25000000000000000        0.0000000000000000     
  0.43750000000000000       0.25000000000000000        0.0000000000000000     
  0.46875000000000000       0.25000000000000000        0.0000000000000000     
  0.50000000000000000       0.25000000000000000        0.0000000000000000     
  0.50000000000000000       0.12500000000000000        0.0000000000000000     
  0.53125000000000000       0.12500000000000000        0.0000000000000000     
  0.56250000000000000       0.12500000000000000        0.0000000000000000     
  0.59375000000000000       0.12500000000000000        0.0000000000000000     
  0.62500000000000000       0.12500000000000000        0.0000000000000000     
  0.50000000000000000       0.15625000000000000        0.0000000000000000     
  0.53125000000000000       0.15625000000000000        0.0000000000000000     
  0.56250000000000000       0.15625000000000000        0.0000000000000000     
  0.59375000000000000       0.15625000000000000        0.0000000000000000     
  0.62500000000000000       0.15625000000000000        0.0000000000000000     
  0.50000000000000000       0.18750000000000000        0.0000000000000000     
  0.53125000000000000       0.18750000000000000        0.0000000000000000     
  0.56250000000000000       0.18750000000000000        0.0000000000000000     
  0.59375000000000000       0.18750000000000000        0.0000000000000000     
  0.62500000000000000       0.18750000000000000        0.0000000000000000     
  0.50000000000000000       0.21875000000000000        0.0000000000000000     
  0.53125000000000000       0.21875000000000000        0.0000000000000000     
  0.56250000000000000       0.21875000000000000        0.0000000000000000     
  0.59375000000000000       0.21875000000000000        0.0000000000000000     
  0.62500000000000000       0.21875000000000000        0.0000000000000000     
  0.50000000000000000       0.25000000000000000        0.0000000000000000     
  0.53125000000000000       0.25000000000000000        0.0000000000000000     
  0.56250000000000000       0.25000000000000000        0.0000000000000000     
  0.59375000000000000       0.25000000000000000        0.0000000000000000     
  0.62500000000000000       0.25000000000000000        0.0000000000000000     
  0.62500000000000000       0.12500000000000000        0.0000000000000000     
  0.65625000000000000       0.12500000000000000        0.0000000000000000     
  0.68750000000000000       0.12500000000000000        0.0000000000000000     
  0.71875000000000000       0.12500000000000000        0.0000000000000000     
  0.75000000000000000       0.12500000000000000        0.0000000000000000     
  0.62500000000000000       0.15625000000000000        0.0000000000000000     
  0.65625000000000000       0.15625000000000000        0.0000000000000000     
  0.68750000000000000       0.15625000000000000        0.0000000000000000     
  0.71875000000000000       0.15625000000000000        0.0000000000000000     
  0.75000000000000000       0.15625000000000000        0.0000000000000000     
  0.62500000000000000       0.18750000000000000        0.0000000000000000     
  0.65625000000000000       0.18750000000000000        0.0000000000000000     
  0.68750000000000000       0.18750000000000000        0.0000000000000000     
  0.71875000000000000       0.18750000000000000        0.0000000000000000     
  0.75000000000000000       0.18750000000000000        0.0000000000000000     
  0.62500000000000000       0.21875000000000000        0.0000000000000000     
  0.65625000000000000       0.21875000000000000        0.0000000000000000     
  0.68750000000000000       0.21875000000000000        0.0000000000000000     
  0.71875000000000000       0.21875000000000000        0.0000000000000000     
  0.75000000000000000       0.21875000000000000        0.0000000000000000     
  0.62500000000000000       0.25000000000000000        0.0000000000000000     
  0.65625000000000000       0.25000000000000000        0.0000000000000000     
  0.68750000000000000       0.25000000000000000        0.0000000000000000     
  0.71875000000000000       0.25000000000000000        0.0000000000000000     
  0.75000000000000000       0.25000000000000000        0.0000000000000000     
  0.75000000000000000       0.12500000000000000        0.0000000000000000     
  0.78125000000000000       0.12500000000000000        0.0000000000000000     
  0.81250000000000000       0.12500000000000000        0.0000000000000000     
  0.84375000000000000       0.12500000000000000        0.0000000000000000     
  0.87500000000000000       0.12500000000000000        0.0000000000000000     
  0.75000000000000000       0.15625000000000000        0.0000000000000000     
  0.78125000000000000       0.15625000000000000        0.0000000000000000     
  0.81250000000000000       0.15625000000000000        0.0000000000000000     
  0.84375000000000000       0.15625000000000000        0.0000000000000000     
  0.87500000000000000       0.15625000000000000        0.0000000000000000     
  0.75000000000000000       0.18750000000000000        0.0000000000000000     
  0.78125000000000000       0.18750000000000000        0.0000000000000000     
  0.81250000000000000       0.18750000000000000        0.0000000000000000     
  0.84375000000000000       0.18750000000000000        0.0000000000000000     
  0.87500000000000000       0.18750000000000000        0.0000000000000000     
  0.75000000000000000       0.21875000000000000        0.0000000000000000     
  0.78125000000000000       0.21875000000000000        0.0000000000000000     
  0.81250000000000000       0.21875000000000000        0.0000000000000000     
  0.84375000000000000       0.21875000000000000        0.0000000000000000     
  0.87500000000000000       0.21875000000000000        0.0000000000000000     
  0.75000000000000000       0.25000000000000000        0.0000000000000000     
  0.78125000000000000       0.25000000000000000        0.0000000000000000     
  0.81250000000000000       0.25000000000000000        0.0000000000000000     
  0.84375000000000000       0.25000000000000000        0.0000000000000000     
  0.87500000000000000       0.25000000000000000        0.0000000000000000     
  0.87500000000000000       0.12500000000000000        0.0000000000000000     
  0.90625000000000000       0.12500000000000000        0.0000000000000000     
  0.93750000000000000       0.12500000000000000        0.0000000000000000     
  0.96875000000000000       0.12500000000000000        0.0000000000000000     
   1.0000000000000000       0.12500000000000000        0.0000000000000000     
  0.87500000000000000       0.15625000000000000        0.0000000000000000     
  0.90625000000000000       0.15625000000000000        0.0000000000000000     
  0.93750000000000000       0.15625000000000000        0.0000000000000000     
  0.96875000000000000       0.15625000000000000        0.0000000000000000     
   1.0000000000000000       0.15625000000000000        0.0000000000000000     
  0.87500000000000000       0.18750000000000000        0.0000000000000000     
  0.90625000000000000       0.18750000000000000        0.0000000000000000     
  0.93750000000000000       0.18750000000000000        0.0000000000000000     
  0.96875000000000000       0.18750000000000000        0.0000000000000000     
   1.0000000000000000       0.18750000000000000        0.0000000000000000     
  0.87500000000000000       0.21875000000000000        0.0000000000000000     
  0.90625000000000000       0.21875000000000000        0.0000000000000000     
  0.93750000000000000       0.21875000000000000        0.0000000000000000     
  0.96875000000000000       0.21875000000000000        0.0000000000000000     
   1.0000000000000000       0.21875000000000000        0.0000000000000000     
  0.87500000000000000       0.25000000000000000        0.0000000000000000     
  0.90625000000000000       0.25000000000000000        0.0000000000000000     
  0.93750000000000000       0.25000000000000000        0.0000000000000000     
  0.96875000000000000       0.25000000000000000        0.0000000000000000     
   1.0000000000000000       0.25000000000000000        0.0000000000000000     
   0.0000000000000000       0.25000000000000000        0.0000000000000000     
   3.1250000000000000E-002  0.25000000000000000        0.0000000000000000     
   6.2500000000000000E-002  0.25000000000000000        0.0000000000000000     
   9.3750000000000000E-002  0.25000000000000000        0.0000000000000000     
  0.12500000000000000       0.25000000000000000        0.0000000000000000     
   0.0000000000000000       0.28125000000000000        0.0000000000000000     
   3.1250000000000000E-002  0.28125000000000000        0.0000000000000000     
   6.2500000000000000E-002  0.28125000000000000        0.0000000000000000     
   9.3750000000000000E-002  0.28125000000000000        0.0000000000000000     
  0.12500000000000000       0.28125000000000000        0.0000000000000000     
   0.0000000000000000       0.31250000000000000        0.0000000000000000     
   3.1250000000000000E-002  0.31250000000000000        0.0000000000000000     
   6.2500000000000000E-002  0.31250000000000000        0.0000000000000000     
   9.3750000000000000E-002  0.31250000000000000        0.0000000000000000     
  0.12500000000000000       0.31250000000000000        0.0000000000000000     
   0.0000000000000000       0.34375000000000000        0.0000000000000000     
   3.1250000000000000E-002  0.34375000000000000        0.0000000000000000     
   6.2500000000000000E-002  0.34375000000000000        0.0000000000000000     
   9.3750000000000000E-002  0.34375000000000000        0.0000000000000000     
  0.12500000000000000       0.34375000000000000        0.0000000000000000     
   0.0000000000000000       0.37500000000000000        0.0000000000000000     
   3.1250000000000000E-002  0.37500000000000000        0.0000000000000000     
   6.2500000000000000E-002  0.37500000000000000        0.0000000000000000     
   9.3750000000000000E-002  0.37500000000000000        0.0000000000000000     
  0.12500000000000000       0.37500000000000000        0.0000000000000000     
  0.12500000000000000       0.25000000000000000        0.0000000000000000     
  0.15625000000000000       0.25000000000000000        0.0000000000000000     
  0.18750000000000000       0.25000000000000000        0.0000000000000000     
  0.21875000000000000       0.25000000000000000        0.0000000000000000     
  0.25000000000000000       0.25000000000000000        0.0000000000000000     
  0.12500000000000000       0.28125000000000000        0.0000000000000000     
  0.15625000000000000       0.28125000000000000        0.0000000000000000     
  0.18750000000000000       0.28125000000000000        0.0000000000000000     
  0.21875000000000000       0.28125000000000000        0.0000000000000000     
  0.25000000000000000       0.28125000000000000        0.0000000000000000     
  0.12500000000000000       0.31250000000000000        0.0000000000000000     
  0.15625000000000000       0.31250000000000000        0.0000000000000000     
  0.18750000000000000       0.31250000000000000        0.0000000000000000     
  0.21875000000000000       0.31250000000000000        0.0000000000000000     
  0.25000000000000000       0.31250000000000000        0.0000000000000000     
  0.12500000000000000       0.34375000000000000        0.0000000000000000     
  0.15625000000000000       0.34375000000000000        0.0000000000000000     
  0.18750000000000000       0.34375000000000000        0.0000000000000000     
  0.21875000000000000       0.34375000000000000        0.0000000000000000     
  0.25000000000000000       0.34375000000000000        0.0000000000000000     
  0.12500000000000000       0.37500000000000000        0.0000000000000000     
  0.15625000000000000       0.37500000000000000        0.0000000000000000     
  0.18750000000000000       0.37500000000000000        0.0000000000000000     
  0.21875000000000000       0.37500000000000000        0.0000000000000000     
  0.25000000000000000       0.37500000000000000        0.0000000000000000     
  0.25000000000000000       0.25000000000000000        0.0000000000000000     
  0.28125000000000000       0.25000000000000000        0.0000000000000000     
  0.31250000000000000       0.25000000000000000        0.0000000000000000     
  0.34375000000000000       0.25000000000000000        0.0000000000000000     
  0.37500000000000000       0.25000000000000000        0.0000000000000000     
  0.25000000000000000       0.28125000000000000        0.0000000000000000     
  0.28125000000000000       0.28125000000000000        0.0000000000000000     
  0.31250000000000000       0.28125000000000000        0.0000000000000000     
  0.34375000000000000       0.28125000000000000        0.0000000000000000     
  0.37500000000000000       0.28125000000000000        0.0000000000000000     
  0.25000000000000000       0.31250000000000000        0.0000000000000000     
  0.28125000000000000       0.31250000000000000        0.0000000000000000     
  0.31250000000000000       0.31250000000000000        0.0000000000000000     
  0.34375000000000000       0.31250000000000000        0.0000000000000000     
  0.37500000000000000       0.31250000000000000        0.0000000000000000     
  0.25000000000000000       0.34375000000000000        0.0000000000000000     
  0.28125000000000000       0.34375000000000000        0.0000000000000000     
  0.31250000000000000       0.34375000000000000        0.0000000000000000     
  0.34375000000000000       0.34375000000000000        0.0000000000000000     
  0.37500000000000000       0.34375000000000000        0.0000000000000000     
  0.25000000000000000       0.37500000000000000        0.0000000000000000     
  0.28125000000000000       0.37500000000000000        0.0000000000000000     
  0.31250000000000000       0.37500000000000000        0.0000000000000000     
  0.34375000000000000       0.37500000000000000        0.0000000000000000     
  0.37500000000000000       0.37500000000000000        0.0000000000000000     
  0.37500000000000000       0.25000000000000000        0.0000000000000000     
  0.40625000000000000       0.25000000000000000        0.0000000000000000     
  0.43750000000000000       0.25000000000000000        0.0000000000000000     
  0.46875000000000000       0.25000000000000000        0.0000000000000000     
  0.50000000000000000       0.25000000000000000        0.0000000000000000     
  0.37500000000000000       0.28125000000000000        0.0000000000000000     
  0.40625000000000000       0.28125000000000000        0.0000000000000000     
  0.43750000000000000       0.28125000000000000        0.0000000000000000     
  0.46875000000000000       0.28125000000000000        0.0000000000000000     
  0.50000000000000000       0.28125000000000000        0.0000000000000000     
  0.37500000000000000       0.31250000000000000        0.0000000000000000     
  0.40625000000000000       0.31250000000000000        0.0000000000000000     
  0.43750000000000000       0.31250000000000000        0.0000000000000000     
  0.46875000000000000       0.31250000000000000        0.0000000000000000     
  0.50000000000000000       0.31250000000000000        0.0000000000000000     
  0.37500000000000000       0.34375000000000000        0.0000000000000000     
  0.40625000000000000       0.34375000000000000        0.0000000000000000     
  0.43750000000000000       0.34375000000000000        0.0000000000000000     
  0.46875000000000000       0.34375000000000000        0.0000000000000000     
  0.50000000000000000       0.34375000000000000        0.0000000000000000     
  0.37500000000000000       0.37500000000000000        0.0000000000000000     
  0.40625000000000000       0.37500000000000000        0.0000000000000000     
  0.43750000000000000       0.37500000000000000        0.0000000000000000     
  0.46875000000000000       0.37500000000000000        0.0000000000000000     
  0.50000000000000000       0.37500000000000000        0.0000000000000000     
  0.50000000000000000       0.25000000000000000        0.0000000000000000     
  0.53125000000000000       0.25000000000000000        0.0000000000000000     
  0.56250000000000000       0.25000000000000000        0.0000000000000000     
  0.59375000000000000       0.25000000000000000        0.0000000000000000     
  0.62500000000000000       0.25000000000000000        0.0000000000000000     
  0.50000000000000000       0.28125000000000000        0.0000000000000000     
  0.53125000000000000       0.28125000000000000        0.0000000000000000     
  0.56250000000000000       0.28125000000000000        0.0000000000000000     
  0.59375000000000000       0.28125000000000000        0.0000000000000000     
  0.62500000000000000       0.28125000000000000        0.0000000000000000     
  0.50000000000000000       0.31250000000000000        0.0000000000000000     
  0.53125000000000000       0.31250000000000000        0.0000000000000000     
  0.56250000000000000       0.31250000000000000        0.0000000000000000     
  0.59375000000000000       0.31250000000000000        0.0000000000000000     
  0.62500000000000000       0.31250000000000000        0.0000000000000000     
  0.50000000000000000       0.34375000000000000        0.0000000000000000     
  0.53125000000000000       0.34375000000000000        0.0000000000000000     
  0.56250000000000000       0.34375000000000000        0.0000000000000000     
  0.59375000000000000       0.34375000000000000        0.0000000000000000     
  0.62500000000000000       0.34375000000000000        0.0000000000000000     
  0.50000000000000000       0.37500000000000000        0.0000000000000000     
  0.53125000000000000       0.37500000000000000        0.0000000000000000     
  0.56250000000000000       0.37500000000000000        0.0000000000000000     
  0.59375000000000000       0.37500000000000000        0.0000000000000000     
  0.62500000000000000       0.37500000000000000        0.0000000000000000     
  0.62500000000000000       0.25000000000000000        0.0000000000000000     
  0.65625000000000000       0.25000000000000000        0.0000000000000000     
  0.68750000000000000       0.25000000000000000        0.0000000000000000     
  0.71875000000000000       0.25000000000000000        0.0000000000000000     
  0.75000000000000000       0.25000000000000000        0.0000000000000000     
  0.62500000000000000       0.28125000000000000        0.0000000000000000     
  0.65625000000000000       0.28125000000000000        0.0000000000000000     
  0.68750000000000000       0.28125000000000000        0.0000000000000000     
  0.71875000000000000       0.28125000000000000        0.0000000000000000     
  0.75000000000000000       0.28125000000000000        0.0000000000000000     
  0.62500000000000000       0.31250000000000000        0.0000000000000000     
  0.65625000000000000       0.31250000000000000        0.0000000000000000     
  0.68750000000000000       0.31250000000000000        0.0000000000000000     
  0.71875000000000000       0.31250000000000000        0.0000000000000000     
  0.75000000000000000       0.31250000000000000        0.0000000000000000     
  0.62500000000000000       0.34375000000000000        0.0000000000000000     
  0.65625000000000000       0.34375000000000000        0.0000000000000000     
  0.68750000000000000       0.34375000000000000        0.0000000000000000     
  0.71875000000000000       0.34375000000000000        0.0000000000000000     
  0.75000000000000000       0.34375000000000000        0.0000000000000000     
  0.62500000000000000       0.37500000000000000        0.0000000000000000     
  0.65625000000000000       0.37500000000000000        0.0000000000000000     
  0.68750000000000000       0.37500000000000000        0.0000000000000000     
  0.71875000000000000       0.37500000000000000        0.0000000000000000     
  0.75000000000000000       0.37500000000000000        0.0000000000000000     
  0.75000000000000000       0.25000000000000000        0.0000000000000000     
  0.78125000000000000       0.25000000000000000        0.0000000000000000     
  0.81250000000000000       0.25000000000000000        0.0000000000000000     
  0.84375000000000000       0.25000000000000000        0.0000000000000000     
  0.87500000000000000       0.25000000000000000        0.0000000000000000     
  0.75000000000000000       0.28125000000000000        0.0000000000000000     
  0.78125000000000000       0.28125000000000000        0.0000000000000000     
  0.81250000000000000       0.28125000000000000        0.0000000000000000     
  0.84375000000000000       0.28125000000000000        0.0000000000000000     
  0.87500000000000000       0.28125000000000000        0.0000000000000000     
  0.75000000000000000       0.31250000000000000        0.0000000000000000     
  0.78125000000000000       0.31250000000000000        0.0000000000000000     
  0.81250000000000000       0.31250000000000000        0.0000000000000000     
  0.84375000000000000       0.31250000000000000        0.0000000000000000     
  0.87500000000000000       0.31250000000000000        0.0000000000000000     
  0.75000000000000000       0.34375000000000000        0.0000000000000000     
  0.78125000000000000       0.34375000000000000        0.0000000000000000     
  0.81250000000000000       0.34375000000000000        0.0000000000000000     
  0.84375000000000000       0.34375000000000000        0.0000000000000000     
  0.87500000000000000       0.34375000000000000        0.0000000000000000     
  0.75000000000000000       0.37500000000000000        0.0000000000000000     
  0.78125000000000000       0.37500000000000000        0.0000000000000000     
  0.81250000000000000       0.37500000000000000        0.0000000000000000     
  0.84375000000000000       0.37500000000000000        0.0000000000000000     
  0.87500000000000000       0.37500000000000000        0.0000000000000000     
  0.87500000000000000       0.25000000000000000        0.0000000000000000     
  0.90625000000000000       0.25000000000000000        0.0000000000000000     
  0.93750000000000000       0.25000000000000000        0.0000000000000000     
  0.96875000000000000       0.25000000000000000        0.0000000000000000     
   1.0000000000000000       0.25000000000000000        0.0000000000000000     
  0.87500000000000000       0.28125000000000000        0.0000000000000000     
  0.90625000000000000       0.28125000000000000        0.0000000000000000     
  0.93750000000000000       0.28125000000000000        0.0000000000000000     
  0.96875000000000000       0.28125000000000000        0.0000000000000000     
   1.0000000000000000       0.28125000000000000        0.0000000000000000     
  0.87500000000000000       0.31250000000000000        0.0000000000000000     
  0.90625000000000000       0.31250000000000000        0.0000000000000000     
  0.93750000000000000       0.31250000000000000        0.0000000000000000     
  0.96875000000000000       0.31250000000000000        0.0000000000000000     
   1.0000000000000000       0.31250000000000000        0.0000000000000000     
  0.87500000000000000       0.34375000000000000        0.0000000000000000     
  0.90625000000000000       0.34375000000000000        0.0000000000000000     
  0.93750000000000000       0.34375000000000000        0.0000000000000000     
  0.96875000000000000       0.34375000000000000        0.0000000000000000     
   1.0000000000000000       0.34375000000000000        0.0000000000000000     
  0.87500000000000000       0.37500000000000000        0.0000000000000000     
  0.90625000000000000       0.37500000000000000        0.0000000000000000     
  0.93750000000000000       0.37500000000000000        0.0000000000000000     
  0.96875000000000000       0.37500000000000000        0.0000000000000000     
   1.0000000000000000       0.37500000000000000        0.0000000000000000     
   0.0000000000000000       0.37500000000000000        0.0000000000000000     
   3.1250000000000000E-002  0.37500000000000000        0.0000000000000000     
   6.2500000000000000E-002  0.37500000000000000        0.0000000000000000     
   9.3750000000000000E-002  0.37500000000000000        0.0000000000000000     
  0.12500000000000000       0.37500000000000000        0.0000000000000000     
   0.0000000000000000       0.40625000000000000        0.0000000000000000     
   3.1250000000000000E-002  0.40625000000000000        0.0000000000000000     
   6.2500000000000000E-002  0.40625000000000000        0.0000000000000000     
   9.3750000000000000E-002  0.40625000000000000        0.0000000000000000     
  0.12500000000000000       0.40625000000000000        0.0000000000000000     
   0.0000000000000000       0.43750000000000000        0.0000000000000000     
   3.1250000000000000E-002  0.43750000000000000        0.0000000000000000     
   6.2500000000000000E-002  0.43750000000000000        0.0000000000000000     
   9.3750000000000000E-002  0.43750000000000000        0.0000000000000000     
  0.12500000000000000       0.43750000000000000        0.0000000000000000     
   0.0000000000000000       0.46875000000000000        0.0000000000000000     
   3.1250000000000000E-002  0.46875000000000000        0.0000000000000000     
   6.2500000000000000E-002  0.46875000000000000        0.0000000000000000     
   9.3750000000000000E-002  0.46875000000000000        0.0000000000000000     
  0.12500000000000000       0.46875000000000000        0.0000000000000000     
   0.0000000000000000       0.50000000000000000        0.0000000000000000     
   3.1250000000000000E-002  0.50000000000000000        0.0000000000000000     
   6.2500000000000000E-002  0.50000000000000000        0.0000000000000000     
   9.3750000000000000E-002  0.50000000000000000        0.0000000000000000     
  0.12500000000000000       0.50000000000000000        0.0000000000000000     
  0.12500000000000000       0.37500000000000000        0.0000000000000000     
  0.15625000000000000       0.37500000000000000        0.0000000000000000     
  0.18750000000000000       0.37500000000000000        0.0000000000000000     
  0.21875000000000000       0.37500000000000000        0.0000000000000000     
  0.25000000000000000       0.37500000000000000        0.0000000000000000     
  0.12500000000000000       0.40625000000000000        0.0000000000000000     
  0.15625000000000000       0.40625000000000000        0.0000000000000000     
  0.18750000000000000       0.40625000000000000        0.0000000000000000     
  0.21875000000000000       0.40625000000000000        0.0000000000000000     
  0.25000000000000000       0.40625000000000000        0.0000000000000000     
  0.12500000000000000       0.43750000000000000        0.0000000000000000     
  0.15625000000000000       0.43750000000000000        0.0000000000000000     
  0.18750000000000000       0.43750000000000000        0.0000000000000000     
  0.21875000000000000       0.43750000000000000        0.0000000000000000     
  0.25000000000000000       0.43750000000000000        0.0000000000000000     
  0.12500000000000000       0.46875000000000000        0.0000000000000000     
  0.15625000000000000       0.46875000000000000        0.0000000000000000     
  0.18750000000000000       0.46875000000000000        0.0000000000000000     
  0.21875000000000000       0.46875000000000000        0.0000000000000000     
  0.25000000000000000       0.46875000000000000        0.0000000000000000     
  0.12500000000000000       0.50000000000000000        0.0000000000000000     
  0.15625000000000000       0.50000000000000000        0.0000000000000000     
  0.18750000000000000       0.50000000000000000        0.0000000000000000     
  0.21875000000000000       0.50000000000000000        0.0000000000000000     
  0.25000000000000000       0.50000000000000000        0.0000000000000000     
  0.25000000000000000       0.37500000000000000        0.0000000000000000     
  0.28125000000000000       0.37500000000000000        0.0000000000000000     
  0.31250000000000000       0.37500000000000000        0.0000000000000000     
  0.34375000000000000       0.37500000000000000        0.0000000000000000     
  0.37500000000000000       0.37500000000000000        0.0000000000000000     
  0.25000000000000000       0.40625000000000000        0.0000000000000000     
  0.28125000000000000       0.40625000000000000        0.0000000000000000     
  0.31250000000000000       0.40625000000000000        0.0000000000000000     
  0.34375000000000000       0.40625000000000000        0.0000000000000000     
  0.37500000000000000       0.40625000000000000        0.0000000000000000     
  0.25000000000000000       0.43750000000000000        0.0000000000000000     
  0.28125000000000000       0.43750000000000000        0.0000000000000000     
  0.31250000000000000       0.43750000000000000        0.0000000000000000     
  0.34375000000000000       0.43750000000000000        0.0000000000000000     
  0.37500000000000000       0.43750000000000000        0.0000000000000000     
  0.25000000000000000       0.46875000000000000        0.0000000000000000     
  0.28125000000000000       0.46875000000000000        0.0000000000000000     
  0.31250000000000000       0.46875000000000000        0.0000000000000000     
  0.34375000000000000       0.46875000000000000        0.0000000000000000     
  0.37500000000000000       0.46875000000000000        0.0000000000000000     
  0.25000000000000000       0.50000000000000000        0.0000000000000000     
  0.28125000000000000       0.50000000000000000        0.0000000000000000     
  0.31250000000000000       0.50000000000000000        0.0000000000000000     
  0.34375000000000000       0.50000000000000000        0.0000000000000000     
  0.37500000000000000       0.50000000000000000        0.0000000000000000     
  0.37500000000000000       0.37500000000000000        0.0000000000000000     
  0.40625000000000000       0.37500000000000000        0.0000000000000000     
  0.43750000000000000       0.37500000000000000        0.0000000000000000     
  0.46875000000000000       0.37500000000000000        0.0000000000000000     
  0.50000000000000000       0.37500000000000000        0.0000000000000000     
  0.37500000000000000       0.40625000000000000        0.0000000000000000     
  0.40625000000000000       0.40625000000000000        0.0000000000000000     
  0.43750000000000000       0.40625000000000000        0.0000000000000000     
  0.46875000000000000       0.40625000000000000        0.0000000000000000     
  0.50000000000000000       0.40625000000000000        0.0000000000000000     
  0.37500000000000000       0.43750000000000000        0.0000000000000000     
  0.40625000000000000       0.43750000000000000        0.0000000000000000     
  0.43750000000000000       0.43750000000000000        0.0000000000000000     
  0.46875000000000000       0.43750000000000000        0.0000000000000000     
  0.50000000000000000       0.43750000000000000        0.0000000000000000     
  0.37500000000000000       0.46875000000000000        0.0000000000000000     
  0.40625000000000000       0.46875000000000000        0.0000000000000000     
  0.43750000000000000       0.46875000000000000        0.0000000000000000     
  0.46875000000000000       0.46875000000000000        0.0000000000000000     
  0.50000000000000000       0.46875000000000000        0.0000000000000000     
  0.37500000000000000       0.50000000000000000        0.0000000000000000     
  0.40625000000000000       0.50000000000000000        0.0000000000000000     
  0.43750000000000000       0.50000000000000000        0.0000000000000000     
  0.46875000000000000       0.50000000000000000        0.0000000000000000     
  0.50000000000000000       0.50000000000000000        0.0000000000000000     
  0.50000000000000000       0.37500000000000000        0.0000000000000000     
  0.53125000000000000       0.37500000000000000        0.0000000000000000     
  0.56250000000000000       0.37500000000000000        0.0000000000000000     
  0.59375000000000000       0.37500000000000000        0.0000000000000000     
  0.62500000000000000       0.37500000000000000        0.0000000000000000     
  0.50000000000000000       0.40625000000000000        0.0000000000000000     
  0.53125000000000000       0.40625000000000000        0.0000000000000000     
  0.56250000000000000       0.40625000000000000        0.0000000000000000     
  0.59375000000000000       0.40625000000000000        0.0000000000000000     
  0.62500000000000000       0.40625000000000000        0.0000000000000000     
  0.50000000000000000       0.43750000000000000        0.0000000000000000     
  0.53125000000000000       0.43750000000000000        0.0000000000000000     
  0.56250000000000000       0.43750000000000000        0.0000000000000000     
  0.59375000000000000       0.43750000000000000        0.0000000000000000     
  0.62500000000000000       0.43750000000000000        0.0000000000000000     
  0.50000000000000000       0.46875000000000000        0.0000000000000000     
  0.53125000000000000       0.46875000000000000        0.0000000000000000     
  0.56250000000000000       0.46875000000000000        0.0000000000000000     
  0.59375000000000000       0.46875000000000000        0.0000000000000000     
  0.62500000000000000       0.46875000000000000        0.0000000000000000     
  0.50000000000000000       0.50000000000000000        0.0000000000000000     
  0.53125000000000000       0.50000000000000000        0.0000000000000000     
  0.56250000000000000       0.50000000000000000        0.0000000000000000     
  0.59375000000000000       0.50000000000000000        0.0000000000000000     
  0.62500000000000000       0.50000000000000000        0.0000000000000000     
  0.62500000000000000       0.37500000000000000        0.0000000000000000     
  0.65625000000000000       0.37500000000000000        0.0000000000000000     
  0.68750000000000000       0.37500000000000000        0.0000000000000000     
  0.71875000000000000       0.37500000000000000        0.0000000000000000     
  0.75000000000000000       0.37500000000000000        0.0000000000000000     
  0.62500000000000000       0.40625000000000000        0.0000000000000000     
  0.65625000000000000       0.40625000000000000        0.0000000000000000     
  0.68750000000000000       0.40625000000000000        0.0000000000000000     
  0.71875000000000000       0.40625000000000000        0.0000000000000000     
  0.75000000000000000       0.40625000000000000        0.0000000000000000     
  0.62500000000000000       0.43750000000000000        0.0000000000000000     
  0.65625000000000000       0.43750000000000000        0.0000000000000000     
  0.68750000000000000       0.43750000000000000        0.0000000000000000     
  0.71875000000000000       0.43750000000000000        0.0000000000000000     
  0.75000000000000000       0.43750000000000000        0.0000000000000000     
  0.62500000000000000       0.46875000000000000        0.0000000000000000     
  0.65625000000000000       0.46875000000000000        0.0000000000000000     
  0.68750000000000000       0.46875000000000000        0.0000000000000000     
  0.71875000000000000       0.46875000000000000        0.0000000000000000     
  0.75000000000000000       0.46875000000000000        0.0000000000000000     
  0.62500000000000000       0.50000000000000000        0.0000000000000000     
  0.65625000000000000       0.50000000000000000        0.0000000000000000     
  0.68750000000000000       0.50000000000000000        0.0000000000000000     
  0.71875000000000000       0.50000000000000000        0.0000000000000000     
  0.75000000000000000       0.50000000000000000        0.0000000000000000     
  0.75000000000000000       0.37500000000000000        0.0000000000000000     
  0.78125000000000000       0.37500000000000000        0.0000000000000000     
  0.81250000000000000       0.37500000000000000        0.0000000000000000     
  0.84375000000000000       0.37500000000000000        0.0000000000000000     
  0.87500000000000000       0.37500000000000000        0.0000000000000000     
  0.75000000000000000       0.40625000000000000        0.0000000000000000     
  0.78125000000000000       0.40625000000000000        0.0000000000000000     
  0.81250000000000000       0.40625000000000000        0.0000000000000000     
  0.84375000000000000       0.40625000000000000        0.0000000000000000     
  0.87500000000000000       0.40625000000000000        0.0000000000000000     
  0.75000000000000000       0.43750000000000000        0.0000000000000000     
  0.78125000000000000       0.43750000000000000        0.0000000000000000     
  0.81250000000000000       0.43750000000000000        0.0000000000000000     
  0.84375000000000000       0.43750000000000000        0.0000000000000000     
  0.87500000000000000       0.43750000000000000        0.0000000000000000     
  0.75000000000000000       0.46875000000000000        0.0000000000000000     
  0.78125000000000000       0.46875000000000000        0.0000000000000000     
  0.81250000000000000       0.46875000000000000        0.0000000000000000     
  0.84375000000000000       0.46875000000000000        0.0000000000000000     
  0.87500000000000000       0.46875000000000000        0.0000000000000000     
  0.75000000000000000       0.50000000000000000        0.0000000000000000     
  0.78125000000000000       0.50000000000000000        0.0000000000000000     
  0.81250000000000000       0.50000000000000000        0.0000000000000000     
  0.84375000000000000       0.50000000000000000        0.0000000000000000     
  0.87500000000000000       0.50000000000000000        0.0000000000000000     
  0.87500000000000000       0.37500000000000000        0.0000000000000000     
  0.90625000000000000       0.37500000000000000        0.0000000000000000     
  0.93750000000000000       0.37500000000000000        0.0000000000000000     
  0.96875000000000000       0.37500000000000000        0.0000000000000000     
   1.0000000000000000       0.37500000000000000        0.0000000000000000     
  0.87500000000000000       0.40625000000000000        0.0000000000000000     
  0.90625000000000000       0.40625000000000000        0.0000000000000000     
  0.93750000000000000       0.40625000000000000        0.0000000000000000     
  0.96875000000000000       0.40625000000000000        0.0000000000000000     
   1.0000000000000000       0.40625000000000000        0.0000000000000000     
  0.87500000000000000       0.43750000000000000        0.0000000000000000     
  0.90625000000000000       0.43750000000000000        0.0000000000000000     
  0.93750000000000000       0.43750000000000000        0.0000000000000000     
  0.96875000000000000       0.43750000000000000        0.0000000000000000     
   1.0000000000000000       0.43750000000000000        0.0000000000000000     
  0.87500000000000000       0.46875000000000000        0.0000000000000000     
  0.90625000000000000       0.46875000000000000        0.0000000000000000     
  0.93750000000000000       0.46875000000000000        0.0000000000000000     
  0.96875000000000000       0.46875000000000000        0.0000000000000000     
   1.0000000000000000       0.46875000000000000        0.0000000000000000     
  0.87500000000000000       0.50000000000000000        0.0000000000000000     
  0.90625000000000000       0.50000000000000000        0.0000000000000000     
  0.93750000000000000       0.50000000000000000        0.0000000000000000     
  0.96875000000000000       0.50000000000000000        0.0000000000000000     
   1.0000000000000000       0.50000000000000000        0.0000000000000000     
   0.0000000000000000       0.50000000000000000        0.0000000000000000     
   3.1250000000000000E-002  0.50000000000000000        0.0000000000000000     
   6.2500000000000000E-002  0.50000000000000000        0.0000000000000000     
   9.3750000000000000E-002  0.50000000000000000        0.0000000000000000     
  0.12500000000000000       0.50000000000000000        0.0000000000000000     
   0.0000000000000000       0.53125000000000000        0.0000000000000000     
   3.1250000000000000E-002  0.53125000000000000        0.0000000000000000     
   6.2500000000000000E-002  0.53125000000000000        0.0000000000000000     
   9.3750000000000000E-002  0.53125000000000000        0.0000000000000000     
  0.12500000000000000       0.53125000000000000        0.0000000000000000     
   0.0000000000000000       0.56250000000000000        0.0000000000000000     
   3.1250000000000000E-002  0.56250000000000000        0.0000000000000000     
   6.2500000000000000E-002  0.56250000000000000        0.0000000000000000     
   9.3750000000000000E-002  0.56250000000000000        0.0000000000000000     
  0.12500000000000000       0.56250000000000000        0.0000000000000000     
   0.0000000000000000       0.59375000000000000        0.0000000000000000     
   3.1250000000000000E-002  0.59375000000000000        0.0000000000000000     
   6.2500000000000000E-002  0.59375000000000000        0.0000000000000000     
   9.3750000000000000E-002  0.59375000000000000        0.0000000000000000     
  0.12500000000000000       0.59375000000000000        0.0000000000000000     
   0.0000000000000000       0.62500000000000000        0.0000000000000000     
   3.1250000000000000E-002  0.62500000000000000        0.0000000000000000     
   6.2500000000000000E-002  0.62500000000000000        0.0000000000000000     
   9.3750000000000000E-002  0.62500000000000000        0.0000000000000000     
  0.12500000000000000       0.62500000000000000        0.0000000000000000     
  0.12500000000000000       0.50000000000000000        0.0000000000000000     
  0.15625000000000000       0.50000000000000000        0.0000000000000000     
  0.18750000000000000       0.50000000000000000        0.0000000000000000     
  0.21875000000000000       0.50000000000000000        0.0000000000000000     
  0.25000000000000000       0.50000000000000000        0.0000000000000000     
  0.12500000000000000       0.53125000000000000        0.0000000000000000     
  0.15625000000000000       0.53125000000000000        0.0000000000000000     
  0.18750000000000000       0.53125000000000000        0.0000000000000000     
  0.21875000000000000       0.53125000000000000        0.0000000000000000     
  0.25000000000000000       0.53125000000000000        0.0000000000000000     
  0.12500000000000000       0.56250000000000000        0.0000000000000000     
  0.15625000000000000       0.56250000000000000        0.0000000000000000     
  0.18750000000000000       0.56250000000000000        0.0000000000000000     
  0.21875000000000000       0.56250000000000000        0.0000000000000000     
  0.25000000000000000       0.56250000000000000        0.0000000000000000     
  0.12500000000000000       0.59375000000000000        0.0000000000000000     
  0.15625000000000000       0.59375000000000000        0.0000000000000000     
  0.18750000000000000       0.59375000000000000        0.0000000000000000     
  0.21875000000000000       0.59375000000000000        0.0000000000000000     
  0.25000000000000000       0.59375000000000000        0.0000000000000000     
  0.12500000000000000       0.62500000000000000        0.0000000000000000     
  0.15625000000000000       0.62500000000000000        0.0000000000000000     
  0.18750000000000000       0.62500000000000000        0.0000000000000000     
  0.21875000000000000       0.62500000000000000        0.0000000000000000     
  0.25000000000000000       0.62500000000000000        0.0000000000000000     
  0.25000000000000000       0.50000000000000000        0.0000000000000000     
  0.28125000000000000       0.50000000000000000        0.0000000000000000     
  0.31250000000000000       0.50000000000000000        0.0000000000000000     
  0.34375000000000000       0.50000000000000000        0.0000000000000000     
  0.37500000000000000       0.50000000000000000        0.0000000000000000     
  0.25000000000000000       0.53125000000000000        0.0000000000000000     
  0.28125000000000000       0.53125000000000000        0.0000000000000000     
  0.31250000000000000       0.53125000000000000        0.0000000000000000     
  0.34375000000000000       0.53125000000000000        0.0000000000000000     
  0.37500000000000000       0.53125000000000000        0.0000000000000000     
  0.25000000000000000       0.56250000000000000        0.0000000000000000     
  0.28125000000000000       0.56250000000000000        0.0000000000000000     
  0.31250000000000000       0.56250000000000000        0.0000000000000000     
  0.34375000000000000       0.56250000000000000        0.0000000000000000     
  0.37500000000000000       0.56250000000000000        0.0000000000000000     
  0.25000000000000000       0.59375000000000000        0.0000000000000000     
  0.28125000000000000       0.59375000000000000        0.0000000000000000     
  0.31250000000000000       0.59375000000000000        0.0000000000000000     
  0.34375000000000000       0.59375000000000000        0.0000000000000000     
  0.37500000000000000       0.59375000000000000        0.0000000000000000     
  0.25000000000000000       0.62500000000000000        0.0000000000000000     
  0.28125000000000000       0.62500000000000000        0.0000000000000000     
  0.31250000000000000       0.62500000000000000        0.0000000000000000     
  0.34375000000000000       0.62500000000000000        0.0000000000000000     
  0.37500000000000000       0.62500000000000000        0.0000000000000000     
  0.37500000000000000       0.50000000000000000        0.0000000000000000     
  0.40625000000000000       0.50000000000000000        0.0000000000000000     
  0.43750000000000000       0.50000000000000000        0.0000000000000000     
  0.46875000000000000       0.50000000000000000        0.0000000000000000     
  0.50000000000000000       0.50000000000000000        0.0000000000000000     
  0.37500000000000000       0.53125000000000000        0.0000000000000000     
  0.40625000000000000       0.53125000000000000        0.0000000000000000     
  0.43750000000000000       0.53125000000000000        0.0000000000000000     
  0.46875000000000000       0.53125000000000000        0.0000000000000000     
  0.50000000000000000       0.53125000000000000        0.0000000000000000     
  0.37500000000000000       0.56250000000000000        0.0000000000000000     
  0.40625000000000000       0.56250000000000000        0.0000000000000000     
  0.43750000000000000       0.56250000000000000        0.0000000000000000     
  0.46875000000000000       0.56250000000000000        0.0000000000000000     
  0.50000000000000000       0.56250000000000000        0.0000000000000000     
  0.37500000000000000       0.59375000000000000        0.0000000000000000     
  0.40625000000000000       0.59375000000000000        0.0000000000000000     
  0.43750000000000000       0.59375000000000000        0.0000000000000000     
  0.46875000000000000       0.59375000000000000        0.0000000000000000     
  0.50000000000000000       0.59375000000000000        0.0000000000000000     
  0.37500000000000000       0.62500000000000000        0.0000000000000000     
  0.40625000000000000       0.62500000000000000        0.0000000000000000     
  0.43750000000000000       0.62500000000000000        0.0000000000000000     
  0.46875000000000000       0.62500000000000000        0.0000000000000000     
  0.50000000000000000       0.62500000000000000        0.0000000000000000     
  0.50000000000000000       0.50000000000000000        0.0000000000000000     
  0.53125000000000000       0.50000000000000000        0.0000000000000000     
  0.56250000000000000       0.50000000000000000        0.0000000000000000     
  0.59375000000000000       0.50000000000000000        0.0000000000000000     
  0.62500000000000000       0.50000000000000000        0.0000000000000000     
  0.50000000000000000       0.53125000000000000        0.0000000000000000     
  0.53125000000000000       0.53125000000000000        0.0000000000000000     
  0.56250000000000000       0.53125000000000000        0.0000000000000000     
  0.59375000000000000       0.53125000000000000        0.0000000000000000     
  0.62500000000000000       0.53125000000000000        0.0000000000000000     
  0.50000000000000000       0.56250000000000000        0.0000000000000000     
  0.53125000000000000       0.56250000000000000        0.0000000000000000     
  0.56250000000000000       0.56250000000000000        0.0000000000000000     
  0.59375000000000000       0.56250000000000000        0.0000000000000000     
  0.62500000000000000       0.56250000000000000        0.0000000000000000     
  0.50000000000000000       0.59375000000000000        0.0000000000000000     
  0.53125000000000000       0.59375000000000000        0.0000000000000000     
  0.56250000000000000       0.59375000000000000        0.0000000000000000     
  0.59375000000000000       0.59375000000000000        0.0000000000000000     
  0.62500000000000000       0.59375000000000000        0.0000000000000000     
  0.50000000000000000       0.62500000000000000        0.0000000000000000     
  0.53125000000000000       0.62500000000000000        0.0000000000000000     
  0.56250000000000000       0.62500000000000000        0.0000000000000000     
  0.59375000000000000       0.62500000000000000        0.0000000000000000     
  0.62500000000000000       0.62500000000000000        0.0000000000000000     
  0.62500000000000000       0.50000000000000000        0.0000000000000000     
  0.65625000000000000       0.50000000000000000        0.0000000000000000     
  0.68750000000000000       0.50000000000000000        0.0000000000000000     
  0.71875000000000000       0.50000000000000000        0.0000000000000000     
  0.75000000000000000       0.50000000000000000        0.0000000000000000     
  0.62500000000000000       0.53125000000000000        0.0000000000000000     
  0.65625000000000000       0.53125000000000000        0.0000000000000000     
  0.68750000000000000       0.53125000000000000        0.0000000000000000     
  0.71875000000000000       0.53125000000000000        0.0000000000000000     
  0.75000000000000000       0.53125000000000000        0.0000000000000000     
  0.62500000000000000       0.56250000000000000        0.0000000000000000     
  0.65625000000000000       0.56250000000000000        0.0000000000000000     
  0.68750000000000000       0.56250000000000000        0.0000000000000000     
  0.71875000000000000       0.56250000000000000        0.0000000000000000     
  0.75000000000000000       0.56250000000000000        0.0000000000000000     
  0.62500000000000000       0.59375000000000000        0.0000000000000000     
  0.65625000000000000       0.59375000000000000        0.0000000000000000     
  0.68750000000000000       0.59375000000000000        0.0000000000000000     
  0.71875000000000000       0.59375000000000000        0.0000000000000000     
  0.75000000000000000       0.59375000000000000        0.0000000000000000     
  0.62500000000000000       0.62500000000000000        0.0000000000000000     
  0.65625000000000000       0.62500000000000000        0.0000000000000000     
  0.68750000000000000       0.62500000000000000        0.0000000000000000     
  0.71875000000000000       0.62500000000000000        0.0000000000000000     
  0.75000000000000000       0.62500000000000000        0.0000000000000000     
  0.75000000000000000       0.50000000000000000        0.0000000000000000     
  0.78125000000000000       0.50000000000000000        0.0000000000000000     
  0.81250000000000000       0.50000000000000000        0.0000000000000000     
  0.84375000000000000       0.50000000000000000        0.0000000000000000     
  0.87500000000000000       0.50000000000000000        0.0000000000000000     
  0.75000000000000000       0.53125000000000000        0.0000000000000000     
  0.78125000000000000       0.53125000000000000        0.0000000000000000     
  0.81250000000000000       0.53125000000000000        0.0000000000000000     
  0.84375000000000000       0.53125000000000000        0.0000000000000000     
  0.87500000000000000       0.53125000000000000        0.0000000000000000     
  0.75000000000000000       0.56250000000000000        0.0000000000000000     
  0.78125000000000000       0.56250000000000000        0.0000000000000000     
  0.81250000000000000       0.56250000000000000        0.0000000000000000     
  0.84375000000000000       0.56250000000000000        0.0000000000000000     
  0.87500000000000000       0.56250000000000000        0.0000000000000000     
  0.75000000000000000       0.59375000000000000        0.0000000000000000     
  0.78125000000000000       0.59375000000000000        0.0000000000000000     
  0.81250000000000000       0.59375000000000000        0.0000000000000000     
  0.84375000000000000       0.59375000000000000        0.0000000000000000     
  0.87500000000000000       0.59375000000000000        0.0000000000000000     
  0.75000000000000000       0.62500000000000000        0.0000000000000000     
  0.78125000000000000       0.62500000000000000        0.0000000000000000     
  0.81250000000000000       0.62500000000000000        0.0000000000000000     
  0.84375000000000000       0.62500000000000000        0.0000000000000000     
  0.87500000000000000       0.62500000000000000        0.0000000000000000     
  0.87500000000000000       0.50000000000000000        0.0000000000000000     
  0.90625000000000000       0.50000000000000000        0.0000000000000000     
  0.93750000000000000       0.50000000000000000        0.0000000000000000     
  0.96875000000000000       0.50000000000000000        0.0000000000000000     
   1.0000000000000000       0.50000000000000000        0.0000000000000000     
  0.87500000000000000       0.53125000000000000        0.0000000000000000     
  0.90625000000000000       0.53125000000000000        0.0000000000000000     
  0.93750000000000000       0.53125000000000000        0.0000000000000000     
  0.96875000000000000       0.53125000000000000        0.0000000000000000     
   1.0000000000000000       0.53125000000000000        0.0000000000000000     
  0.87500000000000000       0.56250000000000000        0.0000000000000000     
  0.90625000000000000       0.56250000000000000        0.0000000000000000     
  0.93750000000000000       0.56250000000000000        0.0000000000000000     
  0.96875000000000000       0.56250000000000000        0.0000000000000000     
   1.0000000000000000       0.56250000000000000        0.0000000000000000     
  0.87500000000000000       0.59375000000000000        0.0000000000000000     
  0.90625000000000000       0.59375000000000000        0.0000000000000000     
  0.93750000000000000       0.59375000000000000        0.0000000000000000     
  0.96875000000000000       0.59375000000000000        0.0000000000000000     
   1.0000000000000000       0.59375000000000000        0.0000000000000000     
  0.87500000000000000       0.62500000000000000        0.0000000000000000     
  0.90625000000000000       0.62500000000000000        0.0000000000000000     
  0.93750000000000000       0.62500000000000000        0.0000000000000000     
  0.96875000000000000       0.62500000000000000        0.0000000000000000     
   1.0000000000000000       0.62500000000000000        0.0000000000000000     
   0.0000000000000000       0.62500000000000000        0.0000000000000000     
   3.1250000000000000E-002  0.62500000000000000        0.0000000000000000     
   6.2500000000000000E-002  0.62500000000000000        0.0000000000000000     
   9.3750000000000000E-002  0.62500000000000000        0.0000000000000000     
  0.12500000000000000       0.62500000000000000        0.0000000000000000     
   0.0000000000000000       0.65625000000000000        0.0000000000000000     
   3.1250000000000000E-002  0.65625000000000000        0.0000000000000000     
   6.2500000000000000E-002  0.65625000000000000        0.0000000000000000     
   9.3750000000000000E-002  0.65625000000000000        0.0000000000000000     
  0.12500000000000000       0.65625000000000000        0.0000000000000000     
   0.0000000000000000       0.68750000000000000        0.0000000000000000     
   3.1250000000000000E-002  0.68750000000000000        0.0000000000000000     
   6.2500000000000000E-002  0.68750000000000000        0.0000000000000000     
   9.3750000000000000E-002  0.68750000000000000        0.0000000000000000     
  0.12500000000000000       0.68750000000000000        0.0000000000000000     
   0.0000000000000000       0.71875000000000000        0.0000000000000000     
   3.1250000000000000E-002  0.71875000000000000        0.0000000000000000     
   6.2500000000000000E-002  0.71875000000000000        0.0000000000000000     
   9.3750000000000000E-002  0.71875000000000000        0.0000000000000000     
  0.12500000000000000       0.71875000000000000        0.0000000000000000     
   0.0000000000000000       0.75000000000000000        0.0000000000000000     
   3.1250000000000000E-002  0.75000000000000000        0.0000000000000000     
   6.2500000000000000E-002  0.75000000000000000        0.0000000000000000     
   9.3750000000000000E-002  0.75000000000000000        0.0000000000000000     
  0.12500000000000000       0.75000000000000000        0.0000000000000000     
  0.12500000000000000       0.62500000000000000        0.0000000000000000     
  0.15625000000000000       0.62500000000000000        0.0000000000000000     
  0.18750000000000000       0.62500000000000000        0.0000000000000000     
  0.21875000000000000       0.62500000000000000        0.0000000000000000     
  0.25000000000000000       0.62500000000000000        0.0000000000000000     
  0.12500000000000000       0.65625000000000000        0.0000000000000000     
  0.15625000000000000       0.65625000000000000        0.0000000000000000     
  0.18750000000000000       0.65625000000000000        0.0000000000000000     
  0.21875000000000000       0.65625000000000000        0.0000000000000000     
  0.25000000000000000       0.65625000000000000        0.0000000000000000     
  0.12500000000000000       0.68750000000000000        0.0000000000000000     
  0.15625000000000000       0.68750000000000000        0.0000000000000000     
  0.18750000000000000       0.68750000000000000        0.0000000000000000     
  0.21875000000000000       0.68750000000000000        0.0000000000000000     
  0.25000000000000000       0.68750000000000000        0.0000000000000000     
  0.12500000000000000       0.71875000000000000        0.0000000000000000     
  0.15625000000000000       0.71875000000000000        0.0000000000000000     
  0.18750000000000000       0.71875000000000000        0.0000000000000000     
  0.21875000000000000       0.71875000000000000        0.0000000000000000     
  0.25000000000000000       0.71875000000000000        0.0000000000000000     
  0.12500000000000000       0.75000000000000000        0.0000000000000000     
  0.15625000000000000       0.75000000000000000        0.0000000000000000     
  0.18750000000000000       0.75000000000000000        0.0000000000000000     
  0.21875000000000000       0.75000000000000000        0.0000000000000000     
  0.25000000000000000       0.75000000000000000        0.0000000000000000     
  0.25000000000000000       0.62500000000000000        0.0000000000000000     
  0.28125000000000000       0.62500000000000000        0.0000000000000000     
  0.31250000000000000       0.62500000000000000        0.0000000000000000     
  0.34375000000000000       0.62500000000000000        0.0000000000000000     
  0.37500000000000000       0.62500000000000000        0.0000000000000000     
  0.25000000000000000       0.65625000000000000        0.0000000000000000     
  0.28125000000000000       0.65625000000000000        0.0000000000000000     
  0.31250000000000000       0.65625000000000000        0.0000000000000000     
  0.34375000000000000       0.65625000000000000        0.0000000000000000     
  0.37500000000000000       0.65625000000000000        0.0000000000000000     
  0.25000000000000000       0.68750000000000000        0.0000000000000000     
  0.28125000000000000       0.68750000000000000        0.0000000000000000     
  0.31250000000000000       0.68750000000000000        0.0000000000000000     
  0.34375000000000000       0.68750000000000000        0.0000000000000000     
  0.37500000000000000       0.68750000000000000        0.0000000000000000     
  0.25000000000000000       0.71875000000000000        0.0000000000000000     
  0.28125000000000000       0.71875000000000000        0.0000000000000000     
  0.31250000000000000       0.71875000000000000        0.0000000000000000     
  0.34375000000000000       0.71875000000000000        0.0000000000000000     
  0.37500000000000000       0.71875000000000000        0.0000000000000000     
  0.25000000000000000       0.75000000000000000        0.0000000000000000     
  0.28125000000000000       0.75000000000000000        0.0000000000000000     
  0.31250000000000000       0.75000000000000000        0.0000000000000000     
  0.34375000000000000       0.75000000000000000        0.0000000000000000     
  0.37500000000000000       0.75000000000000000        0.0000000000000000     
  0.37500000000000000       0.62500000000000000        0.0000000000000000     
  0.40625000000000000       0.62500000000000000        0.0000000000000000     
  0.43750000000000000       0.62500000000000000        0.0000000000000000     
  0.46875000000000000       0.62500000000000000        0.0000000000000000     
  0.50000000000000000       0.62500000000000000        0.0000000000000000     
  0.37500000000000000       0.65625000000000000        0.0000000000000000     
  0.40625000000000000       0.65625000000000000        0.0000000000000000     
  0.43750000000000000       0.65625000000000000        0.0000000000000000     
  0.46875000000000000       0.65625000000000000        0.0000000000000000     
  0.50000000000000000       0.65625000000000000        0.0000000000000000     
  0.37500000000000000       0.68750000000000000        0.0000000000000000     
  0.40625000000000000       0.68750000000000000        0.0000000000000000     
  0.43750000000000000       0.68750000000000000        0.0000000000000000     
  0.46875000000000000       0.68750000000000000        0.0000000000000000     
  0.50000000000000000       0.68750000000000000        0.0000000000000000     
  0.37500000000000000       0.71875000000000000        0.0000000000000000     
  0.40625000000000000       0.71875000000000000        0.0000000000000000     
  0.43750000000000000       0.71875000000000000        0.0000000000000000     
  0.46875000000000000       0.71875000000000000        0.0000000000000000     
  0.50000000000000000       0.71875000000000000        0.0000000000000000     
  0.37500000000000000       0.75000000000000000        0.0000000000000000     
  0.40625000000000000       0.75000000000000000        0.0000000000000000     
  0.43750000000000000       0.75000000000000000        0.0000000000000000     
  0.46875000000000000       0.75000000000000000        0.0000000000000000     
  0.50000000000000000       0.75000000000000000        0.0000000000000000     
  0.50000000000000000       0.62500000000000000        0.0000000000000000     
  0.53125000000000000       0.62500000000000000        0.0000000000000000     
  0.56250000000000000       0.62500000000000000        0.0000000000000000     
  0.59375000000000000       0.62500000000000000        0.0000000000000000     
  0.62500000000000000       0.62500000000000000        0.0000000000000000     
  0.50000000000000000       0.65625000000000000        0.0000000000000000     
  0.53125000000000000       0.65625000000000000        0.0000000000000000     
  0.56250000000000000       0.65625000000000000        0.0000000000000000     
  0.59375000000000000       0.65625000000000000        0.0000000000000000     
  0.62500000000000000       0.65625000000000000        0.0000000000000000     
  0.50000000000000000       0.68750000000000000        0.0000000000000000     
  0.53125000000000000       0.68750000000000000        0.0000000000000000     
  0.56250000000000000       0.68750000000000000        0.0000000000000000     
  0.59375000000000000       0.68750000000000000        0.0000000000000000     
  0.62500000000000000       0.68750000000000000        0.0000000000000000     
  0.50000000000000000       0.71875000000000000        0.0000000000000000     
  0.53125000000000000       0.71875000000000000        0.0000000000000000     
  0.56250000000000000       0.71875000000000000        0.0000000000000000     
  0.59375000000000000       0.71875000000000000        0.0000000000000000     
  0.62500000000000000       0.71875000000000000        0.0000000000000000     
  0.50000000000000000       0.75000000000000000        0.0000000000000000     
  0.53125000000000000       0.75000000000000000        0.0000000000000000     
  0.56250000000000000       0.75000000000000000        0.0000000000000000     
  0.59375000000000000       0.75000000000000000        0.0000000000000000     
  0.62500000000000000       0.75000000000000000        0.0000000000000000     
  0.62500000000000000       0.62500000000000000        0.0000000000000000     
  0.65625000000000000       0.62500000000000000        0.0000000000000000     
  0.68750000000000000       0.62500000000000000        0.0000000000000000     
  0.71875000000000000       0.62500000000000000        0.0000000000000000     
  0.75000000000000000       0.62500000000000000        0.0000000000000000     
  0.62500000000000000       0.65625000000000000        0.0000000000000000     
  0.65625000000000000       0.65625000000000000        0.0000000000000000     
  0.68750000000000000       0.65625000000000000        0.0000000000000000     
  0.71875000000000000       0.65625000000000000        0.0000000000000000     
  0.75000000000000000       0.65625000000000000        0.0000000000000000     
  0.62500000000000000       0.68750000000000000        0.0000000000000000     
  0.65625000000000000       0.68750000000000000        0.0000000000000000     
  0.68750000000000000       0.68750000000000000        0.0000000000000000     
  0.71875000000000000       0.68750000000000000        0.0000000000000000     
  0.75000000000000000       0.68750000000000000        0.0000000000000000     
  0.62500000000000000       0.71875000000000000        0.0000000000000000     
  0.65625000000000000       0.71875000000000000        0.0000000000000000     
  0.68750000000000000       0.71875000000000000        0.0000000000000000     
  0.71875000000000000       0.71875000000000000        0.0000000000000000     
  0.75000000000000000       0.71875000000000000        0.0000000000000000     
  0.62500000000000000       0.75000000000000000        0.0000000000000000     
  0.65625000000000000       0.75000000000000000        0.0000000000000000     
  0.68750000000000000       0.75000000000000000        0.0000000000000000     
  0.71875000000000000       0.75000000000000000        0.0000000000000000     
  0.75000000000000000       0.75000000000000000        0.0000000000000000     
  0.75000000000000000       0.62500000000000000        0.0000000000000000     
  0.78125000000000000       0.62500000000000000        0.0000000000000000     
  0.81250000000000000       0.62500000000000000        0.0000000000000000     
  0.84375000000000000       0.62500000000000000        0.0000000000000000     
  0.87500000000000000       0.62500000000000000        0.0000000000000000     
  0.75000000000000000       0.65625000000000000        0.0000000000000000     
  0.78125000000000000       0.65625000000000000        0.0000000000000000     
  0.81250000000000000       0.65625000000000000        0.0000000000000000     
  0.84375000000000000       0.65625000000000000        0.0000000000000000     
  0.87500000000000000       0.65625000000000000        0.0000000000000000     
  0.75000000000000000       0.68750000000000000        0.0000000000000000     
  0.78125000000000000       0.68750000000000000        0.0000000000000000     
  0.81250000000000000       0.68750000000000000        0.0000000000000000     
  0.84375000000000000       0.68750000000000000        0.0000000000000000     
  0.87500000000000000       0.68750000000000000        0.0000000000000000     
  0.75000000000000000       0.71875000000000000        0.0000000000000000     
  0.78125000000000000       0.71875000000000000        0.0000000000000000     
  0.81250000000000000       0.71875000000000000        0.0000000000000000     
  0.84375000000000000       0.71875000000000000        0.0000000000000000     
  0.87500000000000000       0.71875000000000000        0.0000000000000000     
  0.75000000000000000       0.75000000000000000        0.0000000000000000     
  0.78125000000000000       0.75000000000000000        0.0000000000000000     
  0.81250000000000000       0.75000000000000000        0.0000000000000000     
  0.84375000000000000       0.75000000000000000        0.0000000000000000     
  0.87500000000000000       0.75000000000000000        0.0000000000000000     
  0.87500000000000000       0.62500000000000000        0.0000000000000000     
  0.90625000000000000       0.62500000000000000        0.0000000000000000     
  0.93750000000000000       0.62500000000000000        0.0000000000000000     
  0.96875000000000000       0.62500000000000000        0.0000000000000000     
   1.0000000000000000       0.62500000000000000        0.0000000000000000     
  0.87500000000000000       0.65625000000000000        0.0000000000000000     
  0.90625000000000000       0.65625000000000000        0.0000000000000000     
  0.93750000000000000       0.65625000000000000        0.0000000000000000     
  0.96875000000000000       0.65625000000000000        0.0000000000000000     
   1.0000000000000000       0.65625000000000000        0.0000000000000000     
  0.87500000000000000       0.68750000000000000        0.0000000000000000     
  0.90625000000000000       0.68750000000000000        0.0000000000000000     
  0.93750000000000000       0.68750000000000000        0.0000000000000000     
  0.96875000000000000       0.68750000000000000        0.0000000000000000     
   1.0000000000000000       0.68750000000000000        0.0000000000000000     
  0.87500000000000000       0.71875000000000000        0.0000000000000000     
  0.90625000000000000       0.71875000000000000        0.0000000000000000     
  0.93750000000000000       0.71875000000000000        0.0000000000000000     
  0.96875000000000000       0.71875000000000000        0.0000000000000000     
   1.0000000000000000       0.71875000000000000        0.0000000000000000     
  0.87500000000000000       0.75000000000000000        0.0000000000000000     
  0.90625000000000000       0.75000000000000000        0.0000000000000000     
  0.93750000000000000       0.75000000000000000        0.0000000000000000     
  0.96875000000000000       0.75000000000000000        0.0000000000000000     
   1.0000000000000000       0.75000000000000000        0.0000000000000000     
   0.0000000000000000       0.75000000000000000        0.0000000000000000     
   3.1250000000000000E-002  0.75000000000000000        0.0000000000000000     
   6.2500000000000000E-002  0.75000000000000000        0.0000000000000000     
   9.3750000000000000E-002  0.75000000000000000        0.0000000000000000     
  0.12500000000000000       0.75000000000000000        0.0000000000000000     
   0.0000000000000000       0.78125000000000000        0.0000000000000000     
   3.1250000000000000E-002  0.78125000000000000        0.0000000000000000     
   6.2500000000000000E-002  0.78125000000000000        0.0000000000000000     
   9.3750000000000000E-002  0.78125000000000000        0.0000000000000000     
  0.12500000000000000       0.78125000000000000        0.0000000000000000     
   0.0000000000000000       0.81250000000000000        0.0000000000000000     
   3.1250000000000000E-002  0.81250000000000000        0.0000000000000000     
   6.2500000000000000E-002  0.81250000000000000        0.0000000000000000     
   9.3750000000000000E-002  0.81250000000000000        0.0000000000000000     
  0.12500000000000000       0.81250000000000000        0.0000000000000000     
   0.0000000000000000       0.84375000000000000        0.0000000000000000     
   3.1250000000000000E-002  0.84375000000000000        0.0000000000000000     
   6.2500000000000000E-002  0.84375000000000000        0.0000000000000000     
   9.3750000000000000E-002  0.84375000000000000        0.0000000000000000     
  0.12500000000000000       0.84375000000000000        0.0000000000000000     
   0.0000000000000000       0.87500000000000000        0.0000000000000000     
   3.1250000000000000E-002  0.87500000000000000        0.0000000000000000     
   6.2500000000000000E-002  0.87500000000000000        0.0000000000000000     
   9.3750000000000000E-002  0.87500000000000000        0.0000000000000000     
  0.12500000000000000       0.87500000000000000        0.0000000000000000     
  0.12500000000000000       0.75000000000000000        0.0000000000000000     
  0.15625000000000000       0.75000000000000000        0.0000000000000000     
  0.18750000000000000       0.75000000000000000        0.0000000000000000     
  0.21875000000000000       0.75000000000000000        0.0000000000000000     
  0.25000000000000000       0.75000000000000000        0.0000000000000000     
  0.12500000000000000       0.78125000000000000        0.0000000000000000     
  0.15625000000000000       0.78125000000000000        0.0000000000000000     
  0.18750000000000000       0.78125000000000000        0.0000000000000000     
  0.21875000000000000       0.78125000000000000        0.0000000000000000     
  0.25000000000000000       0.78125000000000000        0.0000000000000000     
  0.12500000000000000       0.81250000000000000        0.0000000000000000     
  0.15625000000000000       0.81250000000000000        0.0000000000000000     
  0.18750000000000000       0.81250000000000000        0.0000000000000000     
  0.21875000000000000       0.81250000000000000        0.0000000000000000     
  0.25000000000000000       0.81250000000000000        0.0000000000000000     
  0.12500000000000000       0.84375000000000000        0.0000000000000000     
  0.15625000000000000       0.84375000000000000        0.0000000000000000     
  0.18750000000000000       0.84375000000000000        0.0000000000000000     
  0.21875000000000000       0.84375000000000000        0.0000000000000000     
  0.25000000000000000       0.84375000000000000        0.0000000000000000     
  0.12500000000000000       0.87500000000000000        0.0000000000000000     
  0.15625000000000000       0.87500000000000000        0.0000000000000000     
  0.18750000000000000       0.87500000000000000        0.0000000000000000     
  0.21875000000000000       0.87500000000000000        0.0000000000000000     
  0.25000000000000000       0.87500000000000000        0.0000000000000000     
  0.25000000000000000       0.75000000000000000        0.0000000000000000     
  0.28125000000000000       0.75000000000000000        0.0000000000000000     
  0.31250000000000000       0.75000000000000000        0.0000000000000000     
  0.34375000000000000       0.75000000000000000        0.0000000000000000     
  0.37500000000000000       0.75000000000000000        0.0000000000000000     
  0.25000000000000000       0.78125000000000000        0.0000000000000000     
  0.28125000000000000       0.78125000000000000        0.0000000000000000     
  0.31250000000000000       0.78125000000000000        0.0000000000000000     
  0.34375000000000000       0.78125000000000000        0.0000000000000000     
  0.37500000000000000       0.78125000000000000        0.0000000000000000     
  0.25000000000000000       0.81250000000000000        0.0000000000000000     
  0.28125000000000000       0.81250000000000000        0.0000000000000000     
  0.31250000000000000       0.81250000000000000        0.0000000000000000     
  0.34375000000000000       0.81250000000000000        0.0000000000000000     
  0.37500000000000000       0.81250000000000000        0.0000000000000000     
  0.25000000000000000       0.84375000000000000        0.0000000000000000     
  0.28125000000000000       0.84375000000000000        0.0000000000000000     
  0.31250000000000000       0.84375000000000000        0.0000000000000000     
  0.34375000000000000       0.84375000000000000        0.0000000000000000     
  0.37500000000000000       0.84375000000000000        0.0000000000000000     
  0.25000000000000000       0.87500000000000000        0.0000000000000000     
  0.28125000000000000       0.87500000000000000        0.0000000000000000     
  0.31250000000000000       0.87500000000000000        0.0000000000000000     
  0.34375000000000000       0.87500000000000000        0.0000000000000000     
  0.37500000000000000       0.87500000000000000        0.0000000000000000     
  0.37500000000000000       0.75000000000000000        0.0000000000000000     
  0.40625000000000000       0.75000000000000000        0.0000000000000000     
  0.43750000000000000       0.75000000000000000        0.0000000000000000     
  0.46875000000000000       0.75000000000000000        0.0000000000000000     
  0.50000000000000000       0.75000000000000000        0.0000000000000000     
  0.37500000000000000       0.78125000000000000        0.0000000000000000     
  0.40625000000000000       0.78125000000000000        0.0000000000000000     
  0.43750000000000000       0.78125000000000000        0.0000000000000000     
  0.46875000000000000       0.78125000000000000        0.0000000000000000     
  0.50000000000000000       0.78125000000000000        0.0000000000000000     
  0.37500000000000000       0.81250000000000000        0.0000000000000000     
  0.40625000000000000       0.81250000000000000        0.0000000000000000     
  0.43750000000000000       0.81250000000000000        0.0000000000000000     
  0.46875000000000000       0.81250000000000000        0.0000000000000000     
  0.50000000000000000       0.81250000000000000        0.0000000000000000     
  0.37500000000000000       0.84375000000000000        0.0000000000000000     
  0.40625000000000000       0.84375000000000000        0.0000000000000000     
  0.43750000000000000       0.84375000000000000        0.0000000000000000     
  0.46875000000000000       0.84375000000000000        0.0000000000000000     
  0.50000000000000000       0.84375000000000000        0.0000000000000000     
  0.37500000000000000       0.87500000000000000        0.0000000000000000     
  0.40625000000000000       0.87500000000000000        0.0000000000000000     
  0.43750000000000000       0.87500000000000000        0.0000000000000000     
  0.46875000000000000       0.87500000000000000        0.0000000000000000     
  0.50000000000000000       0.87500000000000000        0.0000000000000000     
  0.50000000000000000       0.75000000000000000        0.0000000000000000     
  0.53125000000000000       0.75000000000000000        0.0000000000000000     
  0.56250000000000000       0.75000000000000000        0.0000000000000000     
  0.59375000000000000       0.75000000000000000        0.0000000000000000     
  0.62500000000000000       0.75000000000000000        0.0000000000000000     
  0.50000000000000000       0.78125000000000000        0.0000000000000000     
  0.53125000000000000       0.78125000000000000        0.0000000000000000     
  0.56250000000000000       0.78125000000000000        0.0000000000000000     
  0.59375000000000000       0.78125000000000000        0.0000000000000000     
  0.62500000000000000       0.78125000000000000        0.0000000000000000     
  0.50000000000000000       0.81250000000000000        0.0000000000000000     
  0.53125000000000000       0.81250000000000000        0.0000000000000000     
  0.56250000000000000       0.81250000000000000        0.0000000000000000     
  0.59375000000000000       0.81250000000000000        0.0000000000000000     
  0.62500000000000000       0.81250000000000000        0.0000000000000000     
  0.50000000000000000       0.84375000000000000        0.0000000000000000     
  0.53125000000000000       0.84375000000000000        0.0000000000000000     
  0.56250000000000000       0.84375000000000000        0.0000000000000000     
  0.59375000000000000       0.84375000000000000        0.0000000000000000     
  0.62500000000000000       0.84375000000000000        0.0000000000000000     
  0.50000000000000000       0.87500000000000000        0.0000000000000000     
  0.53125000000000000       0.87500000000000000        0.0000000000000000     
  0.56250000000000000       0.87500000000000000        0.0000000000000000     
  0.59375000000000000       0.87500000000000000        0.0000000000000000     
  0.62500000000000000       0.87500000000000000        0.0000000000000000     
  0.62500000000000000       0.75000000000000000        0.0000000000000000     
  0.65625000000000000       0.75000000000000000        0.0000000000000000     
  0.68750000000000000       0.75000000000000000        0.0000000000000000     
  0.71875000000000000       0.75000000000000000        0.0000000000000000     
  0.75000000000000000       0.75000000000000000        0.0000000000000000     
  0.62500000000000000       0.78125000000000000        0.0000000000000000     
  0.65625000000000000       0.78125000000000000        0.0000000000000000     
  0.68750000000000000       0.78125000000000000        0.0000000000000000     
  0.71875000000000000       0.78125000000000000        0.0000000000000000     
  0.75000000000000000       0.78125000000000000        0.0000000000000000     
  0.62500000000000000       0.81250000000000000        0.0000000000000000     
  0.65625000000000000       0.81250000000000000        0.0000000000000000     
  0.68750000000000000       0.81250000000000000        0.0000000000000000     
  0.71875000000000000       0.81250000000000000        0.0000000000000000     
  0.75000000000000000       0.81250000000000000        0.0000000000000000     
  0.62500000000000000       0.84375000000000000        0.0000000000000000     
  0.65625000000000000       0.84375000000000000        0.0000000000000000     
  0.68750000000000000       0.84375000000000000        0.0000000000000000     
  0.71875000000000000       0.84375000000000000        0.0000000000000000     
  0.75000000000000000       0.84375000000000000        0.0000000000000000     
  0.62500000000000000       0.87500000000000000        0.0000000000000000     
  0.65625000000000000       0.87500000000000000        0.0000000000000000     
  0.68750000000000000       0.87500000000000000        0.0000000000000000     
  0.71875000000000000       0.87500000000000000        0.0000000000000000     
  0.75000000000000000       0.87500000000000000        0.0000000000000000     
  0.75000000000000000       0.75000000000000000        0.0000000000000000     
  0.78125000000000000       0.75000000000000000        0.0000000000000000     
  0.81250000000000000       0.75000000000000000        0.0000000000000000     
  0.84375000000000000       0.75000000000000000        0.0000000000000000     
  0.87500000000000000       0.75000000000000000        0.0000000000000000     
  0.75000000000000000       0.78125000000000000        0.0000000000000000     
  0.78125000000000000       0.78125000000000000        0.0000000000000000     
  0.81250000000000000       0.78125000000000000        0.0000000000000000     
  0.84375000000000000       0.78125000000000000        0.0000000000000000     
  0.87500000000000000       0.78125000000000000        0.0000000000000000     
  0.75000000000000000       0.81250000000000000        0.0000000000000000     
  0.78125000000000000       0.81250000000000000        0.0000000000000000     
  0.81250000000000000       0.81250000000000000        0.0000000000000000     
  0.84375000000000000       0.81250000000000000        0.0000000000000000     
  0.87500000000000000       0.81250000000000000        0.0000000000000000     
  0.75000000000000000       0.84375000000000000        0.0000000000000000     
  0.78125000000000000       0.84375000000000000        0.0000000000000000     
  0.81250000000000000       0.84375000000000000        0.0000000000000000     
  0.84375000000000000       0.84375000000000000        0.0000000000000000     
  0.87500000000000000       0.84375000000000000        0.0000000000000000     
  0.75000000000000000       0.87500000000000000        0.0000000000000000     
  0.78125000000000000       0.87500000000000000        0.0000000000000000     
  0.81250000000000000       0.87500000000000000        0.0000000000000000     
  0.84375000000000000       0.87500000000000000        0.0000000000000000     
  0.87500000000000000       0.87500000000000000        0.0000000000000000     
  0.87500000000000000       0.75000000000000000        0.0000000000000000     
  0.90625000000000000       0.75000000000000000        0.0000000000000000     
  0.93750000000000000       0.75000000000000000        0.0000000000000000     
  0.96875000000000000       0.75000000000000000        0.0000000000000000     
   1.0000000000000000       0.75000000000000000        0.0000000000000000     
  0.87500000000000000       0.78125000000000000        0.0000000000000000     
  0.90625000000000000       0.78125000000000000        0.0000000000000000     
  0.93750000000000000       0.78125000000000000        0.0000000000000000     
  0.96875000000000000       0.78125000000000000        0.0000000000000000     
   1.0000000000000000       0.78125000000000000        0.0000000000000000     
  0.87500000000000000       0.81250000000000000        0.0000000000000000     
  0.90625000000000000       0.81250000000000000        0.0000000000000000     
  0.93750000000000000       0.81250000000000000        0.0000000000000000     
  0.96875000000000000       0.81250000000000000        0.0000000000000000     
   1.0000000000000000       0.81250000000000000        0.0000000000000000     
  0.87500000000000000       0.84375000000000000        0.0000000000000000     
  0.90625000000000000       0.84375000000000000        0.0000000000000000     
  0.93750000000000000       0.84375000000000000        0.0000000000000000     
  0.96875000000000000       0.84375000000000000        0.0000000000000000     
   1.0000000000000000       0.84375000000000000        0.0000000000000000     
  0.87500000000000000       0.87500000000000000        0.0000000000000000     
  0.90625000000000000       0.87500000000000000        0.0000000000000000     
  0.93750000000000000       0.87500000000000000        0.0000000000000000     
  0.96875000000000000       0.87500000000000000        0.0000000000000000     
   1.0000000000000000       0.87500000000000000        0.0000000000000000     
   0.0000000000000000       0.87500000000000000        0.0000000000000000     
   3.1250000000000000E-002  0.87500000000000000        0.0000000000000000     
   6.2500000000000000E-002  0.87500000000000000        0.0000000000000000     
   9.3750000000000000E-002  0.87500000000000000        0.0000000000000000     
  0.12500000000000000       0.87500000000000000        0.0000000000000000     
   0.0000000000000000       0.90625000000000000        0.0000000000000000     
   3.1250000000000000E-002  0.90625000000000000        0.0000000000000000     
   6.2500000000000000E-002  0.90625000000000000        0.0000000000000000     
   9.3750000000000000E-002  0.90625000000000000        0.0000000000000000     
  0.12500000000000000       0.90625000000000000        0.0000000000000000     
   0.0000000000000000       0.93750000000000000        0.0000000000000000     
   3.1250000000000000E-002  0.93750000000000000        0.0000000000000000     
   6.2500000000000000E-002  0.93750000000000000        0.0000000000000000     
   9.3750000000000000E-002  0.93750000000000000        0.0000000000000000     
  0.12500000000000000       0.93750000000000000        0.0000000000000000     
   0.0000000000000000       0.96875000000000000        0.0000000000000000     
   3.1250000000000000E-002  0.96875000000000000        0.0000000000000000     
   6.2500000000000000E-002  0.96875000000000000        0.0000000000000000     
   9.3750000000000000E-002  0.96875000000000000        0.0000000000000000     
  0.12500000000000000       0.96875000000000000        0.0000000000000000     
   0.0000000000000000        1.0000000000000000        0.0000000000000000     
   3.1250000000000000E-002   1.0000000000000000        0.0000000000000000     
   6.2500000000000000E-002   1.0000000000000000        0.0000000000000000     
   9.3750000000000000E-002   1.0000000000000000        0.0000000000000000     
  0.12500000000000000        1.0000000000000000        0.0000000000000000     
  0.12500000000000000       0.87500000000000000        0.0000000000000000     
  0.15625000000000000       0.87500000000000000        0.0000000000000000     
  0.18750000000000000       0.87500000000000000        0.0000000000000000     
  0.21875000000000000       0.87500000000000000        0.0000000000000000     
  0.25000000000000000       0.87500000000000000        0.0000000000000000     
  0.12500000000000000       0.90625000000000000        0.0000000000000000     
  0.15625000000000000       0.90625000000000000        0.0000000000000000     
  0.18750000000000000       0.90625000000000000        0.0000000000000000     
  0.21875000000000000       0.90625000000000000        0.0000000000000000     
  0.25000000000000000       0.90625000000000000        0.0000000000000000     
  0.12500000000000000       0.93750000000000000        0.0000000000000000     
  0.15625000000000000       0.93750000000000000        0.0000000000000000     
  0.18750000000000000       0.93750000000000000        0.0000000000000000     
  0.21875000000000000       0.93750000000000000        0.0000000000000000     
  0.25000000000000000       0.93750000000000000        0.0000000000000000     
  0.12500000000000000       0.96875000000000000        0.0000000000000000     
  0.15625000000000000       0.96875000000000000        0.0000000000000000     
  0.18750000000000000       0.96875000000000000        0.0000000000000000     
  0.21875000000000000       0.96875000000000000        0.0000000000000000     
  0.25000000000000000       0.96875000000000000        0.0000000000000000     
  0.12500000000000000        1.0000000000000000        0.0000000000000000     
  0.15625000000000000        1.0000000000000000        0.0000000000000000     
  0.18750000000000000        1.0000000000000000        0.0000000000000000     
  0.21875000000000000        1.0000000000000000        0.0000000000000000     
  0.25000000000000000        1.0000000000000000        0.0000000000000000     
  0.25000000000000000       0.87500000000000000        0.0000000000000000     
  0.28125000000000000       0.87500000000000000        0.0000000000000000     
  0.31250000000000000       0.87500000000000000        0.0000000000000000     
  0.34375000000000000       0.87500000000000000        0.0000000000000000     
  0.37500000000000000       0.87500000000000000        0.0000000000000000     
  0.25000000000000000       0.90625000000000000        0.0000000000000000     
  0.28125000000000000       0.90625000000000000        0.0000000000000000     
  0.31250000000000000       0.90625000000000000        0.0000000000000000     
  0.34375000000000000       0.90625000000000000        0.0000000000000000     
  0.37500000000000000       0.90625000000000000        0.0000000000000000     
  0.25000000000000000       0.93750000000000000        0.0000000000000000     
  0.28125000000000000       0.93750000000000000        0.0000000000000000     
  0.31250000000000000       0.93750000000000000        0.0000000000000000     
  0.34375000000000000       0.93750000000000000        0.0000000000000000     
  0.37500000000000000       0.93750000000000000        0.0000000000000000     
  0.25000000000000000       0.96875000000000000        0.0000000000000000     
  0.28125000000000000       0.96875000000000000        0.0000000000000000     
  0.31250000000000000       0.96875000000000000        0.0000000000000000     
  0.34375000000000000       0.96875000000000000        0.0000000000000000     
  0.37500000000000000       0.96875000000000000        0.0000000000000000     
  0.25000000000000000        1.0000000000000000        0.0000000000000000     
  0.28125000000000000        1.0000000000000000        0.0000000000000000     
  0.31250000000000000        1.0000000000000000        0.0000000000000000     
  0.34375000000000000        1.0000000000000000        0.0000000000000000     
  0.37500000000000000        1.0000000000000000        0.0000000000000000     
  0.37500000000000000       0.87500000000000000        0.0000000000000000     
  0.40625000000000000       0.87500000000000000        0.0000000000000000     
  0.43750000000000000       0.87500000000000000        0.0000000000000000     
  0.46875000000000000       0.87500000000000000        0.0000000000000000     
  0.50000000000000000       0.87500000000000000        0.0000000000000000     
  0.37500000000000000       0.90625000000000000        0.0000000000000000     
  0.40625000000000000       0.90625000000000000        0.0000000000000000     
  0.43750000000000000       0.90625000000000000        0.0000000000000000     
  0.46875000000000000       0.90625000000000000        0.0000000000000000     
  0.50000000000000000       0.90625000000000000        0.0000000000000000     
  0.37500000000000000       0.93750000000000000        0.0000000000000000     
  0.40625000000000000       0.93750000000000000        0.0000000000000000     
  0.43750000000000000       0.93750000000000000        0.0000000000000000     
  0.46875000000000000       0.93750000000000000        0.0000000000000000     
  0.50000000000000000       0.93750000000000000        0.0000000000000000     
  0.37500000000000000       0.96875000000000000        0.0000000000000000     
  0.40625000000000000       0.96875000000000000        0.0000000000000000     
  0.43750000000000000       0.96875000000000000        0.0000000000000000     
  0.46875000000000000       0.96875000000000000        0.0000000000000000     
  0.50000000000000000       0.96875000000000000        0.0000000000000000     
  0.37500000000000000        1.0000000000000000        0.0000000000000000     
  0.40625000000000000        1.0000000000000000        0.0000000000000000     
  0.43750000000000000        1.0000000000000000        0.0000000000000000     
  0.46875000000000000        1.0000000000000000        0.0000000000000000     
  0.50000000000000000        1.0000000000000000        0.0000000000000000     
  0.50000000000000000       0.87500000000000000        0.0000000000000000     
  0.53125000000000000       0.87500000000000000        0.0000000000000000     
  0.56250000000000000       0.87500000000000000        0.0000000000000000     
  0.59375000000000000       0.87500000000000000        0.0000000000000000     
  0.62500000000000000       0.87500000000000000        0.0000000000000000     
  0.50000000000000000       0.90625000000000000        0.0000000000000000     
  0.53125000000000000       0.90625000000000000        0.0000000000000000     
  0.56250000000000000       0.90625000000000000        0.0000000000000000     
  0.59375000000000000       0.90625000000000000        0.0000000000000000     
  0.62500000000000000       0.90625000000000000        0.0000000000000000     
  0.50000000000000000       0.93750000000000000        0.0000000000000000     
  0.53125000000000000       0.93750000000000000        0.0000000000000000     
  0.56250000000000000       0.93750000000000000        0.0000000000000000     
  0.59375000000000000       0.93750000000000000        0.0000000000000000     
  0.62500000000000000       0.93750000000000000        0.0000000000000000     
  0.50000000000000000       0.96875000000000000        0.0000000000000000     
  0.53125000000000000       0.96875000000000000        0.0000000000000000     
  0.56250000000000000       0.96875000000000000        0.0000000000000000     
  0.59375000000000000       0.96875000000000000        0.0000000000000000     
  0.62500000000000000       0.96875000000000000        0.0000000000000000     
  0.50000000000000000        1.0000000000000000        0.0000000000000000     
  0.53125000000000000        1.0000000000000000        0.0000000000000000     
  0.56250000000000000        1.0000000000000000        0.0000000000000000     
  0.59375000000000000        1.0000000000000000        0.0000000000000000     
  0.62500000000000000        1.0000000000000000        0.0000000000000000     
  0.62500000000000000       0.87500000000000000        0.0000000000000000     
  0.65625000000000000       0.87500000000000000        0.0000000000000000     
  0.68750000000000000       0.87500000000000000        0.0000000000000000     
  0.71875000000000000       0.87500000000000000        0.0000000000000000     
  0.75000000000000000       0.87500000000000000        0.0000000000000000     
  0.62500000000000000       0.90625000000000000        0.0000000000000000     
  0.65625000000000000       0.90625000000000000        0.0000000000000000     
  0.68750000000000000       0.90625000000000000        0.0000000000000000     
  0.71875000000000000       0.90625000000000000        0.0000000000000000     
  0.75000000000000000       0.90625000000000000        0.0000000000000000     
  0.62500000000000000       0.93750000000000000        0.0000000000000000     
  0.65625000000000000       0.93750000000000000        0.0000000000000000     
  0.68750000000000000       0.93750000000000000        0.0000000000000000     
  0.71875000000000000       0.93750000000000000        0.0000000000000000     
  0.75000000000000000       0.93750000000000000        0.0000000000000000     
  0.62500000000000000       0.96875000000000000        0.0000000000000000     
  0.65625000000000000       0.96875000000000000        0.0000000000000000     
  0.68750000000000000       0.96875000000000000        0.0000000000000000     
  0.71875000000000000       0.96875000000000000        0.0000000000000000     
  0.75000000000000000       0.96875000000000000        0.0000000000000000     
  0.62500000000000000        1.0000000000000000        0.0000000000000000     
  0.65625000000000000        1.0000000000000000        0.0000000000000000     
  0.68750000000000000        1.0000000000000000        0.0000000000000000     
  0.71875000000000000        1.0000000000000000        0.0000000000000000     
  0.75000000000000000        1.0000000000000000        0.0000000000000000     
  0.75000000000000000       0.87500000000000000        0.0000000000000000     
  0.78125000000000000       0.87500000000000000        0.0000000000000000     
  0.81250000000000000       0.87500000000000000        0.0000000000000000     
  0.84375000000000000       0.87500000000000000        0.0000000000000000     
  0.87500000000000000       0.87500000000000000        0.0000000000000000     
  0.75000000000000000       0.90625000000000000        0.0000000000000000     
  0.78125000000000000       0.90625000000000000        0.0000000000000000     
  0.81250000000000000       0.90625000000000000        0.0000000000000000     
  0.84375000000000000       0.90625000000000000        0.0000000000000000     
  0.87500000000000000       0.90625000000000000        0.0000000000000000     
  0.75000000000000000       0.93750000000000000        0.0000000000000000     
  0.78125000000000000       0.93750000000000000        0.0000000000000000     
  0.81250000000000000       0.93750000000000000        0.0000000000000000     
  0.84375000000000000       0.93750000000000000        0.0000000000000000     
  0.87500000000000000       0.93750000000000000        0.0000000000000000     
  0.75000000000000000       0.96875000000000000        0.0000000000000000     
  0.78125000000000000       0.96875000000000000        0.0000000000000000     
  0.81250000000000000       0.96875000000000000        0.0000000000000000     
  0.84375000000000000       0.96875000000000000        0.0000000000000000     
  0.87500000000000000       0.96875000000000000        0.0000000000000000     
  0.75000000000000000        1.0000000000000000        0.0000000000000000     
  0.78125000000000000        1.0000000000000000        0.0000000000000000     
  0.81250000000000000        1.0000000000000000        0.0000000000000000     
  0.84375000000000000        1.0000000000000000        0.0000000000000000     
  0.87500000000000000        1.0000000000000000        0.0000000000000000     
  0.87500000000000000       0.87500000000000000        0.0000000000000000     
  0.90625000000000000       0.87500000000000000        0.0000000000000000     
  0.93750000000000000       0.87500000000000000        0.0000000000000000     
  0.96875000000000000       0.87500000000000000        0.0000000000000000     
   1.0000000000000000       0.87500000000000000        0.0000000000000000     
  0.87500000000000000       0.90625000000000000        0.0000000000000000     
  0.90625000000000000       0.90625000000000000        0.0000000000000000     
  0.93750000000000000       0.90625000000000000        0.0000000000000000     
  0.96875000000000000       0.90625000000000000        0.0000000000000000     
   1.0000000000000000       0.90625000000000000        0.0000000000000000     
  0.87500000000000000       0.93750000000000000        0.0000000000000000     
  0.90625000000000000       0.93750000000000000        0.0000000000000000     
  0.93750000000000000       0.93750000000000000        0.0000000000000000     
  0.96875000000000000       0.93750000000000000        0.0000000000000000     
   1.0000000000000000       0.93750000000000000        0.0000000000000000     
  0.87500000000000000       0.96875000000000000        0.0000000000000000     
  0.90625000000000000       0.96875000000000000        0.0000000000000000     
  0.93750000000000000       0.96875000000000000        0.0000000000000000     
  0.96875000000000000       0.96875000000000000        0.0000000000000000     
   1.0000000000000000       0.96875000000000000        0.0000000000000000     
  0.87500000000000000        1.0000000000000000        0.0000000000000000     
  0.90625000000000000        1.0000000000000000        0.0000000000000000     
  0.93750000000000000        1.0000000000000000        0.0000000000000000     
  0.96875000000000000        1.0000000000000000        0.0000000000000000     
   1.0000000000000000        1.0000000000000000        0.0000000000000000     
 </DataArray>
 </Points>
 <Cells>
 <DataArray  type="Int32"  Name="connectivity"  format="ascii">
           0           1           6           5
           1           2           7           6
           2           3           8           7
           3           4           9           8
           5           6          11          10
           6           7          12          11
           7           8          13          12
           8           9          14          13
          10          11          16          15
          11          12          17          16
          12          13          18          17
          13          14          19          18
          15          16          21          20
          16          17          22          21
          17          18          23          22
          18          19          24          23
          25          26          31          30
          26          27          32          31
          27          28          33          32
          28          29          34          33
          30          31          36          35
          31          32          37          36
          32          33          38          37
          33          34          39          38
          35          36          41          40
          36          37          42          41
          37          38          43          42
          38          39          44          43
          40          41          46          45
          41          42          47          46
          42          43          48          47
          43          44          49          48
          50          51          56          55
          51          52          57          56
          52          53          58          57
          53          54          59          58
          55          56          61          60
          56          57          62          61
          57          58          63          62
          58          59          64          63
          60          61          66          65
          61          62          67          66
          62          63          68          67
          63          64          69          68
          65          66          71          70
          66          67          72          71
          67          68          73          72
          68          69          74          73
          75          76          81          80
          76          77          82          81
          77          78          83          82
          78          79          84          83
          80          81          86          85
          81          82          87          86
          82          83          88          87
          83          84          89          88
          85          86          91          90
          86          87          92          91
          87          88          93          92
          88          89          94          93
          90          91          96          95
          91          92          97          96
          92          93          98          97
          93          94          99          98
         100         101         106         105
         101         102         107         106
         102         103         108         107
         103         104         109         108
         105         106         111         110
         106         107         112         111
         107         108         113         112
         108         109         114         113
         110         111         116         115
         111         112         117         116
         112         113         118         117
         113         114         119         118
         115         116         121         120
         116         117         122         121
         117         118         123         122
         118         119         124         123
         125         126         131         130
         126         127         132         131
         127         128         133         132
         128         129         134         133
         130         131         136         135
         131         132         137         136
         132         133         138         137
         133         134         139         138
         135         136         141         140
         136         137         142         141
         137         138         143         142
         138         139         144         143
         140         141         146         145
         141         142         147         146
         142         143         148         147
         143         144         149         148
         150         151         156         155
         151         152         157         156
         152         153         158         157
         153         154         159         158
         155         156         161         160
         156         157         162         161
         157         158         163         162
         158         159         164         163
         160         161         166         165
         161         162         167         166
         162         163         168         167
         163         164         169         168
         165         166         171         170
         166         167         172         171
         167         168         173         172
         168         169         174         173
         175         176         181         180
         176         177         182         181
         177         178         183         182
         178         179         184         183
         180         181         186         185
         181         182         187         186
         182         183         188         187
         183         184         189         188
         185         186         191         190
         186         187         192         191
         187         188         193         192
         188         189         194         193
         190         191         196         195
         191         192         197         196
         192         193         198         197
         193         194         199         198
         200         201         206         205
         201         202         207         206
         202         203         208         207
         203         204         209         208
         205         206         211         210
         206         207         212         211
         207         208         213         212
         208         209         214         213
         210         211         216         215
         211         212         217         216
         212         213         218         217
         213         214         219         218
         215         216         221         220
         216         217         222         221
         217         218         223         222
         218         219         224         223
         225         226         231         230
         226         227         232         231
         227         228         233         232
         228         229         234         233
         230         231         236         235
         231         232         237         236
         232         233         238         237
         233         234         239         238
         235         236         241         240
         236         237         242         241
         237         238         243         242
         238         239         244         243
         240         241         246         245
         241         242         247         246
         242         243         248         247
         243         244         249         248
         250         251         256         255
         251         252         257         256
         252         253         258         257
         253         254         259         258
         255         256         261         260
         256         257         262         261
         257         258         263         262
         258         259         264         263
         260         261         266         265
         261         262         267         266
         262         263         268         267
         263         264         269         268
         265         266         271         270
         266         267         272         271
         267         268         273         272
         268         269         274         273
         275         276         281         280
         276         277         282         281
         277         278         283         282
         278         279         284         283
         280         281         286         285
         281         282         287         286
         282         283         288         287
         283         284         289         288
         285         286         291         290
         286         287         292         291
         287         288         293         292
         288         289         294         293
         290         291         296         295
         291         292         297         296
         292         293         298         297
         293         294         299         298
         300         301         306         305
         301         302         307         306
         302         303         308         307
         303         304         309         308
         305         306         311         310
         306         307         312         311
         307         308         313         312
         308         309         314         313
         310         311         316         315
         311         312         317         316
         312         313         318         317
         313         314         319         318
         315         316         321         320
         316         317         322         321
         317         318         323         322
         318         319         324         323
         325         326         331         330
         326         327         332         331
         327         328         333         332
         328         329         334         333
         330         331         336         335
         331         332         337         336
         332         333         338         337
         333         334         339         338
         335         336         341         340
         336         337         342         341
         337         338         343         342
         338         339         344         343
         340         341         346         345
         341         342         347         346
         342         343         348         347
         343         344         349         348
         350         351         356         355
         351         352         357         356
         352         353         358         357
         353         354         359         358
         355         356         361         360
         356         357         362         361
         357         358         363         362
         358         359         364         363
         360         361         366         365
         361         362         367         366
         362         363         368         367
         363         364         369         368
         365         366         371         370
         366         367         372         371
         367         368         373         372
         368         369         374         373
         375         376         381         380
         376         377         382         381
         377         378         383         382
         378         379         384         383
         380         381         386         385
         381         382         387         386
         382         383         388         387
         383         384         389         388
         385         386         391         390
         386         387         392         391
         387         388         393         392
         388         389         394         393
         390         391         396         395
         391         392         397         396
         392         393         398         397
         393         394         399         398
         400         401         406         405
         401         402         407         406
         402         403         408         407
         403         404         409         408
         405         406         411         410
         406         407         412         411
         407         408         413         412
         408         409         414         413
         410         411         416         415
         411         412         417         416
         412         413         418         417
         413         414         419         418
         415         416         421         420
         416         417         422         421
         417         418         423         422
         418         419         424         423
         425         426         431         430
         426         427         432         431
         427         428         433         432
         428         429         434         433
         430         431         436         435
         431         432         437         436
         432         433         438         437
         433         434         439         438
         435         436         441         440
         436         437         442         441
         437         438         443         442
         438         439         444         443
         440         441         446         445
         441         442         447         446
         442         443         448         447
         443         444         449         448
         450         451         456         455
         451         452         457         456
         452         453         458         457
         453         454         459         458
         455         456         461         460
         456         457         462         461
         457         458         463         462
         458         459         464         463
         460         461         466         465
         461         462         467         466
         462         463         468         467
         463         464         469         468
         465         466         471         470
         466         467         472         471
         467         468         473         472
         468         469         474         473
         475         476         481         480
         476         477         482         481
         477         478         483         482
         478         479         484         483
         480         481         486         485
         481         482         487         486
         482         483         488         487
         483         484         489         488
         485         486         491         490
         486         487         492         491
         487         488         493         492
         488         489         494         493
         490         491         496         495
         491         492         497         496
         492         493         498         497
         493         494         499         498
         500         501         506         505
         501         502         507         506
         502         503         508         507
         503         504         509         508
         505         506         511         510
         506         507         512         511
         507         508         513         512
         508         509         514         513
         510         511         516         515
         511         512         517         516
         512         513         518         517
         513         514         519         518
         515         516         521         520
         516         517         522         521
         517         518         523         522
         518         519         524         523
         525         526         531         530
         526         527         532         531
         527         528         533         532
         528         529         534         533
         530         531         536         535
         531         532         537         536
         532         533         538         537
         533         534         539         538
         535         536         541         540
         536         537         542         541
         537         538         543         542
         538         539         544         543
         540         541         546         545
         541         542         547         546
         542         543         548         547
         543         544         549         548
         550         551         556         555
         551         552         557         556
         552         553         558         557
         553         554         559         558
         555         556         561         560
         556         557         562         561
         557         558         563         562
         558         559         564         563
         560         561         566         565
         561         562         567         566
         562         563         568         567
         563         564         569         568
         565         566         571         570
         566         567         572         571
         567         568         573         572
         568         569         574         573
         575         576         581         580
         576         577         582         581
         577         578         583         582
         578         579         584         583
         580         581         586         585
         581         582         587         586
         582         583         588         587
         583         584         589         588
         585         586         591         590
         586         587         592         591
         587         588         593         592
         588         589         594         593
         590         591         596         595
         591         592         597         596
         592         593         598         597
         593         594         599         598
         600         601         606         605
         601         602         607         606
         602         603         608         607
         603         604         609         608
         605         606         611         610
         606         607         612         611
         607         608         613         612
         608         609         614         613
         610         611         616         615
         611         612         617         616
         612         613         618         617
         613         614         619         618
         615         616         621         620
         616         617         622         621
         617         618         623         622
         618         619         624         623
         625         626         631         630
         626         627         632         631
         627         628         633         632
         628         629         634         633
         630         631         636         635
         631         632         637         636
         632         633         638         637
         633         634         639         638
         635         636         641         640
         636         637         642         641
         637         638         643         642
         638         639         644         643
         640         641         646         645
         641         642         647         646
         642         643         648         647
         643         644         649         648
         650         651         656         655
         651         652         657         656
         652         653         658         657
         653         654         659         658
         655         656         661         660
         656         657         662         661
         657         658         663         662
         658         659         664         663
         660         661         666         665
         661         662         667         666
         662         663         668         667
         663         664         669         668
         665         666         671         670
         666         667         672         671
         667         668         673         672
         668         669         674         673
         675         676         681         680
         676         677         682         681
         677         678         683         682
         678         679         684         683
         680         681         686         685
         681         682         687         686
         682         683         688         687
         683         684         689         688
         685         686         691         690
         686         687         692         691
         687         688         693         692
         688         689         694         693
         690         691         696         695
         691         692         697         696
         692         693         698         697
         693         694         699         698
         700         701         706         705
         701         702         707         706
         702         703         708         707
         703         704         709         708
         705         706         711         710
         706         707         712         711
         707         708         713         712
         708         709         714         713
         710         711         716         715
         711         712         717         716
         712         713         718         717
         713         714         719         718
         715         716         721         720
         716         717         722         721
         717         718         723         722
         718         719         724         723
         725         726         731         730
         726         727         732         731
         727         728         733         732
         728         729         734         733
         730         731         736         735
         731         732         737         736
         732         733         738         737
         733         734         739         738
         735         736         741         740
         736         737         742         741
         737         738         743         742
         738         739         744         743
         740         741         746         745
         741         742         747         746
         742         743         748         747
         743         744         749         748
         750         751         756         755
         751         752         757         756
         752         753         758         757
         753         754         759         758
         755         756         761         760
         756         757         762         761
         757         758         763         762
         758         759         764         763
         760         761         766         765
         761         762         767         766
         762         763         768         767
         763         764         769         768
         765         766         771         770
         766         767         772         771
         767         768         773         772
         768         769         774         773
         775         776         781         780
         776         777         782         781
         777         778         783         782
         778         779         784         783
         780         781         786         785
         781         782         787         786
         782         783         788         787
         783         784         789         788
         785         786         791         790
         786         787         792         791
         787         788         793         792
         788         789         794         793
         790         791         796         795
         791         792         797         796
         792         793         798         797
         793         794         799         798
         800         801         806         805
         801         802         807         806
         802         803         808         807
         803         804         809         808
         805         806         811         810
         806         807         812         811
         807         808         813         812
         808         809         814         813
         810         811         816         815
         811         812         817         816
         812         813         818         817
         813         814         819         818
         815         816         821         820
         816         817         822         821
         817         818         823         822
         818         819         824         823
         825         826         831         830
         826         827         832         831
         827         828         833         832
         828         829         834         833
         830         831         836         835
         831         832         837         836
         832         833         838         837
         833         834         839         838
         835         836         841         840
         836         837         842         841
         837         838         843         842
         838         839         844         843
         840         841         846         845
         841         842         847         846
         842         843         848         847
         843         844         849         848
         850         851         856         855
         851         852         857         856
         852         853         858         857
         853         854         859         858
         855         856         861         860
         856         857         862         861
         857         858         863         862
         858         859         864         863
         860         861         866         865
         861         862         867         866
         862         863         868         867
         863         864         869         868
         865         866         871         870
         866         867         872         871
         867         868         873         872
         868         869         874         873
         875         876         881         880
         876         877         882         881
         877         878         883         882
         878         879         884         883
         880         881         886         885
         881         882         887         886
         882         883         888         887
         883         884         889         888
         885         886         891         890
         886         887         892         891
         887         888         893         892
         888         889         894         893
         890         891         896         895
         891         892         897         896
         892         893         898         897
         893         894         899         898
         900         901         906         905
         901         902         907         906
         902         903         908         907
         903         904         909         908
         905         906         911         910
         906         907         912         911
         907         908         913         912
         908         909         914         913
         910         911         916         915
         911         912         917         916
         912         913         918         917
         913         914         919         918
         915         916         921         920
         916         917         922         921
         917         918         923         922
         918         919         924         923
         925         926         931         930
         926         927         932         931
         927         928         933         932
         928         929         934         933
         930         931         936         935
         931         932         937         936
         932         933         938         937
         933         934         939         938
         935         936         941         940
         936         937         942         941
         937         938         943         942
         938         939         944         943
         940         941         946         945
         941         942         947         946
         942         943         948         947
         943         944         949         948
         950         951         956         955
         951         952         957         956
         952         953         958         957
         953         954         959         958
         955         956         961         960
         956         957         962         961
         957         958         963         962
         958         959         964         963
         960         961         966         965
         961         962         967         966
         962         963         968         967
         963         964         969         968
         965         966         971         970
         966         967         972         971
         967         968         973         972
         968         969         974         973
         975         976         981         980
         976         977         982         981
         977         978         983         982
         978         979         984         983
         980         981         986         985
         981         982         987         986
         982         983         988         987
         983         984         989         988
         985         986         991         990
         986         987         992         991
         987         988         993         992
         988         989         994         993
         990         991         996         995
         991         992         997         996
         992         993         998         997
         993         994         999         998
        1000        1001        1006        1005
        1001        1002        1007        1006
        1002        1003        1008        1007
        1003        1004        1009        1008
        1005        1006        1011        1010
        1006        1007        1012        1011
        1007        1008        1013        1012
        1008        1009        1014        1013
        1010        1011        1016        1015
        1011        1012        1017        1016
        1012        1013        1018        1017
        1013        1014        1019        1018
        1015        1016        1021        1020
        1016        1017        1022        1021
        1017        1018        1023        1022
        1018        1019        1024        1023
        1025        1026        1031        1030
        1026        1027        1032        1031
        1027        1028        1033        1032
        1028        1029        1034        1033
        1030        1031        1036        1035
        1031        1032        1037        1036
        1032        1033        1038        1037
        1033        1034        1039        1038
        1035        1036        1041        1040
        1036        1037        1042        1041
        1037        1038        1043        1042
        1038        1039        1044        1043
        1040        1041        1046        1045
        1041        1042        1047        1046
        1042        1043        1048        1047
        1043        1044        1049        1048
        1050        1051        1056        1055
        1051        1052        1057        1056
        1052        1053        1058        1057
        1053        1054        1059        1058
        1055        1056        1061        1060
        1056        1057        1062        1061
        1057        1058        1063        1062
        1058        1059        1064        1063
        1060        1061        1066        1065
        1061        1062        1067        1066
        1062        1063        1068        1067
        1063        1064        1069        1068
        1065        1066        1071        1070
        1066        1067        1072        1071
        1067        1068        1073        1072
        1068        1069        1074        1073
        1075        1076        1081        1080
        1076        1077        1082        1081
        1077        1078        1083        1082
        1078        1079        1084        1083
        1080        1081        1086        1085
        1081        1082        1087        1086
        1082        1083        1088        1087
        1083        1084        1089        1088
        1085        1086        1091        1090
        1086        1087        1092        1091
        1087        1088        1093        1092
        1088        1089        1094        1093
        1090        1091        1096        1095
        1091        1092        1097        1096
        1092        1093        1098        1097
        1093        1094        1099        1098
        1100        1101        1106        1105
        1101        1102        1107        1106
        1102        1103        1108        1107
        1103        1104        1109        1108
        1105        1106        1111        1110
        1106        1107        1112        1111
        1107        1108        1113        1112
        1108        1109        1114        1113
        1110        1111        1116        1115
        1111        1112        1117        1116
        1112        1113        1118        1117
        1113        1114        1119        1118
        1115        1116        1121        1120
        1116        1117        1122        1121
        1117        1118        1123        1122
        1118        1119        1124        1123
        1125        1126        1131        1130
        1126        1127        1132        1131
        1127        1128        1133        1132
        1128        1129        1134        1133
        1130        1131        1136        1135
        1131        1132        1137        1136
        1132        1133        1138        1137
        1133        1134        1139        1138
        1135        1136        1141        1140
        1136        1137        1142        1141
        1137        1138        1143        1142
        1138        1139        1144        1143
        1140        1141        1146        1145
        1141        1142        1147        1146
        1142        1143        1148        1147
        1143        1144        1149        1148
        1150        1151        1156        1155
        1151        1152        1157        1156
        1152        1153        1158        1157
        1153        1154        1159        1158
        1155        1156        1161        1160
        1156        1157        1162        1161
        1157        1158        1163        1162
        1158        1159        1164        1163
        1160        1161        1166        1165
        1161        1162        1167        1166
        1162        1163        1168        1167
        1163        1164        1169        1168
        1165        1166        1171        1170
        1166        1167        1172        1171
        1167        1168        1173        1172
        1168        1169        1174        1173
        1175        1176        1181        1180
        1176        1177        1182        1181
        1177        1178        1183        1182
        1178        1179        1184        1183
        1180        1181        1186        1185
        1181        1182        1187        1186
        1182        1183        1188        1187
        1183        1184        1189        1188
        1185        1186        1191        1190
        1186        1187        1192        1191
        1187        1188        1193        1192
        1188        1189        1194        1193
        1190        1191        1196        1195
        1191        1192        1197        1196
        1192        1193        1198        1197
        1193        1194        1199        1198
        1200        1201        1206        1205
        1201        1202        1207        1206
        1202        1203        1208        1207
        1203        1204        1209        1208
        1205        1206        1211        1210
        1206        1207        1212        1211
        1207        1208        1213        1212
        1208        1209        1214        1213
        1210        1211        1216        1215
        1211        1212        1217        1216
        1212        1213        1218        1217
        1213        1214        1219        1218
        1215        1216        1221        1220
        1216        1217        1222        1221
        1217        1218        1223        1222
        1218        1219        1224        1223
        1225        1226        1231        1230
        1226        1227        1232        1231
        1227        1228        1233        1232
        1228        1229        1234        1233
        1230        1231        1236        1235
        1231        1232        1237        1236
        1232        1233        1238        1237
        1233        1234        1239        1238
        1235        1236        1241        1240
        1236        1237        1242        1241
        1237        1238        1243        1242
        1238        1239        1244        1243
        1240        1241        1246        1245
        1241        1242        1247        1246
        1242        1243        1248        1247
        1243        1244        1249        1248
        1250        1251        1256        1255
        1251        1252        1257        1256
        1252        1253        1258        1257
        1253        1254        1259        1258
        1255        1256        1261        1260
        1256        1257        1262        1261
        1257        1258        1263        1262
        1258        1259        1264        1263
        1260        1261        1266        1265
        1261        1262        1267        1266
        1262        1263        1268        1267
        1263        1264        1269        1268
        1265        1266        1271        1270
        1266        1267        1272        1271
        1267        1268        1273        1272
        1268        1269        1274        1273
        1275        1276        1281        1280
        1276        1277        1282        1281
        1277        1278        1283        1282
        1278        1279        1284        1283
        1280        1281        1286        1285
        1281        1282        1287        1286
        1282        1283        1288        1287
        1283        1284        1289        1288
        1285        1286        1291        1290
        1286        1287        1292        1291
        1287        1288        1293        1292
        1288        1289        1294        1293
        1290        1291        1296        1295
        1291        1292        1297        1296
        1292        1293        1298        1297
        1293        1294        1299        1298
        1300        1301        1306        1305
        1301        1302        1307        1306
        1302        1303        1308        1307
        1303        1304        1309        1308
        1305        1306        1311        1310
        1306        1307        1312        1311
        1307        1308        1313        1312
        1308        1309        1314        1313
        1310        1311        1316        1315
        1311        1312        1317        1316
        1312        1313        1318        1317
        1313        1314        1319        1318
        1315        1316        1321        1320
        1316        1317        1322        1321
        1317        1318        1323        1322
        1318        1319        1324        1323
        1325        1326        1331        1330
        1326        1327        1332        1331
        1327        1328        1333        1332
        1328        1329        1334        1333
        1330        1331        1336        1335
        1331        1332        1337        1336
        1332        1333        1338        1337
        1333        1334        1339        1338
        1335        1336        1341        1340
        1336        1337        1342        1341
        1337        1338        1343        1342
        1338        1339        1344        1343
        1340        1341        1346        1345
        1341        1342        1347        1346
        1342        1343        1348        1347
        1343        1344        1349        1348
        1350        1351        1356        1355
        1351        1352        1357        1356
        1352        1353        1358        1357
        1353        1354        1359        1358
        1355        1356        1361        1360
        1356        1357        1362        1361
        1357        1358        1363        1362
        1358        1359        1364        1363
        1360        1361        1366        1365
        1361        1362        1367        1366
        1362        1363        1368        1367
        1363        1364        1369        1368
        1365        1366        1371        1370
        1366        1367        1372        1371
        1367        1368        1373        1372
        1368        1369        1374        1373
        1375        1376        1381        1380
        1376        1377        1382        1381
        1377        1378        1383        1382
        1378        1379        1384        1383
        1380        1381        1386        1385
        1381        1382        1387        1386
        1382        1383        1388        1387
        1383        1384        1389        1388
        1385        1386        1391        1390
        1386        1387        1392        1391
        1387        1388        1393        1392
        1388        1389        1394        1393
        1390        1391        1396        1395
        1391        1392        1397        1396
        1392        1393        1398        1397
        1393        1394        1399        1398
        1400        1401        1406        1405
        1401        1402        1407        1406
        1402        1403        1408        1407
        1403        1404        1409        1408
        1405        1406        1411        1410
        1406        1407        1412        1411
        1407        1408        1413        1412
        1408        1409        1414        1413
        1410        1411        1416        1415
        1411        1412        1417        1416
        1412        1413        1418        1417
        1413        1414        1419        1418
        1415        1416        1421        1420
        1416        1417        1422        1421
        1417        1418        1423        1422
        1418        1419        1424        1423
        1425        1426        1431        1430
        1426        1427        1432        1431
        1427        1428        1433        1432
        1428        1429        1434        1433
        1430        1431        1436        1435
        1431        1432        1437        1436
        1432        1433        1438        1437
        1433        1434        1439        1438
        1435        1436        1441        1440
        1436        1437        1442        1441
        1437        1438        1443        1442
        1438        1439        1444        1443
        1440        1441        1446        1445
        1441        1442        1447        1446
        1442        1443        1448        1447
        1443        1444        1449        1448
        1450        1451        1456        1455
        1451        1452        1457        1456
        1452        1453        1458        1457
        1453        1454        1459        1458
        1455        1456        1461        1460
        1456        1457        1462        1461
        1457        1458        1463        1462
        1458        1459        1464        1463
        1460        1461        1466        1465
        1461        1462        1467        1466
        1462        1463        1468        1467
        1463        1464        1469        1468
        1465        1466        1471        1470
        1466        1467        1472        1471
        1467        1468        1473        1472
        1468        1469        1474        1473
        1475        1476        1481        1480
        1476        1477        1482        1481
        1477        1478        1483        1482
        1478        1479        1484        1483
        1480        1481        1486        1485
        1481        1482        1487        1486
        1482        1483        1488        1487
        1483        1484        1489        1488
        1485        1486        1491        1490
        1486        1487        1492        1491
        1487        1488        1493        1492
        1488        1489        1494        1493
        1490        1491        1496        1495
        1491        1492        1497        1496
        1492        1493        1498        1497
        1493        1494        1499        1498
        1500        1501        1506        1505
        1501        1502        1507        1506
        1502        1503        1508        1507
        1503        1504        1509        1508
        1505        1506        1511        1510
        1506        1507        1512        1511
        1507        1508        1513        1512
        1508        1509        1514        1513
        1510        1511        1516        1515
        1511        1512        1517        1516
        1512        1513        1518        1517
        1513        1514        1519        1518
        1515        1516        1521        1520
        1516        1517        1522        1521
        1517        1518        1523        1522
        1518        1519        1524        1523
        1525        1526        1531        1530
        1526        1527        1532        1531
        1527        1528        1533        1532
        1528        1529        1534        1533
        1530        1531        1536        1535
        1531        1532        1537        1536
        1532        1533        1538        1537
        1533        1534        1539        1538
        1535        1536        1541        1540
        1536        1537        1542        1541
        1537        1538        1543        1542
        1538        1539        1544        1543
        1540        1541        1546        1545
        1541        1542        1547        1546
        1542        1543        1548        1547
        1543        1544        1549        1548
        1550        1551        1556        1555
        1551        1552        1557        1556
        1552        1553        1558        1557
        1553        1554        1559        1558
        1555        1556        1561        1560
        1556        1557        1562        1561
        1557        1558        1563        1562
        1558        1559        1564        1563
        1560        1561        1566        1565
        1561        1562        1567        1566
        1562        1563        1568        1567
        1563        1564        1569        1568
        1565        1566        1571        1570
        1566        1567        1572        1571
        1567        1568        1573        1572
        1568        1569        1574        1573
        1575        1576        1581        1580
        1576        1577        1582        1581
        1577        1578        1583        1582
        1578        1579        1584        1583
        1580        1581        1586        1585
        1581        1582        1587        1586
        1582        1583        1588        1587
        1583        1584        1589        1588
        1585        1586        1591        1590
        1586        1587        1592        1591
        1587        1588        1593        1592
        1588        1589        1594        1593
        1590        1591        1596        1595
        1591        1592        1597        1596
        1592        1593        1598        1597
        1593        1594        1599        1598
 </DataArray>
 <DataArray  type="Int32"  Name="offsets"  format="ascii"> 
           4
           8
          12
          16
          20
          24
          28
          32
          36
          40
          44
          48
          52
          56
          60
          64
          68
          72
          76
          80
          84
          88
          92
          96
         100
         104
         108
         112
         116
         120
         124
         128
         132
         136
         140
         144
         148
         152
         156
         160
         164
         168
         172
         176
         180
         184
         188
         192
         196
         200
         204
         208
         212
         216
         220
         224
         228
         232
         236
         240
         244
         248
         252
         256
         260
         264
         268
         272
         276
         280
         284
         288
         292
         296
         300
         304
         308
         312
         316
         320
         324
         328
         332
         336
         340
         344
         348
         352
         356
         360
         364
         368
         372
         376
         380
         384
         388
         392
         396
         400
         404
         408
         412
         416
         420
         424
         428
         432
         436
         440
         444
         448
         452
         456
         460
         464
         468
         472
         476
         480
         484
         488
         492
         496
         500
         504
         508
         512
         516
         520
         524
         528
         532
         536
         540
         544
         548
         552
         556
         560
         564
         568
         572
         576
         580
         584
         588
         592
         596
         600
         604
         608
         612
         616
         620
         624
         628
         632
         636
         640
         644
         648
         652
         656
         660
         664
         668
         672
         676
         680
         684
         688
         692
         696
         700
         704
         708
         712
         716
         720
         724
         728
         732
         736
         740
         744
         748
         752
         756
         760
         764
         768
         772
         776
         780
         784
         788
         792
         796
         800
         804
         808
         812
         816
         820
         824
         828
         832
         836
         840
         844
         848
         852
         856
         860
         864
         868
         872
         876
         880
         884
         888
         892
         896
         900
         904
         908
         912
         916
         920
         924
         928
         932
         936
         940
         944
         948
         952
         956
         960
         964
         968
         972
         976
         980
         984
         988
         992
         996
        1000
        1004
        1008
        1012
        1016
        1020
        1024
        1028
        1032
        1036
        1040
        1044
        1048
        1052
        1056
        1060
        1064
        1068
        1072
        1076
        1080
        1084
        1088
        1092
        1096
        1100
        1104
        1108
        1112
        1116
        1120
        1124
        1128
        1132
        1136
        1140
        1144
        1148
        1152
        1156
        1160
        1164
        1168
        1172
        1176
        1180
        1184
        1188
        1192
        1196
        1200
        1204
        1208
        1212
        1216
        1220
        1224
        1228
        1232
        1236
        1240
        1244
        1248
        1252
        1256
        1260
        1264
        1268
        1272
        1276
        1280
        1284
        1288
        1292
        1296
        1300
        1304
        1308
        1312
        1316
        1320
        1324
        1328
        1332
        1336
        1340
        1344
        1348
        1352
        1356
        1360
        1364
        1368
        1372
        1376
        1380
        1384
        1388
        1392
        1396
        1400
        1404
        1408
        1412
        1416
        1420
        1424
        1428
        1432
        1436
        1440
        1444
        1448
        1452
        1456
        1460
        1464
        1468
        1472
        1476
        1480
        1484
        1488
        1492
        1496
        1500
        1504
        1508
        1512
        1516
        1520
        1524
        1528
        1532
        1536
        1540
        1544
        1548
        1552
        1556
        1560
        1564
        1568
        1572
        1576
        1580
        1584
        1588
        1592
        1596
        1600
        1604
        1608
        1612
        1616
        1620
        1624
        1628
        1632
        1636
        1640
        1644
        1648
        1652
        1656
        1660
        1664
        1668
        1672
        1676
        1680
        1684
        1688
        1692
        1696
        1700
        1704
        1708
        1712
        1716
        1720
        1724
        1728
        1732
        1736
        1740
        1744
        1748
        1752
        1756
        1760
        1764
        1768
        1772
        1776
        1780
        1784
        1788
        1792
        1796
        1800
        1804
        1808
        1812
        1816
        1820
        1824
        1828
        1832
        1836
        1840
        1844
        1848
        1852
        1856
        1860
        1864
        1868
        1872
        1876
        1880
        1884
        1888
        1892
        1896
        1900
        1904
        1908
        1912
        1916
        1920
        1924
        1928
        1932
        1936
        1940
        1944
        1948
        1952
        1956
        1960
        1964
        1968
        1972
        1976
        1980
        1984
        1988
        1992
        1996
        2000
        2004
        2008
        2012
        2016
        2020
        2024
        2028
        2032
        2036
        2040
        2044
        2048
        2052
        2056
        2060
        2064
        2068
        2072
        2076
        2080
        2084
        2088
        2092
        2096
        2100
        2104
        2108
        2112
        2116
        2120
        2124
        2128
        2132
        2136
        2140
        2144
        2148
        2152
        2156
        2160
        2164
        2168
        2172
        2176
        2180
        2184
        2188
        2192
        2196
        2200
        2204
        2208
        2212
        2216
        2220
        2224
        2228
        2232
        2236
        2240
        2244
        2248
        2252
        2256
        2260
        2264
        2268
        2272
        2276
        2280
        2284
        2288
        2292
        2296
        2300
        2304
        2308
        2312
        2316
        2320
        2324
        2328
        2332
        2336
        2340
        2344
        2348
        2352
        2356
        2360
        2364
        2368
        2372
        2376
        2380
        2384
        2388
        2392
        2396
        2400
        2404
        2408
        2412
        2416
        2420
        2424
        2428
        2432
        2436
        2440
        2444
        2448
        2452
        2456
        2460
        2464
        2468
        2472
        2476
        2480
        2484
        2488
        2492
        2496
        2500
        2504
        2508
        2512
        2516
        2520
        2524
        2528
        2532
        2536
        2540
        2544
        2548
        2552
        2556
        2560
        2564
        2568
        2572
        2576
        2580
        2584
        2588
        2592
        2596
        2600
        2604
        2608
        2612
        2616
        2620
        2624
        2628
        2632
        2636
        2640
        2644
        2648
        2652
        2656
        2660
        2664
        2668
        2672
        2676
        2680
        2684
        2688
        2692
        2696
        2700
        2704
        2708
        2712
        2716
        2720
        2724
        2728
        2732
        2736
        2740
        2744
        2748
        2752
        2756
        2760
        2764
        2768
        2772
        2776
        2780
        2784
        2788
        2792
        2796
        2800
        2804
        2808
        2812
        2816
        2820
        2824
        2828
        2832
        2836
        2840
        2844
        2848
        2852
        2856
        2860
        2864
        2868
        2872
        2876
        2880
        2884
        2888
        2892
        2896
        2900
        2904
        2908
        2912
        2916
        2920
        2924
        2928
        2932
        2936
        2940
        2944
        2948
        2952
        2956
        2960
        2964
        2968
        2972
        2976
        2980
        2984
        2988
        2992
        2996
        3000
        3004
        3008
        3012
        3016
        3020
        3024
        3028
        3032
        3036
        3040
        3044
        3048
        3052
        3056
        3060
        3064
        3068
        3072
        3076
        3080
        3084
        3088
        3092
        3096
        3100
        3104
        3108
        3112
        3116
        3120
        3124
        3128
        3132
        3136
        3140
        3144
        3148
        3152
        3156
        3160
        3164
        3168
        3172
        3176
        3180
        3184
        3188
        3192
        3196
        3200
        3204
        3208
        3212
        3216
        3220
        3224
        3228
        3232
        3236
        3240
        3244
        3248
        3252
        3256
        3260
        3264
        3268
        3272
        3276
        3280
        3284
        3288
        3292
        3296
        3300
        3304
        3308
        3312
        3316
        3320
        3324
        3328
        3332
        3336
        3340
        3344
        3348
        3352
        3356
        3360
        3364
        3368
        3372
        3376
        3380
        3384
        3388
        3392
        3396
        3400
        3404
        3408
        3412
        3416
        3420
        3424
        3428
        3432
        3436
        3440
        3444
        3448
        3452
        3456
        3460
        3464
        3468
        3472
        3476
        3480
        3484
        3488
        3492
        3496
        3500
        3504
        3508
        3512
        3516
        3520
        3524
        3528
        3532
        3536
        3540
        3544
        3548
        3552
        3556
        3560
        3564
        3568
        3572
        3576
        3580
        3584
        3588
        3592
        3596
        3600
        3604
        3608
        3612
        3616
        3620
        3624
        3628
        3632
        3636
        3640
        3644
        3648
        3652
        3656
        3660
        3664
        3668
        3672
        3676
        3680
        3684
        3688
        3692
        3696
        3700
        3704
        3708
        3712
        3716
        3720
        3724
        3728
        3732
        3736
        3740
        3744
        3748
        3752
        3756
        3760
        3764
        3768
        3772
        3776
        3780
        3784
        3788
        3792
        3796
        3800
        3804
        3808
        3812
        3816
        3820
        3824
        3828
        3832
        3836
        3840
        3844
        3848
        3852
        3856
        3860
        3864
        3868
        3872
        3876
        3880
        3884
        3888
        3892
        3896
        3900
        3904
        3908
        3912
        3916
        3920
        3924
        3928
        3932
        3936
        3940
        3944
        3948
        3952
        3956
        3960
        3964
        3968
        3972
        3976
        3980
        3984
        3988
        3992
        3996
        4000
        4004
        4008
        4012
        4016
        4020
        4024
        4028
        4032
        4036
        4040
        4044
        4048
        4052
        4056
        4060
        4064
        4068
        4072
        4076
        4080
        4084
        4088
        4092
        4096
 </DataArray>
 <DataArray  type="UInt8"  Name="types"  format="ascii">
 9
 9
 9
 9
 9
 9
 9
 9
 9
 9
 9
 9
 9
 9
 9
 9
 9
 9
 9
 9
 9
 9
 9
 9
 9
 9
 9
 9
 9
 9
 9
 9
 9
 9
 9
 9
 9
 9
 9
 9
 9
 9
 9
 9
 9
 9
 9
 9
 9
 9
 9
 9
 9
 9
 9
 9
 9
 9
 9
 9
 9
 9
 9
 9
 9
 9
 9
 9
 9
 9
 9
 9
 9
 9
 9
 9
 9
 9
 9
 9
 9
 9
 9
 9
 9
 9
 9
 9
 9
 9
 9
 9
 9
 9
 9
 9
 9
 9
 9
 9
 9
 9
 9
 9
 9
 9
 9
 9
 9
 9
 9
 9
 9
 9
 9
 9
 9
 9
 9
 9
 9
 9
 9
 9
 9
 9
 9
 9
 9
 9
 9
 9
 9
 9
 9
 9
 9
 9
 9
 9
 9
 9
 9
 9
 9
 9
 9
 9
 9
 9
 9
 9
 9
 9
 9
 9
 9
 9
 9
 9
 9
 9
 9
 9
 9
 9
 9
 9
 9
 9
 9
 9
 9
 9
 9
 9
 9
 9
 9
 9
 9
 9
 9
 9
 9
 9
 9
 9
 9
 9
 9
 9
 9
 9
 9
 9
 9
 9
 9
 9
 9
 9
 9
 9
 9
 9
 9
 9
 9
 9
 9
 9
 9
 9
 9
 9
 9
 9
 9
 9
 9
 9
 9
 9
 9
 9
 9
 9
 9
 9
 9
 9
 9
 9
 9
 9
 9
 9
 9
 9
 9
 9
 9
 9
 9
 9
 9
 9
 9
 9
 9
 9
 9
 9
 9
 9
 9
 9
 9
 9
 9
 9
 9
 9
 9
 9
 9
 9
 9
 9
 9
 9
 9
 9
 9
 9
 9
 9
 9
 9
 9
 9
 9
 9
 9
 9
 9
 9
 9
 9
 9
 9
 9
 9
 9
 9
 9
 9
 9
 9
 9
 9
 9
 9
 9
 9
 9
 9
 9
 9
 9
 9
 9
 9
 9
 9
 9
 9
 9
 9
 9
 9
 9
 9
 9
 9
 9
 9
 9
 9
 9
 9
 9
 9
 9
 9
 9
 9
 9
 9
 9
 9
 9
 9
 9
 9
 9
 9
 9
 9
 9
 9
 9
 9
 9
 9
 9
 9
 9
 9
 9
 9
 9
 9
 9
 9
 9
 9
 9
 9
 9
 9
 9
 9
 9
 9
 9
 9
 9
 9
 9
 9
 9
 9
 9
 9
 9
 9
 9
 9
 9
 9
 9
 9
 9
 9
 9
 9
 9
 9
 9
 9
 9
 9
 9
 9
 9
 9
 9
 9
 9
 9
 9
 9
 9
 9
 9
 9
 9
 9
 9
 9
 9
 9
 9
 9
 9
 9
 9
 9
 9
 9
 9
 9
 9
 9
 9
 9
 9
 9
 9
 9
 9
 9
 9
 9
 9
 9
 9
 9
 9
 9
 9
 9
 9
 9
 9
 9
 9
 9
 9
 9
 9
 9
 9
 9
 9
 9
 9
 9
 9
 9
 9
 9
 9
 9
 9
 9
 9
 9
 9
 9
 9
 9
 9
 9
 9
 9
 9
 9
 9
 9
 9
 9
 9
 9
 9
 9
 9
 9
 9
 9
 9
 9
 9
 9
 9
 9
 9
 9
 9
 9
 9
 9
 9
 9
 9
 9
 9
 9
 9
 9
 9
 9
 9
 9
 9
 9
 9
 9
 9
 9
 9
 9
 9
 9
 9
 9
 9
 9
 9
 9
 9
 9
 9
 9
 9
 9
 9
 9
 9
 9
 9
 9
 9
 9
 9
 9
 9
 9
 9
 9
 9
 9
 9
 9
 9
 9
 9
 9
 9
 9
 9
 9
 9
 9
 9
 9
 9
 9
 9
 9
 9
 9
 9
 9
 9
 9
 9
 9
 9
 9
 9
 9
 9
 9
 9
 9
 9
 9
 9
 9
 9
 9
 9
 9
 9
 9
 9
 9
 9
 9
 9
 9
 9
 9
 9
 9
 9
 9
 9
 9
 9
 9
 9
 9
 9
 9
 9
 9
 9
 9
 9
 9
 9
 9
 9
 9
 9
 9
 9
 9
 9
 9
 9
 9
 9
 9
 9
 9
 9
 9
 9
 9
 9
 9
 9
 9
 9
 9
 9
 9
 9
 9
 9
 9
 9
 9
 9
 9
 9
 9
 9
 9
 9
 9
 9
 9
 9
 9
 9
 9
 9
 9
 9
 9
 9
 9
 9
 9
 9
 9
 9
 9
 9
 9
 9
 9
 9
 9
 9
 9
 9
 9
 9
 9
 9
 9
 9
 9
 9
 9
 9
 9
 9
 9
 9
 9
 9
 9
 9
 9
 9
 9
 9
 9
 9
 9
 9
 9
 9
 9
 9
 9
 9
 9
 9
 9
 9
 9
 9
 9
 9
 9
 9
 9
 9
 9
 9
 9
 9
 9
 9
 9
 9
 9
 9
 9
 9
 9
 9
 9
 9
 9
 9
 9
 9
 9
 9
 9
 9
 9
 9
 9
 9
 9
 9
 9
 9
 9
 9
 9
 9
 9
 9
 9
 9
 9
 9
 9
 9
 9
 9
 9
 9
 9
 9
 9
 9
 9
 9
 9
 9
 9
 9
 9
 9
 9
 9
 9
 9
 9
 9
 9
 9
 9
 9
 9
 9
 9
 9
 9
 9
 9
 9
 9
 9
 9
 9
 9
 9
 9
 9
 9
 9
 9
 9
 9
 9
 9
 9
 9
 9
 9
 9
 9
 9
 9
 9
 9
 9
 9
 9
 9
 9
 9
 9
 9
 9
 9
 9
 9
 9
 9
 9
 9
 9
 9
 9
 9
 9
 9
 9
 9
 9
 9
 9
 9
 9
 9
 9
 9
 9
 9
 9
 9
 9
 9
 9
 9
 9
 9
 9
 9
 9
 9
 9
 9
 9
 9
 9
 9
 9
 9
 9
 9
 9
 9
 9
 9
 9
 9
 9
 9
 9
 9
 9
 9
 9
 9
 9
 9
 9
 9
 9
 9
 9
 9
 9
 9
 9
 9
 9
 9
 9
 9
 9
 9
 9
 9
 9
 9
 9
 9
 9
 9
 9
 9
 9
 9
 9
 9
 9
 9
 9
 9
 9
 9
 9
 9
 9
 9
 9
 9
 9
 9
 9
 9
 9
 9
 9
 9
 9
 9
 9
 9
 9
 9
 9
 9
 9
 9
 9
 9
 9
 9
 9
 9
 9
 9
 9
 9
 9
 9
 9
 9
 9
 9
 9
 9
 9
 9
 9
 9
 9
 9
 9
 9
 9
 9
 9
 9
 9
 9
 9
 9
 9
 9
 9
 9
 9
 9
 9
 9
 </DataArray>
 </Cells> 
 <PointData>
 <DataArray  type="Float64" Name="disp" NumberOfComponents="3" format="ascii">
   0.0000000000000000        0.0000000000000000        0.0000000000000000     
   6.0961103018465617E-003   3.7908583046568139E-003   0.0000000000000000     
   1.1666180700941673E-002   7.3242156803302733E-003   0.0000000000000000     
   1.6710211197285336E-002   1.0600072127020375E-002   0.0000000000000000     
   2.1228201790877546E-002   1.3618427644727121E-002   0.0000000000000000     
   0.0000000000000000        0.0000000000000000        0.0000000000000000     
   4.8912626385616683E-003   3.0222693075648947E-003   0.0000000000000000     
   9.5738223573147291E-003   6.0605496644718952E-003   0.0000000000000000     
   1.4047679156259181E-002   9.1148410707210005E-003   0.0000000000000000     
   1.8312833035395028E-002   1.2185143526312213E-002   0.0000000000000000     
   0.0000000000000000        0.0000000000000000        0.0000000000000000     
   3.9536522976681447E-003   2.4250515013386916E-003   0.0000000000000000     
   7.9108005531728920E-003   5.0626879998955272E-003   0.0000000000000000     
   1.1871444766514243E-002   7.9129094956705073E-003   0.0000000000000000     
   1.5835584937692198E-002   1.0975715988663631E-002   0.0000000000000000     
   0.0000000000000000        0.0000000000000000        0.0000000000000000     
   3.2832792791659894E-003   1.9992048859782054E-003   0.0000000000000000     
   6.6771152885161623E-003   4.3306306866011703E-003   0.0000000000000000     
   1.0181508028050517E-002   6.9942774018688925E-003   0.0000000000000000     
   1.3796457497769057E-002   9.9901450317813733E-003   0.0000000000000000     
   0.0000000000000000        0.0000000000000000        0.0000000000000000     
   2.8801435830552039E-003   1.7447294614834359E-003   0.0000000000000000     
   5.8727665633445392E-003   3.8643777245888217E-003   0.0000000000000000     
   8.9778689408680050E-003   6.3589447893161585E-003   0.0000000000000000     
   1.2195450715625602E-002   9.2284306556654448E-003   0.0000000000000000     
   2.1228201790877546E-002   1.3618427644727121E-002   0.0000000000000000     
   2.5433308695971893E-002   1.6610587707083964E-002   0.0000000000000000     
   2.9538688126821977E-002   1.9807857787724349E-002   0.0000000000000000     
   3.3544340083427791E-002   2.3210237886648281E-002   0.0000000000000000     
   3.7450264565789336E-002   2.6817728003855755E-002   0.0000000000000000     
   1.8312833035395028E-002   1.2185143526312213E-002   0.0000000000000000     
   2.2407595367630151E-002   1.5340157068942309E-002   0.0000000000000000     
   2.6370277525872451E-002   1.8648581736308067E-002   0.0000000000000000     
   3.0200879510121910E-002   2.2110417528409487E-002   0.0000000000000000     
   3.3899401320378553E-002   2.5725664445246571E-002   0.0000000000000000     
   1.5835584937692198E-002   1.0975715988663631E-002   0.0000000000000000     
   1.9731438823148872E-002   1.4210056287822554E-002   0.0000000000000000     
   2.3487224179326388E-002   1.7574879202094947E-002   0.0000000000000000     
   2.7102941006224745E-002   2.1070184731480798E-002   0.0000000000000000     
   3.0578589303843939E-002   2.4695972875980115E-002   0.0000000000000000     
   1.3796457497769057E-002   9.9901450317813733E-003   0.0000000000000000     
   1.7404839062528054E-002   1.3220285363724708E-002   0.0000000000000000     
   2.0889528087183799E-002   1.6586750185084986E-002   0.0000000000000000     
   2.4250524571736286E-002   2.0089539495862216E-002   0.0000000000000000     
   2.7487828516185517E-002   2.3728653296056383E-002   0.0000000000000000     
   1.2195450715625602E-002   9.2284306556654448E-003   0.0000000000000000     
   1.5427796085767704E-002   1.2370844296648762E-002   0.0000000000000000     
   1.8577189249444681E-002   1.5684194685278190E-002   0.0000000000000000     
   2.1643630206656540E-002   1.9168481821553732E-002   0.0000000000000000     
   2.4627118957403271E-002   2.2823705705475383E-002   0.0000000000000000     
   3.7450264565789336E-002   2.6817728003855755E-002   0.0000000000000000     
   4.1260012120544989E-002   3.0624205497294107E-002   0.0000000000000000     
   4.4977133294333116E-002   3.4623547724910657E-002   0.0000000000000000     
   4.8601628087153716E-002   3.8815754686705423E-002   0.0000000000000000     
   5.2133496499006796E-002   4.3200826382678387E-002   0.0000000000000000     
   3.3899401320378553E-002   2.5725664445246571E-002   0.0000000000000000     
   3.7488796585283500E-002   2.9522407495606730E-002   0.0000000000000000     
   4.0992018933477911E-002   3.3528731688277386E-002   0.0000000000000000     
   4.4409068364961786E-002   3.7744637023258538E-002   0.0000000000000000     
   4.7739944879735111E-002   4.2170123500550181E-002   0.0000000000000000     
   3.0578589303843939E-002   2.4695972875980115E-002   0.0000000000000000     
   3.3943700029717978E-002   2.8496497355687156E-002   0.0000000000000000     
   3.7227804141380834E-002   3.2516011890696188E-002   0.0000000000000000     
   4.0430901638832527E-002   3.6754516481007200E-002   0.0000000000000000     
   4.3552992522073043E-002   4.1212011126620200E-002   0.0000000000000000     
   2.7487828516185517E-002   2.3728653296056383E-002   0.0000000000000000     
   3.0624722453848407E-002   2.7546475077535371E-002   0.0000000000000000     
   3.3684488918041884E-002   3.1585388332167050E-002   0.0000000000000000     
   3.6667127908765938E-002   3.5845393059951408E-002   0.0000000000000000     
   3.9572639426020587E-002   4.0326489260888450E-002   0.0000000000000000     
   2.4627118957403271E-002   2.2823705705475383E-002   0.0000000000000000     
   2.7531863857674803E-002   2.6672340661151386E-002   0.0000000000000000     
   3.0362073263461062E-002   3.0736861012689978E-002   0.0000000000000000     
   3.3117747174762041E-002   3.5017266760091169E-002   0.0000000000000000     
   3.5798885591577748E-002   3.9513557903354937E-002   0.0000000000000000     
   5.2133496499006796E-002   4.3200826382678387E-002   0.0000000000000000     
   5.5572974838941670E-002   4.7786812048936873E-002   0.0000000000000000     
   5.8920299416007633E-002   5.2581760921588179E-002   0.0000000000000000     
   6.2175470230204685E-002   5.7585673000632304E-002   0.0000000000000000     
   6.5338487281532839E-002   6.2798548286069247E-002   0.0000000000000000     
   4.7739944879735111E-002   4.2170123500550181E-002   0.0000000000000000     
   5.0981480679193822E-002   4.6800572947163548E-002   0.0000000000000000     
   5.4130507964733815E-002   5.1631367190109849E-002   0.0000000000000000     
   5.7187026736355104E-002   5.6662506229389099E-002   0.0000000000000000     
   6.0151036994057688E-002   6.1893990065001285E-002   0.0000000000000000     
   4.3552992522073043E-002   4.1212011126620200E-002   0.0000000000000000     
   4.6589643314383485E-002   4.5876892513129375E-002   0.0000000000000000     
   4.9536420539044945E-002   5.0737557326128897E-002   0.0000000000000000     
   5.2393324196057425E-002   5.5794005565618775E-002   0.0000000000000000     
   5.5160354285420932E-002   6.1046237231598993E-002   0.0000000000000000     
   3.9572639426020587E-002   4.0326489260888450E-002   0.0000000000000000     
   4.2397462744510679E-002   4.5015770746834376E-002   0.0000000000000000     
   4.5138037138941017E-002   4.9900331329645331E-002   0.0000000000000000     
   4.7794362609311664E-002   5.4980171009321344E-002   0.0000000000000000     
   5.0366439155622569E-002   6.0255289785862400E-002   0.0000000000000000     
   3.5798885591577748E-002   3.9513557903354937E-002   0.0000000000000000     
   3.8404938969575350E-002   4.4217207648278523E-002   0.0000000000000000     
   4.0935357764422031E-002   4.9119689200659136E-002   0.0000000000000000     
   4.3390141976117791E-002   5.4221002560496792E-002   0.0000000000000000     
   4.5769291604662615E-002   5.9521147727791462E-002   0.0000000000000000     
   6.5338487281532839E-002   6.2798548286069247E-002   0.0000000000000000     
   6.8408669485423776E-002   6.8202696167603716E-002   0.0000000000000000     
   7.1385335757309182E-002   7.3780426034940436E-002   0.0000000000000000     
   7.4268486097189071E-002   7.9531737888079365E-002   0.0000000000000000     
   7.7058120505063443E-002   8.5456631727020532E-002   0.0000000000000000     
   6.0151036994057688E-002   6.1893990065001285E-002   0.0000000000000000     
   6.3025866095930763E-002   6.7314856154163272E-002   0.0000000000000000     
   6.5814841400063592E-002   7.2914141954091918E-002   0.0000000000000000     
   6.8517962906456162E-002   7.8691847464787204E-002   0.0000000000000000     
   7.1135230615108472E-002   8.4647972686249129E-002   0.0000000000000000     
   5.5160354285420932E-002   6.1046237231598993E-002   0.0000000000000000     
   5.7842842211590494E-002   6.6487074040170915E-002   0.0000000000000000     
   6.0446119379021140E-002   7.2109337707435828E-002   0.0000000000000000     
   6.2970185787712921E-002   7.7913028233393730E-002   0.0000000000000000     
   6.5415041437665786E-002   8.3898145618044678E-002   0.0000000000000000     
   5.0366439155622569E-002   6.0255289785862400E-002   0.0000000000000000     
   5.2859597832402919E-002   6.5719349825626619E-002   0.0000000000000000     
   5.5279169694181840E-002   7.1366013294972150E-002   0.0000000000000000     
   5.7625154740959333E-002   7.7195280193898957E-002   0.0000000000000000     
   5.9897552972735413E-002   8.3207150522407097E-002   0.0000000000000000     
   4.5769291604662615E-002   5.9521147727791462E-002   0.0000000000000000     
   4.8076132958368066E-002   6.5011683510530424E-002   0.0000000000000000     
   5.0313992345545663E-002   7.0684168716700899E-002   0.0000000000000000     
   5.2482869766195414E-002   7.6538603346302914E-002   0.0000000000000000     
   5.4582765220317318E-002   8.2574987399336441E-002   0.0000000000000000     
   7.7058120505063443E-002   8.5456631727020532E-002   0.0000000000000000     
   7.9735699797326823E-002   9.1541151815005439E-002   0.0000000000000000     
   8.2282684790373747E-002   9.7771342415275589E-002   0.0000000000000000     
   8.4699075484204203E-002  0.10414720352783099        0.0000000000000000     
   8.6984871878818204E-002  0.11066873515267164        0.0000000000000000     
   7.1135230615108472E-002   8.4647972686249129E-002   0.0000000000000000     
   7.3649196819473781E-002   9.0766028880691879E-002   0.0000000000000000     
   7.6042413813005347E-002   9.7029527310329627E-002   0.0000000000000000     
   7.8314881595703198E-002  0.10343846797516232        0.0000000000000000     
   8.0466600167567306E-002  0.10999285087518999        0.0000000000000000     
   6.5415041437665786E-002   8.3898145618044678E-002   0.0000000000000000     
   6.7764379944314890E-002   9.0046221141846808E-002   0.0000000000000000     
   7.0001894923095387E-002   9.6338786085258393E-002   0.0000000000000000     
   7.2127586374007235E-002  0.10277584044827942        0.0000000000000000     
   7.4141454297050477E-002  0.10935738423090988        0.0000000000000000     
   5.9897552972735413E-002   8.3207150522407097E-002   0.0000000000000000     
   6.2081249171850199E-002   8.9381728598470184E-002   0.0000000000000000     
   6.4161128120643840E-002   9.5699118740061928E-002   0.0000000000000000     
   6.6137189819116357E-002  0.10215932094718229        0.0000000000000000     
   6.8009434267267715E-002  0.10876233521983132        0.0000000000000000     
   5.4582765220317318E-002   8.2574987399336441E-002   0.0000000000000000     
   5.6599804502079659E-002   8.8772551250562021E-002   0.0000000000000000     
   5.8520113405650727E-002   9.5110525274740204E-002   0.0000000000000000     
   6.0343691931030514E-002  0.10158890947187096        0.0000000000000000     
   6.2070540078219022E-002  0.10820770384195433        0.0000000000000000     
   8.6984871878818204E-002  0.11066873515267164        0.0000000000000000     
   8.9217451313584009E-002  0.11736358693903029        0.0000000000000000     
   9.1474191127869836E-002  0.12425940853613962        0.0000000000000000     
   9.3755091321675713E-002  0.13135619994399969        0.0000000000000000     
   9.6060151895001611E-002  0.13865396116261042        0.0000000000000000     
   8.0466600167567306E-002  0.10999285087518999        0.0000000000000000     
   8.2559293857403515E-002  0.11671076351508060        0.0000000000000000     
   8.4654686994017639E-002  0.12361029339950214        0.0000000000000000     
   8.6752779577409678E-002  0.13069144052845455        0.0000000000000000     
   8.8853571607579618E-002  0.13795420490193791        0.0000000000000000     
   7.4141454297050477E-002  0.10935738423090988        0.0000000000000000     
   7.6094014622448136E-002  0.11609728926000340        0.0000000000000000     
   7.8035783280423293E-002  0.12300942736241362        0.0000000000000000     
   7.9966760270975920E-002  0.13009379853814054        0.0000000000000000     
   8.1886945594106031E-002  0.13735040278718416        0.0000000000000000     
   6.8009434267267715E-002  0.10876233521983132        0.0000000000000000     
   6.9821613608717886E-002  0.11552316417379870        0.0000000000000000     
   7.1617479987086785E-002  0.12245681042487415        0.0000000000000000     
   7.3397033402374440E-002  0.12956327397305770        0.0000000000000000     
   7.5160273854580822E-002  0.13684255481834925        0.0000000000000000     
   6.2070540078219022E-002  0.10820770384195433        0.0000000000000000     
   6.3742090816212738E-002  0.11498838825646648        0.0000000000000000     
   6.5399777114008142E-002  0.12195244258688367        0.0000000000000000     
   6.7043598971605223E-002  0.12909986683320590        0.0000000000000000     
   6.8673556389003992E-002  0.13643066099543316        0.0000000000000000     
   9.6060151895001611E-002  0.13865396116261042        0.0000000000000000     
   9.8200376919463039E-002  0.14602726212025716        0.0000000000000000     
   9.9986770466675479E-002  0.15335067274522513        0.0000000000000000     
  0.10141933253663890       0.16062419303751435        0.0000000000000000     
  0.10249806312935335       0.16784782299712483        0.0000000000000000     
   8.8853571607579618E-002  0.13795420490193791        0.0000000000000000     
   9.0832842496647651E-002  0.14531844682260833        0.0000000000000000     
   9.2566371656733926E-002  0.15270402659312199        0.0000000000000000     
   9.4054159087838429E-002  0.16011094421347893        0.0000000000000000     
   9.5296204789961175E-002  0.16753919968367911        0.0000000000000000     
   8.1886945594106031E-002  0.13735040278718416        0.0000000000000000     
   8.3714552297761452E-002  0.14472278824804133        0.0000000000000000     
   8.5367793429889954E-002  0.15215450305920883        0.0000000000000000     
   8.6846668990491593E-002  0.15964554722068669        0.0000000000000000     
   8.8151178979566314E-002  0.16719592073247491        0.0000000000000000     
   7.5160273854580822E-002  0.13684255481834925        0.0000000000000000     
   7.6845506322804374E-002  0.14424028639655617        0.0000000000000000     
   7.8391035786143551E-002  0.15170210214348567        0.0000000000000000     
   7.9796862244598379E-002  0.15922800205913759        0.0000000000000000     
   8.1062985698168791E-002  0.16681798614351218        0.0000000000000000     
   6.8673556389003992E-002  0.13643066099543316        0.0000000000000000     
   7.0225704571776487E-002  0.14387094126815284        0.0000000000000000     
   7.1636098725494757E-002  0.15134682384595236        0.0000000000000000     
   7.2904738850158787E-002  0.15885830872883172        0.0000000000000000     
   7.4031624945768593E-002  0.16640539591679093        0.0000000000000000     
   0.0000000000000000        0.0000000000000000        0.0000000000000000     
   2.8801435830552039E-003   1.7447294614834359E-003   0.0000000000000000     
   5.8727665633445392E-003   3.8643777245888217E-003   0.0000000000000000     
   8.9778689408680050E-003   6.3589447893161585E-003   0.0000000000000000     
   1.2195450715625602E-002   9.2284306556654448E-003   0.0000000000000000     
   0.0000000000000000        0.0000000000000000        0.0000000000000000     
   2.6103931698916068E-003   1.5888920807544562E-003   0.0000000000000000     
   5.2897880737323311E-003   3.5565363931200056E-003   0.0000000000000000     
   8.0381847115221731E-003   5.9029329370966490E-003   0.0000000000000000     
   1.0855583083261134E-002   8.6280817126843847E-003   0.0000000000000000     
   0.0000000000000000        0.0000000000000000        0.0000000000000000     
   2.3401760002310173E-003   1.4589595966913388E-003   0.0000000000000000     
   4.7202135157538468E-003   3.2997139714562411E-003   0.0000000000000000     
   7.1401125465684872E-003   5.5222631242947051E-003   0.0000000000000000     
   9.5998730926749407E-003   8.1266070552067343E-003   0.0000000000000000     
   0.0000000000000000        0.0000000000000000        0.0000000000000000     
   2.0694920740734349E-003   1.3549320092940843E-003   0.0000000000000000     
   4.1640428894090843E-003   3.0939104595975276E-003   0.0000000000000000     
   6.2836524460069473E-003   5.2169353509103301E-003   0.0000000000000000     
   8.4283207438670248E-003   7.7240066832324934E-003   0.0000000000000000     
   0.0000000000000000        0.0000000000000000        0.0000000000000000     
   1.7983413914188604E-003   1.2768093185626921E-003   0.0000000000000000     
   3.6212761946980451E-003   2.9391258575438661E-003   0.0000000000000000     
   5.4688044098375535E-003   4.9869496169435224E-003   0.0000000000000000     
   7.3409260368373867E-003   7.4202805967616605E-003   0.0000000000000000     
   1.2195450715625602E-002   9.2284306556654448E-003   0.0000000000000000     
   1.5427796085767704E-002   1.2370844296648762E-002   0.0000000000000000     
   1.8577189249444681E-002   1.5684194685278190E-002   0.0000000000000000     
   2.1643630206656540E-002   1.9168481821553732E-002   0.0000000000000000     
   2.4627118957403271E-002   2.2823705705475383E-002   0.0000000000000000     
   1.0855583083261134E-002   8.6280817126843847E-003   0.0000000000000000     
   1.3688738206983478E-002   1.1649875496473984E-002   0.0000000000000000     
   1.6484405100723472E-002   1.4886207065056212E-002   0.0000000000000000     
   1.9242583764481118E-002   1.8337076418431075E-002   0.0000000000000000     
   2.1963274198256409E-002   2.2002483556598562E-002   0.0000000000000000     
   9.5998730926749407E-003   8.1266070552067343E-003   0.0000000000000000     
   1.2076093740291033E-002   1.1045521373079629E-002   0.0000000000000000     
   1.4545373075634594E-002   1.4211781686800701E-002   0.0000000000000000     
   1.7007711098705625E-002   1.7625387996369944E-002   0.0000000000000000     
   1.9463107809504120E-002   2.1286340301787363E-002   0.0000000000000000     
   8.4283207438670248E-003   7.7240066832324934E-003   0.0000000000000000     
   1.0589862685690378E-002   1.0557781926465705E-002   0.0000000000000000     
   1.2760093174178058E-002   1.3660918550511658E-002   0.0000000000000000     
   1.4939012209330069E-002   1.7033416555370356E-002   0.0000000000000000     
   1.7126619791146411E-002   2.0675275941041796E-002   0.0000000000000000     
   7.3409260368373867E-003   7.4202805967616605E-003   0.0000000000000000     
   9.2300450431814993E-003   1.0186657156632207E-002   0.0000000000000000     
   1.1128565396353853E-002   1.3233617656189089E-002   0.0000000000000000     
   1.3036487096354443E-002   1.6561162095432305E-002   0.0000000000000000     
   1.4953810143183274E-002   2.0169290474361851E-002   0.0000000000000000     
   2.4627118957403271E-002   2.2823705705475383E-002   0.0000000000000000     
   2.7531863857674803E-002   2.6672340661151386E-002   0.0000000000000000     
   3.0362073263461062E-002   3.0736861012689978E-002   0.0000000000000000     
   3.3117747174762041E-002   3.5017266760091169E-002   0.0000000000000000     
   3.5798885591577748E-002   3.9513557903354937E-002   0.0000000000000000     
   2.1963274198256409E-002   2.2002483556598562E-002   0.0000000000000000     
   2.4629712968201250E-002   2.5880034892196105E-002   0.0000000000000000     
   2.7225136640467544E-002   2.9967336837861125E-002   0.0000000000000000     
   2.9749545215055285E-002   3.4264389393593622E-002   0.0000000000000000     
   3.2202938691964479E-002   3.8771192559393604E-002   0.0000000000000000     
   1.9463107809504120E-002   2.1286340301787363E-002   0.0000000000000000     
   2.1882858512431831E-002   2.5175498556330434E-002   0.0000000000000000     
   2.4238258511890504E-002   2.9273722713276624E-002   0.0000000000000000     
   2.6529307807880136E-002   3.3581012772625943E-002   0.0000000000000000     
   2.8756006400400731E-002   3.8097368734378384E-002   0.0000000000000000     
   1.7126619791146411E-002   2.0675275941041796E-002   0.0000000000000000     
   1.9291300490366547E-002   2.4558731653554374E-002   0.0000000000000000     
   2.1401438877729943E-002   2.8656018638936478E-002   0.0000000000000000     
   2.3457034953236595E-002   3.2967136897188123E-002   0.0000000000000000     
   2.5458088716886512E-002   3.7492086428309299E-002   0.0000000000000000     
   1.4953810143183274E-002   2.0169290474361851E-002   0.0000000000000000     
   1.6855038902005397E-002   2.4029734183867921E-002   0.0000000000000000     
   1.8714677737985859E-002   2.8114224614840689E-002   0.0000000000000000     
   2.0532726651124666E-002   3.2422761767280157E-002   0.0000000000000000     
   2.2309185641421814E-002   3.6955345641186341E-002   0.0000000000000000     
   3.5798885591577748E-002   3.9513557903354937E-002   0.0000000000000000     
   3.8404938969575350E-002   4.4217207648278523E-002   0.0000000000000000     
   4.0935357764422031E-002   4.9119689200659136E-002   0.0000000000000000     
   4.3390141976117791E-002   5.4221002560496792E-002   0.0000000000000000     
   4.5769291604662615E-002   5.9521147727791462E-002   0.0000000000000000     
   3.2202938691964479E-002   3.8771192559393604E-002   0.0000000000000000     
   3.4587674225944241E-002   4.3484551741863699E-002   0.0000000000000000     
   3.6906108971743692E-002   4.8401272347606571E-002   0.0000000000000000     
   3.9158242929362840E-002   5.3521354376622213E-002   0.0000000000000000     
   4.1344076098801676E-002   5.8844797828910639E-002   0.0000000000000000     
   2.8756006400400731E-002   3.8097368734378384E-002   0.0000000000000000     
   3.0921270749984010E-002   4.2821151551991760E-002   0.0000000000000000     
   3.3028017317161706E-002   4.7750722178923871E-002   0.0000000000000000     
   3.5076246101933821E-002   5.2886080615174719E-002   0.0000000000000000     
   3.7065957104300343E-002   5.8227226860744316E-002   0.0000000000000000     
   2.5458088716886512E-002   3.7492086428309299E-002   0.0000000000000000     
   2.7405728541694672E-002   4.2227007078662712E-002   0.0000000000000000     
   2.9301082800676077E-002   4.7168038694611038E-002   0.0000000000000000     
   3.1144151493830732E-002   5.2315181276154310E-002   0.0000000000000000     
   3.2934934621158624E-002   5.7668434823292508E-002   0.0000000000000000     
   2.2309185641421814E-002   3.6955345641186341E-002   0.0000000000000000     
   2.4041047601076226E-002   4.1702118321876536E-002   0.0000000000000000     
   2.5725305422286814E-002   4.6653221894668077E-002   0.0000000000000000     
   2.7361959105053579E-002   5.1808656359560973E-002   0.0000000000000000     
   2.8951008649376522E-002   5.7168421716555208E-002   0.0000000000000000     
   4.5769291604662615E-002   5.9521147727791462E-002   0.0000000000000000     
   4.8076132958368066E-002   6.5011683510530424E-002   0.0000000000000000     
   5.0313992345545663E-002   7.0684168716700899E-002   0.0000000000000000     
   5.2482869766195414E-002   7.6538603346302914E-002   0.0000000000000000     
   5.4582765220317318E-002   8.2574987399336441E-002   0.0000000000000000     
   4.1344076098801676E-002   5.8844797828910639E-002   0.0000000000000000     
   4.3464525525672877E-002   6.4360436421511638E-002   0.0000000000000000     
   4.5520508255589107E-002   7.0057103871465062E-002   0.0000000000000000     
   4.7512024288550385E-002   7.5934800178770898E-002   0.0000000000000000     
   4.9439073624556684E-002   8.1993525343429130E-002   0.0000000000000000     
   3.7065957104300343E-002   5.8227226860744316E-002   0.0000000000000000     
   3.8996853470504286E-002   6.3761969885199610E-002   0.0000000000000000     
   4.0868638346788652E-002   6.9478118658107602E-002   0.0000000000000000     
   4.2681311733153454E-002   7.5375673179468278E-002   0.0000000000000000     
   4.4434873629598665E-002   8.1454633449281638E-002   0.0000000000000000     
   3.2934934621158624E-002   5.7668434823292508E-002   0.0000000000000000     
   3.4673116792862300E-002   6.3216283901594339E-002   0.0000000000000000     
   3.6358382619144300E-002   6.8947213076628530E-002   0.0000000000000000     
   3.7990732100004608E-002   7.4861222348395040E-002   0.0000000000000000     
   3.9570165235443260E-002   8.0958311716893883E-002   0.0000000000000000     
   2.8951008649376522E-002   5.7168421716555208E-002   0.0000000000000000     
   3.0493315492746913E-002   6.2723378470695812E-002   0.0000000000000000     
   3.1989741072656036E-002   6.8464387127027806E-002   0.0000000000000000     
   3.3440285389103888E-002   7.4391447685551199E-002   0.0000000000000000     
   3.4844948442090462E-002   8.0504560146265974E-002   0.0000000000000000     
   5.4582765220317318E-002   8.2574987399336441E-002   0.0000000000000000     
   5.6599804502079659E-002   8.8772551250562021E-002   0.0000000000000000     
   5.8520113405650727E-002   9.5110525274740204E-002   0.0000000000000000     
   6.0343691931030514E-002  0.10158890947187096        0.0000000000000000     
   6.2070540078219022E-002  0.10820770384195433        0.0000000000000000     
   4.9439073624556684E-002   8.1993525343429130E-002   0.0000000000000000     
   5.1288979649561611E-002   8.8211933712915525E-002   0.0000000000000000     
   5.3049065749518766E-002   9.4568679634705818E-002   0.0000000000000000     
   5.4719331924428107E-002  0.10106376310880001        0.0000000000000000     
   5.6299778174289661E-002  0.10769718413519810        0.0000000000000000     
   4.4434873629598665E-002   8.1454633449281638E-002   0.0000000000000000     
   4.6117708328854382E-002   8.7693120600323929E-002   0.0000000000000000     
   4.7718200123650668E-002   9.4069255765371396E-002   0.0000000000000000     
   4.9236349013987490E-002  0.10058303894442405        0.0000000000000000     
   5.0672154999864896E-002  0.10723447013748191        0.0000000000000000     
   3.9570165235443260E-002   8.0958311716893883E-002   0.0000000000000000     
   4.1085990539957942E-002   8.7216111912787178E-002   0.0000000000000000     
   4.2527516528046427E-002   9.3612253666736908E-002   0.0000000000000000     
   4.3894743199708701E-002  0.10014673697874310        0.0000000000000000     
   4.5187670554944742E-002  0.10681956184880573        0.0000000000000000     
   3.4844948442090462E-002   8.0504560146265974E-002   0.0000000000000000     
   3.6193826282872335E-002   8.6780907650305300E-002   0.0000000000000000     
   3.7477014962706084E-002   9.3197673338802342E-002   0.0000000000000000     
   3.8694514481591703E-002   9.9754857211757100E-002   0.0000000000000000     
   3.9846324839529199E-002  0.10645245926916957        0.0000000000000000     
   6.2070540078219022E-002  0.10820770384195433        0.0000000000000000     
   6.3742090816212738E-002  0.11498838825646648        0.0000000000000000     
   6.5399777114008142E-002  0.12195244258688367        0.0000000000000000     
   6.7043598971605223E-002  0.12909986683320590        0.0000000000000000     
   6.8673556389003992E-002  0.13643066099543316        0.0000000000000000     
   5.6299778174289661E-002  0.10769718413519810        0.0000000000000000     
   5.7830850447237833E-002  0.11449703027340467        0.0000000000000000     
   5.9352994691407007E-002  0.12149138908292427        0.0000000000000000     
   6.0866210906797176E-002  0.12868026056375689        0.0000000000000000     
   6.2370499093408367E-002  0.13606364471590257        0.0000000000000000     
   5.0672154999864896E-002  0.10723447013748191        0.0000000000000000     
   5.2063296704098289E-002  0.11405315899001113        0.0000000000000000     
   5.3447452749503063E-002  0.12106871514747794        0.0000000000000000     
   5.4824623136079227E-002  0.12828113860988230        0.0000000000000000     
   5.6194807863826787E-002  0.13569042937722425        0.0000000000000000     
   4.5187670554944742E-002  0.10681956184880573        0.0000000000000000     
   4.6439429586794111E-002  0.11365677440628592        0.0000000000000000     
   4.7683151288296317E-002  0.12068442078054471        0.0000000000000000     
   4.8918835659451355E-002  0.12790250097158215        0.0000000000000000     
   5.0146482700259232E-002  0.13531101497939818        0.0000000000000000     
   3.9846324839529199E-002  0.10645245926916957        0.0000000000000000     
   4.0959249095325299E-002  0.11330787652222898        0.0000000000000000     
   4.2060090307786756E-002  0.12033850598212460        0.0000000000000000     
   4.3148848476913561E-002  0.12754434764885639        0.0000000000000000     
   4.4225523602705714E-002  0.13492540152242435        0.0000000000000000     
   6.8673556389003992E-002  0.13643066099543316        0.0000000000000000     
   7.0225704571776487E-002  0.14387094126815284        0.0000000000000000     
   7.1636098725494757E-002  0.15134682384595236        0.0000000000000000     
   7.2904738850158787E-002  0.15885830872883172        0.0000000000000000     
   7.4031624945768593E-002  0.16640539591679093        0.0000000000000000     
   6.2370499093408367E-002  0.13606364471590257        0.0000000000000000     
   6.3793205515684195E-002  0.14354642444817503        0.0000000000000000     
   6.5061676438068261E-002  0.15103348266938796        0.0000000000000000     
   6.6175911860560557E-002  0.15852481937954135        0.0000000000000000     
   6.7135911783161126E-002  0.16602043457863519        0.0000000000000000     
   5.6194807863826787E-002  0.13569042937722425        0.0000000000000000     
   5.7486067625533925E-002  0.14319840752196636        0.0000000000000000     
   5.8626463113988794E-002  0.15070689311657115        0.0000000000000000     
   5.9615994329191416E-002  0.15821588616103874        0.0000000000000000     
   6.0454661271141776E-002  0.16572538665536907        0.0000000000000000     
   5.0146482700259232E-002  0.13531101497939818        0.0000000000000000     
   5.1304290901325662E-002  0.14282689048952685        0.0000000000000000     
   5.2330458753256363E-002  0.15036705518750210        0.0000000000000000     
   5.3224986256051321E-002  0.15793150907332398        0.0000000000000000     
   5.3987873409710556E-002  0.16552025214699251        0.0000000000000000     
   4.4225523602705714E-002  0.13492540152242435        0.0000000000000000     
   4.5247875343059442E-002  0.14243187335085647        0.0000000000000000     
   4.6173663355870968E-002  0.15001396888218071        0.0000000000000000     
   4.7002887641140308E-002  0.15767168811639706        0.0000000000000000     
   4.7735548198867453E-002  0.16540503105350551        0.0000000000000000     
   0.0000000000000000        0.0000000000000000        0.0000000000000000     
   1.7983413914188604E-003   1.2768093185626921E-003   0.0000000000000000     
   3.6212761946980451E-003   2.9391258575438661E-003   0.0000000000000000     
   5.4688044098375535E-003   4.9869496169435224E-003   0.0000000000000000     
   7.3409260368373867E-003   7.4202805967616605E-003   0.0000000000000000     
   0.0000000000000000        0.0000000000000000        0.0000000000000000     
   1.5350027563598404E-003   1.2175076576690282E-003   0.0000000000000000     
   3.0992669219422359E-003   2.8208696476256798E-003   0.0000000000000000     
   4.6927924967471880E-003   4.8100859698699530E-003   0.0000000000000000     
   6.3155794807746952E-003   7.1851566244018495E-003   0.0000000000000000     
   0.0000000000000000        0.0000000000000000        0.0000000000000000     
   1.2877549729889222E-003   1.1699431597849586E-003   0.0000000000000000     
   2.6053685614631666E-003   2.7246513121733894E-003   0.0000000000000000     
   3.9528407654227330E-003   4.6641244571652930E-003   0.0000000000000000     
   5.3301715848676221E-003   6.9883625947606675E-003   0.0000000000000000     
   0.0000000000000000        0.0000000000000000        0.0000000000000000     
   1.0565980413061056E-003   1.1341158249104834E-003   0.0000000000000000     
   2.1395811132608354E-003   2.6504708511869966E-003   0.0000000000000000     
   3.2489492158641899E-003   4.5490650788295407E-003   0.0000000000000000     
   4.3847023491161673E-003   6.8298985078381162E-003   0.0000000000000000     
   0.0000000000000000        0.0000000000000000        0.0000000000000000     
   8.4153196131139135E-004   1.1100256530456019E-003   0.0000000000000000     
   1.7019045773352436E-003   2.5983282646665014E-003   0.0000000000000000     
   2.5811178480715570E-003   4.4649078348626987E-003   0.0000000000000000     
   3.4791717735203312E-003   6.7097643636341939E-003   0.0000000000000000     
   7.3409260368373867E-003   7.4202805967616605E-003   0.0000000000000000     
   9.2300450431814993E-003   1.0186657156632207E-002   0.0000000000000000     
   1.1128565396353853E-002   1.3233617656189089E-002   0.0000000000000000     
   1.3036487096354443E-002   1.6561162095432305E-002   0.0000000000000000     
   1.4953810143183274E-002   2.0169290474361851E-002   0.0000000000000000     
   6.3155794807746952E-003   7.1851566244018495E-003   0.0000000000000000     
   7.9549376800924377E-003   9.8963386984553189E-003   0.0000000000000000     
   9.5981769007680955E-003   1.2893889279264312E-002   0.0000000000000000     
   1.1245297142801671E-002   1.6177808366828826E-002   0.0000000000000000     
   1.2896298406193156E-002   1.9748095961148862E-002   0.0000000000000000     
   5.3301715848676221E-003   6.9883625947606675E-003   0.0000000000000000     
   6.7228374637512151E-003   9.6510181868112183E-003   0.0000000000000000     
   8.1163148460268921E-003   1.2605743695168649E-002   0.0000000000000000     
   9.5106037316946539E-003   1.5852539119832962E-002   0.0000000000000000     
   1.0905704120754504E-002   1.9391404460804153E-002   0.0000000000000000     
   4.3847023491161673E-003   6.8298985078381162E-003   0.0000000000000000     
   5.5337443941578307E-003   9.4506956216999106E-003   0.0000000000000000     
   6.6829792321302416E-003   1.2369180903902108E-002   0.0000000000000000     
   7.8324068630334018E-003   1.5585354354444714E-002   0.0000000000000000     
   8.9820272868673060E-003   1.9099215973327730E-002   0.0000000000000000     
   3.4791717735203312E-003   6.7097643636341939E-003   0.0000000000000000     
   4.3876584713122870E-003   9.2953710031213870E-003   0.0000000000000000     
   5.2981700590781456E-003   1.2184200905464683E-002   0.0000000000000000     
   6.2107065368179077E-003   1.5376254070664083E-002   0.0000000000000000     
   7.1252679045315723E-003   1.8871530498719577E-002   0.0000000000000000     
   1.4953810143183274E-002   2.0169290474361851E-002   0.0000000000000000     
   1.6855038902005397E-002   2.4029734183867921E-002   0.0000000000000000     
   1.8714677737985859E-002   2.8114224614840689E-002   0.0000000000000000     
   2.0532726651124666E-002   3.2422761767280157E-002   0.0000000000000000     
   2.2309185641421814E-002   3.6955345641186341E-002   0.0000000000000000     
   1.2896298406193156E-002   1.9748095961148862E-002   0.0000000000000000     
   1.4534871878474263E-002   2.3579341263184481E-002   0.0000000000000000     
   1.6144708747176679E-002   2.7646133473895738E-002   0.0000000000000000     
   1.7725809012300409E-002   3.1948472593282637E-002   0.0000000000000000     
   1.9278172673845451E-002   3.6486358621345173E-002   0.0000000000000000     
   1.0905704120754504E-002   1.9391404460804153E-002   0.0000000000000000     
   1.2291597550899029E-002   2.3198388007417459E-002   0.0000000000000000     
   1.3658265559820823E-002   2.7249538049008117E-002   0.0000000000000000     
   1.5005708147519892E-002   3.1544854585576119E-002   0.0000000000000000     
   1.6333925313996227E-002   3.6084337617121480E-002   0.0000000000000000     
   8.9820272868673060E-003   1.9099215973327730E-002   0.0000000000000000     
   1.0125215919279694E-002   2.2886874416566859E-002   0.0000000000000000     
   1.1255348175918297E-002   2.6924438340177825E-002   0.0000000000000000     
   1.2372424056783111E-002   3.1211907744160619E-002   0.0000000000000000     
   1.3476443561874140E-002   3.5749282628515254E-002   0.0000000000000000     
   7.1252679045315723E-003   1.8871530498719577E-002   0.0000000000000000     
   8.0357269836162613E-003   2.2644800490632673E-002   0.0000000000000000     
   8.9359565954690943E-003   2.6670834347404856E-002   0.0000000000000000     
   9.8259567400900711E-003   3.0949632069036132E-002   0.0000000000000000     
   1.0705727417479194E-002   3.5481193655526495E-002   0.0000000000000000     
   2.2309185641421814E-002   3.6955345641186341E-002   0.0000000000000000     
   2.4041047601076226E-002   4.1702118321876536E-002   0.0000000000000000     
   2.5725305422286814E-002   4.6653221894668077E-002   0.0000000000000000     
   2.7361959105053579E-002   5.1808656359560973E-002   0.0000000000000000     
   2.8951008649376522E-002   5.7168421716555208E-002   0.0000000000000000     
   1.9278172673845451E-002   3.6486358621345173E-002   0.0000000000000000     
   2.0794567574692616E-002   4.1243237796367779E-002   0.0000000000000000     
   2.2267761557722702E-002   4.6202556356634894E-002   0.0000000000000000     
   2.3697754622935715E-002   5.1364314302146524E-002   0.0000000000000000     
   2.5084546770331652E-002   5.6728511632902649E-002   0.0000000000000000     
   1.6333925313996227E-002   3.6084337617121480E-002   0.0000000000000000     
   1.7633628109107798E-002   4.0847118016870972E-002   0.0000000000000000     
   1.8895527582712554E-002   4.5812326658051405E-002   0.0000000000000000     
   2.0119623734810500E-002   5.0979963540662768E-002   0.0000000000000000     
   2.1305916565401643E-002   5.6350028664705058E-002   0.0000000000000000     
   1.3476443561874140E-002   3.5749282628515254E-002   0.0000000000000000     
   1.4558229204321767E-002   4.0513758983386113E-002   0.0000000000000000     
   1.5608603497256365E-002   4.5482532798917598E-002   0.0000000000000000     
   1.6627566440677938E-002   5.0655604075109696E-002   0.0000000000000000     
   1.7615118034586489E-002   5.6032972811962435E-002   0.0000000000000000     
   1.0705727417479194E-002   3.5481193655526495E-002   0.0000000000000000     
   1.1568370860334527E-002   4.0243160695913188E-002   0.0000000000000000     
   1.2406989301354138E-002   4.5213174779233471E-002   0.0000000000000000     
   1.3221582740538026E-002   5.0391235905487337E-002   0.0000000000000000     
   1.4012151177886192E-002   5.5777344074674773E-002   0.0000000000000000     
   2.8951008649376522E-002   5.7168421716555208E-002   0.0000000000000000     
   3.0493315492746913E-002   6.2723378470695812E-002   0.0000000000000000     
   3.1989741072656036E-002   6.8464387127027806E-002   0.0000000000000000     
   3.3440285389103888E-002   7.4391447685551199E-002   0.0000000000000000     
   3.4844948442090462E-002   8.0504560146265974E-002   0.0000000000000000     
   2.5084546770331652E-002   5.6728511632902649E-002   0.0000000000000000     
   2.6430400017767457E-002   6.2288460316468654E-002   0.0000000000000000     
   2.7737576383100072E-002   6.8037472320409909E-002   0.0000000000000000     
   2.9006075866329500E-002   7.3975547644726414E-002   0.0000000000000000     
   3.0235898467455734E-002   8.0102686289418149E-002   0.0000000000000000     
   2.1305916565401643E-002   5.6350028664705058E-002   0.0000000000000000     
   2.2457320815533244E-002   6.1916736162877489E-002   0.0000000000000000     
   2.3576751226252603E-002   6.7674300167879259E-002   0.0000000000000000     
   2.4664207797559706E-002   7.3622720679710332E-002   0.0000000000000000     
   2.5719690529454553E-002   7.9761997698370751E-002   0.0000000000000000     
   1.7615118034586489E-002   5.6032972811962435E-002   0.0000000000000000     
   1.8574077886044295E-002   6.1608206009922305E-002   0.0000000000000000     
   1.9507265602113629E-002   6.7374870669435816E-002   0.0000000000000000     
   2.0414681182794506E-002   7.3332966790502968E-002   0.0000000000000000     
   2.1296324628086911E-002   7.9482494373123797E-002   0.0000000000000000     
   1.4012151177886192E-002   5.5777344074674773E-002   0.0000000000000000     
   1.4780671229300582E-002   6.1362869857603107E-002   0.0000000000000000     
   1.5529119510683151E-002   6.7139183825079635E-002   0.0000000000000000     
   1.6257496022033892E-002   7.3106285977104349E-002   0.0000000000000000     
   1.6965800763352808E-002   7.9264176313677284E-002   0.0000000000000000     
   3.4844948442090462E-002   8.0504560146265974E-002   0.0000000000000000     
   3.6193826282872335E-002   8.6780907650305300E-002   0.0000000000000000     
   3.7477014962706084E-002   9.3197673338802342E-002   0.0000000000000000     
   3.8694514481591703E-002   9.9754857211757100E-002   0.0000000000000000     
   3.9846324839529199E-002  0.10645245926916957        0.0000000000000000     
   3.0235898467455734E-002   8.0102686289418149E-002   0.0000000000000000     
   3.1417804539003752E-002   8.6395682365978402E-002   0.0000000000000000     
   3.2542554433498509E-002   9.2831329985900393E-002   0.0000000000000000     
   3.3610148150940017E-002   9.9409629149184164E-002   0.0000000000000000     
   3.4620585691328268E-002  0.10613057985582969        0.0000000000000000     
   2.5719690529454553E-002   7.9761997698370751E-002   0.0000000000000000     
   2.6734514289758430E-002   8.6068610612906549E-002   0.0000000000000000     
   2.7699993946292627E-002   9.2519038812363744E-002   0.0000000000000000     
   2.8616129499057143E-002   9.9113282296742350E-002   0.0000000000000000     
   2.9482920948051970E-002  0.10585134106604237        0.0000000000000000     
   2.1296324628086911E-002   7.9482494373123797E-002   0.0000000000000000     
   2.2143955535136380E-002   8.5799692391089769E-002   0.0000000000000000     
   2.2949333501088430E-002   9.2260799818192379E-002   0.0000000000000000     
   2.3712458525943086E-002   9.8865816654431685E-002   0.0000000000000000     
   2.4433330609700321E-002  0.10561474289980761        0.0000000000000000     
   1.6965800763352808E-002   7.9264176313677284E-002   0.0000000000000000     
   1.7646128275137587E-002   8.5588927700528047E-002   0.0000000000000000     
   1.8290573097885929E-002   9.2056613003386328E-002   0.0000000000000000     
   1.8899135231597839E-002   9.8667232222252113E-002   0.0000000000000000     
   1.9471814676273302E-002  0.10542078535712540        0.0000000000000000     
   3.9846324839529199E-002  0.10645245926916957        0.0000000000000000     
   4.0959249095325299E-002  0.11330787652222898        0.0000000000000000     
   4.2060090307786756E-002  0.12033850598212460        0.0000000000000000     
   4.3148848476913561E-002  0.12754434764885639        0.0000000000000000     
   4.4225523602705714E-002  0.13492540152242435        0.0000000000000000     
   3.4620585691328268E-002  0.10613057985582969        0.0000000000000000     
   3.5594423818289478E-002  0.11300285032170128        0.0000000000000000     
   3.6552219295449891E-002  0.12003510876266325        0.0000000000000000     
   3.7493972122809492E-002  0.12722735517871561        0.0000000000000000     
   3.8419682300368282E-002  0.13457958956985833        0.0000000000000000     
   2.9482920948051970E-002  0.10585134106604237        0.0000000000000000     
   3.0316622344284283E-002  0.11273808078856375        0.0000000000000000     
   3.1133487738761220E-002  0.11977836713260642        0.0000000000000000     
   3.1933517131482805E-002  0.12697220009817040        0.0000000000000000     
   3.2716710522449011E-002  0.13431957968525565        0.0000000000000000     
   2.4433330609700321E-002  0.10561474289980761        0.0000000000000000     
   2.5125844673309687E-002  0.11251356792281636        0.0000000000000000     
   2.5803895637720741E-002  0.11956828109195407        0.0000000000000000     
   2.6467483502933476E-002  0.12677888240722074        0.0000000000000000     
   2.7116608268947892E-002  0.13414537186861636        0.0000000000000000     
   1.9471814676273302E-002  0.10542078535712540        0.0000000000000000     
   2.0022090805365711E-002  0.11232931172445915        0.0000000000000000     
   2.0563442992328453E-002  0.11940485064070623        0.0000000000000000     
   2.1095871237161525E-002  0.12664740210586664        0.0000000000000000     
   2.1619375539864927E-002  0.13405696611994045        0.0000000000000000     
   4.4225523602705714E-002  0.13492540152242435        0.0000000000000000     
   4.5247875343059442E-002  0.14243187335085647        0.0000000000000000     
   4.6173663355870968E-002  0.15001396888218071        0.0000000000000000     
   4.7002887641140308E-002  0.15767168811639706        0.0000000000000000     
   4.7735548198867453E-002  0.16540503105350551        0.0000000000000000     
   3.8419682300368282E-002  0.13457958956985833        0.0000000000000000     
   3.9307053857300107E-002  0.14207479781554885        0.0000000000000000     
   4.0133790822778813E-002  0.14969596579524452        0.0000000000000000     
   4.0899893196804399E-002  0.15744309350894539        0.0000000000000000     
   4.1605360979376865E-002  0.16531618095665140        0.0000000000000000     
   3.2716710522449011E-002  0.13431957968525565        0.0000000000000000     
   3.3472059350612537E-002  0.14181710559319746        0.0000000000000000     
   3.4188555054926080E-002  0.14946137752133110        0.0000000000000000     
   3.4866197635389631E-002  0.15725239546965641        0.0000000000000000     
   3.5504987092003178E-002  0.16519015943817353        0.0000000000000000     
   2.7116608268947892E-002  0.13414537186861636        0.0000000000000000     
   2.7742891822996739E-002  0.14165879668380246        0.0000000000000000     
   2.8337956052312770E-002  0.14931020406044035        0.0000000000000000     
   2.8901800956895998E-002  0.15709959399853016        0.0000000000000000     
   2.9434426536746397E-002  0.16502696649807180        0.0000000000000000     
   2.1619375539864927E-002  0.13405696611994045        0.0000000000000000     
   2.2119551274452698E-002  0.14159987108736366        0.0000000000000000     
   2.2581993814938889E-002  0.14924244541257237        0.0000000000000000     
   2.3006703161323496E-002  0.15698468909556659        0.0000000000000000     
   2.3393679313606520E-002  0.16482660213634628        0.0000000000000000     
   0.0000000000000000        0.0000000000000000        0.0000000000000000     
   8.4153196131139135E-004   1.1100256530456019E-003   0.0000000000000000     
   1.7019045773352436E-003   2.5983282646665014E-003   0.0000000000000000     
   2.5811178480715570E-003   4.4649078348626987E-003   0.0000000000000000     
   3.4791717735203312E-003   6.7097643636341939E-003   0.0000000000000000     
   0.0000000000000000        0.0000000000000000        0.0000000000000000     
   6.3367072311696433E-004   1.0940817614800646E-003   0.0000000000000000     
   1.2778197314125760E-003   2.5623450715390067E-003   0.0000000000000000     
   1.9324470248868351E-003   4.4047899301768263E-003   0.0000000000000000     
   2.5975526035397420E-003   6.6214163373935226E-003   0.0000000000000000     
   0.0000000000000000        0.0000000000000000        0.0000000000000000     
   4.2412831683501023E-004   1.0826932675036211E-003   0.0000000000000000     
   8.5280735321901840E-004   2.5366427907316160E-003   0.0000000000000000     
   1.2860371091520245E-003   4.3618485696839838E-003   0.0000000000000000     
   1.7238175846340284E-003   6.5583106043607267E-003   0.0000000000000000     
   0.0000000000000000        0.0000000000000000        0.0000000000000000     
   2.1290474246552909E-004   1.0758601711162708E-003   0.0000000000000000     
   4.2686744275457052E-004   2.5212214222443291E-003   0.0000000000000000     
   6.4188810086712451E-004   4.3360837533841737E-003   0.0000000000000000     
   8.5796671680319074E-004   6.5204471645358046E-003   0.0000000000000000     
   0.0000000000000000        0.0000000000000000        0.0000000000000000     
   8.5209075038894522E-015   1.0735824723180146E-003   0.0000000000000000     
   1.9232716547828987E-014   2.5160809660771453E-003   0.0000000000000000     
   3.2135264501492733E-014   4.3274954812773936E-003   0.0000000000000000     
   4.7228876625532434E-014   6.5078260179187572E-003   0.0000000000000000     
   3.4791717735203312E-003   6.7097643636341939E-003   0.0000000000000000     
   4.3876584713122870E-003   9.2953710031213870E-003   0.0000000000000000     
   5.2981700590781456E-003   1.2184200905464683E-002   0.0000000000000000     
   6.2107065368179077E-003   1.5376254070664083E-002   0.0000000000000000     
   7.1252679045315723E-003   1.8871530498719577E-002   0.0000000000000000     
   2.5975526035397420E-003   6.6214163373935226E-003   0.0000000000000000     
   3.2699930547556125E-003   9.1791485634713007E-003   0.0000000000000000     
   3.9466249659187635E-003   1.2044910878692357E-002   0.0000000000000000     
   4.6274483370291964E-003   1.5218703283056701E-002   0.0000000000000000     
   5.3124631680869089E-003   1.8700525776564322E-002   0.0000000000000000     
   1.7238175846340284E-003   6.5583106043607267E-003   0.0000000000000000     
   2.1661615040288367E-003   9.0961325351452890E-003   0.0000000000000000     
   2.6130815917002558E-003   1.1945418002421116E-002   0.0000000000000000     
   3.0645778476482851E-003   1.5106167006188206E-002   0.0000000000000000     
   3.5206502718729254E-003   1.8578379546446564E-002   0.0000000000000000     
   8.5796671680319074E-004   6.5204471645358046E-003   0.0000000000000000     
   1.0761638191319595E-003   9.0463229181433572E-003   0.0000000000000000     
   1.2975399364226212E-003   1.1885722276650955E-002   0.0000000000000000     
   1.5220950686751758E-003   1.5038645240058610E-002   0.0000000000000000     
   1.7498292158896235E-003   1.8505091808366313E-002   0.0000000000000000     
   4.7228876625532434E-014   6.5078260179187572E-003   0.0000000000000000     
   6.4981494577592835E-014   9.0297197124654983E-003   0.0000000000000000     
   8.5860910937519963E-014   1.1865823701381881E-002   0.0000000000000000     
   1.0986841658352543E-013   1.5016137984667902E-002   0.0000000000000000     
   1.3700249702069955E-013   1.8480662562323561E-002   0.0000000000000000     
   7.1252679045315723E-003   1.8871530498719577E-002   0.0000000000000000     
   8.0357269836162613E-003   2.2644800490632673E-002   0.0000000000000000     
   8.9359565954690943E-003   2.6670834347404856E-002   0.0000000000000000     
   9.8259567400900711E-003   3.0949632069036132E-002   0.0000000000000000     
   1.0705727417479194E-002   3.5481193655526495E-002   0.0000000000000000     
   5.3124631680869089E-003   1.8700525776564322E-002   0.0000000000000000     
   5.9952121063866475E-003   2.2463365658837896E-002   0.0000000000000000     
   6.6692377992231596E-003   2.6480210229500079E-002   0.0000000000000000     
   7.3345402465964443E-003   3.0751059488550885E-002   0.0000000000000000     
   7.9911194485065024E-003   3.5275913435990292E-002   0.0000000000000000     
   3.5206502718729254E-003   1.8578379546446564E-002   0.0000000000000000     
   3.9757526500687757E-003   2.2333769350405510E-002   0.0000000000000000     
   4.4243387679304353E-003   2.6344050145274359E-002   0.0000000000000000     
   4.8664086254579051E-003   3.0609221931053105E-002   0.0000000000000000     
   5.3019622226511843E-003   3.5129284707741758E-002   0.0000000000000000     
   1.7498292158896235E-003   1.8505091808366313E-002   0.0000000000000000     
   1.9773486146626449E-003   2.2256011565335524E-002   0.0000000000000000     
   2.2012595015909213E-003   2.6262354094727679E-002   0.0000000000000000     
   2.4215618766744535E-003   3.0524119396542804E-002   0.0000000000000000     
   2.6382557399132400E-003   3.5041307470780873E-002   0.0000000000000000     
   1.3700249702069955E-013   1.8480662562323561E-002   0.0000000000000000     
   1.6825467885270284E-013   2.2230092303627925E-002   0.0000000000000000     
   2.0461700367922775E-013   2.6235122077860062E-002   0.0000000000000000     
   2.4608832631172958E-013   3.0495751885019965E-002   0.0000000000000000     
   2.9266953444073707E-013   3.5011981725107645E-002   0.0000000000000000     
   1.0705727417479194E-002   3.5481193655526495E-002   0.0000000000000000     
   1.1568370860334527E-002   4.0243160695913188E-002   0.0000000000000000     
   1.2406989301354138E-002   4.5213174779233471E-002   0.0000000000000000     
   1.3221582740538026E-002   5.0391235905487337E-002   0.0000000000000000     
   1.4012151177886192E-002   5.5777344074674773E-002   0.0000000000000000     
   7.9911194485065024E-003   3.5275913435990292E-002   0.0000000000000000     
   8.6350316338940619E-003   4.0033845020750948E-002   0.0000000000000000     
   9.2623330316998504E-003   4.5003927191765443E-002   0.0000000000000000     
   9.8730236419238716E-003   5.0186159949033776E-002   0.0000000000000000     
   1.0467103464566122E-002   5.5580543292555983E-002   0.0000000000000000     
   5.3019622226511843E-003   3.5129284707741758E-002   0.0000000000000000     
   5.7291900817483515E-003   3.9884333824198100E-002   0.0000000000000000     
   6.1462827249874844E-003   4.4854464629279910E-002   0.0000000000000000     
   6.5532401523685840E-003   5.0039677122987181E-002   0.0000000000000000     
   6.9500623638916502E-003   5.5439971305319913E-002   0.0000000000000000     
   2.6382557399132400E-003   3.5041307470780873E-002   0.0000000000000000     
   2.8508462038973961E-003   3.9794627106254643E-002   0.0000000000000000     
   3.0588383812170375E-003   4.4764787091776850E-002   0.0000000000000000     
   3.2622322718721627E-003   4.9951787427347502E-002   0.0000000000000000     
   3.4610278758627705E-003   5.5355628112966612E-002   0.0000000000000000     
   2.9266953444073707E-013   3.5011981725107645E-002   0.0000000000000000     
   3.4119766473966751E-013   3.9764724866920585E-002   0.0000000000000000     
   3.8850937441117783E-013   4.4734894579256300E-002   0.0000000000000000     
   4.3460586963018494E-013   4.9922490862114782E-002   0.0000000000000000     
   4.7948732657954185E-013   5.5327513715496032E-002   0.0000000000000000     
   1.4012151177886192E-002   5.5777344074674773E-002   0.0000000000000000     
   1.4780671229300582E-002   6.1362869857603107E-002   0.0000000000000000     
   1.5529119510683151E-002   6.7139183825079635E-002   0.0000000000000000     
   1.6257496022033892E-002   7.3106285977104349E-002   0.0000000000000000     
   1.6965800763352808E-002   7.9264176313677284E-002   0.0000000000000000     
   1.0467103464566122E-002   5.5580543292555983E-002   0.0000000000000000     
   1.1045512887224232E-002   6.1175848099598321E-002   0.0000000000000000     
   1.1609192297495826E-002   6.6960845247427139E-002   0.0000000000000000     
   1.2158141695380903E-002   7.2935534736042432E-002   0.0000000000000000     
   1.2692361080879462E-002   7.9099916565444198E-002   0.0000000000000000     
   6.9500623638916502E-003   5.5439971305319913E-002   0.0000000000000000     
   7.3370149017373404E-003   6.1042261129586370E-002   0.0000000000000000     
   7.7143633080863118E-003   6.6833460549094781E-002   0.0000000000000000     
   8.0821075829385653E-003   7.2813569563845160E-002   0.0000000000000000     
   8.4402477262941027E-003   7.8982588173837534E-002   0.0000000000000000     
   3.4610278758627705E-003   5.5355628112966612E-002   0.0000000000000000     
   3.6551772728399060E-003   6.0962108947567262E-002   0.0000000000000000     
   3.8446325424546100E-003   6.6757029730082587E-002   0.0000000000000000     
   4.0293936847068832E-003   7.2740390460512630E-002   0.0000000000000000     
   4.2094606995967242E-003   7.8912191138857307E-002   0.0000000000000000     
   4.7948732657954185E-013   5.5327513715496032E-002   0.0000000000000000     
   5.3193181196592443E-013   6.0935391553540975E-002   0.0000000000000000     
   6.0072015721154837E-013   6.6731552790390530E-002   0.0000000000000000     
   6.8585224034366926E-013   7.2715997426044732E-002   0.0000000000000000     
   7.8732723465813059E-013   7.8888725460503517E-002   0.0000000000000000     
   1.6965800763352808E-002   7.9264176313677284E-002   0.0000000000000000     
   1.7646128275137587E-002   8.5588927700528047E-002   0.0000000000000000     
   1.8290573097885929E-002   9.2056613003386328E-002   0.0000000000000000     
   1.8899135231597839E-002   9.8667232222252113E-002   0.0000000000000000     
   1.9471814676273302E-002  0.10542078535712540        0.0000000000000000     
   1.2692361080879462E-002   7.9099916565444198E-002   0.0000000000000000     
   1.3204649123482157E-002   8.5429950766205437E-002   0.0000000000000000     
   1.3687804492679628E-002   9.1901597368899177E-002   0.0000000000000000     
   1.4141827188471874E-002   9.8514856373525445E-002   0.0000000000000000     
   1.4566717210858903E-002  0.10526972778008420        0.0000000000000000     
   8.4402477262941027E-003   7.8982588173837534E-002   0.0000000000000000     
   8.7831346938901760E-003   8.5316395813105961E-002   0.0000000000000000     
   9.1051194414640303E-003   9.1790871915684566E-002   0.0000000000000000     
   9.4062019690156727E-003   9.8406016481573377E-002   0.0000000000000000     
   9.6863822765450996E-003  0.10516182951077241        0.0000000000000000     
   4.2094606995967242E-003   7.8912191138857307E-002   0.0000000000000000     
   4.3815849863616425E-003   8.5248262841229633E-002   0.0000000000000000     
   4.5425179442391420E-003   9.1724436643742524E-002   0.0000000000000000     
   4.6922595732292278E-003   9.8340712546395981E-002   0.0000000000000000     
   4.8308098733318957E-003  0.10509709054919000        0.0000000000000000     
   7.8732723465813059E-013   7.8888725460503517E-002   0.0000000000000000     
   8.9656038669561067E-013   8.5225551850576453E-002   0.0000000000000000     
   1.0049648830126601E-012   9.1702291553073009E-002   0.0000000000000000     
   1.1125397749323779E-012   9.8318944567993227E-002   0.0000000000000000     
   1.2192872579641634E-012  0.10507551089533704        0.0000000000000000     
   1.9471814676273302E-002  0.10542078535712540        0.0000000000000000     
   2.0022090805365711E-002  0.11232931172445915        0.0000000000000000     
   2.0563442992328453E-002  0.11940485064070623        0.0000000000000000     
   2.1095871237161525E-002  0.12664740210586664        0.0000000000000000     
   2.1619375539864927E-002  0.13405696611994045        0.0000000000000000     
   1.4566717210858903E-002  0.10526972778008420        0.0000000000000000     
   1.4975528655291899E-002  0.11218569984288169        0.0000000000000000     
   1.5381315617222056E-002  0.11928226081622419        0.0000000000000000     
   1.5784078096649369E-002  0.12655941070011167        0.0000000000000000     
   1.6183816093573847E-002  0.13401714949454419        0.0000000000000000     
   9.6863822765450996E-003  0.10516182951077241        0.0000000000000000     
   9.9563261379277956E-003  0.11208311992747368        0.0000000000000000     
   1.0226699327039242E-002  0.11919469665586938        0.0000000000000000     
   1.0497501843879436E-002  0.12649655969595941        0.0000000000000000     
   1.0768733688448381E-002  0.13398870904774388        0.0000000000000000     
   4.8308098733318957E-003  0.10509709054919000        0.0000000000000000     
   4.9644832532734044E-003  0.11202157197823509        0.0000000000000000     
   5.0995941217800147E-003  0.11914215815964173        0.0000000000000000     
   5.2361424788517240E-003  0.12645884909340988        0.0000000000000000     
   5.3741283244885339E-003  0.13397164477953960        0.0000000000000000     
   1.2192872579641634E-012  0.10507551089533704        0.0000000000000000     
   1.3287244568505052E-012  0.11200105599516591        0.0000000000000000     
   1.4443739173447545E-012  0.11912464532754123        0.0000000000000000     
   1.5662327663111542E-012  0.12644627889246302        0.0000000000000000     
   1.6943031179439405E-012  0.13396595668993122        0.0000000000000000     
   2.1619375539864927E-002  0.13405696611994045        0.0000000000000000     
   2.2119551274452698E-002  0.14159987108736366        0.0000000000000000     
   2.2581993814938889E-002  0.14924244541257237        0.0000000000000000     
   2.3006703161323496E-002  0.15698468909556659        0.0000000000000000     
   2.3393679313606520E-002  0.16482660213634628        0.0000000000000000     
   1.6183816093573847E-002  0.13401714949454419        0.0000000000000000     
   1.6559259025675947E-002  0.14159179138986533        0.0000000000000000     
   1.6889136310636134E-002  0.14921965057641878        0.0000000000000000     
   1.7173447948454410E-002  0.15690072705420463        0.0000000000000000     
   1.7412193939130776E-002  0.16463502082322282        0.0000000000000000     
   1.0768733688448381E-002  0.13398870904774388        0.0000000000000000     
   1.1019236397361997E-002  0.14158602017729158        0.0000000000000000     
   1.1227851507236203E-002  0.14920336855067140        0.0000000000000000     
   1.1394579018071003E-002  0.15684075416788329        0.0000000000000000     
   1.1519418929866394E-002  0.16449817702892724        0.0000000000000000     
   5.3741283244885339E-003  0.13397164477953960        0.0000000000000000     
   5.4994833895108562E-003  0.14158255744964240        0.0000000000000000     
   5.5981394047391045E-003  0.14919359933533000        0.0000000000000000     
   5.6700963701732760E-003  0.15680477043660243        0.0000000000000000     
   5.7153542858133753E-003  0.16441607075345954        0.0000000000000000     
   1.6943031179439405E-012  0.13396595668993122        0.0000000000000000     
   2.1225239447975053E-012  0.14158140320691787        0.0000000000000000     
   3.1448323762825470E-012  0.14919034293039479        0.0000000000000000     
   4.7612310957994425E-012  0.15679277586036208        0.0000000000000000     
   6.9717192088813995E-012  0.16438870199681971        0.0000000000000000     
   0.0000000000000000        0.0000000000000000        0.0000000000000000     
   8.5209075038894522E-015   1.0735824723180146E-003   0.0000000000000000     
   1.9232716547828987E-014   2.5160809660771453E-003   0.0000000000000000     
   3.2135264501492733E-014   4.3274954812773936E-003   0.0000000000000000     
   4.7228876625532434E-014   6.5078260179187572E-003   0.0000000000000000     
   0.0000000000000000        0.0000000000000000        0.0000000000000000     
  -2.1290474244886449E-004   1.0758601711090760E-003   0.0000000000000000     
  -4.2686744271697348E-004   2.5212214222305545E-003   0.0000000000000000     
  -6.4188810080432687E-004   4.3360837533644343E-003   0.0000000000000000     
  -8.5796671671092449E-004   6.5204471645107162E-003   0.0000000000000000     
   0.0000000000000000        0.0000000000000000        0.0000000000000000     
  -4.2412831681947714E-004   1.0826932674896795E-003   0.0000000000000000     
  -8.5280735318402567E-004   2.5366427907050418E-003   0.0000000000000000     
  -1.2860371090936454E-003   4.3618485696460887E-003   0.0000000000000000     
  -1.7238175845483369E-003   6.5583106043128189E-003   0.0000000000000000     
   0.0000000000000000        0.0000000000000000        0.0000000000000000     
  -6.3367072310331694E-004   1.0940817614598247E-003   0.0000000000000000     
  -1.2778197313819239E-003   2.5623450715006103E-003   0.0000000000000000     
  -1.9324470248358208E-003   4.4047899301223577E-003   0.0000000000000000     
  -2.5975526034650079E-003   6.6214163373250652E-003   0.0000000000000000     
   0.0000000000000000        0.0000000000000000        0.0000000000000000     
  -8.4153196130038409E-004   1.1100256530195117E-003   0.0000000000000000     
  -1.7019045773106686E-003   2.5983282646172574E-003   0.0000000000000000     
  -2.5811178480308534E-003   4.4649078347932386E-003   0.0000000000000000     
  -3.4791717734609377E-003   6.7097643635474526E-003   0.0000000000000000     
   4.7228876625532434E-014   6.5078260179187572E-003   0.0000000000000000     
   6.4981494577592835E-014   9.0297197124654983E-003   0.0000000000000000     
   8.5860910937519963E-014   1.1865823701381881E-002   0.0000000000000000     
   1.0986841658352543E-013   1.5016137984667902E-002   0.0000000000000000     
   1.3700249702069955E-013   1.8480662562323561E-002   0.0000000000000000     
  -8.5796671671092449E-004   6.5204471645107162E-003   0.0000000000000000     
  -1.0761638190049921E-003   9.0463229181131175E-003   0.0000000000000000     
  -1.2975399362547550E-003   1.1885722276615348E-002   0.0000000000000000     
  -1.5220950684602130E-003   1.5038645240017414E-002   0.0000000000000000     
  -1.7498292156213670E-003   1.8505091808319312E-002   0.0000000000000000     
  -1.7238175845483369E-003   6.5583106043128189E-003   0.0000000000000000     
  -2.1661615039108555E-003   9.0961325350876060E-003   0.0000000000000000     
  -2.6130815915439581E-003   1.1945418002352829E-002   0.0000000000000000     
  -3.0645778474476439E-003   1.5106167006108484E-002   0.0000000000000000     
  -3.5206502716219126E-003   1.8578379546354572E-002   0.0000000000000000     
  -2.5975526034650079E-003   6.6214163373250652E-003   0.0000000000000000     
  -3.2699930546526094E-003   9.1791485633889759E-003   0.0000000000000000     
  -3.9466249657817481E-003   1.2044910878594321E-002   0.0000000000000000     
  -4.6274483368524228E-003   1.5218703282941110E-002   0.0000000000000000     
  -5.3124631678646362E-003   1.8700525776429337E-002   0.0000000000000000     
  -3.4791717734609377E-003   6.7097643635474526E-003   0.0000000000000000     
  -4.3876584712302510E-003   9.2953710030172117E-003   0.0000000000000000     
  -5.2981700589681234E-003   1.2184200905339821E-002   0.0000000000000000     
  -6.2107065366745510E-003   1.5376254070515289E-002   0.0000000000000000     
  -7.1252679043495373E-003   1.8871530498543607E-002   0.0000000000000000     
   1.3700249702069955E-013   1.8480662562323561E-002   0.0000000000000000     
   1.6825467885270284E-013   2.2230092303627925E-002   0.0000000000000000     
   2.0461700367922775E-013   2.6235122077860062E-002   0.0000000000000000     
   2.4608832631172958E-013   3.0495751885019965E-002   0.0000000000000000     
   2.9266953444073707E-013   3.5011981725107645E-002   0.0000000000000000     
  -1.7498292156213670E-003   1.8505091808319312E-002   0.0000000000000000     
  -1.9773486143330422E-003   2.2256011565283444E-002   0.0000000000000000     
  -2.2012595011900666E-003   2.6262354094672209E-002   0.0000000000000000     
  -2.4215618761924402E-003   3.0524119396485611E-002   0.0000000000000000     
  -2.6382557393401637E-003   3.5041307470723648E-002   0.0000000000000000     
  -3.5206502716219126E-003   1.8578379546354572E-002   0.0000000000000000     
  -3.9757526497598960E-003   2.2333769350302794E-002   0.0000000000000000     
  -4.4243387675547193E-003   2.6344050145164850E-002   0.0000000000000000     
  -4.8664086250063869E-003   3.0609221930940744E-002   0.0000000000000000     
  -5.3019622221148954E-003   3.5129284707630472E-002   0.0000000000000000     
  -5.3124631678646362E-003   1.8700525776429337E-002   0.0000000000000000     
  -5.9952121061123053E-003   2.2463365658685969E-002   0.0000000000000000     
  -6.6692377988893424E-003   2.6480210229337980E-002   0.0000000000000000     
  -7.3345402461957475E-003   3.0751059488385364E-002   0.0000000000000000     
  -7.9911194480315247E-003   3.5275913435828116E-002   0.0000000000000000     
  -7.1252679043495373E-003   1.8871530498543607E-002   0.0000000000000000     
  -8.0357269833902685E-003   2.2644800490432975E-002   0.0000000000000000     
  -8.9359565951939324E-003   2.6670834347191599E-002   0.0000000000000000     
  -9.8259567397605274E-003   3.0949632068819469E-002   0.0000000000000000     
  -1.0705727417090053E-002   3.5481193655316587E-002   0.0000000000000000     
   2.9266953444073707E-013   3.5011981725107645E-002   0.0000000000000000     
   3.4119766473966751E-013   3.9764724866920585E-002   0.0000000000000000     
   3.8850937441117783E-013   4.4734894579256300E-002   0.0000000000000000     
   4.3460586963018494E-013   4.9922490862114782E-002   0.0000000000000000     
   4.7948732657954185E-013   5.5327513715496032E-002   0.0000000000000000     
  -2.6382557393401637E-003   3.5041307470723648E-002   0.0000000000000000     
  -2.8508462032290315E-003   3.9794627106198216E-002   0.0000000000000000     
  -3.0588383804548451E-003   4.4764787091721228E-002   0.0000000000000000     
  -3.2622322710175989E-003   4.9951787427292678E-002   0.0000000000000000     
  -3.4610278749172972E-003   5.5355628112912579E-002   0.0000000000000000     
  -5.3019622221148954E-003   3.5129284707630472E-002   0.0000000000000000     
  -5.7291900811220790E-003   3.9884333824089839E-002   0.0000000000000000     
  -6.1462827242697703E-003   4.4854464629174660E-002   0.0000000000000000     
  -6.5532401515579703E-003   5.0039677122884915E-002   0.0000000000000000     
  -6.9500623629866779E-003   5.5439971305220610E-002   0.0000000000000000     
  -7.9911194480315247E-003   3.5275913435828116E-002   0.0000000000000000     
  -8.6350316333379425E-003   4.0033845020595454E-002   0.0000000000000000     
  -9.2623330310562697E-003   4.5003927191616576E-002   0.0000000000000000     
  -9.8730236411865048E-003   5.0186159948891466E-002   0.0000000000000000     
  -1.0467103463728655E-002   5.5580543292420147E-002   0.0000000000000000     
  -1.0705727417090053E-002   3.5481193655316587E-002   0.0000000000000000     
  -1.1568370859876624E-002   4.0243160695715055E-002   0.0000000000000000     
  -1.2406989300814341E-002   4.5213174779046975E-002   0.0000000000000000     
  -1.3221582739903211E-002   5.0391235905312352E-002   0.0000000000000000     
  -1.4012151177143229E-002   5.5777344074511168E-002   0.0000000000000000     
   4.7948732657954185E-013   5.5327513715496032E-002   0.0000000000000000     
   5.3193181196592443E-013   6.0935391553540975E-002   0.0000000000000000     
   6.0072015721154837E-013   6.6731552790390530E-002   0.0000000000000000     
   6.8585224034366926E-013   7.2715997426044732E-002   0.0000000000000000     
   7.8732723465813059E-013   7.8888725460503517E-002   0.0000000000000000     
  -3.4610278749172972E-003   5.5355628112912579E-002   0.0000000000000000     
  -3.6551772717883313E-003   6.0962108947512174E-002   0.0000000000000000     
  -3.8446325412650993E-003   6.6757029730022732E-002   0.0000000000000000     
  -4.0293936833475982E-003   7.2740390460444254E-002   0.0000000000000000     
  -4.2094606980358287E-003   7.8912191138776747E-002   0.0000000000000000     
  -6.9500623629866779E-003   5.5439971305220610E-002   0.0000000000000000     
  -7.3370149007226364E-003   6.1042261129485492E-002   0.0000000000000000     
  -7.7143633069325906E-003   6.6833460548983273E-002   0.0000000000000000     
  -8.0821075816165378E-003   7.2813569563714001E-002   0.0000000000000000     
  -8.4402477247744814E-003   7.8982588173677579E-002   0.0000000000000000     
  -1.0467103463728655E-002   5.5580543292420147E-002   0.0000000000000000     
  -1.1045512886270981E-002   6.1175848099460937E-002   0.0000000000000000     
  -1.1609192296401753E-002   6.6960845247272180E-002   0.0000000000000000     
  -1.2158141694120970E-002   7.2935534735853874E-002   0.0000000000000000     
  -1.2692361079428631E-002   7.9099916565206055E-002   0.0000000000000000     
  -1.4012151177143229E-002   5.5777344074511168E-002   0.0000000000000000     
  -1.4780671228433365E-002   6.1362869857438510E-002   0.0000000000000000     
  -1.5529119509672586E-002   6.7139183824889440E-002   0.0000000000000000     
  -1.6257496020860893E-002   7.3106285976863972E-002   0.0000000000000000     
  -1.6965800761998284E-002   7.9264176313362106E-002   0.0000000000000000     
   7.8732723465813059E-013   7.8888725460503517E-002   0.0000000000000000     
   8.9656038669561067E-013   8.5225551850576453E-002   0.0000000000000000     
   1.0049648830126601E-012   9.1702291553073009E-002   0.0000000000000000     
   1.1125397749323779E-012   9.8318944567993227E-002   0.0000000000000000     
   1.2192872579641634E-012  0.10507551089533704        0.0000000000000000     
  -4.2094606980358287E-003   7.8912191138776747E-002   0.0000000000000000     
  -4.3815849845830323E-003   8.5248262841143813E-002   0.0000000000000000     
  -4.5425179422424501E-003   9.1724436643669111E-002   0.0000000000000000     
  -4.6922595710140848E-003   9.8340712546352640E-002   0.0000000000000000     
  -4.8308098708979364E-003  0.10509709054919435        0.0000000000000000     
  -8.4402477247744814E-003   7.8982588173677579E-002   0.0000000000000000     
  -8.7831346921550917E-003   8.5316395812929213E-002   0.0000000000000000     
  -9.1051194395070471E-003   9.1790871915523972E-002   0.0000000000000000     
  -9.4062019668303461E-003   9.8406016481461814E-002   0.0000000000000000     
  -9.6863822741249869E-003  0.10516182951074282        0.0000000000000000     
  -1.2692361079428631E-002   7.9099916565206055E-002   0.0000000000000000     
  -1.3204649121819623E-002   8.5429950765932586E-002   0.0000000000000000     
  -1.3687804490788828E-002   9.1901597368637511E-002   0.0000000000000000     
  -1.4141827186336239E-002   9.8514856373320789E-002   0.0000000000000000     
  -1.4566717208461860E-002  0.10526972777998243        0.0000000000000000     
  -1.6965800761998284E-002   7.9264176313362106E-002   0.0000000000000000     
  -1.7646128273576624E-002   8.5588927700153972E-002   0.0000000000000000     
  -1.8290573096087785E-002   9.2056613003009782E-002   0.0000000000000000     
  -1.8899135229531763E-002   9.8667232221929538E-002   0.0000000000000000     
  -1.9471814673908561E-002  0.10542078535691320        0.0000000000000000     
   1.2192872579641634E-012  0.10507551089533704        0.0000000000000000     
   1.3287244568505052E-012  0.11200105599516591        0.0000000000000000     
   1.4443739173447545E-012  0.11912464532754123        0.0000000000000000     
   1.5662327663111542E-012  0.12644627889246302        0.0000000000000000     
   1.6943031179439405E-012  0.13396595668993122        0.0000000000000000     
  -4.8308098708979364E-003  0.10509709054919435        0.0000000000000000     
  -4.9644832506163536E-003  0.11202157197825025        0.0000000000000000     
  -5.0995941188916880E-003  0.11914215815957625        0.0000000000000000     
  -5.2361424757239377E-003  0.12645884909317240        0.0000000000000000     
  -5.3741283211131072E-003  0.13397164477903867        0.0000000000000000     
  -9.6863822741249869E-003  0.10516182951074282        0.0000000000000000     
  -9.9563261352719375E-003  0.11208311992747216        0.0000000000000000     
  -1.0226699324152174E-002  0.11919469665575505        0.0000000000000000     
  -1.0497501840765694E-002  0.12649655969559154        0.0000000000000000     
  -1.0768733685112499E-002  0.13398870904698157        0.0000000000000000     
  -1.4566717208461860E-002  0.10526972777998243        0.0000000000000000     
  -1.4975528652638034E-002  0.11218569984283164        0.0000000000000000     
  -1.5381315614337089E-002  0.11928226081607764        0.0000000000000000     
  -1.5784078093559032E-002  0.12655941069972043        0.0000000000000000     
  -1.6183816090303862E-002  0.13401714949375998        0.0000000000000000     
  -1.9471814673908561E-002  0.10542078535691320        0.0000000000000000     
  -2.0022090802714637E-002  0.11232931172432870        0.0000000000000000     
  -2.0563442989446429E-002  0.11940485064054400        0.0000000000000000     
  -2.1095871234103957E-002  0.12664740210555908        0.0000000000000000     
  -2.1619375536687205E-002  0.13405696611937390        0.0000000000000000     
   1.6943031179439405E-012  0.13396595668993122        0.0000000000000000     
   2.1225239447975053E-012  0.14158140320691787        0.0000000000000000     
   3.1448323762825470E-012  0.14919034293039479        0.0000000000000000     
   4.7612310957994425E-012  0.15679277586036208        0.0000000000000000     
   6.9717192088813995E-012  0.16438870199681971        0.0000000000000000     
  -5.3741283211131072E-003  0.13397164477903867        0.0000000000000000     
  -5.4994833852962197E-003  0.14158255744920220        0.0000000000000000     
  -5.5981393985103083E-003  0.14919359933569018        0.0000000000000000     
  -5.6700963607553669E-003  0.15680477043850258        0.0000000000000000     
  -5.7153542720314006E-003  0.16441607075763945        0.0000000000000000     
  -1.0768733685112499E-002  0.13398870904698157        0.0000000000000000     
  -1.1019236393238600E-002  0.14158602017657973        0.0000000000000000     
  -1.1227851501190017E-002  0.14920336855104058        0.0000000000000000     
  -1.1394579008966756E-002  0.15684075417036411        0.0000000000000000     
  -1.1519418916568807E-002  0.16449817703455033        0.0000000000000000     
  -1.6183816090303862E-002  0.13401714949375998        0.0000000000000000     
  -1.6559259021704610E-002  0.14159179138905048        0.0000000000000000     
  -1.6889136304894296E-002  0.14921965057644607        0.0000000000000000     
  -1.7173447939872927E-002  0.15690072705594671        0.0000000000000000     
  -1.7412193926640503E-002  0.16463502082755244        0.0000000000000000     
  -2.1619375536687205E-002  0.13405696611937390        0.0000000000000000     
  -2.2119551270694243E-002  0.14159987108661443        0.0000000000000000     
  -2.2581993809623137E-002  0.14924244541190657        0.0000000000000000     
  -2.3006703153473893E-002  0.15698468909525035        0.0000000000000000     
  -2.3393679302246492E-002  0.16482660213664574        0.0000000000000000     
   0.0000000000000000        0.0000000000000000        0.0000000000000000     
  -8.4153196130038409E-004   1.1100256530195117E-003   0.0000000000000000     
  -1.7019045773106686E-003   2.5983282646172574E-003   0.0000000000000000     
  -2.5811178480308534E-003   4.4649078347932386E-003   0.0000000000000000     
  -3.4791717734609377E-003   6.7097643635474526E-003   0.0000000000000000     
   0.0000000000000000        0.0000000000000000        0.0000000000000000     
  -1.0565980412982070E-003   1.1341158248794675E-003   0.0000000000000000     
  -2.1395811132433650E-003   2.6504708511286591E-003   0.0000000000000000     
  -3.2489492158354746E-003   4.5490650787475741E-003   0.0000000000000000     
  -4.3847023490745330E-003   6.8298985077362125E-003   0.0000000000000000     
   0.0000000000000000        0.0000000000000000        0.0000000000000000     
  -1.2877549729843135E-003   1.1699431597504192E-003   0.0000000000000000     
  -2.6053685614531191E-003   2.7246513121084877E-003   0.0000000000000000     
  -3.9528407654064153E-003   4.6641244570742061E-003   0.0000000000000000     
  -5.3301715848442033E-003   6.9883625946475739E-003   0.0000000000000000     
   0.0000000000000000        0.0000000000000000        0.0000000000000000     
  -1.5350027563587046E-003   1.2175076576323664E-003   0.0000000000000000     
  -3.0992669219399305E-003   2.8208696475567449E-003   0.0000000000000000     
  -4.6927924967436778E-003   4.8100859697731355E-003   0.0000000000000000     
  -6.3155794807699447E-003   7.1851566242815369E-003   0.0000000000000000     
   0.0000000000000000        0.0000000000000000        0.0000000000000000     
  -1.7983413914213794E-003   1.2768093185253097E-003   0.0000000000000000     
  -3.6212761947037988E-003   2.9391258574734298E-003   0.0000000000000000     
  -5.4688044098472601E-003   4.9869496168443595E-003   0.0000000000000000     
  -7.3409260368517606E-003   7.4202805966381014E-003   0.0000000000000000     
  -3.4791717734609377E-003   6.7097643635474526E-003   0.0000000000000000     
  -4.3876584712302510E-003   9.2953710030172117E-003   0.0000000000000000     
  -5.2981700589681234E-003   1.2184200905339821E-002   0.0000000000000000     
  -6.2107065366745510E-003   1.5376254070515289E-002   0.0000000000000000     
  -7.1252679043495373E-003   1.8871530498543607E-002   0.0000000000000000     
  -4.3847023490745330E-003   6.8298985077362125E-003   0.0000000000000000     
  -5.5337443941000592E-003   9.4506956215776126E-003   0.0000000000000000     
  -6.6829792320515632E-003   1.2369180903754808E-002   0.0000000000000000     
  -7.8324068629290443E-003   1.5585354354267805E-002   0.0000000000000000     
  -8.9820272867325059E-003   1.9099215973116593E-002   0.0000000000000000     
  -5.3301715848442033E-003   6.9883625946475739E-003   0.0000000000000000     
  -6.7228374637183057E-003   9.6510181866754641E-003   0.0000000000000000     
  -8.1163148459805420E-003   1.2605743695004753E-002   0.0000000000000000     
  -9.5106037316309185E-003   1.5852539119635436E-002   0.0000000000000000     
  -1.0905704120669428E-002   1.9391404460567516E-002   0.0000000000000000     
  -6.3155794807699447E-003   7.1851566242815369E-003   0.0000000000000000     
  -7.9549376800849888E-003   9.8963386983107696E-003   0.0000000000000000     
  -9.5981769007550660E-003   1.2893889279089653E-002   0.0000000000000000     
  -1.1245297142780169E-002   1.6177808366618182E-002   0.0000000000000000     
  -1.2896298406160307E-002   1.9748095960896363E-002   0.0000000000000000     
  -7.3409260368517606E-003   7.4202805966381014E-003   0.0000000000000000     
  -9.2300450432001128E-003   1.0186657156483524E-002   0.0000000000000000     
  -1.1128565396375125E-002   1.3233617656009507E-002   0.0000000000000000     
  -1.3036487096376802E-002   1.6561162095216044E-002   0.0000000000000000     
  -1.4953810143205140E-002   2.0169290474103142E-002   0.0000000000000000     
  -7.1252679043495373E-003   1.8871530498543607E-002   0.0000000000000000     
  -8.0357269833902685E-003   2.2644800490432975E-002   0.0000000000000000     
  -8.9359565951939324E-003   2.6670834347191599E-002   0.0000000000000000     
  -9.8259567397605274E-003   3.0949632068819469E-002   0.0000000000000000     
  -1.0705727417090053E-002   3.5481193655316587E-002   0.0000000000000000     
  -8.9820272867325059E-003   1.9099215973116593E-002   0.0000000000000000     
  -1.0125215919110933E-002   2.2886874416325826E-002   0.0000000000000000     
  -1.1255348175713310E-002   2.6924438339920129E-002   0.0000000000000000     
  -1.2372424056539644E-002   3.1211907743899502E-002   0.0000000000000000     
  -1.3476443561589925E-002   3.5749282628263941E-002   0.0000000000000000     
  -1.0905704120669428E-002   1.9391404460567516E-002   0.0000000000000000     
  -1.2291597550791435E-002   2.3198388007146523E-002   0.0000000000000000     
  -1.3658265559692297E-002   2.7249538048717985E-002   0.0000000000000000     
  -1.5005708147372013E-002   3.1544854585281910E-002   0.0000000000000000     
  -1.6333925313830582E-002   3.6084337616838283E-002   0.0000000000000000     
  -1.2896298406160307E-002   1.9748095960896363E-002   0.0000000000000000     
  -1.4534871878431778E-002   2.3579341262895070E-002   0.0000000000000000     
  -1.6144708747130889E-002   2.7646133473585181E-002   0.0000000000000000     
  -1.7725809012257638E-002   3.1948472592966681E-002   0.0000000000000000     
  -1.9278172673812023E-002   3.6486358621039598E-002   0.0000000000000000     
  -1.4953810143205140E-002   2.0169290474103142E-002   0.0000000000000000     
  -1.6855038902031959E-002   2.4029734183571468E-002   0.0000000000000000     
  -1.8714677738029088E-002   2.8114224614521701E-002   0.0000000000000000     
  -2.0532726651196515E-002   3.2422761766953842E-002   0.0000000000000000     
  -2.2309185641534255E-002   3.6955345640867887E-002   0.0000000000000000     
  -1.0705727417090053E-002   3.5481193655316587E-002   0.0000000000000000     
  -1.1568370859876624E-002   4.0243160695715055E-002   0.0000000000000000     
  -1.2406989300814341E-002   4.5213174779046975E-002   0.0000000000000000     
  -1.3221582739903211E-002   5.0391235905312352E-002   0.0000000000000000     
  -1.4012151177143229E-002   5.5777344074511168E-002   0.0000000000000000     
  -1.3476443561589925E-002   3.5749282628263941E-002   0.0000000000000000     
  -1.4558229203985393E-002   4.0513758983150502E-002   0.0000000000000000     
  -1.5608603496847279E-002   4.5482532798696157E-002   0.0000000000000000     
  -1.6627566440175583E-002   5.0655604074900940E-002   0.0000000000000000     
  -1.7615118033970305E-002   5.6032972811764850E-002   0.0000000000000000     
  -1.6333925313830582E-002   3.6084337616838283E-002   0.0000000000000000     
  -1.7633628108911534E-002   4.0847118016603616E-002   0.0000000000000000     
  -1.8895527582458379E-002   4.5812326657794403E-002   0.0000000000000000     
  -2.0119623734471129E-002   5.0979963540410650E-002   0.0000000000000000     
  -2.1305916564949776E-002   5.6350028664452351E-002   0.0000000000000000     
  -1.9278172673812023E-002   3.6486358621039598E-002   0.0000000000000000     
  -2.0794567574655032E-002   4.1243237796074445E-002   0.0000000000000000     
  -2.2267761557647640E-002   4.6202556356341719E-002   0.0000000000000000     
  -2.3697754622789849E-002   5.1364314301841477E-002   0.0000000000000000     
  -2.5084546770081661E-002   5.6728511632573676E-002   0.0000000000000000     
  -2.2309185641534255E-002   3.6955345640867887E-002   0.0000000000000000     
  -2.4041047601215906E-002   4.1702118321562939E-002   0.0000000000000000     
  -2.5725305422415065E-002   4.6653221894338112E-002   0.0000000000000000     
  -2.7361959105131752E-002   5.1808656359193406E-002   0.0000000000000000     
  -2.8951008649365947E-002   5.7168421716128820E-002   0.0000000000000000     
  -1.4012151177143229E-002   5.5777344074511168E-002   0.0000000000000000     
  -1.4780671228433365E-002   6.1362869857438510E-002   0.0000000000000000     
  -1.5529119509672586E-002   6.7139183824889440E-002   0.0000000000000000     
  -1.6257496020860893E-002   7.3106285976863972E-002   0.0000000000000000     
  -1.6965800761998284E-002   7.9264176313362106E-002   0.0000000000000000     
  -1.7615118033970305E-002   5.6032972811764850E-002   0.0000000000000000     
  -1.8574077885296674E-002   6.1608206009719800E-002   0.0000000000000000     
  -1.9507265601219938E-002   6.7374870669197728E-002   0.0000000000000000     
  -2.0414681181740082E-002   7.3332966790198600E-002   0.0000000000000000     
  -2.1296324626857124E-002   7.9482494372722451E-002   0.0000000000000000     
  -2.1305916564949776E-002   5.6350028664452351E-002   0.0000000000000000     
  -2.2457320814947793E-002   6.1916736162606387E-002   0.0000000000000000     
  -2.3576751225518645E-002   6.7674300167559640E-002   0.0000000000000000     
  -2.4664207796662320E-002   7.3622720679312109E-002   0.0000000000000000     
  -2.5719690528378841E-002   7.9761997697863810E-002   0.0000000000000000     
  -2.5084546770081661E-002   5.6728511632573676E-002   0.0000000000000000     
  -2.6430400017386731E-002   6.2288460316098269E-002   0.0000000000000000     
  -2.7737576382568713E-002   6.8037472319975228E-002   0.0000000000000000     
  -2.9006075865627614E-002   7.3975547644204498E-002   0.0000000000000000     
  -3.0235898466563441E-002   8.0102686288786140E-002   0.0000000000000000     
  -2.8951008649365947E-002   5.7168421716128820E-002   0.0000000000000000     
  -3.0493315492613471E-002   6.2723378470195462E-002   0.0000000000000000     
  -3.1989741072370140E-002   6.8464387126444454E-002   0.0000000000000000     
  -3.3440285388635950E-002   7.4391447684875781E-002   0.0000000000000000     
  -3.4844948441410908E-002   8.0504560145489470E-002   0.0000000000000000     
  -1.6965800761998284E-002   7.9264176313362106E-002   0.0000000000000000     
  -1.7646128273576624E-002   8.5588927700153972E-002   0.0000000000000000     
  -1.8290573096087785E-002   9.2056613003009782E-002   0.0000000000000000     
  -1.8899135229531763E-002   9.8667232221929538E-002   0.0000000000000000     
  -1.9471814673908561E-002  0.10542078535691320        0.0000000000000000     
  -2.1296324626857124E-002   7.9482494372722451E-002   0.0000000000000000     
  -2.2143955533703196E-002   8.5799692390608057E-002   0.0000000000000000     
  -2.2949333499410460E-002   9.2260799817694195E-002   0.0000000000000000     
  -2.3712458523978901E-002   9.8865816653980823E-002   0.0000000000000000     
  -2.4433330607408540E-002  0.10561474289946798        0.0000000000000000     
  -2.5719690528378841E-002   7.9761997697863810E-002   0.0000000000000000     
  -2.6734514288476442E-002   8.6068610612309540E-002   0.0000000000000000     
  -2.7699993944763367E-002   9.2519038811744087E-002   0.0000000000000000     
  -2.8616129497239632E-002   9.9113282296167476E-002   0.0000000000000000     
  -2.9482920945905225E-002  0.10585134106557968        0.0000000000000000     
  -3.0235898466563441E-002   8.0102686288786140E-002   0.0000000000000000     
  -3.1417804537896346E-002   8.6395682365258394E-002   0.0000000000000000     
  -3.2542554432146514E-002   9.2831329985159500E-002   0.0000000000000000     
  -3.3610148149313943E-002   9.9409629148489428E-002   0.0000000000000000     
  -3.4620585689398638E-002  0.10613057985524829        0.0000000000000000     
  -3.4844948441410908E-002   8.0504560145489470E-002   0.0000000000000000     
  -3.6193826281962931E-002   8.6780907649454619E-002   0.0000000000000000     
  -3.7477014961559904E-002   9.3197673337940407E-002   0.0000000000000000     
  -3.8694514480201857E-002   9.9754857210946804E-002   0.0000000000000000     
  -3.9846324837888761E-002  0.10645245926847380        0.0000000000000000     
  -1.9471814673908561E-002  0.10542078535691320        0.0000000000000000     
  -2.0022090802714637E-002  0.11232931172432870        0.0000000000000000     
  -2.0563442989446429E-002  0.11940485064054400        0.0000000000000000     
  -2.1095871234103957E-002  0.12664740210555908        0.0000000000000000     
  -2.1619375536687205E-002  0.13405696611937390        0.0000000000000000     
  -2.4433330607408540E-002  0.10561474289946798        0.0000000000000000     
  -2.5125844670708511E-002  0.11251356792259037        0.0000000000000000     
  -2.5803895634887976E-002  0.11956828109178269        0.0000000000000000     
  -2.6467483499946931E-002  0.12677888240704496        0.0000000000000000     
  -2.7116608265885373E-002  0.13414537186837716        0.0000000000000000     
  -2.9482920945905225E-002  0.10585134106557968        0.0000000000000000     
  -3.0316622341826426E-002  0.11273808078824366        0.0000000000000000     
  -3.1133487736069491E-002  0.11977836713242231        0.0000000000000000     
  -3.1933517128634431E-002  0.12697220009811563        0.0000000000000000     
  -3.2716710519521214E-002  0.13431957968532360        0.0000000000000000     
  -3.4620585689398638E-002  0.10613057985524829        0.0000000000000000     
  -3.5594423816068380E-002  0.11300285032128857        0.0000000000000000     
  -3.6552219292990983E-002  0.12003510876246280        0.0000000000000000     
  -3.7493972120166433E-002  0.12722735517877101        0.0000000000000000     
  -3.8419682297594737E-002  0.13457958957021324        0.0000000000000000     
  -3.9846324837888761E-002  0.10645245926847380        0.0000000000000000     
  -4.0959249093434388E-002  0.11330787652172505        0.0000000000000000     
  -4.2060090305652456E-002  0.12033850598190420        0.0000000000000000     
  -4.3148848474542971E-002  0.12754434764901121        0.0000000000000000     
  -4.4225523600105926E-002  0.13492540152304605        0.0000000000000000     
  -2.1619375536687205E-002  0.13405696611937390        0.0000000000000000     
  -2.2119551270694243E-002  0.14159987108661443        0.0000000000000000     
  -2.2581993809623137E-002  0.14924244541190657        0.0000000000000000     
  -2.3006703153473893E-002  0.15698468909525035        0.0000000000000000     
  -2.3393679302246492E-002  0.16482660213664574        0.0000000000000000     
  -2.7116608265885373E-002  0.13414537186837716        0.0000000000000000     
  -2.7742891819465251E-002  0.14165879668325401        0.0000000000000000     
  -2.8337956047448501E-002  0.14931020405915038        0.0000000000000000     
  -2.8901800949835122E-002  0.15709959399606618        0.0000000000000000     
  -2.9434426526625115E-002  0.16502696649400139        0.0000000000000000     
  -3.2716710519521214E-002  0.13431957968532360        0.0000000000000000     
  -3.3472059347275360E-002  0.14181710559295180        0.0000000000000000     
  -3.4188555050442326E-002  0.14946137751990568        0.0000000000000000     
  -3.4866197629022107E-002  0.15725239546618530        0.0000000000000000     
  -3.5504987083014736E-002  0.16519015943179072        0.0000000000000000     
  -3.8419682297594737E-002  0.13457958957021324        0.0000000000000000     
  -3.9307053854124571E-002  0.14207479781570767        0.0000000000000000     
  -4.0133790818604610E-002  0.14969596579417252        0.0000000000000000     
  -4.0899893191034868E-002  0.15744309350560787        0.0000000000000000     
  -4.1605360971415338E-002  0.16531618095001360        0.0000000000000000     
  -4.4225523600105926E-002  0.13492540152304605        0.0000000000000000     
  -4.5247875340012879E-002  0.14243187335152169        0.0000000000000000     
  -4.6173663351935360E-002  0.15001396888195090        0.0000000000000000     
  -4.7002887635873382E-002  0.15767168811433371        0.0000000000000000     
  -4.7735548191826932E-002  0.16540503104867010        0.0000000000000000     
   0.0000000000000000        0.0000000000000000        0.0000000000000000     
  -1.7983413914213794E-003   1.2768093185253097E-003   0.0000000000000000     
  -3.6212761947037988E-003   2.9391258574734298E-003   0.0000000000000000     
  -5.4688044098472601E-003   4.9869496168443595E-003   0.0000000000000000     
  -7.3409260368517606E-003   7.4202805966381014E-003   0.0000000000000000     
   0.0000000000000000        0.0000000000000000        0.0000000000000000     
  -2.0694920740794332E-003   1.3549320092572014E-003   0.0000000000000000     
  -4.1640428894224053E-003   3.0939104595277102E-003   0.0000000000000000     
  -6.2836524460289159E-003   5.2169353508115255E-003   0.0000000000000000     
  -8.4283207438989663E-003   7.7240066831086480E-003   0.0000000000000000     
   0.0000000000000000        0.0000000000000000        0.0000000000000000     
  -2.3401760002399615E-003   1.4589595966559947E-003   0.0000000000000000     
  -4.7202135157734292E-003   3.2997139713887525E-003   0.0000000000000000     
  -7.1401125466003992E-003   5.5222631241982744E-003   0.0000000000000000     
  -9.5998730927208745E-003   8.1266070550845577E-003   0.0000000000000000     
   0.0000000000000000        0.0000000000000000        0.0000000000000000     
  -2.6103931699029644E-003   1.5888920807216895E-003   0.0000000000000000     
  -5.2897880737568679E-003   3.5565363930565586E-003   0.0000000000000000     
  -8.0381847115617092E-003   5.9029329370046063E-003   0.0000000000000000     
  -1.0855583083317490E-002   8.6280817125658337E-003   0.0000000000000000     
   0.0000000000000000        0.0000000000000000        0.0000000000000000     
  -2.8801435830684416E-003   1.7447294614542862E-003   0.0000000000000000     
  -5.8727665633727241E-003   3.8643777245311274E-003   0.0000000000000000     
  -8.9778689409128476E-003   6.3589447892305239E-003   0.0000000000000000     
  -1.2195450715688812E-002   9.2284306555524744E-003   0.0000000000000000     
  -7.3409260368517606E-003   7.4202805966381014E-003   0.0000000000000000     
  -9.2300450432001128E-003   1.0186657156483524E-002   0.0000000000000000     
  -1.1128565396375125E-002   1.3233617656009507E-002   0.0000000000000000     
  -1.3036487096376802E-002   1.6561162095216044E-002   0.0000000000000000     
  -1.4953810143205140E-002   2.0169290474103142E-002   0.0000000000000000     
  -8.4283207438989663E-003   7.7240066831086480E-003   0.0000000000000000     
  -1.0589862685732787E-002   1.0557781926316226E-002   0.0000000000000000     
  -1.2760093174230609E-002   1.3660918550331412E-002   0.0000000000000000     
  -1.4939012209392432E-002   1.7033416555154200E-002   0.0000000000000000     
  -1.7126619791218257E-002   2.0675275940784603E-002   0.0000000000000000     
  -9.5998730927208745E-003   8.1266070550845577E-003   0.0000000000000000     
  -1.2076093740352118E-002   1.1045521372931365E-002   0.0000000000000000     
  -1.4545373075711382E-002   1.4211781686622458E-002   0.0000000000000000     
  -1.7007711098798676E-002   1.7625387996157836E-002   0.0000000000000000     
  -1.9463107809613991E-002   2.1286340301537497E-002   0.0000000000000000     
  -1.0855583083317490E-002   8.6280817125658337E-003   0.0000000000000000     
  -1.3688738207058109E-002   1.1649875496328949E-002   0.0000000000000000     
  -1.6484405100817456E-002   1.4886207064882650E-002   0.0000000000000000     
  -1.9242583764595533E-002   1.8337076418226940E-002   0.0000000000000000     
  -2.1963274198392342E-002   2.2002483556361821E-002   0.0000000000000000     
  -1.2195450715688812E-002   9.2284306555524744E-003   0.0000000000000000     
  -1.5427796085850756E-002   1.2370844296508967E-002   0.0000000000000000     
  -1.8577189249548817E-002   1.5684194685111983E-002   0.0000000000000000     
  -2.1643630206783004E-002   1.9168481821361525E-002   0.0000000000000000     
  -2.4627118957553304E-002   2.2823705705257588E-002   0.0000000000000000     
  -1.4953810143205140E-002   2.0169290474103142E-002   0.0000000000000000     
  -1.6855038902031959E-002   2.4029734183571468E-002   0.0000000000000000     
  -1.8714677738029088E-002   2.8114224614521701E-002   0.0000000000000000     
  -2.0532726651196515E-002   3.2422761766953842E-002   0.0000000000000000     
  -2.2309185641534255E-002   3.6955345640867887E-002   0.0000000000000000     
  -1.7126619791218257E-002   2.0675275940784603E-002   0.0000000000000000     
  -1.9291300490456239E-002   2.4558731653260415E-002   0.0000000000000000     
  -2.1401438877854537E-002   2.8656018638619454E-002   0.0000000000000000     
  -2.3457034953413142E-002   3.2967136896861739E-002   0.0000000000000000     
  -2.5458088717132066E-002   3.7492086427987237E-002   0.0000000000000000     
  -1.9463107809613991E-002   2.1286340301537497E-002   0.0000000000000000     
  -2.1882858512568881E-002   2.5175498556046609E-002   0.0000000000000000     
  -2.4238258512074881E-002   2.9273722712970362E-002   0.0000000000000000     
  -2.6529307808132001E-002   3.3581012772308745E-002   0.0000000000000000     
  -2.8756006400740230E-002   3.8097368734061762E-002   0.0000000000000000     
  -2.1963274198392342E-002   2.2002483556361821E-002   0.0000000000000000     
  -2.4629712968369872E-002   2.5880034891930061E-002   0.0000000000000000     
  -2.7225136640690119E-002   2.9967336837574413E-002   0.0000000000000000     
  -2.9749545215353088E-002   3.4264389393294882E-002   0.0000000000000000     
  -3.2202938692358775E-002   3.8771192559091470E-002   0.0000000000000000     
  -2.4627118957553304E-002   2.2823705705257588E-002   0.0000000000000000     
  -2.7531863857859221E-002   2.6672340660910759E-002   0.0000000000000000     
  -3.0362073263700256E-002   3.0736861012431605E-002   0.0000000000000000     
  -3.3117747175076415E-002   3.5017266759820136E-002   0.0000000000000000     
  -3.5798885591987677E-002   3.9513557903076341E-002   0.0000000000000000     
  -2.2309185641534255E-002   3.6955345640867887E-002   0.0000000000000000     
  -2.4041047601215906E-002   4.1702118321562939E-002   0.0000000000000000     
  -2.5725305422415065E-002   4.6653221894338112E-002   0.0000000000000000     
  -2.7361959105131752E-002   5.1808656359193406E-002   0.0000000000000000     
  -2.8951008649365947E-002   5.7168421716128820E-002   0.0000000000000000     
  -2.5458088717132066E-002   3.7492086427987237E-002   0.0000000000000000     
  -2.7405728541996865E-002   4.2227007078336383E-002   0.0000000000000000     
  -2.9301082800993115E-002   4.7168038694249556E-002   0.0000000000000000     
  -3.1144151494120826E-002   5.2315181275726791E-002   0.0000000000000000     
  -3.2934934621379981E-002   5.7668434822768060E-002   0.0000000000000000     
  -2.8756006400740230E-002   3.8097368734061762E-002   0.0000000000000000     
  -3.0921270750400635E-002   4.2821151551662009E-002   0.0000000000000000     
  -3.3028017317614247E-002   4.7750722178542079E-002   0.0000000000000000     
  -3.5076246102381074E-002   5.2886080614701951E-002   0.0000000000000000     
  -3.7065957104701119E-002   5.8227226860141632E-002   0.0000000000000000     
  -3.2202938692358775E-002   3.8771192559091470E-002   0.0000000000000000     
  -3.4587674226427209E-002   4.3484551741539833E-002   0.0000000000000000     
  -3.6906108972278459E-002   4.8401272347215633E-002   0.0000000000000000     
  -3.9158242929912511E-002   5.3521354376118886E-002   0.0000000000000000     
  -4.1344076099329372E-002   5.8844797828249570E-002   0.0000000000000000     
  -3.5798885591987677E-002   3.9513557903076341E-002   0.0000000000000000     
  -3.8404938970076609E-002   4.4217207647969846E-002   0.0000000000000000     
  -4.0935357764985761E-002   4.9119689200270274E-002   0.0000000000000000     
  -4.3390141976715139E-002   5.4221002559977596E-002   0.0000000000000000     
  -4.5769291605264731E-002   5.9521147727091855E-002   0.0000000000000000     
  -2.8951008649365947E-002   5.7168421716128820E-002   0.0000000000000000     
  -3.0493315492613471E-002   6.2723378470195462E-002   0.0000000000000000     
  -3.1989741072370140E-002   6.8464387126444454E-002   0.0000000000000000     
  -3.3440285388635950E-002   7.4391447684875781E-002   0.0000000000000000     
  -3.4844948441410908E-002   8.0504560145489470E-002   0.0000000000000000     
  -3.2934934621379981E-002   5.7668434822768060E-002   0.0000000000000000     
  -3.4673116792974211E-002   6.3216283900960180E-002   0.0000000000000000     
  -3.6358382619107121E-002   6.8947213075889940E-002   0.0000000000000000     
  -3.7990732099778712E-002   7.4861222347557363E-002   0.0000000000000000     
  -3.9570165234988991E-002   8.0958311715962419E-002   0.0000000000000000     
  -3.7065957104701119E-002   5.8227226860141632E-002   0.0000000000000000     
  -3.8996853470815135E-002   6.3761969884454595E-002   0.0000000000000000     
  -4.0868638346963845E-002   6.9478118657234231E-002   0.0000000000000000     
  -4.2681311733147258E-002   7.5375673178480609E-002   0.0000000000000000     
  -4.4434873629365372E-002   8.1454633448193633E-002   0.0000000000000000     
  -4.1344076099329372E-002   5.8844797828249570E-002   0.0000000000000000     
  -4.3464525526136243E-002   6.4360436420678721E-002   0.0000000000000000     
  -4.5520508255940312E-002   7.0057103870477366E-002   0.0000000000000000     
  -4.7512024288741593E-002   7.5934800177645492E-002   0.0000000000000000     
  -4.9439073624540079E-002   8.1993525342183099E-002   0.0000000000000000     
  -4.5769291605264731E-002   5.9521147727091855E-002   0.0000000000000000     
  -4.8076132958937527E-002   6.5011683509632573E-002   0.0000000000000000     
  -5.0313992346036521E-002   7.0684168715619319E-002   0.0000000000000000     
  -5.2482869766561718E-002   7.6538603345052067E-002   0.0000000000000000     
  -5.4582765220513099E-002   8.2574987397930830E-002   0.0000000000000000     
  -3.4844948441410908E-002   8.0504560145489470E-002   0.0000000000000000     
  -3.6193826281962931E-002   8.6780907649454619E-002   0.0000000000000000     
  -3.7477014961559904E-002   9.3197673337940407E-002   0.0000000000000000     
  -3.8694514480201857E-002   9.9754857210946804E-002   0.0000000000000000     
  -3.9846324837888761E-002  0.10645245926847380        0.0000000000000000     
  -3.9570165234988991E-002   8.0958311715962419E-002   0.0000000000000000     
  -4.1085990539263310E-002   8.7216111911795888E-002   0.0000000000000000     
  -4.2527516527127038E-002   9.3612253665748449E-002   0.0000000000000000     
  -4.3894743198580173E-002  0.10014673697782012        0.0000000000000000     
  -4.5187670553622709E-002  0.10681956184801088        0.0000000000000000     
  -4.4434873629365372E-002   8.1454633448193633E-002   0.0000000000000000     
  -4.6117708328384605E-002   8.7693120599179719E-002   0.0000000000000000     
  -4.7718200122971385E-002   9.4069255764245185E-002   0.0000000000000000     
  -4.9236349013125701E-002  0.10058303894338999        0.0000000000000000     
  -5.0672154998847564E-002  0.10723447013661418        0.0000000000000000     
  -4.9439073624540079E-002   8.1993525342183099E-002   0.0000000000000000     
  -5.1288979649326855E-002   8.8211933711606169E-002   0.0000000000000000     
  -5.3049065749092982E-002   9.4568679633430616E-002   0.0000000000000000     
  -5.4719331923838488E-002  0.10106376310765645        0.0000000000000000     
  -5.6299778173563339E-002  0.10769718413428371        0.0000000000000000     
  -5.4582765220513099E-002   8.2574987397930830E-002   0.0000000000000000     
  -5.6599804502090019E-002   8.8772551249075196E-002   0.0000000000000000     
  -5.8520113405491812E-002   9.5110525273304769E-002   0.0000000000000000     
  -6.0343691930718479E-002  0.10158890947061951        0.0000000000000000     
  -6.2070540077770020E-002  0.10820770384101946        0.0000000000000000     
  -3.9846324837888761E-002  0.10645245926847380        0.0000000000000000     
  -4.0959249093434388E-002  0.11330787652172505        0.0000000000000000     
  -4.2060090305652456E-002  0.12033850598190420        0.0000000000000000     
  -4.3148848474542971E-002  0.12754434764901121        0.0000000000000000     
  -4.4225523600105926E-002  0.13492540152304605        0.0000000000000000     
  -4.5187670553622709E-002  0.10681956184801088        0.0000000000000000     
  -4.6439429585268623E-002  0.11365677440571144        0.0000000000000000     
  -4.7683151286531868E-002  0.12068442078031250        0.0000000000000000     
  -4.8918835657412431E-002  0.12790250097181399        0.0000000000000000     
  -5.0146482697910333E-002  0.13531101498021600        0.0000000000000000     
  -5.0672154998847564E-002  0.10723447013661418        0.0000000000000000     
  -5.2063296702915283E-002  0.11405315898940600        0.0000000000000000     
  -5.3447452748107180E-002  0.12106871514725374        0.0000000000000000     
  -5.4824623134423260E-002  0.12828113861015741        0.0000000000000000     
  -5.6194807861863517E-002  0.13569042937811693        0.0000000000000000     
  -5.6299778173563339E-002  0.10769718413428371        0.0000000000000000     
  -5.7830850446374364E-002  0.11449703027280875        0.0000000000000000     
  -5.9352994690378393E-002  0.12149138908272794        0.0000000000000000     
  -6.0866210905575431E-002  0.12868026056404130        0.0000000000000000     
  -6.2370499091965466E-002  0.13606364471674887        0.0000000000000000     
  -6.2070540077770020E-002  0.10820770384101946        0.0000000000000000     
  -6.3742090815645885E-002  0.11498838825591964        0.0000000000000000     
  -6.5399777113345534E-002  0.12195244258673509        0.0000000000000000     
  -6.7043598970868964E-002  0.12909986683346580        0.0000000000000000     
  -6.8673556388216178E-002  0.13643066099611181        0.0000000000000000     
  -4.4225523600105926E-002  0.13492540152304605        0.0000000000000000     
  -4.5247875340012879E-002  0.14243187335152169        0.0000000000000000     
  -4.6173663351935360E-002  0.15001396888195090        0.0000000000000000     
  -4.7002887635873382E-002  0.15767168811433371        0.0000000000000000     
  -4.7735548191826932E-002  0.16540503104867010        0.0000000000000000     
  -5.0146482697910333E-002  0.13531101498021600        0.0000000000000000     
  -5.1304290898499784E-002  0.14282689049066524        0.0000000000000000     
  -5.2330458749655001E-002  0.15036705518830851        0.0000000000000000     
  -5.3224986251375957E-002  0.15793150907314576        0.0000000000000000     
  -5.3987873403662685E-002  0.16552025214517707        0.0000000000000000     
  -5.6194807861863517E-002  0.13569042937811693        0.0000000000000000     
  -5.7486067623144795E-002  0.14319840752340970        0.0000000000000000     
  -5.8626463110983941E-002  0.15070689311831301        0.0000000000000000     
  -5.9615994325380922E-002  0.15821588616282689        0.0000000000000000     
  -6.0454661266335773E-002  0.16572538665695130        0.0000000000000000     
  -6.2370499091965466E-002  0.13606364471674887        0.0000000000000000     
  -6.3793205513947890E-002  0.14354642444975510        0.0000000000000000     
  -6.5061676435922186E-002  0.15103348267196445        0.0000000000000000     
  -6.6175911857888264E-002  0.15852481938337704        0.0000000000000000     
  -6.7135911779846180E-002  0.16602043458399274        0.0000000000000000     
  -6.8673556388216178E-002  0.13643066099611181        0.0000000000000000     
  -7.0225704570909112E-002  0.14387094126970137        0.0000000000000000     
  -7.1636098724469716E-002  0.15134682384926285        0.0000000000000000     
  -7.2904738848897990E-002  0.15885830873479620        0.0000000000000000     
  -7.4031624944193936E-002  0.16640539592630149        0.0000000000000000     
   0.0000000000000000        0.0000000000000000        0.0000000000000000     
  -2.8801435830684416E-003   1.7447294614542862E-003   0.0000000000000000     
  -5.8727665633727241E-003   3.8643777245311274E-003   0.0000000000000000     
  -8.9778689409128476E-003   6.3589447892305239E-003   0.0000000000000000     
  -1.2195450715688812E-002   9.2284306555524744E-003   0.0000000000000000     
   0.0000000000000000        0.0000000000000000        0.0000000000000000     
  -3.2832792791793906E-003   1.9992048859529474E-003   0.0000000000000000     
  -6.6771152885448859E-003   4.3306306865497479E-003   0.0000000000000000     
  -1.0181508028096486E-002   6.9942774017903997E-003   0.0000000000000000     
  -1.3796457497834189E-002   9.9901450316749046E-003   0.0000000000000000     
   0.0000000000000000        0.0000000000000000        0.0000000000000000     
  -3.9536522976788106E-003   2.4250515013168380E-003   0.0000000000000000     
  -7.9108005531972423E-003   5.0626879998497071E-003   0.0000000000000000     
  -1.1871444766555295E-002   7.9129094955986117E-003   0.0000000000000000     
  -1.5835584937752969E-002   1.0975715988563546E-002   0.0000000000000000     
   0.0000000000000000        0.0000000000000000        0.0000000000000000     
  -4.8912626385666999E-003   3.0222693075459568E-003   0.0000000000000000     
  -9.5738223573297952E-003   6.0605496644310095E-003   0.0000000000000000     
  -1.4047679156289279E-002   9.1148410706551573E-003   0.0000000000000000     
  -1.8312833035445161E-002   1.2185143526218403E-002   0.0000000000000000     
   0.0000000000000000        0.0000000000000000        0.0000000000000000     
  -6.0961103018430593E-003   3.7908583046403037E-003   0.0000000000000000     
  -1.1666180700942538E-002   7.3242156802936498E-003   0.0000000000000000     
  -1.6710211197298437E-002   1.0600072126960038E-002   0.0000000000000000     
  -2.1228201790910752E-002   1.3618427644639471E-002   0.0000000000000000     
  -1.2195450715688812E-002   9.2284306555524744E-003   0.0000000000000000     
  -1.5427796085850756E-002   1.2370844296508967E-002   0.0000000000000000     
  -1.8577189249548817E-002   1.5684194685111983E-002   0.0000000000000000     
  -2.1643630206783004E-002   1.9168481821361525E-002   0.0000000000000000     
  -2.4627118957553304E-002   2.2823705705257588E-002   0.0000000000000000     
  -1.3796457497834189E-002   9.9901450316749046E-003   0.0000000000000000     
  -1.7404839062613909E-002   1.3220285363591214E-002   0.0000000000000000     
  -2.0889528087291574E-002   1.6586750184927286E-002   0.0000000000000000     
  -2.4250524571867164E-002   2.0089539495683116E-002   0.0000000000000000     
  -2.7487828516340702E-002   2.3728653295858711E-002   0.0000000000000000     
  -1.5835584937752969E-002   1.0975715988563546E-002   0.0000000000000000     
  -1.9731438823231424E-002   1.4210056287695481E-002   0.0000000000000000     
  -2.3487224179431800E-002   1.7574879201945386E-002   0.0000000000000000     
  -2.7102941006354107E-002   2.1070184731313262E-002   0.0000000000000000     
  -3.0578589303998340E-002   2.4695972875799103E-002   0.0000000000000000     
  -1.8312833035445161E-002   1.2185143526218403E-002   0.0000000000000000     
  -2.2407595367703280E-002   1.5340157068821773E-002   0.0000000000000000     
  -2.6370277525969505E-002   1.8648581736166289E-002   0.0000000000000000     
  -3.0200879510243812E-002   2.2110417528251960E-002   0.0000000000000000     
  -3.3899401320526226E-002   2.5725664445078778E-002   0.0000000000000000     
  -2.1228201790910752E-002   1.3618427644639471E-002   0.0000000000000000     
  -2.5433308696029500E-002   1.6610587706970076E-002   0.0000000000000000     
  -2.9538688126904682E-002   1.9807857787589984E-002   0.0000000000000000     
  -3.3544340083536302E-002   2.3210237886499202E-002   0.0000000000000000     
  -3.7450264565924353E-002   2.6817728003697722E-002   0.0000000000000000     
  -2.4627118957553304E-002   2.2823705705257588E-002   0.0000000000000000     
  -2.7531863857859221E-002   2.6672340660910759E-002   0.0000000000000000     
  -3.0362073263700256E-002   3.0736861012431605E-002   0.0000000000000000     
  -3.3117747175076415E-002   3.5017266759820136E-002   0.0000000000000000     
  -3.5798885591987677E-002   3.9513557903076341E-002   0.0000000000000000     
  -2.7487828516340702E-002   2.3728653295858711E-002   0.0000000000000000     
  -3.0624722454037370E-002   2.7546475077321358E-002   0.0000000000000000     
  -3.3684488918282379E-002   3.1585388331938337E-002   0.0000000000000000     
  -3.6667127909075725E-002   3.5845393059709650E-002   0.0000000000000000     
  -3.9572639426417415E-002   4.0326489260635305E-002   0.0000000000000000     
  -3.0578589303998340E-002   2.4695972875799103E-002   0.0000000000000000     
  -3.3943700029904746E-002   2.8496497355494491E-002   0.0000000000000000     
  -3.7227804141613578E-002   3.2516011890490977E-002   0.0000000000000000     
  -4.0430901639124807E-002   3.6754516480788577E-002   0.0000000000000000     
  -4.3552992522438459E-002   4.1212011126387289E-002   0.0000000000000000     
  -3.3899401320526226E-002   2.5725664445078778E-002   0.0000000000000000     
  -3.7488796585461358E-002   2.9522407495430170E-002   0.0000000000000000     
  -4.0992018933693829E-002   3.3528731688089543E-002   0.0000000000000000     
  -4.4409068365223660E-002   3.7744637023056922E-002   0.0000000000000000     
  -4.7739944880050809E-002   4.2170123500332286E-002   0.0000000000000000     
  -3.7450264565924353E-002   2.6817728003697722E-002   0.0000000000000000     
  -4.1260012120707193E-002   3.0624205497128392E-002   0.0000000000000000     
  -4.4977133294523165E-002   3.4623547724734041E-002   0.0000000000000000     
  -4.8601628087372256E-002   3.8815754686514679E-002   0.0000000000000000     
  -5.2133496499254472E-002   4.3200826382470296E-002   0.0000000000000000     
  -3.5798885591987677E-002   3.9513557903076341E-002   0.0000000000000000     
  -3.8404938970076609E-002   4.4217207647969846E-002   0.0000000000000000     
  -4.0935357764985761E-002   4.9119689200270274E-002   0.0000000000000000     
  -4.3390141976715139E-002   5.4221002559977596E-002   0.0000000000000000     
  -4.5769291605264731E-002   5.9521147727091855E-002   0.0000000000000000     
  -3.9572639426417415E-002   4.0326489260635305E-002   0.0000000000000000     
  -4.2397462744991669E-002   4.5015770746544122E-002   0.0000000000000000     
  -4.5138037139482709E-002   4.9900331329264920E-002   0.0000000000000000     
  -4.7794362609890548E-002   5.4980171008797700E-002   0.0000000000000000     
  -5.0366439156215165E-002   6.0255289785142462E-002   0.0000000000000000     
  -4.3552992522438459E-002   4.1212011126387289E-002   0.0000000000000000     
  -4.6589643314815250E-002   4.5876892512854740E-002   0.0000000000000000     
  -4.9536420539515867E-002   5.0737557325758575E-002   0.0000000000000000     
  -5.2393324196540352E-002   5.5794005565098795E-002   0.0000000000000000     
  -5.5160354285888662E-002   6.1046237230875371E-002   0.0000000000000000     
  -4.7739944880050809E-002   4.2170123500332286E-002   0.0000000000000000     
  -5.0981480679547345E-002   4.6800572946901701E-002   0.0000000000000000     
  -5.4130507965085256E-002   5.1631367189751219E-002   0.0000000000000000     
  -5.7187026736664558E-002   5.6662506228880860E-002   0.0000000000000000     
  -6.0151036994285235E-002   6.1893990064290590E-002   0.0000000000000000     
  -5.2133496499254472E-002   4.3200826382470296E-002   0.0000000000000000     
  -5.5572974839187959E-002   4.7786812048684998E-002   0.0000000000000000     
  -5.8920299416190848E-002   5.2581760921242865E-002   0.0000000000000000     
  -6.2175470230263152E-002   5.7585673000143903E-002   0.0000000000000000     
  -6.5338487281404858E-002   6.2798548285388112E-002   0.0000000000000000     
  -4.5769291605264731E-002   5.9521147727091855E-002   0.0000000000000000     
  -4.8076132958937527E-002   6.5011683509632573E-002   0.0000000000000000     
  -5.0313992346036521E-002   7.0684168715619319E-002   0.0000000000000000     
  -5.2482869766561718E-002   7.6538603345052067E-002   0.0000000000000000     
  -5.4582765220513099E-002   8.2574987397930830E-002   0.0000000000000000     
  -5.0366439156215165E-002   6.0255289785142462E-002   0.0000000000000000     
  -5.2859597832982101E-002   6.5719349824688439E-002   0.0000000000000000     
  -5.5279169694716856E-002   7.1366013293824873E-002   0.0000000000000000     
  -5.7625154741419438E-002   7.7195280192551730E-002   0.0000000000000000     
  -5.9897552973089838E-002   8.3207150520869050E-002   0.0000000000000000     
  -5.5160354285888662E-002   6.1046237230875371E-002   0.0000000000000000     
  -5.7842842212033035E-002   6.6487074039218635E-002   0.0000000000000000     
  -6.0446119379445669E-002   7.2109337706258839E-002   0.0000000000000000     
  -6.2970185788126562E-002   7.7913028231995932E-002   0.0000000000000000     
  -6.5415041438075708E-002   8.3898145616429998E-002   0.0000000000000000     
  -6.0151036994285235E-002   6.1893990064290590E-002   0.0000000000000000     
  -6.3025866096090344E-002   6.7314856153223135E-002   0.0000000000000000     
  -6.5814841400222979E-002   7.2914141952921174E-002   0.0000000000000000     
  -6.8517962906683050E-002   7.8691847463384687E-002   0.0000000000000000     
  -7.1135230615470668E-002   8.4647972684613701E-002   0.0000000000000000     
  -6.5338487281404858E-002   6.2798548285388112E-002   0.0000000000000000     
  -6.8408669485154033E-002   6.8202696166701965E-002   0.0000000000000000     
  -7.1385335757048737E-002   7.3780426033811922E-002   0.0000000000000000     
  -7.4268486097089012E-002   7.9531737886717996E-002   0.0000000000000000     
  -7.7058120505274802E-002   8.5456631725420146E-002   0.0000000000000000     
  -5.4582765220513099E-002   8.2574987397930830E-002   0.0000000000000000     
  -5.6599804502090019E-002   8.8772551249075196E-002   0.0000000000000000     
  -5.8520113405491812E-002   9.5110525273304769E-002   0.0000000000000000     
  -6.0343691930718479E-002  0.10158890947061951        0.0000000000000000     
  -6.2070540077770020E-002  0.10820770384101946        0.0000000000000000     
  -5.9897552973089838E-002   8.3207150520869050E-002   0.0000000000000000     
  -6.2081249172081854E-002   8.9381728596828927E-002   0.0000000000000000     
  -6.4161128120749256E-002   9.5699118738483538E-002   0.0000000000000000     
  -6.6137189819092057E-002  0.10215932094583285        0.0000000000000000     
  -6.8009434267110244E-002  0.10876233521887686        0.0000000000000000     
  -6.5415041438075708E-002   8.3898145616429998E-002   0.0000000000000000     
  -6.7764379944710088E-002   9.0046221140109489E-002   0.0000000000000000     
  -7.0001894923446717E-002   9.6338786083582872E-002   0.0000000000000000     
  -7.2127586374285582E-002  0.10277584044685018        0.0000000000000000     
  -7.4141454297226655E-002  0.10935738422991137        0.0000000000000000     
  -7.1135230615470668E-002   8.4647972684613701E-002   0.0000000000000000     
  -7.3649196819974741E-002   9.0766028878916855E-002   0.0000000000000000     
  -7.6042413813584189E-002   9.7029527308602787E-002   0.0000000000000000     
  -7.8314881596299027E-002  0.10343846797367148        0.0000000000000000     
  -8.0466600168119226E-002  0.10999285087412296        0.0000000000000000     
  -7.7058120505274802E-002   8.5456631725420146E-002   0.0000000000000000     
  -7.9735699797875800E-002   9.1541151813251023E-002   0.0000000000000000     
  -8.2282684791161673E-002   9.7771342413543239E-002   0.0000000000000000     
  -8.4699075485132391E-002  0.10414720352629675        0.0000000000000000     
  -8.6984871879788012E-002  0.11066873515151160        0.0000000000000000     
  -6.2070540077770020E-002  0.10820770384101946        0.0000000000000000     
  -6.3742090815645885E-002  0.11498838825591964        0.0000000000000000     
  -6.5399777113345534E-002  0.12195244258673509        0.0000000000000000     
  -6.7043598970868964E-002  0.12909986683346580        0.0000000000000000     
  -6.8673556388216178E-002  0.13643066099611181        0.0000000000000000     
  -6.8009434267110244E-002  0.10876233521887686        0.0000000000000000     
  -6.9821613608459149E-002  0.11552316417329576        0.0000000000000000     
  -7.1617479986794061E-002  0.12245681042476968        0.0000000000000000     
  -7.3397033402115036E-002  0.12956327397329859        0.0000000000000000     
  -7.5160273854422005E-002  0.13684255481888255        0.0000000000000000     
  -7.4141454297226655E-002  0.10935738422991137        0.0000000000000000     
  -7.6094014622543477E-002  0.11609728925949414        0.0000000000000000     
  -7.8035783280509530E-002  0.12300942736232613        0.0000000000000000     
  -7.9966760271124815E-002  0.13009379853840738        0.0000000000000000     
  -8.1886945594389332E-002  0.13735040278773783        0.0000000000000000     
  -8.0466600168119226E-002  0.10999285087412296        0.0000000000000000     
  -8.2559293857898855E-002  0.11671076351451476        0.0000000000000000     
  -8.4654686994491884E-002  0.12361029339940448        0.0000000000000000     
  -8.6752779577898301E-002  0.13069144052879217        0.0000000000000000     
  -8.8853571608118145E-002  0.13795420490267771        0.0000000000000000     
  -8.6984871879788012E-002  0.11066873515151160        0.0000000000000000     
  -8.9217451314525326E-002  0.11736358693835765        0.0000000000000000     
  -9.1474191128741153E-002  0.12425940853600474        0.0000000000000000     
  -9.3755091322435535E-002  0.13135619994445291        0.0000000000000000     
  -9.6060151895608431E-002  0.13865396116370213        0.0000000000000000     
  -6.8673556388216178E-002  0.13643066099611181        0.0000000000000000     
  -7.0225704570909112E-002  0.14387094126970137        0.0000000000000000     
  -7.1636098724469716E-002  0.15134682384926285        0.0000000000000000     
  -7.2904738848897990E-002  0.15885830873479620        0.0000000000000000     
  -7.4031624944193936E-002  0.16640539592630149        0.0000000000000000     
  -7.5160273854422005E-002  0.13684255481888255        0.0000000000000000     
  -7.6845506322670246E-002  0.14424028639798095        0.0000000000000000     
  -7.8391035785814939E-002  0.15170210214705326        0.0000000000000000     
  -7.9796862243856112E-002  0.15922800206609947        0.0000000000000000     
  -8.1062985696793752E-002  0.16681798615511959        0.0000000000000000     
  -8.1886945594389332E-002  0.13735040278773783        0.0000000000000000     
  -8.3714552297873127E-002  0.14472278824932611        0.0000000000000000     
  -8.5367793429146230E-002  0.15215450306218073        0.0000000000000000     
  -8.6846668988208642E-002  0.15964554722630173        0.0000000000000000     
  -8.8151178975060335E-002  0.16719592074168910        0.0000000000000000     
  -8.8853571608118145E-002  0.13795420490267771        0.0000000000000000     
  -9.0832842496517768E-002  0.14531844682373682        0.0000000000000000     
  -9.2566371654463561E-002  0.15270402659464530        0.0000000000000000     
  -9.4054159081955538E-002  0.16011094421540306        0.0000000000000000     
  -9.5296204778993698E-002  0.16753919968601003        0.0000000000000000     
  -9.6060151895608431E-002  0.13865396116370213        0.0000000000000000     
  -9.8200376918604157E-002  0.14602726212121322        0.0000000000000000     
  -9.9986770461766961E-002  0.15335067274444694        0.0000000000000000     
 -0.10141933252509686       0.16062419303340333        0.0000000000000000     
 -0.10249806310859384       0.16784782298808240        0.0000000000000000     
 </DataArray>
 <DataArray  type="Float64" Name="stress" NumberOfComponents="3" format="ascii">
   13417066028.776693        4025119808.6330080        2894480321.8327327     
   11766451986.384323        1889728378.2677233        1715919888.5055196     
   10313311627.821514        412582560.66763926        810520835.30753160     
   9057644953.0882626       -406317644.16724586        178283162.23876804     
   7999451962.1845741       -566972236.23692799       -180793130.70077097     
   10540196779.180952        3162059033.7542858        2225917870.4446831     
   9667601212.8203506        1589105832.6607080        1446679997.6468225     
   8943780093.4334145        512067454.81266832        862963057.98916614     
   8368733421.0201368       -69056099.789832115        474767051.47171396     
   7942461195.5805206       -154264831.14679623        282091978.09446728     
   8338083837.3623047        2501425151.2086916        1712314340.4772575     
   8021676898.4934177        1424361224.8248036        1275583251.8768673     
   7805345169.7422924        680881332.16679120        956732649.42766094     
   7689088651.1089277        270985473.23465443        755762533.12963831     
   7672907342.5933285        194673648.02839327        672672902.98280096     
   6810727203.3207512        2043218160.9962254        1353669731.9304562     
   6828679043.4035187        1395494554.7600102        1202629651.1956537     
   6898006856.7481489        919024192.73000789        1091829609.6230159     
   7018710643.3546438        613807074.90621877        1021269607.2125415     
   7190790403.2230015        479843201.28864312        990949643.96423268     
   5958126877.0562916        1787438063.1168873        1149984044.8042789     
   6088607647.5506563        1502505822.4663274        1227819195.6031828     
   6221765154.4509840        1226496036.5023179        1268253938.5752311     
   6357599397.7572784        959408705.22485924        1271288273.7204235     
   6496110377.4695368        701243828.63395095        1236922201.0387597     
   7999451962.1845741       -566972236.23692799       -180793130.70077097     
   7918553666.0601711       -198377388.15495348       -78111986.786482707     
   7795826322.4037027        30787301.486810684       -8318132.9494970050     
   7631269931.2151737        120521832.68837023        28588430.810189482     
   7424884492.4945831        70826205.449721336        32607704.492578045     
   7942461195.5805206       -154264831.14679623        282091978.09446728     
   7740432595.7264175        17619616.226975441        281194462.95612240     
   7514785652.8910131        110776253.66307878        265401789.03566423     
   7265520367.0743084        125205081.16151285        234713956.33309072     
   6992636738.2763033        60906098.722276211        189130964.84840614     
   7672907342.5933285        194673648.02839327        672672902.98280096     
   7401154528.4243479        185269521.51840734        589442550.76771271     
   7123994075.8248215        157839933.57328939        509309171.06569570     
   6841425984.7947636        112384884.19304633        432272763.87675208     
   6553450255.3341618        48904373.377671003        358333329.20088369     
   7190790403.2230015        479843201.28864312        990949643.96423268     
   6900719464.1539583        304572327.71934485        846632276.64828753     
   6623451591.2051373        171978341.21745610        723404013.14060378     
   6358986784.3765392        82061241.782978773        621264853.44117808     
   6107325043.6681643        34821029.415909290        540214797.55001414     
   6496110377.4695368        701243828.63395095        1236922201.0387597     
   6239127402.9152527        375528034.82978749        1052763640.5978490     
   6013158199.0319529        153191476.59557343        907686315.26038480     
   5818202765.8196373        34234153.931307316        801690225.02636588     
   5654261103.2783060        18656066.836988688        734775369.89579546     
   7424884492.4945831        70826205.449721336        32607704.492578045     
   7219013874.9900780       -22600348.039817333        13761109.231740061     
   7026036894.5017815       -73048111.475335598        155408.84041096520     
   6845953551.0296907       -80517084.856836319       -8209396.6814057194     
   6678763844.5738020       -45007268.184318542       -11333307.333726967     
   6992636738.2763033        60906098.722276211        189130964.84840614     
   6808937322.8489943        81380.912028789520        179724979.27524957     
   6633506140.9201994       -33182558.569837570        174609369.11982524     
   6466343192.4899235       -38885719.723311186        173784134.38212502     
   6307448477.5581589       -17028102.548414469        177249275.06216455     
   6553450255.3341618        48904373.377671003        358333329.20088369     
   6389206272.1218300        19866760.288043737        352971649.21144092     
   6228605118.8903227        2971913.8011715412        350949825.18794543     
   6071646795.6396399       -1780166.0829505920        352267857.13040602     
   5918331302.3697815        5610520.6356770992        356925745.03882009     
   6107325043.6681643        34821029.415909290        540214797.55001414     
   5959820722.8085842        36755790.088237762        533501119.04030693     
   5811333828.4121437        35415305.637692213        529176777.04477525     
   5661864360.4788342        30799576.064254761        527241771.56341946     
   5511412319.0086632        22908601.367943764        527696102.59624070     
   5654261103.2783060        18656066.836988688        734775369.89579546     
   5520780674.9092636        50748470.312613249        721313388.76185429     
   5381692269.4856663        64147616.939720631        709290224.69031167     
   5236995887.0075102        58853506.718313694        698705877.68116796     
   5086691527.4748049        34866139.648390770        689560347.73442709     
   6678763844.5738020       -45007268.184318542       -11333307.333726967     
   6515648550.9785528        1059168.8591854572       -631597.11634000251     
   6345794101.5843267        24661753.239428520        8704254.8539816979     
   6169200496.3911209        25800484.956416607        16674248.577231411     
   5985867735.3989410        4475364.0101444721        23278384.053417780     
   6307448477.5581589       -17028102.548414469        177249275.06216455     
   6137234873.9408779        7647707.8070673943        176459876.30824485     
   5962850087.2335815        18419574.529168367        176512395.78936660     
   5784294117.4362717        15287497.617894650        177406833.50554645     
   5601566964.5489559       -1748522.9267573357        179143189.45676586     
   5918331302.3697815        5610520.6356770992        356925745.03882009     
   5747327321.5365162        10788084.144945621        347641205.47404510     
   5574720130.3221989        10621613.050719500        341406360.62643790     
   5400509728.7268372        5111107.3530073166        338221210.49599600     
   5224696116.7504253       -5743432.9482090473        338085755.08271635     
   5511412319.0086632        22908601.367943764        527696102.59624070     
   5345925893.7654629        10480297.872820377        512912390.38107210     
   5181404230.8501778        1267868.8040797710        503386149.36518782     
   5017847330.2628098       -4728685.8382651806        499117379.54858738     
   4855255192.0033617       -7509366.0542244911        500106080.93127137     
   5086691527.4748049        34866139.648390770        689560347.73442709     
   4933030590.6277180        6724348.9906816483        672273431.02932596     
   4782902388.8175116       -9641658.2107532024        662451762.00562286     
   4636306922.0441904       -14231881.955913782        660095340.66332006     
   4493244190.3077459       -7046322.2448086739        665204167.00241697     
   5985867735.3989410        4475364.0101444721        23278384.053417780     
   5798112103.2555504       -22874778.299149990        6089156.2089074953     
   5613997938.9873934       -38086694.357659817       -5065598.8499694364     
   5433525242.5944843       -41160384.165352583       -10185881.123223584     
   5256694014.0768051       -32095847.722267628       -9271690.6108373329     
   5601566964.5489559       -1748522.9267573357        179143189.45676586     
   5432036326.4450855       -17386344.401977539        167750627.17194241     
   5264988461.3000536       -24748256.014414072        161639975.01632607     
   5100423369.1138668       -23834257.764032841        160811232.98993522     
   4938341049.8865166       -14644349.650864840        165264401.09275687     
   5224696116.7504253       -5743432.9482090473        338085755.08271635     
   5071240293.6677551       -10313987.294855833        331138047.62176877     
   4919108548.6275196       -10470948.166719675        328719687.63362724     
   4768300881.6297226       -6214315.5637776852        330830675.11828351     
   4618817292.6743631        2455910.5139486790        337471010.07574201     
   4855255192.0033617       -7509366.0542244911        500106080.93127137     
   4715724004.9235573       -1657706.9777903557        496251417.55839932     
   4576358200.9697857        4745229.1854183674        496173539.00192308     
   4437157780.1420536        11699442.435426712        499872445.26182288     
   4298122742.4403582        19204932.772221804        507348136.33811861     
   4493244190.3077459       -7046322.2448086739        665204167.00241697     
   4365487460.2124844        8582496.5492014885        663090736.98182762     
   4236737418.3268557        20900276.042000532        664001529.12121010     
   4106994064.6508613        29907016.233569860        667936543.42056584     
   3976257399.1845026        35602717.123935938        674895779.87989283     
   5256694014.0768051       -32095847.722267628       -9271690.6108373329     
   5003494645.5366650       -40290227.870735645       -22146967.438223787     
   4750380089.6148119       -48201899.291589022       -27412552.382634241     
   4497350346.3112307       -55830861.984863758       -25068445.444064211     
   4244405415.6259356       -63177115.950520515       -15114646.622506654     
   4938341049.8865166       -14644349.650864840        165264401.09275687     
   4703687731.9904699       -24027126.635143518        151471300.08684793     
   4468660617.7310886       -34655891.497191429        144608945.42476743     
   4233259707.1083832       -46530644.237002134        144677337.10649273     
   3997485000.1223311       -59651384.854603529        151676475.13202918     
   4618817292.6743631        2455910.5139486790        337471010.07574201     
   4400770181.0247946       -8697216.6254043579        322225041.07943827     
   4181890664.0302815       -22625028.247897863        313230872.88778663     
   3962178741.6908178       -39327524.353569031        310488505.50078827     
   3741634414.0064049       -58804704.942393303        313997938.91843277     
   4298122742.4403582        19204932.772221804        507348136.33811861     
   4094741992.6396556        5699502.1585137844        490114255.53953958     
   3890070228.5123873       -12109309.543737411        478453230.00643915     
   3684107450.0585523       -34221502.334539175        472365059.73883128     
   3476853657.2781553       -60637076.213888168        471849744.73670000     
   3976257399.1845026        35602717.123935938        674895779.87989283     
   3785603166.8350396        19163029.716569901        655138943.46714604     
   3593199311.1774039       -3108735.3847098351        640276016.78072369     
   3399045832.2115846       -31212578.179926395        630306999.82061327     
   3203142729.9375882       -65148498.669068456        625231892.58682156     
   4244405415.6259356       -63177115.950520515       -15114646.622506654     
   4310316072.8123722        1898645.7427103519        30085015.341004744     
   4360822360.8733177        15626510.350939989        56493901.664172582     
   4395924279.8087378       -21993522.125903130        64112012.347001985     
   4415621829.6186666       -110961451.68770862        52939347.389477581     
   3997485000.1223311       -59651384.854603529        151676475.13202918     
   4017439144.8709564       -10414028.404530525        182402153.78816372     
   4028298585.9041991        8507648.9942934513        200222461.26550922     
   4030063323.2220721       -2886352.6581282616        205137397.56405422     
   4022733356.8245568       -44596033.361845255        197146962.68381917     
   3741634414.0064049       -58804704.942393303        313997938.91843277     
   3732447487.6359420       -20361121.339844227        337610910.57899976     
   3720475522.9602261        8799001.2452154160        354203915.52232486     
   3705718519.9792600        28675662.812762499        363776953.74842006     
   3688176478.6930509        39268863.362829208        366330025.25727916     
   3476853657.2781553       -60637076.213888168        471849744.73670000     
   3455341101.1073327       -27942633.063239813        495711285.71351159     
   3437353172.0413837        16500567.103664398        518438264.43464094     
   3422889870.0803156        72692524.286827087        540030680.90009248     
   3411951195.2241259        140633238.48626292        560488535.10986602     
   3203142729.9375882       -65148498.669068456        625231892.58682156     
   3186119985.2851286       -33158563.574723721        656703279.19169784     
   3178931533.1476808        31612346.569656491        692925508.00244761     
   3181577373.5252352        129164231.76404452        733898579.01907635     
   3194057506.4178019        259497092.00847352        779622492.24157727     
   4415621829.6186666       -110961451.68770862        52939347.389477581     
   3657897891.3336415       -372186458.24421620       -106191318.25670639     
   2955777906.4161792       -448064953.57550371       -171946074.72867042     
   2309261874.8662848       -338596937.68156445       -144324922.02642033     
   1718349796.6839604       -43782410.562403917       -23327860.149969537     
   4022733356.8245568       -44596033.361845255        197146962.68381917     
   3503955573.6153502       -201108245.24257278        97475841.039690316     
   3019744019.7477446       -242399692.65130925        64069053.816028491     
   2570098695.2217326       -168470375.58806205        96926601.012850344     
   2155019600.0373559        20679705.947280884        196048482.63011873     
   3688176478.6930509        39268863.362829208        366330025.25727916     
   3330883208.4060974       -35769046.488241673        301574436.25158995     
   2987118443.4347897       -65711938.620498538        275971606.91261774     
   2656882183.7791309       -50559813.033924818        289521537.24037015     
   2340174429.4391127        9687330.2714606524        342224227.23485523     
   3411951195.2241259        140633238.48626292        560488535.10986602     
   3138680795.7058868        123831138.01882756        506104467.37897825     
   2857901177.4773297        81998308.516987920        463761584.56107026     
   2569612340.5384450        15134749.980769157        433459886.65614855     
   2273814284.8892636       -76759537.589847803        415199373.66420925     
   3194057506.4178019        259497092.00847352        779622492.24157727     
   2927348335.5147142        277692308.27859473        711065934.42188263     
   2632092221.8753510        200731048.76112628        627438986.76141489     
   2308289165.4997010        28613313.456045866        528741649.26019365     
   1955939166.3877728       -238660897.63663566        414973921.91820639     
   5958126877.0562916        1787438063.1168873        1149984044.8042789     
   6088607647.5506563        1502505822.4663274        1227819195.6031828     
   6221765154.4509840        1226496036.5023179        1268253938.5752311     
   6357599397.7572784        959408705.22485924        1271288273.7204235     
   6496110377.4695368        701243828.63395095        1236922201.0387597     
   5434849694.0667381        1630454908.2200215        1033488712.5776561     
   5489994318.3768282        1372659225.3126354        1113810022.2630715     
   5547315075.8935833        1122117319.7607970        1167318575.5390153     
   5606811966.6170006        878829191.56450558        1194014372.4054875     
   5668484990.5470829        642794840.72376227        1193897412.8624878     
   4895462489.8499050        1468638746.9549713        936415168.72951937     
   4905521400.5968199        1247054751.5770888        1018638600.2355947     
   4917255841.3510962        1031055856.2237501        1084636926.7495825     
   4930665812.1127367        820642060.89495575        1134410148.2714832     
   4945751312.8817406        615813365.59070575        1167958264.8012958     
   4339965264.4057903        1301989579.3217371        858763413.25986803     
   4335188894.2106266        1125692401.2596872        942304929.52075231     
   4331587450.8235254        953311645.89117825        1020208992.2069333     
   4329160934.2444859        784847313.21621013        1092475601.3184111     
   4327909344.4735088        620299403.23478317        1159104756.8551860     
   3768358017.7343965        1130507405.3203189        800533446.16870224     
   3778996799.2182527        1008572174.3604311        884809010.11854434     
   3790309904.3108697        888884688.76308060        974034771.91106749     
   3802297333.0122476        771444948.52826810        1068210731.5462719     
   3814959085.3223877        656252953.65599322        1167336889.0241563     
   6496110377.4695368        701243828.63395095        1236922201.0387597     
   6239127402.9152527        375528034.82978749        1052763640.5978490     
   6013158199.0319529        153191476.59557343        907686315.26038480     
   5818202765.8196373        34234153.931307316        801690225.02636588     
   5654261103.2783060        18656066.836988688        734775369.89579546     
   5668484990.5470829        642794840.72376227        1193897412.8624878     
   5518655093.1603661        383286521.32174182        1073140802.5459036     
   5393007463.3365002        204385760.46255922        980449753.16196954     
   5291542101.0754824        106092558.14620948        915824264.71068347     
   5214259006.3773155        88406914.372696161        879264337.19204748     
   4945751312.8817406        615813365.59070575        1167958264.8012958     
   4871601137.8888826        413070514.15871811        1102633517.6495504     
   4814801727.3507433        268163544.24245334        1054358657.2596565     
   4775353081.2673178        181092455.84191012        1023133683.6316125     
   4753255199.6386108        151857248.95708776        1008958596.7654208     
   4327909344.4735088        620299403.23478317        1159104756.8551860     
   4297965537.1008034        464880013.34071541        1141241785.9087877     
   4278540991.0746818        344524827.93525660        1129413027.5534439     
   4269635706.3951402        259233847.01840520        1123618481.7891538     
   4271249683.0621848        209007070.59016323        1123858148.6159165     
   3814959085.3223877        656252953.65599322        1167336889.0241563     
   3797748290.7961283        538715018.86773336        1188965607.3236163     
   3784225254.5083165        433469611.54096889        1205612864.0433331     
   3774389976.4589558        340516731.67570090        1217278659.1833057     
   3768242456.6480393        259856379.27192307        1223962992.7435343     
   5654261103.2783060        18656066.836988688        734775369.89579546     
   5520780674.9092636        50748470.312613249        721313388.76185429     
   5381692269.4856663        64147616.939720631        709290224.69031167     
   5236995887.0075102        58853506.718313694        698705877.68116796     
   5086691527.4748049        34866139.648390770        689560347.73442709     
   5214259006.3773155        88406914.372696161        879264337.19204748     
   5077249910.2574244        86206552.449111223        855082314.83800459     
   4938082556.8668423        76811999.623232841        834660830.70534003     
   4796756946.2055731        60223255.895060301        817999884.79405522     
   4653273078.2736158        36440321.264593601        805099477.10415316     
   4753255199.6386108        151857248.95708776        1008958596.7654208     
   4619350924.7935276        117354168.34199429        978081206.27245176     
   4486738112.4616203        87155962.770825863        953286075.15984309     
   4355416762.6428928        61262632.243587017        934573203.42759538     
   4225386875.3373461        39674176.760274887        921942591.07570767     
   4271249683.0621848        209007070.59016323        1123858148.6159165     
   4147083718.5175691        144191317.99125719        1090310063.0651999     
   4027658936.2699990        95179506.382501125        1065165958.0538244     
   3912975336.3194714        61971635.763890028        1048425833.5817899     
   3803032918.6659908        44567706.135431290        1040089689.6490965     
   3768242456.6480393        259856379.27192307        1223962992.7435343     
   3660448291.4295516        166718001.39690351        1191768885.2162471     
   3560845028.2919750        100882630.45825148        1170300479.3872826     
   3469432667.2353101        62350266.455973148        1159557775.2566388     
   3386211208.2595549        51120909.390060425        1159540772.8243148     
   5086691527.4748049        34866139.648390770        689560347.73442709     
   4933030590.6277180        6724348.9906816483        672273431.02932596     
   4782902388.8175116       -9641658.2107532024        662451762.00562286     
   4636306922.0441904       -14231881.955913782        660095340.66332006     
   4493244190.3077459       -7046322.2448086739        665204167.00241697     
   4653273078.2736158        36440321.264593601        805099477.10415316     
   4519757486.6565485        15713393.561672211        792521194.56798792     
   4388443354.9693365        2324665.6249420643        786262961.53779507     
   4259330683.2119894       -3725862.5455830097        786324778.01357377     
   4132419471.3844948       -2438190.9499156475        792706643.99531984     
   4225386875.3373461        39674176.760274887        921942591.07570767     
   4108744634.1633515        25380513.576050758        912519788.41695786     
   3992972577.8121996        13987466.467951775        908271837.08874726     
   3878070706.2838812        5495035.4359700680        909198737.09107912     
   3764039019.5783987       -96779.519884347916        915300488.42395270     
   3803032918.6659908        44567706.135431290        1040089689.6490965     
   3699992033.1481376        35725709.033828974        1032269212.5762302     
   3596490057.3460941        25346744.318266153        1028478388.6584760     
   3492526991.2598681        13430811.988758087        1028717217.8958362     
   3388102834.8894539       -22087.954707622528        1032985700.2883061     
   3386211208.2595549        51120909.390060425        1159540772.8243148     
   3293499683.6108956        46748979.934991717        1151769467.0458095     
   3198995793.5710282        36402499.175899982        1146882616.2469869     
   3102699538.1399498        20081467.112767220        1144880220.4278467     
   3004610917.3176684       -2214116.2543764114        1145762279.5883908     
   4493244190.3077459       -7046322.2448086739        665204167.00241697     
   4365487460.2124844        8582496.5492014885        663090736.98182762     
   4236737418.3268557        20900276.042000532        664001529.12121010     
   4106994064.6508613        29907016.233569860        667936543.42056584     
   3976257399.1845026        35602717.123935938        674895779.87989283     
   4132419471.3844948       -2438190.9499156475        792706643.99531984     
   4010392688.3743563        3392726.1947283745        787579035.57808673     
   3888193841.1950917        8650096.1089529991        786095910.83159661     
   3765822929.8467040        13333918.792762756        788257269.75585425     
   3643279954.3291836        17444194.246133804        794063112.35085952     
   3764039019.5783987       -96779.519884347916        915300488.42395270     
   3649514359.3984580       -3532111.3010768890        908116823.83484733     
   3535638882.6706247       -4803498.2419018745        905197904.42726541     
   3422412589.3949060       -3910940.3423535824        906543730.20120394     
   3309835479.5712972       -854437.60243678093        912154301.15666461     
   3388102834.8894539       -22087.954707622528        1032985700.2883061     
   3282852473.2847791       -12192015.938219070        1024704101.7521129     
   3179072542.7534528       -19460507.010564923        1021307509.9082149     
   3076763043.2954783       -21827561.171748519        1022795924.7566141     
   2975923974.9108481       -19293178.421775341        1029169346.2973022     
   3004610917.3176684       -2214116.2543764114        1145762279.5883908     
   2910407030.0333300       -22586987.716685534        1137340869.3298836     
   2818494821.4435754       -35320930.197047591        1134424727.2744443     
   2728874291.5484123       -40415943.695439577        1137013853.4220810     
   2641545440.3478346       -37872028.211883187        1145108247.7727845     
   3976257399.1845026        35602717.123935938        674895779.87989283     
   3785603166.8350396        19163029.716569901        655138943.46714604     
   3593199311.1774039       -3108735.3847098351        640276016.78072369     
   3399045832.2115846       -31212578.179926395        630306999.82061327     
   3203142729.9375882       -65148498.669068456        625231892.58682156     
   3643279954.3291836        17444194.246133804        794063112.35085952     
   3466721332.6318755        3762975.5609745979        772821458.97282791     
   3289288533.1578150       -12832169.046707630        756892103.58809030     
   3110981555.9069905       -32341239.576932669        746275046.19665182     
   2931800400.8794050       -54764236.029686689        740970286.79850519     
   3309835479.5712972       -854437.60243678093        912154301.15666461     
   3148567863.5746589       -11418569.050830841        890449183.93333268     
   2987301515.3326836       -21978474.650365114        874474752.97027111     
   2826036434.8453608       -32534154.401049733        864231008.26748812     
   2664772622.1126947       -43085608.302874804        859717949.82497549     
   2975923974.9108481       -19293178.421775341        1029169346.2973022     
   2831142759.6633906       -26381604.118857741        1008022118.3486551     
   2687238257.7020082       -30547652.195688725        993023964.92726040     
   2544210469.0267015       -31791322.652273655        984174886.03311968     
   2402059393.6374660       -30112615.488612652        981474881.66623294     
   2641545440.3478346       -37872028.211883187        1145108247.7727845     
   2514446020.8980680       -41126129.643092632        1125540262.2188087     
   2389098760.2657928       -38539701.682672143        1112539739.4590635     
   2265503658.4510078       -30112744.330608130        1106106679.4935515     
   2143660715.4537156       -15845257.586910009        1106241082.3222697     
   3203142729.9375882       -65148498.669068456        625231892.58682156     
   3186119985.2851286       -33158563.574723721        656703279.19169784     
   3178931533.1476808        31612346.569656491        692925508.00244761     
   3181577373.5252352        129164231.76404452        733898579.01907635     
   3194057506.4178019        259497092.00847352        779622492.24157727     
   2931800400.8794050       -54764236.029686689        740970286.79850519     
   2924991019.4434161       -20322789.964102983        781074770.07201397     
   2922453339.1517906        28357659.916026592        823719111.08202934     
   2924187360.0045309        91277113.610711575        868903309.82855153     
   2930193082.0016365        168435571.11994195        916627366.31157827     
   2664772622.1126947       -43085608.302874804        859717949.82497549     
   2661859505.4092660       -8087780.8112217188        901965839.83470082     
   2657655498.4795575        22607079.259506702        944542603.11156285     
   2652160601.3235698        48998971.909301519        987448239.65556121     
   2645374813.9413018        71087897.138161182        1030682749.4667008     
   2402059393.6374660       -30112615.488612652        981474881.66623294     
   2396725443.1826830        3546463.8839371204        1019376488.4797523     
   2384538011.1309748        14360604.600070357        1055395984.0910480     
   2365497097.4823461        2329806.6598079205        1089533368.5001113     
   2339602702.2367983       -32545929.936864376        1121788641.7069390     
   2143660715.4537156       -15845257.586910009        1106241082.3222697     
   2129588832.7636638        14579944.121351480        1133306716.0071771     
   2103100877.1060505        3618235.9377398491        1156279254.0204837     
   2064196848.4808695       -48730382.137762308        1175158696.3621891     
   2012876746.8881223       -142465910.10515165        1189945043.0322936     
   3194057506.4178019        259497092.00847352        779622492.24157727     
   2927348335.5147142        277692308.27859473        711065934.42188263     
   2632092221.8753510        200731048.76112628        627438986.76141489     
   2308289165.4997010        28613313.456045866        528741649.26019365     
   1955939166.3877728       -238660897.63663566        414973921.91820639     
   2930193082.0016365        168435571.11994195        916627366.31157827     
   2626198386.7821727        142227119.69562089        823458833.44348872     
   2311096748.3731208        78995524.305996776        726926518.10228455     
   1984888166.7744837       -21259215.048902392        627030420.28795564     
   1647572641.9862633       -158537098.36909866        523770540.00052154     
   2645374813.9413018        71087897.138161182        1030682749.4667008     
   2337542044.0273037        10510012.905935407        933248907.68802691     
   2036042330.4704113       -28957683.469273448        844157890.80388141     
   1740875673.2706361       -47315191.987451553        763409698.81426883     
   1452042072.4279521       -44562512.648608863        691004331.71917415     
   2339602702.2367983       -32545929.936864376        1121788641.7069390     
   2061379307.2501085       -117459012.09044802        1040436157.1554883     
   1806928968.1672282       -123128574.56468403        979133104.86621547     
   1576251684.9881415       -49554617.359585464        937879484.83912647     
   1369347457.7128623        103262859.52485412        916675297.07420611     
   2012876746.8881223       -142465910.10515165        1189945043.0322936     
   1797710176.4505975       -241679955.29350948        1145020581.8458822     
   1623756661.4635615       -203517148.98024547        1131852160.2892914     
   1491016201.9270263       -27977491.165308714        1150439778.3625226     
   1399488797.8409812        284939018.15127295        1200783436.0655813     
   3768358017.7343965        1130507405.3203189        800533446.16870224     
   3778996799.2182527        1008572174.3604311        884809010.11854434     
   3790309904.3108697        888884688.76308060        974034771.91106749     
   3802297333.0122476        771444948.52826810        1068210731.5462719     
   3814959085.3223877        656252953.65599322        1167336889.0241563     
   3207817955.3376260        962345386.60128784        756613286.04939103     
   3235734935.5346804        868128968.23378015        853027653.85688925     
   3263417012.8628092        773129540.30318511        951386096.84900165     
   3290864187.3220115        677347102.80950260        1051688615.0257294     
   3318076458.9122868        580781655.75273228        1153935208.3870711     
   2685522282.7173853        805656684.81521571        721890951.49530303     
   2722128539.7474489        736582402.47603166        829383358.93648791     
   2757590667.4308991        663694355.64813447        935813718.90422153     
   2791908665.7677355        586992544.33152509        1041182031.3985034     
   2825082534.7579570        506476968.52620238        1145488296.4193337     
   2201470999.8736749        660441299.96210241        696366442.50643802     
   2238177611.8565574        613932477.08718479        813876125.35734129     
   2272830868.0151391        560579134.79792929        927317638.07672668     
   2305430768.3494191        500381273.09433568        1036690980.6645941     
   2335977312.8593979        433338891.97640419        1141996153.1209435     
   1755664106.8064933        526699232.04194796        680039759.08279622     
   1783882151.8620059        500179192.06724006        806505953.11944890     
   1809137614.6155295        463783877.75256884        925897854.36651742     
   1831430495.0670643        417513289.09793466        1038215462.8240018     
   1850760793.2166102        361367426.10333681        1143458778.4919016     
   3814959085.3223877        656252953.65599322        1167336889.0241563     
   3797748290.7961283        538715018.86773336        1188965607.3236163     
   3784225254.5083165        433469611.54096889        1205612864.0433331     
   3774389976.4589558        340516731.67570090        1217278659.1833057     
   3768242456.6480393        259856379.27192307        1223962992.7435343     
   3318076458.9122868        580781655.75273228        1153935208.3870711     
   3293439010.8628788        473818292.23071456        1182101566.3134186     
   3272436685.0845885        378972002.94575667        1207096289.7402627     
   3255069481.5774188        296242787.89785838        1228919378.6676044     
   3241337400.3413634        225630647.08701849        1247570833.0954432     
   2825082534.7579570        506476968.52620238        1145488296.4193337     
   2798189367.7003756        411639456.62491876        1180130885.3440161     
   2774878686.9465809        328743565.73626018        1213411666.8494360     
   2755150492.4965734        257789295.86022520        1245330640.9355943     
   2739004784.3503542        198776646.99681509        1275887807.6024909     
   2335977312.8593979        433338891.97640419        1141996153.1209435     
   2311999361.3086157        352178512.05034679        1183053564.4154093     
   2291551260.0942907        282784299.91247910        1224558995.3708527     
   2274633009.2164226        225156255.56280017        1266512445.9872751     
   2261244608.6750107        179294379.00131118        1308913916.2646768     
   1850760793.2166102        361367426.10333681        1143458778.4919016     
   1834868991.6876016        295435458.50699788        1190869603.5275972     
   1822454404.5277197        241094205.47441328        1240538275.3045120     
   1813517031.7369642        198343667.00558311        1292464793.8226476     
   1808056873.3153350        167183843.10050708        1346649159.0820024     
   3768242456.6480393        259856379.27192307        1223962992.7435343     
   3660448291.4295516        166718001.39690351        1191768885.2162471     
   3560845028.2919750        100882630.45825148        1170300479.3872826     
   3469432667.2353101        62350266.455973148        1159557775.2566388     
   3386211208.2595549        51120909.390060425        1159540772.8243148     
   3241337400.3413634        225630647.08701849        1247570833.0954432     
   3163787064.3147774        151043789.90199268        1231235505.8364949     
   3092604304.9596925        97682188.288638115        1223157840.7137663     
   3027789122.2761111        65545842.246956825        1223337837.7272604     
   2969341516.2640276        54634751.776943564        1231775496.8769679     
   2739004784.3503542        198776646.99681509        1275887807.6024909     
   2684646735.9096622        140625848.01997995        1273284047.6342392     
   2634832938.7310638        97622553.250119209        1276469910.2401035     
   2589563392.8145566        69766762.687231183        1285445395.4200850     
   2548838098.1601424        57058476.331318974        1300210503.1741846     
   2261244608.6750107        179294379.00131118        1308913916.2646768     
   2223027306.2142086        135464175.75086582        1317914510.6094756     
   2187530929.6060896        100703725.34269714        1330236687.9662895     
   2154755478.8506536        75013027.776804328        1345880448.3351181     
   2124700953.9478998        58392083.053185582        1364845791.7159598     
   1808056873.3153350        167183843.10050708        1346649159.0820024     
   1778928775.2284157        135558773.09464985        1365126894.7622070     
   1750698277.5847697        106925704.56637204        1384458173.8923252     
   1723365380.3843966        81284637.515666246        1404642996.4723549     
   1696930083.6272986        58635571.942547441        1425681362.5022993     
   3386211208.2595549        51120909.390060425        1159540772.8243148     
   3293499683.6108956        46748979.934991717        1151769467.0458095     
   3198995793.5710282        36402499.175899982        1146882616.2469869     
   3102699538.1399498        20081467.112767220        1144880220.4278467     
   3004610917.3176684       -2214116.2543764114        1145762279.5883908     
   2969341516.2640276        54634751.776943564        1231775496.8769679     
   2883258506.2423716        44177259.067371607        1221702735.9955547     
   2796573338.6459041        31712574.441759109        1215248738.2908843     
   2709286013.4746242        17240697.900105953        1212413503.7629595     
   2621396530.7285318        761629.44241571426        1213197032.4117730     
   2548838098.1601424        57058476.331318974        1300210503.1741846     
   2471481626.1856604        41144827.393292546        1289224862.9756589     
   2394713204.4527631        27191345.927216530        1282592294.1509354     
   2318532832.9614506        15198031.933088183        1280312796.7000165     
   2242940511.7117214        5164885.4109100103        1282386370.6228993     
   2124700953.9478998        58392083.053185582        1364845791.7159598     
   2058169043.4407620        37651684.912758827        1354335847.9861205     
   1993415390.9916070        22838813.632268786        1348913283.8271418     
   1930439996.6004343        13953469.211720347        1348578099.2390275     
   1869242860.2672381        10995651.651099563        1353330294.2217736     
   1696930083.6272986        58635571.942547441        1425681362.5022993     
   1643320758.0076768        33697831.625767410        1417035691.0269387     
   1592679898.2624328        18654977.556912243        1414211707.3195002     
   1545007504.3915691        13507009.735990822        1417209411.3799834     
   1500303576.3950820        18253928.162990451        1426028803.2083929     
   3004610917.3176684       -2214116.2543764114        1145762279.5883908     
   2910407030.0333300       -22586987.716685534        1137340869.3298836     
   2818494821.4435754       -35320930.197047591        1134424727.2744443     
   2728874291.5484123       -40415943.695439577        1137013853.4220810     
   2641545440.3478346       -37872028.211883187        1145108247.7727845     
   2621396530.7285318        761629.44241571426        1213197032.4117730     
   2543511476.4901152       -11323172.558560252        1208479757.6468637     
   2467147000.4228282       -18339380.655773878        1208897531.7615907     
   2392303102.5266690       -20286994.849222660        1214450354.7559605     
   2318979782.8016396       -17166015.138912320        1225138226.6299660     
   2242940511.7117214        5164885.4109100103        1282386370.6228993     
   2180316521.0237069        1050822.0226154327        1280473614.0742216     
   2118442007.9833620       -564982.54011619091        1283325687.0817509     
   2057316972.5906887        317471.72272813320        1290942589.6454840     
   1996941414.8456845        3698184.8111325502        1303324321.7654235     
   1869242860.2672381        10995651.651099563        1353330294.2217736     
   1820822163.6341031        14534996.026827335        1353322438.6119573     
   1772379844.1251805        18002264.149928808        1357709193.2349155     
   1723915901.7404680        21397456.020401120        1366490558.0906456     
   1675430336.4799702        24720571.638248563        1379666533.1791515     
   1500303576.3950820        18253928.162990451        1426028803.2083929     
   1465028404.3213036        29129349.454083085        1427026231.2600727     
   1428960508.8482804        37362359.414354444        1432048050.2210925     
   1392099889.9760125        42952958.043811619        1441094260.0914524     
   1354446547.7044950        45901145.342436433        1454164860.8711517     
   2641545440.3478346       -37872028.211883187        1145108247.7727845     
   2514446020.8980680       -41126129.643092632        1125540262.2188087     
   2389098760.2657928       -38539701.682672143        1112539739.4590635     
   2265503658.4510078       -30112744.330608130        1106106679.4935515     
   2143660715.4537156       -15845257.586910009        1106241082.3222697     
   2318979782.8016396       -17166015.138912320        1225138226.6299660     
   2207965033.6595855       -21415645.804924846        1207137859.7052386     
   2098025410.8181324       -22081522.135605574        1195172590.8156283     
   1989160914.2772722       -19163644.130976439        1189242419.9611316     
   1881371544.0370150       -12662011.791004419        1189347347.1417563     
   1996941414.8456845        3698184.8111325502        1303324321.7654235     
   1900490293.8424509       -2003287.7403451204        1286101702.2002292     
   1804437266.6229191       -6377781.0128113031        1274381815.9110398     
   1708782333.1870949       -9425295.0062571764        1268164662.8978539     
   1613525493.5349710       -11145829.720703542        1267450243.1606698     
   1675430336.4799702        24720571.638248563        1379666533.1791515     
   1592021801.4466567        17110944.550634563        1362431789.7037838     
   1508334327.6801522        8571521.6857185364        1350167414.7453091     
   1424367915.1804569       -897696.95649951696        1342873408.3037195     
   1340122563.9475744       -11296711.376010776        1340549770.3790240     
   1354446547.7044950        45901145.342436433        1454164860.8711517     
   1282559556.4722073        35927051.068017721        1436128122.2159042     
   1209716593.9898355        22766385.959990859        1422529387.3184302     
   1135917660.2573798        6419150.0183474422        1413368656.1787341     
   1061162755.2748383       -13114656.756916642        1408645928.7968118     
   2143660715.4537156       -15845257.586910009        1106241082.3222697     
   2129588832.7636638        14579944.121351480        1133306716.0071771     
   2103100877.1060505        3618235.9377398491        1156279254.0204837     
   2064196848.4808695       -48730382.137762308        1175158696.3621891     
   2012876746.8881223       -142465910.10515165        1189945043.0322936     
   1881371544.0370150       -12662011.791004419        1189347347.1417563     
   1857436361.1661251        10227004.031204462        1204394642.1387844     
   1826644377.6681044        10260017.762987137        1217686998.6420164     
   1788995593.5429556       -12562970.595661759        1229224416.6514413     
   1744490008.7906826       -58241961.044725657        1239006896.1670673     
   1613525493.5349710       -11145829.720703542        1267450243.1606698     
   1586407459.5626597        6211134.9392693043        1276965017.2003379     
   1557991897.3036621        19243005.310279608        1287063009.9239986     
   1528278806.7579734        27949781.392321765        1297744221.3316586     
   1497268187.9255941        32331463.185397387        1309008651.4233155     
   1340122563.9475744       -11296711.376010776        1340549770.3790240     
   1316502127.9532745        2532336.8455598354        1351017841.1918387     
   1297143436.0127249        30567198.579634845        1364407287.8664422     
   1282046488.1259151        72807873.826177359        1380718110.4028428     
   1271211284.2928576        129254362.58522689        1399950308.8010368     
   1061162755.2748383       -13114656.756916642        1408645928.7968118     
   1047720366.3379705       -809390.24992197752        1426553114.1132796     
   1044098993.7952853        44232597.571021855        1449719832.4693379     
   1050298637.6467879        122011306.70591709        1478146083.8649940     
   1066319297.8924736        232526737.15476209        1511831868.3002379     
   2012876746.8881223       -142465910.10515165        1189945043.0322936     
   1797710176.4505975       -241679955.29350948        1145020581.8458822     
   1623756661.4635615       -203517148.98024547        1131852160.2892914     
   1491016201.9270263       -27977491.165308714        1150439778.3625226     
   1399488797.8409812        284939018.15127295        1200783436.0655813     
   1744490008.7906826       -58241961.044725657        1239006896.1670673     
   1613726447.5915632       -106059113.07515621        1233437624.4698918     
   1505471927.4718945       -78846128.174078465        1249176883.3667631     
   1419726448.4316657        23396993.658480346        1286224672.8576765     
   1356490010.4709032        200670252.42255184        1344580992.9426320     
   1497268187.9255941        32331463.185397387        1309008651.4233155     
   1421057610.1483755        26956196.567959249        1320973219.1158242     
   1348652059.0795596        34264352.311861038        1343798808.3665979     
   1280051534.7191453        54255930.417113125        1377485419.1756434     
   1215256037.0671365        86930930.883710802        1422033051.5429566     
   1271211284.2928576        129254362.58522689        1399950308.8010368     
   1219703664.1210344        157365973.63582110        1407627365.7836788     
   1153297056.2865670        135814292.47761354        1415717935.2888072     
   1071991460.7894582        64599319.110600114        1424222017.3164279     
   975786877.62971067       -56278946.465217888        1433139611.8665340     
   1066319297.8924736        232526737.15476209        1511831868.3002379     
   1009664609.5095413        285170218.12845087        1493400064.4734571     
   919406919.09291673        225803692.32317203        1464934264.1333833     
   795546226.64260590        54427159.738933295        1426434467.2800286     
   638082532.15860832       -228959379.62425634        1377900673.9133766     
   1755664106.8064933        526699232.04194796        680039759.08279622     
   1783882151.8620059        500179192.06724006        806505953.11944890     
   1809137614.6155295        463783877.75256884        925897854.36651742     
   1831430495.0670643        417513289.09793466        1038215462.8240018     
   1850760793.2166102        361367426.10333681        1143458778.4919016     
   1325921576.4978790        397776472.94936365        669777959.77153921     
   1339379357.2747061        375574717.06210989        791978373.06927717     
   1350615201.3250868        345966505.42003554        908902502.61435199     
   1359629108.6490214        308951838.02314067        1020550348.4067634     
   1366421079.2465100        264530714.87142512        1126921910.4465117     
   890063381.92987013        267019014.57896104        662448103.11982822     
   893898067.10492873        250676693.38223666        781246822.18345141     
   896251461.12908387        229396735.01583415        896567266.53133214     
   897123564.00233579        203179139.47975403        1008409436.1634709     
   896514375.72468424        172023906.77399555        1116773331.0798676     
   448089523.10246587        134426856.93073976        658050189.12766337     
   447438281.35267377        125485121.02762008        774311300.46197140     
   446046394.02752101        114074566.53996484        888892146.11745834     
   443913861.12700772        100195193.46777435        1001792726.0941243     
   441040682.65113372        83847001.811048359        1113013040.3919692     
   1.5666840535511418E-002   4.7000521606534252E-003   656584217.79504478     
   1.7941474771056364E-002  -1.7397770495315486E-003   771171807.90483761     
   2.0398066248915006E-002  -7.5726484378018776E-003   885877141.37273085     
   2.3036983836112180E-002  -1.2797722760190202E-002   1000700218.1987237     
   2.5858104576972935E-002  -1.7415973654076034E-002   1115641038.3828168     
   1850760793.2166102        361367426.10333681        1143458778.4919016     
   1834868991.6876016        295435458.50699788        1190869603.5275972     
   1822454404.5277197        241094205.47441328        1240538275.3045120     
   1813517031.7369642        198343667.00558311        1292464793.8226476     
   1808056873.3153350        167183843.10050708        1346649159.0820024     
   1366421079.2465100        264530714.87142512        1126921910.4465117     
   1360141526.4909279        216773528.69022343        1182276027.3287578     
   1356469884.5121899        177709378.43183315        1238572154.6612339     
   1355406153.3102944        147338264.09625280        1295810292.4439418     
   1356950332.8852422        125660185.68348157        1353990440.6768787     
   896514375.72468424        172023906.77399555        1116773331.0798676     
   896087539.48256052        141313642.32994112        1179056552.2843337     
   897399310.42499650        116398735.16775313        1240965947.6480412     
   900449688.55199254        97279185.287431449        1302501517.1709900     
   905238673.86354840        83954992.688976258        1363663260.8531806     
   441040682.65113372        83847001.811048359        1113013040.3919692     
   442707030.66249871        69055799.426150724        1181211178.3943248     
   445242682.26614004        57162275.682174802        1247719654.2649329     
   448647637.46205807        48166430.579120785        1312538468.0037928     
   452921896.25025344        42068264.116990745        1375667619.6109054     
   2.5858104576972935E-002  -1.7415973654076034E-002   1115641038.3828168     
   3.0742149897162410E-002  -2.1149674273817403E-002   1188739905.6587319     
   3.5620361971377724E-002  -2.4903079255327379E-002   1258833274.5119100     
   4.0491861523571288E-002  -2.8678989414503860E-002   1325921144.9423518     
   4.5356712891014901E-002  -3.2476539772470760E-002   1390003516.9500556     
   1808056873.3153350        167183843.10050708        1346649159.0820024     
   1778928775.2284157        135558773.09464985        1365126894.7622070     
   1750698277.5847697        106925704.56637204        1384458173.8923252     
   1723365380.3843966        81284637.515666246        1404642996.4723549     
   1696930083.6272986        58635571.942547441        1425681362.5022993     
   1356950332.8852422        125660185.68348157        1353990440.6768787     
   1332886458.7971191        101276043.02105886        1373431428.6972082     
   1309495785.0415616        79135901.467189312        1394243446.9566760     
   1286778311.6185684        59239761.021865964        1416426495.4552803     
   1264734038.5281410        41587621.685095012        1439980574.1930232     
   905238673.86354840        83954992.688976258        1363663260.8531806     
   887717557.45772159        67255337.475038469        1383805701.0844743     
   870645241.27375174        52051683.000625163        1405836658.3441315     
   854021725.31163836        38344029.265732527        1429756132.6321511     
   837847009.57138276        26132376.270366311        1455564123.9485340     
   452921896.25025344        42068264.116990745        1375667619.6109054     
   443422071.21022159        33496656.456584826        1396249711.9240060     
   434146646.28133988        25673049.166679606        1419237808.0546927     
   425095621.46360707        18597442.247269988        1444631908.0029690     
   416268996.75702220        12269835.698354140        1472432011.7688315     
   4.5356712891014901E-002  -3.2476539772470760E-002   1390003516.9500556     
   5.4621748973676845E-002  -3.4294184936888794E-002   1410763461.2158015     
   6.4326943497169664E-002  -3.4644288353842062E-002   1434446896.0883596     
   7.4473288685195829E-002  -3.3523455874815200E-002   1461053821.5677307     
   8.5060255542409619E-002  -3.0935098804929381E-002   1490584237.6539149     
   1696930083.6272986        58635571.942547441        1425681362.5022993     
   1643320758.0076768        33697831.625767410        1417035691.0269387     
   1592679898.2624328        18654977.556912243        1414211707.3195002     
   1545007504.3915691        13507009.735990822        1417209411.3799834     
   1500303576.3950820        18253928.162990451        1426028803.2083929     
   1264734038.5281410        41587621.685095012        1439980574.1930232     
   1227497693.1996346        23775511.113397837        1435876791.5774643     
   1192487697.2769115        13384565.227644980        1436901545.3228986     
   1159704050.7599709        10414784.027833879        1443054835.4293246     
   1129146753.6488166        14866167.513977766        1454336661.8967450     
   837847009.57138276        26132376.270366311        1455564123.9485340     
   815003211.94276106        14851765.666376382        1455136427.6460838     
   793643647.25132978        8518598.1863543093        1459144116.2976980     
   773768315.49708915        7132873.8303026259        1467587189.9033732     
   755377216.68003738        10694592.598213255        1480465648.4631124     
   416268996.75702220        12269835.698354140        1472432011.7688315     
   405837314.23705697        6926595.2847061753        1474814599.2327981     
   396147748.18568873        4057076.4330468178        1480939420.2438979     
   387200298.60291678        3661279.1433754265        1490806474.8021302     
   378994965.48874092        5739203.4156915396        1504415762.9074955     
   8.5060255542409619E-002  -3.0935098804929381E-002   1490584237.6539149     
   8.2523251053136557E-002  -3.1610851756693245E-002   1494911306.3376060     
   7.9989494881229500E-002  -3.2276470873294147E-002   1502287457.1614990     
   7.7459250094644133E-002  -3.2930211899808444E-002   1512712690.1255949     
   7.4929714447765430E-002  -3.3581242182605338E-002   1526187005.2298942     
   1500303576.3950820        18253928.162990451        1426028803.2083929     
   1465028404.3213036        29129349.454083085        1427026231.2600727     
   1428960508.8482804        37362359.414354444        1432048050.2210925     
   1392099889.9760125        42952958.043811619        1441094260.0914524     
   1354446547.7044950        45901145.342436433        1454164860.8711517     
   1129146753.6488166        14866167.513977766        1454336661.8967450     
   1103373588.9491138        23227697.788668990        1453530693.1598470     
   1077005881.6997457        29607419.564475298        1456589698.6512997     
   1050043631.9007144        34005332.841405511        1463513678.3710966     
   1022486839.5520169        36421437.619448185        1474302632.3192437     
   755377216.68003738        10694592.598213255        1480465648.4631124     
   738650583.12299907        16405588.987076968        1478087493.9288187     
   721527587.86587679        20795379.708996087        1479414896.9418807     
   704008230.90867305        23863964.763976485        1484447857.5022957     
   686092512.25138509        25611344.152010620        1493186375.6100669     
   378994965.48874092        5739203.4156915396        1504415762.9074955     
   370859386.84295756        8663023.0493071526        1500696633.5669842     
   362525627.34667331        10926239.847918078        1500523645.0928354     
   353993686.99988717        12528853.811524063        1503896797.4850450     
   345263565.80260003        13470864.940127060        1510816090.7436185     
   7.4929714447765430E-002  -3.3581242182605338E-002   1526187005.2298942     
  0.10899175335148831       -2.4640774768588183E-002   1521358112.0743458     
  0.14213376354997631       -1.8765334981877962E-002   1519915943.1041627     
  0.17435800971519588       -1.5949976001133841E-002   1521860498.3193493     
  0.20566300494131051       -1.6198786817406330E-002   1527191777.7199035     
   1354446547.7044950        45901145.342436433        1454164860.8711517     
   1282559556.4722073        35927051.068017721        1436128122.2159042     
   1209716593.9898355        22766385.959990859        1422529387.3184302     
   1135917660.2573798        6419150.0183474422        1413368656.1787341     
   1061162755.2748383       -13114656.756916642        1408645928.7968118     
   1022486839.5520169        36421437.619448185        1474302632.3192437     
   963886254.67098343        27535264.476090193        1454284512.8151066     
   904568691.35387635        16259163.212484300        1439797643.4085310     
   844534149.60069895        2593133.8286458254        1430842024.0995138     
   783782629.41144061       -13462823.675460875        1427417654.8880558     
   686092512.25138509        25611344.152010620        1493186375.6100669     
   643901894.69241810        18750160.430958509        1471465700.2067230     
   601233291.51138496        10295691.303021073        1456369521.2407203     
   558086702.70829093        247936.76821258664        1447897838.7120636     
   514462128.28313255       -11393103.173476636        1446050652.6207466     
   345263565.80260003        13470864.940127060        1510816090.7436185     
   322606476.53650892        9571738.9326228350        1487671684.3907454     
   299710394.46235985        4875970.2315929532        1472245020.8149986     
   276575319.58016348       -616441.16292810440        1464536100.0163774     
   253201251.88991091       -6905495.2509706169        1464544921.9948874     
  0.20566300494131051       -1.6198786817406330E-002   1527191777.7199035     
  0.20325755730536063       -1.8912161214368825E-002   1502902465.3671789     
  0.20680309571035499       -1.7913440877168757E-003   1487424142.1313655     
  0.21631247617291119        3.5209987398226693E-002   1480756808.0124617     
  0.23177906480545071        9.2069026395476650E-002   1482900463.0104687     
   1061162755.2748383       -13114656.756916642        1408645928.7968118     
   1047720366.3379705       -809390.24992197752        1426553114.1132796     
   1044098993.7952853        44232597.571021855        1449719832.4693379     
   1050298637.6467879        122011306.70591709        1478146083.8649940     
   1066319297.8924736        232526737.15476209        1511831868.3002379     
   783782629.41144061       -13462823.675460875        1427417654.8880558     
   781440914.91957688       -1911850.6301635802        1457268320.7515426     
   786464962.71446371        34191663.370971918        1490572501.6396713     
   798854772.79608846        94847718.327897906        1527330197.5524471     
   818610345.16445720        180056314.24063966        1567541408.4898744     
   514462128.28313255       -11393103.173476636        1446050652.6207466     
   518061036.76500064       -2144439.0312482715        1484980335.9059010     
   526570453.42617333        23472585.708661795        1525557516.2007494     
   539990378.26664877        65457971.046246737        1567782193.5053022     
   558320811.28642762        123811716.98150995        1611654367.8195581     
   253201251.88991091       -6905495.2509706169        1464544921.9948874     
   257580731.87423921       -1507155.4531844258        1509689159.5763559     
   264415465.93042484        12075364.584127337        1554674876.1525822     
   273705454.05847716        33842064.860994279        1599502071.7235637     
   285450696.25838685        63792945.377385192        1644170746.2892995     
  0.23177906480545071        9.2069026395476650E-002   1482900463.0104687     
  0.24728410711047091       0.10400304701701141        1531394791.7629125     
  0.22721133582651315       -2.6549504353232251E-003   1577924581.4951663     
  0.17156162022160504      -0.22790345618021629        1622489832.2072275     
   8.0329973442325370E-002 -0.57175770528362391        1665090543.8990974     
   1066319297.8924736        232526737.15476209        1511831868.3002379     
   1009664609.5095413        285170218.12845087        1493400064.4734571     
   919406919.09291673        225803692.32317203        1464934264.1333833     
   795546226.64260590        54427159.738933295        1426434467.2800286     
   638082532.15860832       -228959379.62425634        1377900673.9133766     
   818610345.16445720        180056314.24063966        1567541408.4898744     
   739690490.41652226        208610273.45575541        1514653367.9202211     
   635568384.21959949        153156727.84090975        1460231393.2196813     
   506244026.57368839        13695677.396107882        1404275484.3882527     
   351717417.47878629       -209772877.87866834        1346785641.4259353     
   558320811.28642762        123811716.98150995        1611654367.8195581     
   481421682.69463390        135561922.19441247        1534110966.1891890     
   387721053.23854601        91307124.526333302        1463533692.8103333     
   277218922.91817164       -8952676.0227023065        1399922547.6829824     
   149915291.73350790       -165217479.45270401        1343277530.8071423     
   285450696.25838685        63792945.377385192        1644170746.2892995     
   234858186.34386513        66025164.344392091        1551772859.2803628     
   175864926.14975739        40254882.379446283        1474841162.9053297     
   108470915.67605165       -13517900.517494328        1413375657.1642029     
   32676154.922758460       -95293184.346390963        1367376342.0569887     
   8.0329973442325370E-002 -0.57175770528362391        1665090543.8990974     
   1.3642268633443850       -9.4272483592399592E-002   1567639047.1937375     
   2.9532256219243624        1.4002196609146074        1494153803.5046813     
   4.8473350104889565        3.9117455039801921        1444634812.8319385     
   7.0465494245469360        7.4402908742479585        1419082075.1754928     
   1.5666840535511418E-002   4.7000521606534252E-003   656584217.79504478     
   1.7941474771056364E-002  -1.7397770495315486E-003   771171807.90483761     
   2.0398066248915006E-002  -7.5726484378018776E-003   885877141.37273085     
   2.3036983836112180E-002  -1.2797722760190202E-002   1000700218.1987237     
   2.5858104576972935E-002  -1.7415973654076034E-002   1115641038.3828168     
  -448089523.07180792       -134426856.92154238        658050189.12212312     
  -447438281.31742316       -125485121.03042875        774311300.45632839     
  -446046393.98726314       -114074566.55339798        888892146.11154461     
  -443913861.08132809       -100195193.49045004        1001792726.0877718     
  -441040682.59961790       -83847001.841585308        1113013040.3850095     
  -890063381.90123916       -267019014.57037175        662448103.10904920     
  -893898067.07214189       -250676693.38492393        781246822.17252553     
  -896251461.09167635       -229396735.02824911        896567266.51992333     
  -897123563.95984304       -203179139.50034708        1008409436.1512429     
  -896514375.67664111       -172023906.80121803        1116773331.0664840     
  -1325921576.4726267       -397776472.94178802        669777959.75582325     
  -1339379357.2462144       -375574717.06522536        791978373.05342877     
  -1350615201.2928414       -345966505.43212593        908902502.59786701     
  -1359629108.6125076       -308951838.04248917        1020550348.3891371     
  -1366421079.2052119       -264530714.89631549        1126921910.4272404     
  -1755664106.7859707       -526699232.03579122        680039759.06244516     
  -1783882151.8396418       -500179192.07133317        806505953.09903872     
  -1809137614.5907586       -463783877.76502794        925897854.34537506     
  -1831430495.0393217       -417513289.11687577        1038215462.8014549     
  -1850760793.1853304       -361367426.12687695        1143458778.4672780     
   2.5858104576972935E-002  -1.7415973654076034E-002   1115641038.3828168     
   3.0742149897162410E-002  -2.1149674273817403E-002   1188739905.6587319     
   3.5620361971377724E-002  -2.4903079255327379E-002   1258833274.5119100     
   4.0491861523571288E-002  -2.8678989414503860E-002   1325921144.9423518     
   4.5356712891014901E-002  -3.2476539772470760E-002   1390003516.9500556     
  -441040682.59961790       -83847001.841585308        1113013040.3850095     
  -442707030.60099959       -69055799.463074312        1181211178.3860166     
  -445242682.19492173       -57162275.726364985        1247719654.2551920     
  -448647637.38138384       -48166430.631455541        1312538467.9925356     
  -452921896.16038603       -42068264.178346470        1375667619.5980482     
  -896514375.67664111       -172023906.80121803        1116773331.0664840     
  -896087539.42455995       -141313642.36254555        1179056552.2679605     
  -897399310.35755253       -116398735.20745304        1240965947.6285112     
  -900449688.47561896       -97279185.335939676        1302501517.1481342     
  -905238673.77875924       -83954992.748005271        1363663260.8268330     
  -1366421079.2052119       -264530714.89631549        1126921910.4272404     
  -1360141526.4399388       -216773528.71956223        1182276027.3045635     
  -1356469884.4522722       -177709378.46816695        1238572154.6318660     
  -1355406153.2422137       -147338264.14213163        1295810292.4091468     
  -1356950332.8097625       -125660185.74145329        1353990440.6364071     
  -1850760793.1853304       -361367426.12687695        1143458778.4672780     
  -1834868991.6471348       -295435458.53412408        1190869603.4958260     
  -1822454404.4790812       -241094205.50850958        1240538275.2652576     
  -1813517031.6811681       -198343667.05003166        1292464793.7755735     
  -1808056873.2533963       -167183843.15868992        1346649159.0267730     
   4.5356712891014901E-002  -3.2476539772470760E-002   1390003516.9500556     
   5.4621748973676845E-002  -3.4294184936888794E-002   1410763461.2158015     
   6.4326943497169664E-002  -3.4644288353842062E-002   1434446896.0883596     
   7.4473288685195829E-002  -3.3523455874815200E-002   1461053821.5677307     
   8.5060255542409619E-002  -3.0935098804929381E-002   1490584237.6539149     
  -452921896.16038603       -42068264.178346470        1375667619.5980482     
  -443422071.10284704       -33496656.522982597        1396249711.9106765     
  -434146646.15521240       -25673049.233966887        1419237808.0404296     
  -425095621.31748235       -18597442.311299935        1444631907.9873085     
  -416268996.58965641       -12269835.754978329        1472432011.7513132     
  -905238673.77875924       -83954992.748005271        1363663260.8268330     
  -887717557.35776603       -67255337.540905446        1383805701.0576062     
  -870645241.15702212       -52051683.067969680        1405836658.3158190     
  -854021725.17652678       -38344029.329196364        1429756132.6014705     
  -837847009.41628242       -26132376.324591845        1455564123.9145598     
  -1356950332.8097625       -125660185.74145329        1353990440.6364071     
  -1332886458.7101350       -101276043.08806193        1373431428.6565921     
  -1309495784.9411023       -79135901.536654055        1394243446.9145274     
  -1286778311.5026636       -59239761.087225497        1416426495.4102154     
  -1264734038.3948188       -41587621.739777207        1439980574.1436548     
  -1808056873.2533963       -167183843.15868992        1346649159.0267730     
  -1778928775.1599560       -135558773.16445714        1365126894.7076323     
  -1750698277.5074537       -106925704.64001977        1384458173.8365562     
  -1723365380.2958901       -81284637.585378230        1404642996.4135437     
  -1696930083.5252676       -58635572.000539780        1425681362.4385960     
   8.5060255542409619E-002  -3.0935098804929381E-002   1490584237.6539149     
   8.2523251053136557E-002  -3.1610851756693245E-002   1494911306.3376060     
   7.9989494881229500E-002  -3.2276470873294147E-002   1502287457.1614990     
   7.7459250094644133E-002  -3.2930211899808444E-002   1512712690.1255949     
   7.4929714447765430E-002  -3.3581242182605338E-002   1526187005.2298942     
  -416268996.58965641       -12269835.754978329        1472432011.7513132     
  -405837314.07180971       -6926595.3390538692        1474814599.2126682     
  -396147748.02256864       -4057076.4851482362        1480939420.2225912     
  -387200298.44192946       -3661279.1932484061        1490806474.7810836     
  -378994965.32989550       -5739203.4633670896        1504415762.8881452     
  -837847009.41628242       -26132376.324591845        1455564123.9145598     
  -815003211.78272128       -14851765.713468999        1455136427.6068697     
  -793643647.08637118       -8518598.2263850272        1459144116.2561150     
  -773768315.32723188       -7132873.8633373678        1467587189.8622959     
  -755377216.50530374       -10694592.624325305        1480465648.4254117     
  -1264734038.3948188       -41587621.739777207        1439980574.1436548     
  -1227497693.0502121       -23775511.154861152        1435876791.5202119     
  -1192487697.1114228       -13384565.256001472        1436901545.2620718     
  -1159704050.5784500       -10414784.043196917        1443054835.3692312     
  -1129146753.4512975       -14866167.516462147        1454336661.8416939     
  -1696930083.5252676       -58635572.000539780        1425681362.4385960     
  -1643320757.8742812       -33697831.663219690        1417035690.9526939     
  -1592679898.0977206       -18654977.573988914        1414211707.2404590     
  -1545007504.1955850       -13507009.732840240        1417209411.3018904     
  -1500303576.1678734       -18253928.139770210        1426028803.1369903     
   7.4929714447765430E-002  -3.3581242182605338E-002   1526187005.2298942     
  0.10899175335148831       -2.4640774768588183E-002   1521358112.0743458     
  0.14213376354997631       -1.8765334981877962E-002   1519915943.1041627     
  0.17435800971519588       -1.5949976001133841E-002   1521860498.3193493     
  0.20566300494131051       -1.6198786817406330E-002   1527191777.7199035     
  -378994965.32989550       -5739203.4633670896        1504415762.8881452     
  -370859386.61743575       -8663023.0784854442        1500696633.5466783     
  -362525627.05734468       -10926239.868166462        1500523645.0703177     
  -353993686.64961594       -12528853.832388863        1503896797.4590616     
  -345263565.39425421       -13470864.971167162        1510816090.7129140     
  -755377216.50530374       -10694592.624325305        1480465648.4254117     
  -738650582.88662672       -16405588.995170414        1478087493.8880057     
  -721527587.57176173       -20795379.712052673        1479414896.8954458     
  -704008230.56070566       -23863964.774969220        1484447857.4477301     
  -686092511.85346079       -25611344.183919013        1493186375.5448570     
  -1129146753.4512975       -14866167.516462147        1454336661.8416939     
  -1103373588.6985772       -23227697.774675906        1453530693.0983307     
  -1077005881.4011133       -29607419.550412476        1456589698.5795512     
  -1050043631.5589079       -34005332.843676567        1463513678.2853529     
  -1022486839.1719576       -36421437.654457927        1474302632.2157371     
  -1500303576.1678734       -18253928.139770210        1426028803.1369903     
  -1465028404.0532873       -29129349.417012691        1427026231.1776514     
  -1428960508.5454066       -37362359.383267283        1432048050.1226304     
  -1392099889.6442251       -42952958.038523197        1441094259.9719315     
  -1354446547.3497467       -45901145.382787824        1454164860.7255516     
  0.20566300494131051       -1.6198786817406330E-002   1527191777.7199035     
  0.20325755730536063       -1.8912161214368825E-002   1502902465.3671789     
  0.20680309571035499       -1.7913440877168757E-003   1487424142.1313655     
  0.21631247617291119        3.5209987398226693E-002   1480756808.0124617     
  0.23177906480545071        9.2069026395476650E-002   1482900463.0104687     
  -345263565.39425421       -13470864.971167162        1510816090.7129140     
  -322606476.13270289       -9571738.9811486304        1487671684.3719585     
  -299710394.05267978       -4875970.2628920376        1472245020.8111217     
  -276575319.15417701        616441.18363098800        1464536100.0304022     
  -253201251.43720612        6905495.3583806157        1464544922.0298011     
  -686092511.85346079       -25611344.183919013        1493186375.5448570     
  -643901894.29021895       -18750160.489850134        1471465700.1636083     
  -601233291.09598386       -10295691.359139115        1456369521.2256885     
  -558086702.27075839       -247936.79179218411        1447897838.7310917     
  -514462127.81454253        11393103.212190151        1446050652.6798184     
  -1022486839.1719576       -36421437.654457927        1474302632.2157371     
  -963886254.26928937       -27535264.545015395        1454284512.7421324     
  -904568690.92310929       -16259163.290532529        1439797643.3750596     
  -844534149.13342416       -2593133.8910323977        1430842024.1145210     
  -783782628.90023100        13462823.653494060        1427417654.9605093     
  -1354446547.3497467       -45901145.382787824        1454164860.7255516     
  -1282559556.0699196       -35927051.146655381        1436128122.1075282     
  -1209716593.5340579       -22766386.057078779        1422529387.2592416     
  -1135917659.7421784       -6419150.1141072512        1413368656.1806953     
  -1061162754.6942708        13114656.682292581        1408645928.8718877     
  0.23177906480545071        9.2069026395476650E-002   1482900463.0104687     
  0.24728410711047091       0.10400304701701141        1531394791.7629125     
  0.22721133582651315       -2.6549504353232251E-003   1577924581.4951663     
  0.17156162022160504      -0.22790345618021629        1622489832.2072275     
   8.0329973442325370E-002 -0.57175770528362391        1665090543.8990974     
  -253201251.43720612        6905495.3583806157        1464544922.0298011     
  -257580731.39539132        1507155.5953674614        1509689159.5499976     
  -264415465.47000736       -12075364.555749521        1554674876.0586827     
  -273705453.66104925       -33842065.094953850        1599502071.5558650     
  -285450695.96851754       -63792946.022243999        1644170746.0415447     
  -514462127.81454253        11393103.212190151        1446050652.6798184     
  -518061036.29303169        2144439.1102348864        1484980335.8734367     
  -526570452.96880108       -23472585.649319112        1525557516.0642376     
  -539990377.84184396       -65457971.066452548        1567782193.2522185     
  -558320810.91216421       -123811717.14117673        1611654367.4373791     
  -783782628.90023100        13462823.653494060        1427417654.9605093     
  -781440914.44563639        1911850.6486134529        1457268320.7332330     
  -786464962.26916945       -34191663.283363134        1490572501.5118227     
  -798854772.37082314       -94847718.142406642        1527330197.2962780     
  -818610344.75060618       -180056313.92854804        1567541408.0866005     
  -1061162754.6942708        13114656.682292581        1408645928.8718877     
  -1047720365.8532004        809390.21051084995        1426553114.1293886     
  -1044098993.3711109       -44232597.457874954        1449719832.4014404     
  -1050298637.2479912       -122011306.32282636        1478146083.6880479     
  -1066319297.4838452       -232526736.38435847        1511831867.9892073     
   8.0329973442325370E-002 -0.57175770528362391        1665090543.8990974     
   1.3642268633443850       -9.4272483592399592E-002   1567639047.1937375     
   2.9532256219243624        1.4002196609146074        1494153803.5046813     
   4.8473350104889565        3.9117455039801921        1444634812.8319385     
   7.0465494245469360        7.4402908742479585        1419082075.1754928     
  -285450695.96851754       -63792946.022243999        1644170746.0415447     
  -234858183.55899918       -66025164.192289002        1551772859.5533762     
  -175864920.54373163       -40254880.343173757        1474841163.6795847     
  -108470906.92270665        13517905.525138125        1413375658.4201610     
  -32676142.695927911        95293193.412625343        1367376343.7751191     
  -558320810.91216421       -123811717.14117673        1611654367.4373791     
  -481421679.95397252       -135561921.73184139        1534110966.5171566     
  -387721048.08938098       -91307123.301171482        1463533693.8093767     
  -277218915.31838572        8952678.1508461833        1399922549.3140407     
  -149915281.64099151        165217482.62419063        1343277533.0311415     
  -818610344.75060618       -180056313.92854804        1567541408.0866005     
  -739690487.82068872       -208610272.71291077        1514653368.0850813     
  -635568379.68372154       -153156727.47377822        1460231393.8940732     
  -506244020.33970636       -13695678.211148232        1404275485.5135696     
  -351717409.78864217        209772875.07497644        1346785642.9435823     
  -1066319297.4838452       -232526736.38435847        1511831867.9892073     
  -1009664607.1591488       -285170217.13550335        1493400064.2571456     
  -919406915.32675743       -225803692.86100024        1464934263.9336572     
  -795546221.98666286       -54427163.560818404        1426434467.0187502     
  -638082527.13888073        228959370.76498589        1377900673.5124154     
  -1755664106.7859707       -526699232.03579122        680039759.06244516     
  -1783882151.8396418       -500179192.07133317        806505953.09903872     
  -1809137614.5907586       -463783877.76502794        925897854.34537506     
  -1831430495.0393217       -417513289.11687577        1038215462.8014549     
  -1850760793.1853304       -361367426.12687695        1143458778.4672780     
  -2201470999.8587742       -660441299.95763218        696366442.48217046     
  -2238177611.8408012       -613932477.09056914        813876125.33343863     
  -2272830867.9981332       -560579134.80785906        927317638.05254984     
  -2305430768.3307734       -500381273.10950232        1036690980.6395047     
  -2335977312.8387179       -433338891.99549884        1141996153.0943024     
  -2685522282.7085395       -805656684.81256187        721890951.46825421     
  -2722128539.7386370       -736582402.47880793        829383358.91002727     
  -2757590667.4218998       -663694355.65560746        935813718.87774348     
  -2791908665.7583289       -586992544.34296012        1041182031.3714030     
  -2825082534.7479243       -506476968.54086614        1145488296.3910058     
  -3207817955.3352661       -962345386.60057986        756613286.02069712     
  -3235734935.5331478       -868128968.23604965        853027653.82880473     
  -3263417012.8620553       -773129540.30827260        951386096.82095563     
  -3290864187.3219891       -677347102.81724918        1051688614.9971498     
  -3318076458.9129496       -580781655.76297975        1153935208.3573875     
  -3768358017.7389555       -1130507405.3216865        800533446.13949871     
  -3778996799.2243347       -1008572174.3622936        884809010.08977091     
  -3790309904.3186016       -888884688.76585507        974034771.88218653     
  -3802297333.0217543       -771444948.53236961        1068210731.5167452     
  -3814959085.3337932       -656252953.66183782        1167336888.9934475     
  -1850760793.1853304       -361367426.12687695        1143458778.4672780     
  -1834868991.6471348       -295435458.53412408        1190869603.4958260     
  -1822454404.4790812       -241094205.50850958        1240538275.2652576     
  -1813517031.6811681       -198343667.05003166        1292464793.7755735     
  -1808056873.2533963       -167183843.15868992        1346649159.0267730     
  -2335977312.8387179       -433338891.99549884        1141996153.0943024     
  -2311999361.2795277       -352178512.07193512        1183053564.3805084     
  -2291551260.0575018       -282784299.93891901        1224558995.3271775     
  -2274633009.1726408       -225156255.59645057        1266512445.9343097     
  -2261244608.6249428       -179294379.04453063        1308913916.2019050     
  -2825082534.7479243       -506476968.54086614        1145488296.3910058     
  -2798189367.6832280       -411639456.64113837        1180130885.3066759     
  -2774878686.9227180       -328743565.75536716        1213411666.8023884     
  -2755150492.4663968       -257789295.88355660        1245330640.8781438     
  -2739004784.3142619       -198776647.02570248        1275887807.5339408     
  -3318076458.9129496       -580781655.76297975        1153935208.3573875     
  -3293439010.8582344       -473818292.24173379        1182101566.2743285     
  -3272436685.0747294       -378972002.95785391        1207096289.6908908     
  -3255069481.5624366       -296242787.91134727        1228919378.6070750     
  -3241337400.3213525       -225630647.10220683        1247570833.0228801     
  -3814959085.3337932       -656252953.66183782        1167336888.9934475     
  -3797748290.8045478       -538715018.87372053        1188965607.2834659     
  -3784225254.5135355       -433469611.54638016        1205612863.9926848     
  -3774389976.4607573       -340516731.67982149        1217278659.1211040     
  -3768242456.6462140       -259856379.27404046        1223962992.6687243     
  -1808056873.2533963       -167183843.15868992        1346649159.0267730     
  -1778928775.1599560       -135558773.16445714        1365126894.7076323     
  -1750698277.5074537       -106925704.64001977        1384458173.8365562     
  -1723365380.2958901       -81284637.585378230        1404642996.4135437     
  -1696930083.5252676       -58635572.000539780        1425681362.4385960     
  -2261244608.6249428       -179294379.04453063        1308913916.2019050     
  -2223027306.1627150       -135464175.80381012        1317914510.5485654     
  -2187530929.5516062       -100703725.40014923        1330236687.9047308     
  -2154755478.7916126       -75013027.833541155        1345880448.2704017     
  -2124700953.8827345       -58392083.103987098        1364845791.6455786     
  -2739004784.3142619       -198776647.02570248        1275887807.5339408     
  -2684646735.8791323       -140625848.05726397        1273284047.5678618     
  -2634832938.7052956       -97622553.293139815        1276469910.1727293     
  -2589563392.7927527       -69766762.733326793        1285445395.3485434     
  -2548838098.1415057       -57058476.377830029        1300210503.0953023     
  -3241337400.3213525       -225630647.10220683        1247570833.0228801     
  -3163787064.3092012       -151043789.92481267        1231235505.7655222     
  -3092604304.9685240       -97682188.318994522        1223157840.6405511     
  -3027789122.2993159       -65545842.284741282        1223337837.6479666     
  -2969341516.3015795       -54634751.822063446        1231775496.7877722     
  -3768242456.6462140       -259856379.27404046        1223962992.6687243     
  -3660448291.4529252       -166718001.40645647        1191768885.1415458     
  -3560845028.3412881       -100882630.47770751        1170300479.3081968     
  -3469432667.3112960       -62350266.487778187        1159557775.1686757     
  -3386211208.3629551       -51120909.436685681        1159540772.7229841     
  -1696930083.5252676       -58635572.000539780        1425681362.4385960     
  -1643320757.8742812       -33697831.663219690        1417035690.9526939     
  -1592679898.0977206       -18654977.573988914        1414211707.2404590     
  -1545007504.1955850       -13507009.732840240        1417209411.3018904     
  -1500303576.1678734       -18253928.139770210        1426028803.1369903     
  -2124700953.8827345       -58392083.103987098        1364845791.6455786     
  -2058169043.3309367       -37651684.946257949        1354335847.9005415     
  -1993415390.8388135       -22838813.654109716        1348913283.7315972     
  -1930439996.4063630       -13953469.227537394        1348578099.1387455     
  -1869242860.0335846       -10995651.666539550        1353330294.1219847     
  -2548838098.1415057       -57058476.377830029        1300210503.0953023     
  -2471481626.1105385       -41144827.426175952        1289224862.8750076     
  -2394713204.3244958       -27191345.957603812        1282592294.0332313     
  -2318532832.7833743       -15198031.972103596        1280312796.5699704     
  -2242940511.4871774       -5164885.4696800709        1282386370.4852269     
  -2969341516.3015795       -54634751.822063446        1231775496.7877722     
  -2883258506.2130876       -44177259.102982879        1221702735.8760962     
  -2796573338.5547662       -31712574.484472632        1215248738.1453605     
  -2709286013.3266187       -17240697.966541886        1212413503.5955677     
  -2621396530.5286431       -761629.54918169975        1213197032.2267163     
  -3386211208.3629551       -51120909.436685681        1159540772.7229841     
  -3293499683.6385808       -46748979.976668000        1151769466.9037995     
  -3198995793.5296278       -36402499.234724641        1146882616.0679841     
  -3102699538.0360947       -20081467.210847735        1144880220.2155335     
  -3004610917.1579833        2214116.0949578285        1145762279.3464522     
  -1500303576.1678734       -18253928.139770210        1426028803.1369903     
  -1465028404.0532873       -29129349.417012691        1427026231.1776514     
  -1428960508.5454066       -37362359.383267283        1432048050.1226304     
  -1392099889.6442251       -42952958.038523197        1441094259.9719315     
  -1354446547.3497467       -45901145.382787824        1454164860.7255516     
  -1869242860.0335846       -10995651.666539550        1353330294.1219847     
  -1820822163.3750551       -14534996.051355362        1353322438.4929602     
  -1772379843.8424830       -18002264.189367056        1357709193.0951674     
  -1723915901.4358642       -21397456.080552578        1366490557.9286058     
  -1675430336.1551995       -24720571.724920869        1379666532.9932752     
  -2242940511.4871774       -5164885.4696800709        1282386370.4852269     
  -2180316520.7792420       -1050822.1104352474        1280473613.9140563     
  -2118442007.7165127        564982.43145167828        1283325686.9010286     
  -2057316972.2989957       -317471.84402954578        1290942589.4461422     
  -1996941414.5266852       -3698184.9368672371        1303324321.5494008     
  -2621396530.5286431       -761629.54918169975        1213197032.2267163     
  -2543511476.2658381        11323172.405771852        1208479757.4409366     
  -2467147000.1675000        18339380.479177594        1208897531.5402117     
  -2392303102.2336197        20286994.671050668        1214450354.5245404     
  -2318979782.4642024        17166014.981380463        1225138226.3939226     
  -3004610917.1579833        2214116.0949578285        1145762279.3464522     
  -2910407029.8348541        22586987.497244716        1137340869.0736034     
  -2818494821.1954384        35320929.953822017        1134424727.0127184     
  -2728874291.2397408        40415943.464671016        1137013853.1637995     
  -2641545439.9677544        37872028.029814363        1145108247.5268455     
  -1354446547.3497467       -45901145.382787824        1454164860.7255516     
  -1282559556.0699196       -35927051.146655381        1436128122.1075282     
  -1209716593.5340579       -22766386.057078779        1422529387.2592416     
  -1135917659.7421784       -6419150.1141072512        1413368656.1806953     
  -1061162754.6942708        13114656.682292581        1408645928.8718877     
  -1675430336.1551995       -24720571.724920869        1379666532.9932752     
  -1592021801.0444014       -17110944.643999636        1362431789.5650129     
  -1508334327.1969271       -8571521.7741570473        1350167414.6574223     
  -1424367914.6127813        897696.88459062576        1342873408.2705011     
  -1340122563.2919636        11296711.332243860        1340549770.4042547     
  -1996941414.5266852       -3698184.9368672371        1303324321.5494008     
  -1900490293.4393981        2003287.6324882507        1286101702.0383229     
  -1804437266.1347897        6377780.9262565374        1274381815.7988474     
  -1708782332.6128597        9425294.9444290400        1268164662.8309774     
  -1613525492.8736067        11145829.687008440        1267450243.1347103     
  -2318979782.4642024        17166014.981380463        1225138226.3939226     
  -2207965033.2549076        21415645.682830453        1207137859.5274532     
  -2098025410.3476412        22081522.044186711        1195172590.6835208     
  -1989160913.7424059        19163644.065440655        1189242419.8621225     
  -1881371543.4392018        12662011.746586561        1189347347.0632601     
  -2641545439.9677544        37872028.029814363        1145108247.5268455     
  -2514446020.4909315        41126129.507011771        1125540262.0324092     
  -2389098759.8354897        38539701.579598665        1112539739.3114374     
  -2265503658.0014234        30112744.247601867        1106106679.3639357     
  -2143660714.9887457        15845257.510983348        1106241082.1899011     
  -1061162754.6942708        13114656.682292581        1408645928.8718877     
  -1047720365.8532004        809390.21051084995        1426553114.1293886     
  -1044098993.3711109       -44232597.457874954        1449719832.4014404     
  -1050298637.2479912       -122011306.32282636        1478146083.6880479     
  -1066319297.4838452       -232526736.38435847        1511831867.9892073     
  -1340122563.2919636        11296711.332243860        1340549770.4042547     
  -1316502127.4425886       -2532336.8744333982        1351017841.1826184     
  -1297143435.6131096       -30567198.480758846        1364407287.8147154     
  -1282046487.8035316       -72807873.486760736        1380718110.3005474     
  -1271211284.0138590       -129254361.89244032        1399950308.6401086     
  -1613525492.8736067        11145829.687008440        1267450243.1347103     
  -1586407459.0468311       -6211134.9638006091        1276965017.1628580     
  -1557991896.9008882       -19243005.217377186        1287063009.8839173     
  -1528278806.4357691       -27949781.073704302        1297744221.2978904     
  -1497268187.6514814       -32331462.532801509        1309008651.4047794     
  -1881371543.4392018        12662011.746586561        1189347347.0632601     
  -1857436360.6659467       -10227004.057649732        1204394642.0701103     
  -1826644377.2344472       -10260017.667734385        1217686998.6090496     
  -1788995593.1446984        12562970.916341066        1229224416.6800852     
  -1744490008.3967085        58241961.694554329        1239006896.2832139     
  -2143660714.9887457        15845257.510983348        1106241082.1899011     
  -2129588832.2999225       -14579944.155946970        1133306715.9043710     
  -2103100876.6137822       -3618235.8318152428        1156279253.9901118     
  -2064196847.9303195        48730382.483390570        1175158696.4471273     
  -2012876746.2495456        142465910.78963053        1189945043.2754169     
  -1066319297.4838452       -232526736.38435847        1511831867.9892073     
  -1009664607.1591488       -285170217.13550335        1493400064.2571456     
  -919406915.32675743       -225803692.86100024        1464934263.9336572     
  -795546221.98666286       -54427163.560818404        1426434467.0187502     
  -638082527.13888073        228959370.76498589        1377900673.5124154     
  -1271211284.0138590       -129254361.89244032        1399950308.6401086     
  -1219703662.0609250       -157365972.53440920        1407627365.2401628     
  -1153297052.8036585       -135814292.16194254        1415717934.2743185     
  -1071991456.2420553       -64599320.775014341        1424222015.7425754     
  -975786872.37612224        56278941.626342595        1433139609.6449349     
  -1497268187.6514814       -32331462.532801509        1309008651.4047794     
  -1421057608.2830951       -26956195.329443216        1320973218.4330258     
  -1348652055.8137383       -34264351.122838378        1343798806.9209032     
  -1280051530.2434101       -54255929.912999213        1377485416.8684108     
  -1215256031.5721087       -86930931.699924290        1422033048.2755382     
  -1744490008.3967085        58241961.694554329        1239006896.2832139     
  -1613726445.8256595        106059114.47940958        1233437623.8357337     
  -1505471924.3569951        78846130.256305993        1249176881.8734074     
  -1419726443.9907274       -23396990.974769294        1286224670.3962369     
  -1356490004.7268431       -200670249.21381217        1344580989.4042184     
  -2012876746.2495456        142465910.78963053        1189945043.2754169     
  -1797710174.6886144        241679956.89214504        1145020581.4482875     
  -1623756658.4334280        203517151.97550499        1131852159.1318402     
  -1491016197.4840035        27977496.039671421        1150439776.3260694     
  -1399488791.8403256       -284939010.91533101        1200783433.0309830     
  -3768358017.7389555       -1130507405.3216865        800533446.13949871     
  -3778996799.2243347       -1008572174.3622936        884809010.08977091     
  -3790309904.3186016       -888884688.76585507        974034771.88218653     
  -3802297333.0217543       -771444948.53236961        1068210731.5167452     
  -3814959085.3337932       -656252953.66183782        1167336888.9934475     
  -4339965264.4170494       -1301989579.3251150        858763413.23117387     
  -4335188894.2240353       -1125692401.2617526        942304929.49260080     
  -4331587450.8394413       -953311645.89312196        1020208992.1789643     
  -4329160934.2632637       -784847313.21922135        1092475601.2902637     
  -4327909344.4955072       -620299403.24005234        1159104756.8264995     
  -4895462489.8669901       -1468638746.9600971        936415168.70223737     
  -4905521400.6161757       -1247054751.5789437        1018638600.2086972     
  -4917255841.3733091       -1031055856.2242982        1084636926.7228861     
  -4930665812.1383972       -820642060.89616060        1134410148.2448044     
  -4945751312.9114380       -615813365.59453201        1167958264.7744515     
  -5434849694.0887804       -1630454908.2266340        1033488712.5526892     
  -5489994318.4007530       -1372659225.3138661        1113810022.2380595     
  -5547315075.9202108       -1122117319.7593837        1167318575.5139525     
  -5606811966.6471548       -878829191.56318676        1194014372.3803670     
  -5668484990.5815840       -642794840.72527552        1193897412.8373036     
  -5958126877.0824184       -1787438063.1247253        1149984044.7825294     
  -6088607647.5777712       -1502505822.4665208        1227819195.5806887     
  -6221765154.4801435       -1226496036.4983792        1268253938.5521626     
  -6357599397.7895336       -959408705.22029948        1271288273.6969519     
  -6496110377.5059433       -701243828.63228345        1236922201.0150564     
  -3814959085.3337932       -656252953.66183782        1167336888.9934475     
  -3797748290.8045478       -538715018.87372053        1188965607.2834659     
  -3784225254.5135355       -433469611.54638016        1205612863.9926848     
  -3774389976.4607573       -340516731.67982149        1217278659.1211040     
  -3768242456.6462140       -259856379.27404046        1223962992.6687243     
  -4327909344.4955072       -620299403.24005234        1159104756.8264995     
  -4297965537.1224165       -464880013.34679663        1141241785.8722806     
  -4278540991.0953083       -344524827.94015789        1129413027.5083275     
  -4269635706.4141855       -259233847.02013874        1123618481.7346404     
  -4271249683.0790486       -209007070.58673453        1123858148.5512185     
  -4945751312.9114380       -615813365.59453201        1167958264.7744515     
  -4871601137.9200239       -413070514.16379523        1102633517.6169522     
  -4814801727.3823509       -268163544.24551654        1054358657.2207832     
  -4775353081.2984104       -181092455.83969355        1023133683.5859455     
  -4753255199.6682119       -151857248.94632816        1008958596.7124383     
  -5668484990.5815840       -642794840.72527552        1193897412.8373036     
  -5518655093.1973820       -383286521.32472014        1073140802.5174803     
  -5393007463.3746653       -204385760.46245742        980449753.13005185     
  -5291542101.1134377       -106092558.13849092        915824264.67502034     
  -5214259006.4136992       -88406914.352819204        879264337.15238535     
  -6496110377.5059433       -701243828.63228345        1236922201.0150564     
  -6239127402.9544764       -375528034.82956266        1052763640.5738651     
  -6013158199.0722494       -153191476.59097695        907686315.23613405     
  -5818202765.8592615       -34234153.916524887        801690225.00186503     
  -5654261103.3155146       -18656066.806206942        734775369.87105668     
  -3768242456.6462140       -259856379.27404046        1223962992.6687243     
  -3660448291.4529252       -166718001.40645647        1191768885.1415458     
  -3560845028.3412881       -100882630.47770751        1170300479.3081968     
  -3469432667.3112960       -62350266.487778187        1159557775.1686757     
  -3386211208.3629551       -51120909.436685681        1159540772.7229841     
  -4271249683.0790486       -209007070.58673453        1123858148.5512185     
  -4147083718.5692139       -144191317.99462295        1090310063.0023174     
  -4027658936.3575945       -95179506.396562338        1065165957.9897326     
  -3912975336.4441881       -61971635.792542458        1048425833.5134637     
  -3803032918.8289938       -44567706.182567120        1040089689.5735117     
  -4753255199.6682119       -151857248.94632816        1008958596.7124383     
  -4619350924.8632917       -117354168.33612752        978081206.22248745     
  -4486738112.5731525       -87155962.775190592        953286075.11134100     
  -4355416762.7977905       -61262632.263515711        934573203.37900054     
  -4225386875.5372100       -39674176.801102638        921942591.02546179     
  -5214259006.4136992       -88406914.352819204        879264337.15238535     
  -5077249910.3351593       -86206552.430969477        855082314.80205917     
  -4938082556.9879665       -76811999.613598347        834660830.67302573     
  -4796756946.3721151       -60223255.900706053        817999884.76528370     
  -4653273078.4876080       -36440321.292292356        805099477.07883620     
  -5654261103.3155146       -18656066.806206942        734775369.87105668     
  -5520780674.9848194       -50748470.279146671        721313388.74103010     
  -5381692269.6020308       -64147616.911779642        709290224.67478395     
  -5236995887.1671534       -58853506.704111814        698705877.67231750     
  -5086691527.6801815       -34866139.656135082        689560347.73363221     
  -3386211208.3629551       -51120909.436685681        1159540772.7229841     
  -3293499683.6385808       -46748979.976668000        1151769466.9037995     
  -3198995793.5296278       -36402499.234724641        1146882616.0679841     
  -3102699538.0360947       -20081467.210847735        1144880220.2155335     
  -3004610917.1579833        2214116.0949578285        1145762279.3464522     
  -3803032918.8289938       -44567706.182567120        1040089689.5735117     
  -3699992033.2286592       -35725709.073486328        1032269212.4594195     
  -3596490057.3497381       -25346744.369120598        1028478388.5013760     
  -3492526991.1922326       -13430812.069469690        1028717217.6993827     
  -3388102834.7561412        22087.825461626053        1032985700.0534376     
  -4225386875.5372100       -39674176.801102638        921942591.02546179     
  -4108744634.2818241       -25380513.609231949        912519788.32613480     
  -3992972577.8538442       -13987466.508718729        908271836.95554006     
  -3878070706.2532749       -5495035.4995701313        909198736.91367626     
  -3764039019.4801078        96779.418223619461        915300488.20054436     
  -4653273078.4876080       -36440321.292292356        805099477.07883620     
  -4519757486.7980766       -15713393.583901644        792521194.50394845     
  -4388443355.0419426       -2324665.6535127163        786262961.43047667     
  -4259330683.2192135        3725862.4988665581        786324777.85841608     
  -4132419471.3298879        2438190.8732433319        792706643.78777027     
  -5086691527.6801815       -34866139.656135082        689560347.73363221     
  -4933030590.7774124       -6724348.9974989891        672273430.99286020     
  -4782902388.9140377        9641658.1964933872        662451761.92618132     
  -4636306922.0900602        14231881.925824881        660095340.53360069     
  -4493244190.3054743        7046322.1905171871        665204166.81511617     
  -3004610917.1579833        2214116.0949578285        1145762279.3464522     
  -2910407029.8348541        22586987.497244716        1137340869.0736034     
  -2818494821.1954384        35320929.953822017        1134424727.0127184     
  -2728874291.2397408        40415943.464671016        1137013853.1637995     
  -2641545439.9677544        37872028.029814363        1145108247.5268455     
  -3388102834.7561412        22087.825461626053        1032985700.0534376     
  -3282852473.0894775        12192015.761912107        1024704101.5090038     
  -3179072542.4888616        19460506.811532259        1021307509.6628247     
  -3076763042.9542990        21827560.974309087        1022795924.5148994     
  -2975923974.4857817        19293178.250265360        1029169346.0652301     
  -3764039019.4801078        96779.418223619461        915300488.20054436     
  -3649514359.2233682        3532111.1628010273        908116823.60513210     
  -3535638882.4150128        4803498.0794270039        905197904.19426656     
  -3422412589.0550432        3910940.1680941582        906543729.96794593     
  -3309835479.1434608        854437.42881083488        912154300.92616665     
  -4132419471.3298879        2438190.8732433319        792706643.78777027     
  -4010392688.2365255       -3392726.3000910282        787579035.36199117     
  -3888193840.9738889       -8650096.2425007820        786095910.60704708     
  -3765822929.5419707       -13333918.953977108        788257269.52293479     
  -3643279953.9407768       -17444194.434529781        794063112.10965824     
  -4493244190.3054743        7046322.1905171871        665204166.81511617     
  -4365487460.1289549       -8582496.6267662048        663090736.77957857     
  -4236737418.1654897       -20900276.154238224        664001528.90116167     
  -4106994064.4150887       -29907016.391911983        667936543.17986929     
  -3976257398.8777375       -35602717.339766979        674895779.61570168     
  -2641545439.9677544        37872028.029814363        1145108247.5268455     
  -2514446020.4909315        41126129.507011771        1125540262.0324092     
  -2389098759.8354897        38539701.579598665        1112539739.3114374     
  -2265503658.0014234        30112744.247601867        1106106679.3639357     
  -2143660714.9887457        15845257.510983348        1106241082.1899011     
  -2975923974.4857817        19293178.250265360        1029169346.0652301     
  -2831142759.2656035        26381603.956397891        1008022118.1652876     
  -2687238257.3279276        30547652.054196119        993023964.78008854     
  -2544210468.6727571        31791322.543636203        984174885.90963149     
  -2402059393.3000865        30112615.424737573        981474881.55391967     
  -3309835479.1434608        854437.42881083488        912154300.92616665     
  -3148567863.2048540        11418568.856415629        890449183.74941087     
  -2987301515.0098739        21978474.471927166        874474752.82867122     
  -2826036434.5585208        32534154.275348186        864231008.16395009     
  -2664772621.8507957        43085608.266681314        859717949.75524640     
  -3643279953.9407768       -17444194.434529781        794063112.10965824     
  -3466721332.3086743       -3762975.7929468155        772821458.78477919     
  -3289288532.8813190        12832168.832807064        756892103.45718884     
  -3110981555.6587172        32341239.442727089        746275046.12689090     
  -2931800400.6408634        54764236.036814094        740970286.79388714     
  -3976257398.8777375       -35602717.339766979        674895779.61570168     
  -3785603166.5770659       -19163029.991670847        655138943.27138853     
  -3593199310.9422641        3108735.1368515491        640276016.66563749     
  -3399045831.9733429        31212578.045778275        630306999.79845440     
  -3203142729.6702905        65148498.735142469        625231892.66983855     
  -2143660714.9887457        15845257.510983348        1106241082.1899011     
  -2129588832.2999225       -14579944.155946970        1133306715.9043710     
  -2103100876.6137822       -3618235.8318152428        1156279253.9901118     
  -2064196847.9303195        48730382.483390570        1175158696.4471273     
  -2012876746.2495456        142465910.78963053        1189945043.2754169     
  -2402059393.3000865        30112615.424737573        981474881.55391967     
  -2396725442.7479901       -3546463.8506789207        1019376488.4261100     
  -2384538010.5905399       -14360604.441587329        1055395984.1161232     
  -2365497096.8277302       -2329806.3479633331        1089533368.6239572     
  -2339602701.4595652        32545930.430165410        1121788641.9496129     
  -2664772621.8507957        43085608.266681314        859717949.75524640     
  -2661859505.0167103        8087780.9083917141        901965839.82786775     
  -2657655497.9692354       -22607079.071930528        944542603.16486144     
  -2652160600.7083712       -48998971.674283147        987448239.76622474     
  -2645374813.2341185       -71087896.898674846        1030682749.6319532     
  -2931800400.6408634        54764236.036814094        740970286.79388714     
  -2924991019.1060829        20322790.121267200        781074770.10964894     
  -2922453338.7498798       -28357659.722860098        823719111.13632822     
  -2924187359.5722504       -91277113.495572448        868903309.87392581     
  -2930193081.5731969       -168435571.19687164        916627366.32243788     
  -3203142729.6702905        65148498.735142469        625231892.66983855     
  -3186119985.0161085        33158563.787948608        656703279.27145076     
  -3178931532.9324675       -31612346.394377708        692925508.03052509     
  -3181577373.4193687       -129164231.81183493        733898578.94706416     
  -3194057506.4768000       -259497092.46441579        779622492.02106905     
  -2012876746.2495456        142465910.78963053        1189945043.2754169     
  -1797710174.6886144        241679956.89214504        1145020581.4482875     
  -1623756658.4334280        203517151.97550499        1131852159.1318402     
  -1491016197.4840035        27977496.039671421        1150439776.3260694     
  -1399488791.8403256       -284939010.91533101        1200783433.0309830     
  -2339602701.4595652        32545930.430165410        1121788641.9496129     
  -2061379305.6825490        117459013.30773151        1040436156.9085207     
  -1806928965.5921283        123128577.22999430        979133104.03641987     
  -1576251681.1882963        49554622.196950436        937879483.33330655     
  -1369347452.4710603       -103262851.79140842        916675294.79917490     
  -2645374813.2341185       -71087896.898674846        1030682749.6319532     
  -2337542042.7887068       -10510012.110355616        933248907.59925187     
  -2036042328.4107244        28957685.786521077        844157890.39384818     
  -1740875670.1001811        47315196.791954994        763409698.01573646     
  -1452042067.8570666        44562520.905939519        691004330.46493375     
  -2930193081.5731969       -168435571.19687164        916627366.32243788     
  -2626198386.0070734       -142227119.36210203        823458833.52048004     
  -2311096746.8892298       -78995522.354921460        726926518.20411813     
  -1984888164.2196510        21259219.824682474        627030420.37336993     
  -1647572637.9983628        158537107.17669380        523770540.02822500     
  -3194057506.4768000       -259497092.46441579        779622492.02106905     
  -2927348335.3376527       -277692308.44750535        711065934.67220163     
  -2632092221.0276275       -200731047.19433391        627438987.46724010     
  -2308289163.5467162       -28613308.704860926        528741650.40620321     
  -1955939162.8949118        238660907.02087879        414973923.48907804     
  -5958126877.0824184       -1787438063.1247253        1149984044.7825294     
  -6088607647.5777712       -1502505822.4665208        1227819195.5806887     
  -6221765154.4801435       -1226496036.4983792        1268253938.5521626     
  -6357599397.7895336       -959408705.22029948        1271288273.6969519     
  -6496110377.5059433       -701243828.63228345        1236922201.0150564     
  -6810727203.3470011       -2043218161.0041003        1353669731.9121389     
  -6828679043.4315119       -1395494554.7614036        1202629651.1776166     
  -6898006856.7787466       -919024192.72778702        1091829609.6047754     
  -7018710643.3887043       -613807074.90324736        1021269607.1936156     
  -7190790403.2613850       -479843201.28778648        990949643.94413638     
  -8338083837.3816261       -2501425151.2144880        1712314340.4618990     
  -8021676898.5171061       -1424361224.8258433        1275583251.8630397     
  -7805345169.7710133       -680881332.16529298        956732649.41422749     
  -7689088651.1433506       -270985473.23283815        755762533.11546266     
  -7672907342.6341143       -194673648.02847672        672672902.96674514     
  -10540196779.186293       -3162059033.7558875        2225917870.4318094     
  -9667601212.8345547       -1589105832.6598392        1446679997.6369574     
  -8943780093.4569473       -512067454.81090021        862963057.98051906     
  -8368733421.0534716        69056099.790929317        474767051.46249270     
  -7942461195.6241302        154264831.14564848        282091978.08288175     
  -13417066028.761003       -4025119808.6283007        2894480321.8218703     
  -11766451986.383854       -1889728378.2633896        1715919888.4993701     
  -10313311627.836542       -412582560.66460514        810520835.30364931     
  -9057644953.1190701        406317644.16805315        178283162.23470870     
  -7999451962.2314320        566972236.23458719       -180793130.70745295     
  -6496110377.5059433       -701243828.63228345        1236922201.0150564     
  -6239127402.9544764       -375528034.82956266        1052763640.5738651     
  -6013158199.0722494       -153191476.59097695        907686315.23613405     
  -5818202765.8592615       -34234153.916524887        801690225.00186503     
  -5654261103.3155146       -18656066.806206942        734775369.87105668     
  -7190790403.2613850       -479843201.28778648        990949643.94413638     
  -6900719464.1949129       -304572327.71941829        846632276.62955725     
  -6623451591.2473679       -171978341.21414161        723404013.12329495     
  -6358986784.4187489       -82061241.771954775        621264853.42534947     
  -6107325043.7090588       -34821029.392861605        540214797.53572071     
  -7672907342.6341143       -194673648.02847672        672672902.96674514     
  -7401154528.4673347       -185269521.51886749        589442550.75414467     
  -7123994075.8691702       -157839933.57131195        509309171.05471337     
  -6841425984.8396196       -112384884.18580079        432272763.86845660     
  -6553450255.3786831       -48904373.362341881        358333329.19537073     
  -7942461195.6241302        154264831.14564848        282091978.08288175     
  -7740432595.7717419       -17619616.227913380        281194462.94762278     
  -7514785652.9376564       -110776253.66248131        265401789.03038925     
  -7265520367.1218739       -125205081.15806055        234713956.33118626     
  -6992636738.3243895       -60906098.714645863        189130964.85000643     
  -7999451962.2314320        566972236.23458719       -180793130.70745295     
  -7918553666.1081352        198377388.15344381       -78111986.790007606     
  -7795826322.4528303       -30787301.487666130       -8318132.9496748671     
  -7631269931.2655134       -120521832.68873692        28588430.813538756     
  -7424884492.5461826       -70826205.449775696        32607704.499634579     
  -5654261103.3155146       -18656066.806206942        734775369.87105668     
  -5520780674.9848194       -50748470.279146671        721313388.74103010     
  -5381692269.6020308       -64147616.911779642        709290224.67478395     
  -5236995887.1671534       -58853506.704111814        698705877.67231750     
  -5086691527.6801815       -34866139.656135082        689560347.73363221     
  -6107325043.7090588       -34821029.392861605        540214797.53572071     
  -5959820722.8834028       -36755790.064638615        533501119.02797472     
  -5811333828.5227718       -35415305.619831562        529176777.03691894     
  -5661864360.6271667       -30799576.058440447        527241771.56255120     
  -5511412319.1965857       -22908601.380464077        527696102.60487407     
  -6553450255.3786831       -48904373.362341881        358333329.19537073     
  -6389206272.1926136       -19866760.273318529        352971649.20660549     
  -6228605118.9886904       -2971913.7914395332        350949825.18743533     
  -6071646795.7669048        1780166.0833103657        352267857.13786483     
  -5918331302.5272617       -5610520.6490797997        356925745.05789185     
  -6992636738.3243895       -60906098.714645863        189130964.85000643     
  -6808937322.9124575       -81380.905191898346        179724979.27691942     
  -6633506140.9997816        33182558.573401928        174609369.12633732     
  -6466343192.5863638        38885719.721143484        173784134.39825863     
  -6307448477.6722021        17028102.538025856        177249275.09269068     
  -7424884492.5461826       -70826205.449775696        32607704.499634579     
  -7219013875.0429287        22600348.039751053        13761109.238916371     
  -7026036894.5560493        73048111.474696636        155408.85361674783     
  -6845953551.0855408        80517084.855070114       -8209396.6562655726     
  -6678763844.6314096        45007268.180854797       -11333307.290734435     
  -5086691527.6801815       -34866139.656135082        689560347.73363221     
  -4933030590.7774124       -6724348.9974989891        672273430.99286020     
  -4782902388.9140377        9641658.1964933872        662451761.92618132     
  -4636306922.0900602        14231881.925824881        660095340.53360069     
  -4493244190.3054743        7046322.1905171871        665204166.81511617     
  -5511412319.1965857       -22908601.380464077        527696102.60487407     
  -5345925893.9075089       -10480297.882750273        512912390.35974586     
  -5181404230.9475689       -1267868.8154973984        503386149.31327951     
  -5017847330.3167658        4728685.8213057518        499117379.46547508     
  -4855255192.0150976        7509366.0276517868        500106080.81633240     
  -5918331302.5272617       -5610520.6490797997        356925745.05789185     
  -5747327321.6388283       -10788084.148376465        347641205.47037917     
  -5574720130.3692789       -10621613.043936729        341406360.60609168     
  -5400509728.7186089       -5111107.3357579708        338221210.46503198     
  -5224696116.6868095        5743432.9761636257        338085755.04720086     
  -6307448477.6722021        17028102.538025856        177249275.09269068     
  -6137234873.9713755       -7647707.7943706512        176459876.32475841     
  -5962850087.1791677       -18419574.488828421        176512395.80461845     
  -5784294117.2955799       -15287497.545356750        177406833.53227180     
  -5601566964.3206148        1748523.0360417366        179143189.50771692     
  -6678763844.6314096        45007268.180854797       -11333307.290734435     
  -6515648550.9051371       -1059168.8207221031       -631597.07711560954     
  -6345794101.3772354       -24661753.150180340        8704254.9088634383     
  -6169200496.0476904       -25800484.807503700        16674248.667197106     
  -5985867734.9165106       -4475363.7927064896        23278384.197889395     
  -4493244190.3054743        7046322.1905171871        665204166.81511617     
  -4365487460.1289549       -8582496.6267662048        663090736.77957857     
  -4236737418.1654897       -20900276.154238224        664001528.90116167     
  -4106994064.4150887       -29907016.391911983        667936543.17986929     
  -3976257398.8777375       -35602717.339766979        674895779.61570168     
  -4855255192.0150976        7509366.0276517868        500106080.81633240     
  -4715724004.8800402        1657706.9386022091        496251417.44746786     
  -4576358200.8743553       -4745229.2483739853        496173538.87537986     
  -4437157779.9980545       -11699442.533283472        499872445.10006368     
  -4298122742.2511301       -19204932.916124344        507348136.12153047     
  -5224696116.6868095        5743432.9761636257        338085755.04720086     
  -5071240293.6227751        10313987.306476355        331138047.60930258     
  -4919108548.6044426        10470948.151116610        328719687.60782975     
  -4768300881.6318045        6214315.5101075172        330830675.04278684     
  -4618817292.7048731       -2455910.6165852547        337471009.91417193     
  -5601566964.3206148        1748523.0360417366        179143189.50771692     
  -5432036326.3571711        17386344.476850271        167750627.26507875     
  -5264988461.3557415        24748256.044262171        161639975.09851247     
  -5100423369.3163385        23834257.738255024        160811233.00803334     
  -4938341050.2389555        14644349.558851242        165264400.99363336     
  -5985867734.9165106       -4475363.7927064896        23278384.197889395     
  -5798112103.0832119        22874778.449738979        6089156.4147940855     
  -5613997939.1282644        38086694.431022644       -5065598.6525670858     
  -5433525243.0516529        41160384.151189566       -10185881.004188674     
  -5256694014.8533916        32095847.610174894       -9271690.6400870122     
  -3976257398.8777375       -35602717.339766979        674895779.61570168     
  -3785603166.5770659       -19163029.991670847        655138943.27138853     
  -3593199310.9422641        3108735.1368515491        640276016.66563749     
  -3399045831.9733429        31212578.045778275        630306999.79845440     
  -3203142729.6702905        65148498.735142469        625231892.66983855     
  -4298122742.2511301       -19204932.916124344        507348136.12153047     
  -4094741992.4562292       -5699502.3439490795        490114255.38255423     
  -3890070228.3183494        12109309.371487617        478453229.92578787     
  -3684107449.8374920        34221502.230179787        472365059.75122911     
  -3476853657.0136595        60637076.232130766        471849744.85887504     
  -4618817292.7048731       -2455910.6165852547        337471009.91417193     
  -4400770181.0053368        8697216.5028011799        322225040.95753384     
  -4181890663.9539738        22625028.128282070        313230872.82673949     
  -3962178741.5507870        39327524.259837627        310488505.52179593     
  -3741634413.7957726        58804704.897491217        313997939.04269719     
  -4938341050.2389555        14644349.558851242        165264400.99363336     
  -4703687732.2243938        24027126.548555136        151471299.99631977     
  -4468660617.8491449        34655891.407200575        144608945.36849692     
  -4233259707.1132188        46530644.134768009        144677337.11015528     
  -3997485000.0166254        59651384.731248617        151676475.22130722     
  -5256694014.8533916        32095847.610174894       -9271690.6400870122     
  -5003494646.1133947        40290227.793326616       -22146967.501081198     
  -4750380090.0038652        48201899.208249569       -27412552.448952027     
  -4497350346.5248079        55830861.854923964       -25068445.483689006     
  -4244405415.6762328        63177115.733346224       -15114646.605302466     
  -3203142729.6702905        65148498.735142469        625231892.66983855     
  -3186119985.0161085        33158563.787948608        656703279.27145076     
  -3178931532.9324675       -31612346.394377708        692925508.03052509     
  -3181577373.4193687       -129164231.81183493        733898578.94706416     
  -3194057506.4768000       -259497092.46441579        779622492.02106905     
  -3476853657.0136595        60637076.232130766        471849744.85887504     
  -3455341100.9527674        27942633.145680428        495711285.78284520     
  -3437353172.0213494       -16500567.039010048        518438264.43280429     
  -3422889870.2194014       -72692524.321928740        540030680.80874705     
  -3411951195.5469208       -140633238.70308721        560488534.91067767     
  -3741634413.7957726        58804704.897491217        313997939.04269719     
  -3732447487.5609670        20361121.301949263        337610910.63694185     
  -3720475523.0145664       -8799001.2549371719        354203915.52569765     
  -3705718520.1565666       -28675662.773169041        363776953.70895243     
  -3688176478.9869699       -39268863.252741814        366330025.18672371     
  -3997485000.0166254        59651384.731248617        151676475.22130722     
  -4017439144.8407140        10414028.256751060        182402153.83373991     
  -4028298585.9121242       -8507649.0421724319        200222461.30919912     
  -4030063323.2308750        2886352.8344442844        205137397.64769328     
  -4022733356.7969542        44596033.886638641        197146962.84920841     
  -4244405415.6762328        63177115.733346224       -15114646.605302466     
  -4310316072.7919941       -1898645.9899075031        30085015.373225123     
  -4360822360.7140217       -15626510.400711536        56493901.783313178     
  -4395924279.4423132        21993522.500928879        64112012.624943756     
  -4415621828.9768734        110961452.71501875        52939347.898129672     
  -3194057506.4768000       -259497092.46441579        779622492.02106905     
  -2927348335.3376527       -277692308.44750535        711065934.67220163     
  -2632092221.0276275       -200731047.19433391        627438987.46724010     
  -2308289163.5467162       -28613308.704860926        528741650.40620321     
  -1955939162.8949118        238660907.02087879        414973923.48907804     
  -3411951195.5469208       -140633238.70308721        560488534.91067767     
  -3138680795.6102200       -123831138.24333668        506104468.13785791     
  -2857901176.9429531       -81998308.681724548        463761586.50166661     
  -2569612339.5451345       -15134750.018258333        433459890.00210345     
  -2273814283.4167581        76759537.747060537        415199378.63916045     
  -3688176478.9869699       -39268863.252741814        366330025.18672371     
  -3330883207.4163823        35769046.500770330        301574437.14290869     
  -2987118441.5555725        65711937.221686244        275971609.22843152     
  -2656882181.4045291        50559808.910049558        289521541.44329095     
  -2340174426.9632506       -9687338.4341385365        342224233.78749698     
  -4022733356.7969542        44596033.886638641        197146962.84920841     
  -3503955570.7561688        201108245.78479457        97475841.687349007     
  -3019744014.8654919        242399690.51592600        64069055.647540793     
  -2570098689.1249046        168470368.08008409        96926604.729778081     
  -2155019593.5344172       -20679721.522756338        196048488.93406808     
  -4415621828.9768734        110961452.71501875        52939347.898129672     
  -3657897885.6295786        372186459.60869908       -106191318.22881459     
  -2955777896.8727131        448064951.20093656       -171946074.24100411     
  -2309261862.7062750        338596927.49178410       -144324920.13843536     
  -1718349783.1302340        43782388.481250882       -23327855.921101000     
 </DataArray>
 <DataArray  type="Float64" Name="VM" NumberOfComponents="1" format="ascii">
   12936305540.944374     
   11340996898.537149     
   10210306589.665094     
   9272629710.1212139     
   8303385746.0651302     
   10130635327.142204     
   9322208865.3476048     
   8826534566.1526489     
   8443612447.6875114     
   8035574501.4885569     
   7982464434.2539577     
   7735093892.6251421     
   7669322713.0926895     
   7669772949.9575109     
   7666495846.0247498     
   6491703105.4643993     
   6586944082.2520094     
   6757510234.4685459     
   6961314445.0299187     
   7171694905.9930944     
   5657898713.9717045     
   5890935267.2113638     
   6116296920.5924559     
   6331549619.4992781     
   6536494873.0498400     
   8303385746.0651302     
   8020723919.4528561     
   7780491695.6254072     
   7571890353.9672489     
   7389941777.2358608     
   8035574501.4885569     
   7746962936.9246416     
   7474164121.4542456     
   7215196073.1065845     
   6970085756.1751719     
   7666495846.0247498     
   7381228376.9723291     
   7101404211.8800526     
   6827111118.7509289     
   6558568276.1655045     
   7171694905.9930944     
   6910953904.5791712     
   6658118158.4423676     
   6409331530.9503860     
   6161449864.3244553     
   6536494873.0498400     
   6328483124.0176525     
   6142642583.7995138     
   5965031081.4870462     
   5786641075.1346760     
   7389941777.2358608     
   7230379826.3640137     
   7062844276.0863323     
   6886579806.3614798     
   6701409582.5306387     
   6970085756.1751719     
   6816008843.8987570     
   6657032882.9905119     
   6492854346.6926708     
   6323436727.7100210     
   6558568276.1655045     
   6408524448.0993681     
   6256717751.4429922     
   6103112685.2768650     
   5947744103.8654003     
   6161449864.3244553     
   6012954884.9733057     
   5865759041.2081680     
   5719897314.2316179     
   5575421180.1829224     
   5786641075.1346760     
   5635805400.1117630     
   5489151276.3390036     
   5346582440.5582180     
   5208144915.9691772     
   6701409582.5306387     
   6515119122.9638891     
   6333517179.7107706     
   6156408543.6878719     
   5983767148.4636669     
   6323436727.7100210     
   6141025066.7239361     
   5961506282.7746162     
   5784832263.4086075     
   5611027252.7326174     
   5947744103.8654003     
   5773426044.9161978     
   5600721358.8270559     
   5429650967.6216974     
   5260265784.5968094     
   5575421180.1829224     
   5414078311.5062304     
   5253624931.0638781     
   5094104090.9670172     
   4935619265.6171198     
   5208144915.9691772     
   5065325192.3118362     
   4923300756.9689207     
   4782123521.0919714     
   4642030116.4763193     
   5983767148.4636669     
   5809592841.1366606     
   5633144686.5621748     
   5454250450.9800596     
   5272839656.6186838     
   5611027252.7326174     
   5448503006.3234844     
   5284827121.1763859     
   5119964079.8836069     
   4953956251.5030708     
   5260265784.5968094     
   5108703007.8249474     
   4957158075.3178377     
   4805695625.8847542     
   4654438296.9997282     
   4935619265.6171198     
   4794232924.6167383     
   4654022515.4915552     
   4515109207.4720497     
   4377657955.4080944     
   4642030116.4763193     
   4509895300.3223839     
   4380014370.2795038     
   4252515069.5376201     
   4127563183.2523236     
   5272839656.6186838     
   5023907381.1421680     
   4774899591.1605225     
   4525732366.1446381     
   4276424128.9757710     
   4953956251.5030708     
   4723039524.2820797     
   4493075717.8210020     
   4264085335.1793323     
   4036200860.8884096     
   4654438296.9997282     
   4440339537.7665615     
   4228200273.3314662     
   4018138754.7445135     
   3810393143.2403975     
   4377657955.4080944     
   4179024100.2218518     
   3983296569.7510853     
   3790683415.3603544     
   3601519261.9456353     
   4127563183.2523236     
   3942871547.2634845     
   3761930540.6822977     
   3585030058.5009360     
   3412593203.6549759     
   4276424128.9757710     
   4309682101.2208261     
   4354129775.0449982     
   4408361021.6406717     
   4473075018.1267958     
   4036200860.8884096     
   4035043382.3215499     
   4038967396.3603311     
   4047134166.2755466     
   4059602344.0693917     
   3810393143.2403975     
   3788075899.4822645     
   3766385576.6402617     
   3744851014.9847794     
   3723164023.4657507     
   3601519261.9456353     
   3574059775.7440968     
   3544754649.2632532     
   3513906681.9871497     
   3481924340.6751156     
   3412593203.6549759     
   3398806379.2696123     
   3383274867.1177430     
   3368084523.5985889     
   3356177461.2896156     
   4473075018.1267958     
   3861863486.9887910     
   3217213403.3884492     
   2508333379.2394085     
   1741122909.7063291     
   4059602344.0693917     
   3612662198.9540515     
   3149906523.8579450     
   2663636491.9157681     
   2171468852.5900040     
   3723164023.4657507     
   3389402058.0123196     
   3058098262.1980100     
   2728988615.0770416     
   2409396693.5930543     
   3481924340.6751156     
   3201001416.5833721     
   2930051914.6096869     
   2669814342.0475478     
   2422360815.7176390     
   3356177461.2896156     
   3057846213.9844565     
   2760597549.9128795     
   2470156470.1082749     
   2205917793.4500895     
   5657898713.9717045     
   5890935267.2113638     
   6116296920.5924559     
   6331549619.4992781     
   6536494873.0498400     
   5151601091.1932173     
   5311314141.8760786     
   5467633078.0428495     
   5617674083.9605417     
   5759983288.6905260     
   4643641563.0846090     
   4755492170.8732538     
   4868452274.0585241     
   4979886157.6058903     
   5087868110.8794689     
   4134284655.4026470     
   4224307360.3964944     
   4320252231.0158129     
   4420452260.8390427     
   4523443662.9736357     
   3625048122.9446416     
   3719583924.8319345     
   3825395134.0614552     
   3942404310.5519872     
   4070507195.8511810     
   6536494873.0498400     
   6328483124.0176525     
   6142642583.7995138     
   5965031081.4870462     
   5786641075.1346760     
   5759983288.6905260     
   5651736903.6364756     
   5559486870.4346142     
   5474165000.4183712     
   5390236872.5850363     
   5087868110.8794689     
   5053534617.6984196     
   5029720628.2799120     
   5011229261.8755693     
   4994864533.5689287     
   4523443662.9736357     
   4538488884.0226698     
   4558208873.1242342     
   4580143299.1864805     
   4602576217.8621979     
   4070507195.8511810     
   4111948389.2508531     
   4150712850.0744390     
   4185932441.2131796     
   4216898259.5916390     
   5786641075.1346760     
   5635805400.1117630     
   5489151276.3390036     
   5346582440.5582180     
   5208144915.9691772     
   5390236872.5850363     
   5248018988.6903505     
   5108936438.5517979     
   4973027162.1069527     
   4840378805.0312595     
   4994864533.5689287     
   4866210375.5745306     
   4740636254.2438316     
   4618101905.4063234     
   4498640235.0621672     
   4602576217.8621979     
   4493044528.8521404     
   4387650921.6789017     
   4286060332.0010872     
   4188187304.1792107     
   4216898259.5916390     
   4132475431.2837949     
   4054550140.7300267     
   3982242237.6630793     
   3915295379.5968556     
   5208144915.9691772     
   5065325192.3118362     
   4923300756.9689207     
   4782123521.0919714     
   4642030116.4763193     
   4840378805.0312595     
   4716111051.7302713     
   4593785710.5538836     
   4473555789.4385242     
   4355700142.3780508     
   4498640235.0621672     
   4390469414.8832426     
   4285212629.0867410     
   4183070581.8789878     
   4084321116.7208076     
   4188187304.1792107     
   4093381452.3618703     
   4002190308.3090281     
   3914817370.0940580     
   3831513281.6598926     
   3915295379.5968556     
   3830806259.5362306     
   3750262256.6749659     
   3673839012.2513599     
   3601757602.7029047     
   4642030116.4763193     
   4509895300.3223839     
   4380014370.2795038     
   4252515069.5376201     
   4127563183.2523236     
   4355700142.3780508     
   4234441766.4054446     
   4115620641.3531399     
   3999429399.9499412     
   3886109586.9136772     
   4084321116.7208076     
   3975661771.7524371     
   3869870612.3000016     
   3767196926.5315146     
   3667958026.9054346     
   3831513281.6598926     
   3737291677.7694182     
   3646636038.3663344     
   3559837076.5598645     
   3477280459.4214773     
   3601757602.7029047     
   3523825951.9254956     
   3450430534.1534233     
   3381875202.5938191     
   3318592470.4209933     
   4127563183.2523236     
   3942871547.2634845     
   3761930540.6822977     
   3585030058.5009360     
   3412593203.6549759     
   3886109586.9136772     
   3714415807.7422175     
   3546892921.2549992     
   3383880099.9026699     
   3225852045.4362168     
   3667958026.9054346     
   3511162394.7516770     
   3359200501.3443141     
   3212501955.6326246     
   3071649020.7005329     
   3477280459.4214773     
   3337526205.9435678     
   3203523250.6000004     
   3075825423.1526346     
   2955166191.7902703     
   3318592470.4209933     
   3198134179.3633852     
   3084572476.7052155     
   2978598679.8381824     
   2881112144.3004394     
   3412593203.6549759     
   3398806379.2696123     
   3383274867.1177430     
   3368084523.5985889     
   3356177461.2896156     
   3225852045.4362168     
   3231975069.0685635     
   3239475769.3751235     
   3249195397.5552573     
   3262126680.5849223     
   3071649020.7005329     
   3089938042.0410185     
   3111276938.3986025     
   3135532760.0990806     
   3162582497.3957396     
   2955166191.7902703     
   2975431196.1423812     
   2998927540.9165506     
   3025114820.7184801     
   3053878494.2240872     
   2881112144.3004394     
   2890927917.2715554     
   2902823111.3135023     
   2916653264.5418658     
   2933708108.8089342     
   3356177461.2896156     
   3057846213.9844565     
   2760597549.9128795     
   2470156470.1082749     
   2205917793.4500895     
   3262126680.5849223     
   2928802355.7661276     
   2598097123.2812881     
   2271988467.6447673     
   1955463562.4094391     
   3162582497.3957396     
   2837693824.5727677     
   2518545934.0767379     
   2205366139.3556542     
   1899362945.8893025     
   3053878494.2240872     
   2784372646.7918997     
   2525617239.6468048     
   2281225409.2675529     
   2065249075.7130630     
   2933708108.8089342     
   2767283504.2568417     
   2617581935.7203875     
   2497230865.9701400     
   2442669186.8456697     
   3625048122.9446416     
   3719583924.8319345     
   3825395134.0614552     
   3942404310.5519872     
   4070507195.8511810     
   3137923973.1393561     
   3255389651.3622327     
   3382304289.5032897     
   3518192107.1745200     
   3662589271.8937902     
   2694602620.6140194     
   2830387908.2435870     
   2973523343.6324949     
   3122925670.1610556     
   3277682309.4226823     
   2298585123.8843007     
   2449376497.2968507     
   2604930241.8882332     
   2763328180.1827521     
   2923143585.6429877     
   1955101997.8466060     
   2119318187.4599864     
   2284925829.3754568     
   2448975801.6007075     
   2609519342.8118606     
   4070507195.8511810     
   4111948389.2508531     
   4150712850.0744390     
   4185932441.2131796     
   4216898259.5916390     
   3662589271.8937902     
   3701735401.6561928     
   3739457729.3985524     
   3774874140.8222823     
   3807247198.1027994     
   3277682309.4226823     
   3320480740.5760736     
   3363466093.9260235     
   3405819500.1605344     
   3446864991.5118666     
   2923143585.6429877     
   2975564058.2824693     
   3030147458.2185626     
   3086205460.1765118     
   3143200936.5127807     
   2609519342.8118606     
   2677023011.2493143     
   2748979613.1127181     
   2824868199.7931404     
   2904330227.5878215     
   4216898259.5916390     
   4132475431.2837949     
   4054550140.7300267     
   3982242237.6630793     
   3915295379.5968556     
   3807247198.1027994     
   3755304919.5310121     
   3709446879.3667130     
   3669197546.3157163     
   3634495478.5703516     
   3446864991.5118666     
   3422474221.9291983     
   3403348638.3713231     
   3389269848.4645858     
   3380242677.6418033     
   3143200936.5127807     
   3141616838.0633130     
   3143839886.5721588     
   3149785062.3523698     
   3159447763.4546504     
   2904330227.5878215     
   2921049243.4252429     
   2939278180.8452945     
   2958982618.9027243     
   2980136140.3760762     
   3915295379.5968556     
   3830806259.5362306     
   3750262256.6749659     
   3673839012.2513599     
   3601757602.7029047     
   3634495478.5703516     
   3558852274.4652238     
   3487639613.4595008     
   3421060869.8341413     
   3359354839.3962698     
   3380242677.6418033     
   3315799734.9694166     
   3256593957.6160069     
   3202841069.0889864     
   3154800896.2643876     
   3159447763.4546504     
   3108482056.5437818     
   3063886491.3210750     
   3025862788.3566585     
   2994686108.3338351     
   2980136140.3760762     
   2944525897.3691015     
   2916719067.3971429     
   2896862051.1937180     
   2885226513.8583040     
   3601757602.7029047     
   3523825951.9254956     
   3450430534.1534233     
   3381875202.5938191     
   3318592470.4209933     
   3359354839.3962698     
   3298431360.2913370     
   3242945625.4230504     
   3193231487.0266004     
   3149708013.4874325     
   3154800896.2643876     
   3109715122.0779333     
   3070792764.1754255     
   3038338097.6804228     
   3012700863.9431138     
   2994686108.3338351     
   2963711160.5769782     
   2939365629.4227138     
   2921873681.1778989     
   2911477211.2667131     
   2885226513.8583040     
   2865954119.3520856     
   2853457481.7323866     
   2847850110.4367476     
   2849253945.4504361     
   3318592470.4209933     
   3198134179.3633852     
   3084572476.7052155     
   2978598679.8381824     
   2881112144.3004394     
   3149708013.4874325     
   3048671621.1918201     
   2955306816.2407923     
   2870216117.3560181     
   2794133586.3533931     
   3012700863.9431138     
   2928796231.2636938     
   2853014172.6216984     
   2785831386.2577071     
   2727794564.2721181     
   2911477211.2667131     
   2841873739.0537400     
   2780480774.6437335     
   2727641909.5228543     
   2683731756.4340315     
   2849253945.4504361     
   2790620564.7618265     
   2739919933.9719243     
   2697386028.2331333     
   2663269650.4204168     
   2881112144.3004394     
   2890927917.2715554     
   2902823111.3135023     
   2916653264.5418658     
   2933708108.8089342     
   2794133586.3533931     
   2789780955.6088791     
   2786804339.4997907     
   2784980459.6190577     
   2784538436.1111631     
   2727794564.2721181     
   2720072201.3604083     
   2714281152.2589030     
   2710373117.2864718     
   2708313022.3983302     
   2683731756.4340315     
   2684324507.2914519     
   2688621793.3681588     
   2697174189.1178451     
   2710711680.8385844     
   2663269650.4204168     
   2683976154.5065918     
   2711268854.0386634     
   2746745931.7767830     
   2792859569.5935392     
   2933708108.8089342     
   2767283504.2568417     
   2617581935.7203875     
   2497230865.9701400     
   2442669186.8456697     
   2784538436.1111631     
   2711202150.2046003     
   2659453275.9015732     
   2635540742.2730966     
   2651758029.2426000     
   2708313022.3983302     
   2686398294.4612174     
   2681643422.4376168     
   2695259447.7431517     
   2728606765.8880153     
   2710711680.8385844     
   2695319206.6963677     
   2684152979.1089759     
   2677557452.1198082     
   2678042391.2104225     
   2792859569.5935392     
   2739260786.7417531     
   2669604485.3049126     
   2587798806.1707444     
   2510278370.5375762     
   1955101997.8466060     
   2119318187.4599864     
   2284925829.3754568     
   2448975801.6007075     
   2609519342.8118606     
   1653687179.4674611     
   1820342176.0402596     
   1988692510.5026252     
   2156050017.9857211     
   2320664063.7421799     
   1393685975.6862741     
   1571258393.3941505     
   1749797409.6798046     
   1927304965.7222309     
   2102535698.6327889     
   1207356487.7852254     
   1399455127.6838241     
   1591061150.8011672     
   1781400167.2452424     
   1970015570.6990771     
   1137237224.6688869     
   1335708752.6559250     
   1534384218.1214468     
   1733263621.0654511     
   1932346961.4879386     
   2609519342.8118606     
   2677023011.2493143     
   2748979613.1127181     
   2824868199.7931404     
   2904330227.5878215     
   2320664063.7421799     
   2407376761.3315425     
   2496540946.5177002     
   2587760451.9613385     
   2680757429.8550138     
   2102535698.6327889     
   2206090680.4407582     
   2309633627.4162688     
   2412925294.3485627     
   2515797817.4352245     
   1970015570.6990771     
   2087095176.1741829     
   2201470075.6177802     
   2313064340.2897263     
   2421825456.9499273     
   1932346961.4879386     
   2058957913.5855577     
   2180363189.7129278     
   2296562789.8700509     
   2407556714.0569234     
   2904330227.5878215     
   2921049243.4252429     
   2939278180.8452945     
   2958982618.9027243     
   2980136140.3760762     
   2680757429.8550138     
   2703848248.4398355     
   2729314555.0981827     
   2757149140.6800318     
   2787349386.0516229     
   2515797817.4352245     
   2545116235.7326493     
   2577701319.7000980     
   2613557830.6694140     
   2652692280.6847224     
   2421825456.9499273     
   2455897346.5088367     
   2494134001.0454502     
   2536539081.0781589     
   2583116521.2156925     
   2407556714.0569234     
   2443513992.2874932     
   2484534904.7845125     
   2530619451.5479822     
   2581767632.5779028     
   2980136140.3760762     
   2944525897.3691015     
   2916719067.3971429     
   2896862051.1937180     
   2885226513.8583040     
   2787349386.0516229     
   2768277074.0056291     
   2756864755.1575251     
   2753210064.6369915     
   2757479408.4155025     
   2652692280.6847224     
   2646622875.0781870     
   2647732375.1432920     
   2656065807.1842637     
   2671697264.1071568     
   2583116521.2156925     
   2585957296.4093647     
   2595166082.5206552     
   2610753083.6449151     
   2632735337.2822762     
   2581767632.5779028     
   2589262335.3858957     
   2602038203.3771696     
   2620095236.5517254     
   2643433434.9095645     
   2885226513.8583040     
   2865954119.3520856     
   2853457481.7323866     
   2847850110.4367476     
   2849253945.4504361     
   2757479408.4155025     
   2744193579.6033297     
   2737497315.8247066     
   2737454614.9103565     
   2744133774.5310888     
   2671697264.1071568     
   2662326754.6551280     
   2659329874.1580129     
   2662734116.5266447     
   2672568760.9092278     
   2632735337.2822762     
   2625008595.6734414     
   2623413196.5233717     
   2627955498.0852137     
   2638642297.7279010     
   2643433434.9095645     
   2635069546.6198335     
   2632571636.6903768     
   2635939705.1212029     
   2645173751.9123082     
   2849253945.4504361     
   2790620564.7618265     
   2739919933.9719243     
   2697386028.2331333     
   2663269650.4204168     
   2744133774.5310888     
   2692234085.7413955     
   2650066623.6286755     
   2617819962.8506985     
   2595691019.6682568     
   2672568760.9092278     
   2626503736.0209436     
   2591994194.9987650     
   2569152956.3340902     
   2558094969.7340345     
   2638642297.7279010     
   2596262654.9584899     
   2567275778.0605984     
   2551717606.7436924     
   2549623996.8843989     
   2645173751.9123082     
   2603103428.8364787     
   2576294186.5760760     
   2564746025.1310973     
   2568458944.5015445     
   2663269650.4204168     
   2683976154.5065918     
   2711268854.0386634     
   2746745931.7767830     
   2792859569.5935392     
   2595691019.6682568     
   2642544310.5058551     
   2694109279.5386724     
   2751292075.0590672     
   2815440536.3903327     
   2558094969.7340345     
   2623928844.4662905     
   2692107843.3657522     
   2763032880.5255122     
   2837289942.0470128     
   2549623996.8843989     
   2627588703.5040703     
   2705163645.9778900     
   2782448173.0214267     
   2859586373.5968018     
   2568458944.5015445     
   2652453585.7797256     
   2733045545.6614857     
   2810234824.1468205     
   2884021421.2357330     
   2792859569.5935392     
   2739260786.7417531     
   2669604485.3049126     
   2587798806.1707444     
   2510278370.5375762     
   2815440536.3903327     
   2705342438.0624561     
   2593624827.4353623     
   2483043724.8084869     
   2383901270.7679877     
   2837289942.0470128     
   2691722644.0276504     
   2559112252.6370926     
   2441057506.7723751     
   2342589082.8649130     
   2859586373.5968018     
   2695924360.9689631     
   2559480195.9163604     
   2450776859.9001789     
   2371163537.0403385     
   2884021421.2357330     
   2715230477.6684184     
   2587950301.9923930     
   2502180894.2076731     
   2457922254.3142304     
   1137237224.6688869     
   1335708752.6559250     
   1534384218.1214468     
   1733263621.0654511     
   1932346961.4879386     
   1207356487.7671776     
   1399455127.6645701     
   1591061150.7804925     
   1781400167.2228765     
   1970015570.6747253     
   1393685975.6564586     
   1571258393.3614802     
   1749797409.6440074     
   1927304965.6828754     
   2102535698.5893660     
   1653687179.4323699     
   1820342176.0010464     
   1988692510.4589257     
   2156050017.9369535     
   2320664063.6876516     
   1955101997.8108108     
   2119318187.4197431     
   2284925829.3302517     
   2448975801.5497966     
   2609519342.7543845     
   1932346961.4879386     
   2058957913.5855577     
   2180363189.7129278     
   2296562789.8700509     
   2407556714.0569234     
   1970015570.6747253     
   2087095176.1453545     
   2201470075.5844173     
   2313064340.2517691     
   2421825456.9073195     
   2102535698.5893660     
   2206090680.3882713     
   2309633627.3545709     
   2412925294.2774935     
   2515797817.3546357     
   2320664063.6876516     
   2407376761.2637377     
   2496540946.4362831     
   2587760451.8659444     
   2680757429.7452979     
   2609519342.7543845     
   2677023011.1751075     
   2748979613.0211501     
   2824868199.6835189     
   2904330227.4594593     
   2407556714.0569234     
   2443513992.2874932     
   2484534904.7845125     
   2530619451.5479822     
   2581767632.5779028     
   2421825456.9073195     
   2455897346.4623590     
   2494134000.9946327     
   2536539081.0225525     
   2583116521.1548676     
   2515797817.3546357     
   2545116235.6455340     
   2577701319.6055126     
   2613557830.5664659     
   2652692280.5725431     
   2680757429.7452979     
   2703848248.3226867     
   2729314554.9721966     
   2757149140.5438824     
   2787349385.9040208     
   2904330227.4594593     
   2921049243.2906070     
   2939278180.7025909     
   2958982618.7502522     
   2980136140.2121863     
   2581767632.5779028     
   2589262335.3858957     
   2602038203.3771696     
   2620095236.5517254     
   2643433434.9095645     
   2583116521.1548676     
   2585957296.3450918     
   2595166082.4555111     
   2610753083.5814691     
   2632735337.2230835     
   2652692280.5725431     
   2646622874.9576855     
   2647732375.0194926     
   2656065807.0621948     
   2671697263.9918437     
   2787349385.9040208     
   2768277073.8420892     
   2756864754.9852386     
   2753210064.4632063     
   2757479408.2475543     
   2980136140.2121863     
   2944525897.1782060     
   2916719067.1882024     
   2896862050.9758596     
   2885226513.6408935     
   2643433434.9095645     
   2635069546.6198335     
   2632571636.6903768     
   2635939705.1212029     
   2645173751.9123082     
   2632735337.2230835     
   2625008595.6051607     
   2623413196.4440389     
   2627955497.9929519     
   2638642297.6208978     
   2671697263.9918437     
   2662326754.5212264     
   2659329874.0014758     
   2662734116.3435893     
   2672568760.6958909     
   2757479408.2475543     
   2744193579.4085989     
   2737497315.5969162     
   2737454614.6434383     
   2744133774.2191114     
   2885226513.6408935     
   2865954119.1024218     
   2853457481.4418287     
   2847850110.0968342     
   2849253945.0527878     
   2645173751.9123082     
   2603103428.8364787     
   2576294186.5760760     
   2564746025.1310973     
   2568458944.5015445     
   2638642297.6208978     
   2596262654.8739271     
   2567275778.0047231     
   2551717606.7227445     
   2549623996.9046173     
   2672568760.6958909     
   2626503735.8445168     
   2591994194.8716111     
   2569152956.2686801     
   2558094969.7429943     
   2744133774.2191114     
   2692234085.4697423     
   2650066623.4155622     
   2617819962.7147889     
   2595691019.6286683     
   2849253945.0527878     
   2790620564.3951478     
   2739919933.6597691     
   2697386027.9999337     
   2663269650.2915564     
   2568458944.5015445     
   2652453585.7797256     
   2733045545.6614857     
   2810234824.1468205     
   2884021421.2357330     
   2549623996.9046173     
   2627588703.4186091     
   2705163645.7732806     
   2782448172.6868811     
   2859586373.1259465     
   2558094969.7429943     
   2623928844.3256569     
   2692107843.0514970     
   2763032880.0152178     
   2837289941.3215261     
   2595691019.6286683     
   2642544310.3379822     
   2694109279.2109780     
   2751292074.5368309     
   2815440535.6350603     
   2663269650.2915564     
   2683976154.3352652     
   2711268853.7898011     
   2746745931.4037070     
   2792859569.0323615     
   2884021421.2357330     
   2715230477.6684184     
   2587950301.9923930     
   2502180894.2076731     
   2457922254.3142304     
   2859586373.1259465     
   2695924361.2347980     
   2559480196.9516196     
   2450776861.8000088     
   2371163540.0253606     
   2837289941.3215261     
   2691722644.1853213     
   2559112253.7119513     
   2441057508.8302026     
   2342589086.0141225     
   2815440535.6350603     
   2705342437.7739663     
   2593624827.6201363     
   2483043725.3853579     
   2383901271.4136920     
   2792859569.0323615     
   2739260785.7236013     
   2669604483.7912121     
   2587798803.8492222     
   2510278366.4384303     
   1955101997.8108108     
   2119318187.4197431     
   2284925829.3302517     
   2448975801.5497966     
   2609519342.7543845     
   2298585123.8509707     
   2449376497.2599030     
   2604930241.8472104     
   2763328180.1370659     
   2923143585.5919714     
   2694602620.5853157     
   2830387908.2123847     
   2973523343.5983572     
   3122925670.1234622     
   3277682309.3810563     
   3137923973.1166945     
   3255389651.3383131     
   3382304289.4776902     
   3518192107.1467395     
   3662589271.8632650     
   3625048122.9290385     
   3719583924.8163142     
   3825395134.0454268     
   3942404310.5350499     
   4070507195.8327346     
   2609519342.7543845     
   2677023011.1751075     
   2748979613.0211501     
   2824868199.6835189     
   2904330227.4594593     
   2923143585.5919714     
   2975564058.2141285     
   3030147458.1319766     
   3086205460.0706873     
   3143200936.3866882     
   3277682309.3810563     
   3320480740.5180497     
   3363466093.8505692     
   3405819500.0665736     
   3446864991.3982925     
   3662589271.8632650     
   3701735401.6114182     
   3739457729.3385448     
   3774874140.7460771     
   3807247198.0094571     
   4070507195.8327346     
   4111948389.2212687     
   4150712850.0328894     
   4185932441.1589432     
   4216898259.5241075     
   2904330227.4594593     
   2921049243.2906070     
   2939278180.7025909     
   2958982618.7502522     
   2980136140.2121863     
   3143200936.3866882     
   3141616837.9348812     
   3143839886.4388323     
   3149785062.2116690     
   3159447763.3040748     
   3446864991.3982925     
   3422474221.8187017     
   3403348638.2605157     
   3389269848.3500896     
   3380242677.5201311     
   3807247198.0094571     
   3755304919.4479227     
   3709446879.2896781     
   3669197546.2404308     
   3634495478.4923067     
   4216898259.5241075     
   4132475431.2355518     
   4054550140.6961808     
   3982242237.6384883     
   3915295379.5760250     
   2980136140.2121863     
   2944525897.1782060     
   2916719067.1882024     
   2896862050.9758596     
   2885226513.6408935     
   3159447763.3040748     
   3108482056.3491879     
   3063886491.0890985     
   3025862788.0942378     
   2994686108.0483718     
   3380242677.5201311     
   3315799734.7846394     
   3256593957.3722310     
   3202841068.7906079     
   3154800895.9162478     
   3634495478.4923067     
   3558852274.3046722     
   3487639613.2179780     
   3421060869.5133615     
   3359354838.9981880     
   3915295379.5760250     
   3830806259.4143672     
   3750262256.4511094     
   3673839011.9245639     
   3601757602.2721624     
   2885226513.6408935     
   2865954119.1024218     
   2853457481.4418287     
   2847850110.0968342     
   2849253945.0527878     
   2994686108.0483718     
   2963711160.2480340     
   2939365629.0478187     
   2921873680.7546463     
   2911477210.7927532     
   3154800895.9162478     
   3109715121.6779642     
   3070792763.7272296     
   3038338097.1877804     
   3012700863.4099860     
   3359354838.9981880     
   3298431359.8322287     
   3242945624.9123325     
   3193231486.4742084     
   3149708012.9037833     
   3601757602.2721624     
   3523825951.4207582     
   3450430533.5894833     
   3381875201.9865322     
   3318592469.7871575     
   2849253945.0527878     
   2790620564.3951478     
   2739919933.6597691     
   2697386027.9999337     
   2663269650.2915564     
   2911477210.7927532     
   2841873738.6044316     
   2780480774.2305965     
   2727641909.1584611     
   2683731756.1319690     
   3012700863.4099860     
   2928796230.7536578     
   2853014172.1345201     
   2785831385.7940078     
   2727794563.8332720     
   3149708012.9037833     
   3048671620.6410604     
   2955306815.7116117     
   2870216116.8373346     
   2794133585.8341208     
   3318592469.7871575     
   3198134178.7886205     
   3084572476.1683021     
   2978598679.3171539     
   2881112143.7720671     
   2663269650.2915564     
   2683976154.3352652     
   2711268853.7898011     
   2746745931.4037070     
   2792859569.0323615     
   2683731756.1319690     
   2684324507.0202565     
   2688621793.1216111     
   2697174188.8833642     
   2710711680.5944729     
   2727794563.8332720     
   2720072201.0002708     
   2714281151.9981260     
   2710373117.1444921     
   2708313022.3941488     
   2794133585.8341208     
   2789780955.1791272     
   2786804339.2039952     
   2784980459.5047021     
   2784538436.2324109     
   2881112143.7720671     
   2890927916.7976375     
   2902823110.9591050     
   2916653264.3783755     
   2933708108.9191861     
   2792859569.0323615     
   2739260785.7236013     
   2669604483.7912121     
   2587798803.8492222     
   2510278366.4384303     
   2710711680.5944729     
   2695319205.1576047     
   2684152976.1472058     
   2677557447.5495825     
   2678042384.6911149     
   2708313022.3941488     
   2686398292.7917743     
   2681643418.9264760     
   2695259442.2345920     
   2728606758.2639217     
   2784538436.2324109     
   2711202148.7263117     
   2659453272.6388555     
   2635540736.9957805     
   2651758021.7170014     
   2933708108.9191861     
   2767283503.2006021     
   2617581933.3833609     
   2497230861.9877400     
   2442669180.5111570     
   3625048122.9290385     
   3719583924.8163142     
   3825395134.0454268     
   3942404310.5350499     
   4070507195.8327346     
   4134284655.3941035     
   4224307360.3891201     
   4320252231.0096540     
   4420452260.8339567     
   4523443662.9693241     
   4643641563.0823336     
   4755492170.8729277     
   4868452274.0606041     
   4979886157.6105528     
   5087868110.8866568     
   5151601091.1965618     
   5311314141.8816624     
   5467633078.0515079     
   5617674083.9727135     
   5759983288.7063179     
   5657898713.9801779     
   5890935267.2218151     
   6116296920.6060591     
   6331549619.5166826     
   6536494873.0712624     
   4070507195.8327346     
   4111948389.2212687     
   4150712850.0328894     
   4185932441.1589432     
   4216898259.5241075     
   4523443662.9693241     
   4538488884.0122337     
   4558208873.1073494     
   4580143299.1628656     
   4602576217.8315058     
   5087868110.8866568     
   5053534617.7037964     
   5029720628.2835770     
   5011229261.8776426     
   4994864533.5693331     
   5759983288.7063179     
   5651736903.6539221     
   5559486870.4540939     
   5474165000.4403734     
   5390236872.6098118     
   6536494873.0712624     
   6328483124.0432863     
   6142642583.8298435     
   5965031081.5228271     
   5786641075.1764889     
   4216898259.5241075     
   4132475431.2355518     
   4054550140.6961808     
   3982242237.6384883     
   3915295379.5760250     
   4602576217.8315058     
   4493044528.8517561     
   4387650921.7055340     
   4286060332.0512409     
   4188187304.2491450     
   4994864533.5693331     
   4866210375.6124296     
   4740636254.3171215     
   4618101905.5127468     
   4498640235.1993046     
   5390236872.6098118     
   5248018988.7558260     
   5108936438.6566343     
   4973027162.2497311     
   4840378805.2104359     
   5786641075.1764889     
   5635805400.1935310     
   5489151276.4597607     
   5346582440.7170401     
   5208144916.1650314     
   3915295379.5760250     
   3830806259.4143672     
   3750262256.4511094     
   3673839011.9245639     
   3601757602.2721624     
   4188187304.2491450     
   4093381452.3283529     
   4002190308.1686497     
   3914817369.8432393     
   3831513281.2948990     
   4498640235.1993046     
   4390469414.9218054     
   4285212629.0219154     
   4183070581.7055593     
   4084321116.4331789     
   4840378805.2104359     
   4716111051.8228092     
   4593785710.5544882     
   4473555789.3413095     
   4355700142.1764956     
   5208144916.1650314     
   5065325192.4396915     
   4923300757.0237665     
   4782123521.0681190     
   4642030116.3672400     
   3601757602.2721624     
   3523825951.4207582     
   3450430533.5894833     
   3381875201.9865322     
   3318592469.7871575     
   3831513281.2948990     
   3737291677.3195672     
   3646636037.8409662     
   3559837075.9690580     
   3477280458.7761164     
   4084321116.4331789     
   3975661771.3706303     
   3869870611.8283830     
   3767196925.9748502     
   3667958026.2689810     
   4355700142.1764956     
   4234441766.1045752     
   4115620640.9529209     
   3999429399.4504337     
   3886109586.3150897     
   4642030116.3672400     
   4509895300.1150045     
   4380014369.9699764     
   4252515069.1219788     
   4127563182.7264352     
   3318592469.7871575     
   3198134178.7886205     
   3084572476.1683021     
   2978598679.3171539     
   2881112143.7720671     
   3477280458.7761164     
   3337526205.3682270     
   3203523250.0868692     
   3075825422.6934443     
   2955166191.3758020     
   3667958026.2689810     
   3511162394.1917281     
   3359200500.8650928     
   3212501955.2387147     
   3071649020.3967328     
   3886109586.3150897     
   3714415807.2153392     
   3546892920.8143268     
   3383880099.5641041     
   3225852045.2175722     
   4127563182.7264352     
   3942871546.7881203     
   3761930540.2802691     
   3585030058.1975670     
   3412593203.4794321     
   2881112143.7720671     
   2890927916.7976375     
   2902823110.9591050     
   2916653264.3783755     
   2933708108.9191861     
   2955166191.3758020     
   2975431195.7507143     
   2998927540.5768504     
   3025114820.4623513     
   3053878494.0861449     
   3071649020.3967328     
   3089938041.7384582     
   3111276938.0918322     
   3135532759.7838001     
   3162582497.0685010     
   3225852045.2175722     
   3231975068.8616028     
   3239475769.1411648     
   3249195397.2572670     
   3262126680.1897144     
   3412593203.4794321     
   3398806379.1643639     
   3383274867.0144935     
   3368084523.4328017     
   3356177461.0081086     
   2933708108.9191861     
   2767283503.2006021     
   2617581933.3833609     
   2497230861.9877400     
   2442669180.5111570     
   3053878494.0861449     
   2784372645.8234105     
   2525617237.8599911     
   2281225406.5197630     
   2065249071.5163336     
   3162582497.0685010     
   2837693823.7919145     
   2518545932.9508023     
   2205366137.9890566     
   1899362944.3224318     
   3262126680.1897144     
   2928802355.2882056     
   2598097122.8778033     
   2271988467.6023736     
   1955463563.3345227     
   3356177461.0081086     
   3057846213.9321055     
   2760597550.2497087     
   2470156471.1953812     
   2205917796.2263217     
   5657898713.9801779     
   5890935267.2218151     
   6116296920.6060591     
   6331549619.5166826     
   6536494873.0712624     
   6491703105.4746971     
   6586944082.2677584     
   6757510234.4896889     
   6961314445.0556631     
   7171694906.0223370     
   7982464434.2600193     
   7735093892.6403379     
   7669322713.1162472     
   7669772949.9880676     
   7666495846.0607853     
   10130635327.138107     
   9322208865.3568325     
   8826534566.1740685     
   8443612447.7196836     
   8035574501.5302706     
   12936305540.924227     
   11340996898.535437     
   10210306589.680454     
   9272629710.1521778     
   8303385746.1110201     
   6536494873.0712624     
   6328483124.0432863     
   6142642583.8298435     
   5965031081.5228271     
   5786641075.1764889     
   7171694906.0223370     
   6910953904.6122465     
   6658118158.4797535     
   6409331530.9927187     
   6161449864.3724089     
   7666495846.0607853     
   7381228377.0114231     
   7101404211.9226341     
   6827111118.7974463     
   6558568276.2164669     
   8035574501.5302706     
   7746962936.9684839     
   7474164121.5005264     
   7215196073.1555624     
   6970085756.2270947     
   8303385746.1110201     
   8020723919.5001240     
   7780491695.6741095     
   7571890354.0174417     
   7389941777.2875223     
   5786641075.1764889     
   5635805400.1935310     
   5489151276.4597607     
   5346582440.7170401     
   5208144916.1650314     
   6161449864.3724089     
   6012954885.0555029     
   5865759041.3240490     
   5719897314.3806524     
   5575421180.3646154     
   6558568276.2164669     
   6408524448.1763239     
   6256717751.5456467     
   6103112685.4049625     
   5947744104.0188046     
   6970085756.2270947     
   6816008843.9657011     
   6657032883.0723171     
   6492854346.7892094     
   6323436727.8212881     
   7389941777.2875223     
   7230379826.4168711     
   7062844276.1402740     
   6886579806.4163380     
   6701409582.5862780     
   5208144916.1650314     
   5065325192.4396915     
   4923300757.0237665     
   4782123521.0681190     
   4642030116.3672400     
   5575421180.3646154     
   5414078311.6354065     
   5253624931.1393700     
   5094104090.9873915     
   4935619265.5806236     
   5947744104.0188046     
   5773426045.0155878     
   5600721358.8735142     
   5429650967.6162930     
   5260265784.5406542     
   6323436727.8212881     
   6141025066.7621479     
   5961506282.7416782     
   5784832263.3066483     
   5611027252.5640898     
   6701409582.5862780     
   6515119122.9096889     
   6333517179.5482702     
   6156408543.4191656     
   5983767148.0915279     
   4642030116.3672400     
   4509895300.1150045     
   4380014369.9699764     
   4252515069.1219788     
   4127563182.7264352     
   4935619265.5806236     
   4794232924.5201912     
   4654022515.3264046     
   4515109207.2291679     
   4377657955.0774012     
   5260265784.5406542     
   5108703007.7836189     
   4957158075.2820063     
   4805695625.8445349     
   4654438296.9439802     
   5611027252.5640898     
   5448503006.2818604     
   5284827121.2545443     
   5119964080.0745239     
   4953956251.7988653     
   5983767148.0915279     
   5809592841.0407095     
   5633144686.7395639     
   5454250451.4293880     
   5272839657.3388538     
   4127563182.7264352     
   3942871546.7881203     
   3761930540.2802691     
   3585030058.1975670     
   3412593203.4794321     
   4377657955.0774012     
   4179024099.8964210     
   3983296569.4475985     
   3790683415.0974913     
   3601519261.7452011     
   4654438296.9439802     
   4440339537.6597242     
   4228200273.1824298     
   4018138754.5634871     
   3810393143.0399227     
   4953956251.7988653     
   4723039524.4633732     
   4493075717.8879938     
   4264085335.1326690     
   4036200860.7300930     
   5272839657.3388538     
   5023907381.6805305     
   4774899591.5083857     
   4525732366.2926865     
   4276424128.9148984     
   3412593203.4794321     
   3398806379.1643639     
   3383274867.0144935     
   3368084523.4328017     
   3356177461.0081086     
   3601519261.7452011     
   3574059775.6634064     
   3544754649.2741137     
   3513906682.0627084     
   3481924340.7912388     
   3810393143.0399227     
   3788075899.4048080     
   3766385576.6900492     
   3744851015.1673398     
   3723164023.7878971     
   4036200860.7300930     
   4035043382.2236323     
   4038967396.3509488     
   4047134166.3849459     
   4059602344.3317618     
   4276424128.9148984     
   4309682101.0776157     
   4354129774.8656359     
   4408361021.4753485     
   4473075018.0358877     
   3356177461.0081086     
   3057846213.9321055     
   2760597550.2497087     
   2470156471.1953812     
   2205917796.2263217     
   3481924340.7912388     
   3201001416.7499895     
   2930051914.9416747     
   2669814342.7062106     
   2422360816.9490309     
   3723164023.7878971     
   3389402057.2786756     
   3058098260.2559471     
   2728988611.9970040     
   2409396690.0541978     
   4059602344.3317618     
   3612662196.4468846     
   3149906517.9134440     
   2663636482.1489687     
   2171468840.2943115     
   4473075018.0358877     
   3861863482.0865350     
   3217213392.4562316     
   2508333360.8317947     
   1741122884.5380654     
 </DataArray>
 <DataArray  type="Float64" Name="strain" NumberOfComponents="3" format="ascii">
  0.20349216810311319        0.0000000000000000       0.12542748061275175     
  0.18665889121506676       -2.7336786960792891E-002   7.4356528501905855E-002
  0.16982561432702037       -4.4690182127980253E-002   3.5122569529993035E-002
  0.15299233743897395       -5.2060185501562078E-002   7.7256036970132815E-003
  0.13615906055092752       -4.9446797081538332E-002  -7.8343689970334085E-003
  0.15985965115091111        0.0000000000000000        9.6456441052602926E-002
  0.15318115771703567       -2.1852908853089964E-002   6.2689466564695637E-002
  0.14650266428316022       -3.6184442886955930E-002   3.7395065846197201E-002
  0.13982417084928478       -4.2994602101597890E-002   2.0573238897107604E-002
  0.13314567741540934       -4.2283386497015879E-002   1.2223985717426916E-002
  0.12646093819999496        0.0000000000000000        7.4200288087347827E-002
  0.12657280885076627       -1.6369030745387026E-002   5.5275274247997580E-002
  0.12668467950153758       -2.7678703645931609E-002   4.1458414808531976E-002
  0.12679655015230887       -3.3929018701633736E-002   3.2749709768950995E-002
  0.12690842080308018       -3.5119975912493419E-002   2.9149159129254709E-002
  0.10329602925036473        0.0000000000000000        5.8659021716986434E-002
  0.10683384461625860       -1.0885152637684090E-002   5.2113951551811664E-002
  0.11037165998215245       -1.9172964404907282E-002   4.7312616416997355E-002
  0.11390947534804630       -2.4863435301669571E-002   4.4255016312543465E-002
  0.11744729071394015       -2.7956565327970955E-002   4.2941151238450083E-002
   9.0364924302020422E-002   0.0000000000000000        4.9832641941518749E-002
   9.3964265013512627E-002  -5.4012745299811546E-003   5.3205498476137925E-002
   9.7563605725004818E-002  -1.0667225163882958E-002   5.4957670671593351E-002
  0.10116294643649701       -1.5797851901705403E-002   5.5089158527885013E-002
  0.10476228714798920       -2.0793154743448505E-002   5.3599962045012925E-002
  0.13615906055092752       -4.9446797081538332E-002  -7.8343689970334085E-003
  0.13296778137511095       -4.2899058132883416E-002  -3.3848527607475837E-003
  0.12977650219929432       -3.8466009920571670E-002  -3.6045242781153689E-004
  0.12658522302347772       -3.6147652444603030E-002   1.2388320017748776E-003
  0.12339394384766111       -3.5943985704977560E-002   1.4130005280117153E-003
  0.13314567741540934       -4.2283386497015879E-002   1.2223985717426916E-002
  0.12891911184763874       -3.8408502708182496E-002   1.2185093394765305E-002
  0.12469254627986817       -3.5727657370070429E-002   1.1500744191545450E-002
  0.12046598071209758       -3.4240850482679656E-002   1.0170938107767265E-002
  0.11623941514432701       -3.3948082046010242E-002   8.1956751434309333E-003
  0.12690842080308018       -3.5119975912493419E-002   2.9149159129254709E-002
  0.12242622786614710       -3.3917947283481617E-002   2.5542510533267549E-002
  0.11794403492921392       -3.2989304819569285E-002   2.2070064079513479E-002
  0.11346184199228082       -3.2334048520756373E-002   1.8731819767992590E-002
  0.10897964905534768       -3.1952178387042965E-002   1.5527777598704960E-002
  0.11744729071394015       -2.7956565327970955E-002   4.2941151238450083E-002
  0.11348912943063591       -2.9427391858780710E-002   3.6687398654759125E-002
  0.10953096814733167       -3.0250952269068078E-002   3.1347507236092829E-002
  0.10557280686402744       -3.0427246558833054E-002   2.6921476982451051E-002
  0.10161464558072320       -2.9956274728075667E-002   2.3409307893833949E-002
  0.10476228714798920       -2.0793154743448505E-002   5.3599962045012925E-002
  0.10210781654110528       -2.4936836434079804E-002   4.5619757759240126E-002
   9.9453345934221352E-002  -2.7512599718566875E-002   3.9333073661283344E-002
   9.6798875327337414E-002  -2.8520444596909729E-002   3.4739909751142523E-002
   9.4144404720453490E-002  -2.7960371069108383E-002   3.1840266028817801E-002
  0.12339394384766111       -3.5943985704977560E-002   1.4130005280117153E-003
  0.12042989965670040       -3.6471741842280678E-002   5.9631473337540264E-004
  0.11746585546573970       -3.6347652997097836E-002   6.7343830844751595E-006
  0.11450181127477901       -3.5571719169429049E-002  -3.5574052286091451E-004
  0.11153776708381830       -3.4143940359274316E-002  -4.9110998446150189E-004
  0.11623941514432701       -3.3948082046010242E-002   8.1956751434309333E-003
  0.11348188180958975       -3.4043330265711158E-002   7.7880824352608152E-003
  0.11072434847485252       -3.3720573347431629E-002   7.5664059951924267E-003
  0.10796681514011529       -3.2979811291171474E-002   7.5306458232254174E-003
  0.10520928180537806       -3.1821044096931039E-002   7.6808019193604637E-003
  0.10897964905534768       -3.1952178387042965E-002   1.5527777598704960E-002
  0.10638743740059028       -3.1614918689141756E-002   1.5295438132495773E-002
  0.10379522574583284       -3.1093493697765418E-002   1.5207825758144302E-002
  0.10120301409107541       -3.0387903412914041E-002   1.5264940475650928E-002
   9.8610802436317979E-002  -2.9498147834587624E-002   1.5466782285015537E-002
  0.10161464558072320       -2.9956274728075667E-002   2.3409307893833949E-002
   9.9146566429701891E-002  -2.9186507112572296E-002   2.3118381825079967E-002
   9.6678487278680600E-002  -2.8466414048099180E-002   2.2930993671940261E-002
   9.4210408127659309E-002  -2.7795995534656594E-002   2.2847143434414845E-002
   9.1742328976637991E-002  -2.7175251572244249E-002   2.2866831112503764E-002
   9.4144404720453490E-002  -2.7960371069108383E-002   3.1840266028817801E-002
   9.1759268896924651E-002  -2.6758095536002759E-002   3.1256913513013684E-002
   8.9374133073395826E-002  -2.5839334398432983E-002   3.0735909736580171E-002
   8.6988997249866945E-002  -2.5204087656398994E-002   3.0277254699517277E-002
   8.4603861426338134E-002  -2.4852355309900848E-002   2.9880948401825175E-002
  0.11153776708381830       -3.4143940359274316E-002  -4.9110998446150189E-004
  0.10858884667201329       -3.2560589940573009E-002  -2.7369208374733445E-005
  0.10563992626020829       -3.1317941287264492E-002   3.7718437700587359E-004
  0.10269100584840327       -3.0415994399348664E-002   7.2255077168002779E-004
   9.9742085436598293E-002  -2.9854749276825632E-002   1.0087299756481038E-003
  0.10520928180537806       -3.1821044096931039E-002   7.6808019193604637E-003
  0.10224900935997930       -3.0558712572919935E-002   7.6465946400239432E-003
   9.9288736914580525E-002  -2.9507257527348438E-002   7.6488704842058858E-003
   9.6328464469181724E-002  -2.8666678960216446E-002   7.6876294519070132E-003
   9.3368192023783048E-002  -2.8036976871524066E-002   7.7628715431265205E-003
   9.8610802436317979E-002  -2.9498147834587624E-002   1.5466782285015537E-002
   9.5734848271550543E-002  -2.8556835205266820E-002   1.5064452237208620E-002
   9.2858894106783052E-002  -2.7696573767432335E-002   1.4794275627145644E-002
   8.9982939942015588E-002  -2.6917363521084064E-002   1.4656252454826494E-002
   8.7106985777248139E-002  -2.6219204466222279E-002   1.4650382720251043E-002
   9.1742328976637991E-002  -2.7175251572244249E-002   2.2866831112503764E-002
   8.9046363406726947E-002  -2.6554957837613642E-002   2.2226203583179793E-002
   8.6350397836815904E-002  -2.5885890007516229E-002   2.1813399805824807E-002
   8.3654432266904832E-002  -2.5168048081951805E-002   2.1628419780438786E-002
   8.0958466696993817E-002  -2.4401432060920547E-002   2.1671263507021761E-002
   8.4603861426338134E-002  -2.4852355309900848E-002   2.9880948401825175E-002
   8.2183554765508551E-002  -2.4553080469960561E-002   2.9131848677937458E-002
   7.9763248104678969E-002  -2.4075206247600116E-002   2.8706243020243660E-002
   7.7342941443849414E-002  -2.3418732642819517E-002   2.8604131428743872E-002
   7.4922634783019804E-002  -2.2583659655618871E-002   2.8825513903438071E-002
   9.9742085436598293E-002  -2.9854749276825632E-002   1.0087299756481038E-003
   9.6749575612421590E-002  -2.9371806821263585E-002   2.6386343571932480E-004
   9.3757065788244859E-002  -2.8704767934231296E-002  -2.1950928349867560E-004
   9.0764555964068169E-002  -2.7853632615728298E-002  -4.4138818200635532E-004
   8.7772046139891424E-002  -2.6818400865755154E-002  -4.0177325980295109E-004
   9.3368192023783048E-002  -2.8036976871524066E-002   7.7628715431265205E-003
   9.0620870496094658E-002  -2.7449954038925056E-002   7.2691938441175052E-003
   8.7873548968406295E-002  -2.6737413240073837E-002   7.0043989173741300E-003
   8.5126227440717947E-002  -2.5899354474969882E-002   6.9684867628971928E-003
   8.2378905913029599E-002  -2.4935777743613663E-002   7.1614573806861315E-003
   8.7106985777248139E-002  -2.6219204466222279E-002   1.4650382720251043E-002
   8.4572241497603534E-002  -2.5528101256586375E-002   1.4349315396943313E-002
   8.2037497217958916E-002  -2.4770058545916254E-002   1.4244519797457181E-002
   7.9502752938314269E-002  -2.3945076334211574E-002   1.4335995921792286E-002
   7.6968008658669651E-002  -2.3053154621472671E-002   1.4623743769948822E-002
   8.0958466696993817E-002  -2.4401432060920547E-002   2.1671263507021761E-002
   7.8603688616948247E-002  -2.3606248474247631E-002   2.1504228094197303E-002
   7.6248910536902664E-002  -2.2802703851758623E-002   2.1500853356750001E-002
   7.3894132456857095E-002  -2.1990798193453155E-002   2.1661139294678992E-002
   7.1539354376811526E-002  -2.1170531499331430E-002   2.1985085907985140E-002
   7.4922634783019804E-002  -2.2583659655618871E-002   2.8825513903438071E-002
   7.2715211854128742E-002  -2.1684395691909067E-002   2.8733931935879198E-002
   7.0507788925237597E-002  -2.0835349157600935E-002   2.8773399595252436E-002
   6.8300365996346507E-002  -2.0036520052694809E-002   2.8943916881557855E-002
   6.6092943067455362E-002  -1.9287908377190244E-002   2.9245483794795357E-002
   8.7772046139891424E-002  -2.6818400865755154E-002  -4.0177325980295109E-004
   8.3593028564964755E-002  -2.5688977025528914E-002  -9.5970192232303075E-004
   7.9414010990038142E-002  -2.4555265436267210E-002  -1.1878772699141504E-003
   7.5234993415111501E-002  -2.3417266097970547E-002  -1.0862993025761158E-003
   7.1055975840184860E-002  -2.2274979010638352E-002  -6.5496802030862167E-004
   8.2378905913029599E-002  -2.4935777743613663E-002   7.1614573806861315E-003
   7.8514931166350221E-002  -2.3918890770538076E-002   6.5637563370967433E-003
   7.4650956419670761E-002  -2.2920901280275296E-002   6.2663876350732561E-003
   7.0786981672991398E-002  -2.1941809272825283E-002   6.2693512746146846E-003
   6.6923006926311868E-002  -2.0981614748188382E-002   6.5726472557212645E-003
   7.6968008658669651E-002  -2.3053154621472671E-002   1.4623743769948822E-002
   7.3389655766873590E-002  -2.2148804515547377E-002   1.3963085113442325E-002
   6.9811302875077516E-002  -2.1286537124283036E-002   1.3573337825137421E-002
   6.6232949983281469E-002  -2.0466352447680237E-002   1.3454501905034159E-002
   6.2654597091485381E-002  -1.9688250485738579E-002   1.3606577353132088E-002
   7.1539354376811526E-002  -2.1170531499331430E-002   2.1985085907985140E-002
   6.8217202366535029E-002  -2.0378718260556386E-002   2.1238284406713381E-002
   6.4895050356258477E-002  -1.9652172968290894E-002   2.0732973300279029E-002
   6.1572898345981897E-002  -1.8990895622535080E-002   2.0469152588682690E-002
   5.8250746335705365E-002  -1.8394886223288914E-002   2.0446822271923668E-002
   6.6092943067455362E-002  -1.9287908377190244E-002   2.9245483794795357E-002
   6.2997570965334482E-002  -1.8608632005565701E-002   2.8389354216909662E-002
   5.9902198863213615E-002  -1.8017808812298849E-002   2.7745294060498027E-002
   5.6806826761092714E-002  -1.7515438797390034E-002   2.7313303325559909E-002
   5.3711454658971813E-002  -1.7101521960839083E-002   2.7093382012095601E-002
   7.1055975840184860E-002  -2.2274979010638352E-002  -6.5496802030862167E-004
   7.1829107984826002E-002  -2.1519936268350026E-002   1.3036839981102055E-003
   7.2602240129467255E-002  -2.1543669965184253E-002   2.4480690721141452E-003
   7.3375372274108480E-002  -2.2346180101142074E-002   2.7781872017034193E-003
   7.4148504418749650E-002  -2.3927466676221809E-002   2.2940383868773617E-003
   6.6923006926311868E-002  -2.0981614748188382E-002   6.5726472557212645E-003
   6.7009389223205262E-002  -2.0260762864430293E-002   7.9040933308204275E-003
   6.7095771520098518E-002  -1.9999698779616104E-002   8.6763066548387335E-003
   6.7182153816991844E-002  -2.0198422493745830E-002   8.8892872277756829E-003
   6.7268536113885169E-002  -2.0856934006820205E-002   8.5430350496321639E-003
   6.2654597091485381E-002  -1.9688250485738579E-002   1.3606577353132088E-002
   6.2309263733964920E-002  -1.9001589460510449E-002   1.4629806125089989E-002
   6.1963930376444362E-002  -1.8455727594047538E-002   1.5348836339300745E-002
   6.1618597018923853E-002  -1.8050664886350258E-002   1.5763667995764868E-002
   6.1273263661403371E-002  -1.7786401337418101E-002   1.5874301094482096E-002
   5.8250746335705365E-002  -1.8394886223288914E-002   2.0446822271923668E-002
   5.7728731517105079E-002  -1.7742416056590660E-002   2.1480822380918835E-002
   5.7206716698504745E-002  -1.6911756408479181E-002   2.2465658125501109E-002
   5.6684701879904459E-002  -1.5902907278954461E-002   2.3401329505670674E-002
   5.6162687061304117E-002  -1.4715868668016246E-002   2.4287836521427526E-002
   5.3711454658971813E-002  -1.7101521960839083E-002   2.7093382012095601E-002
   5.3267792572625761E-002  -1.6483242652671037E-002   2.8457142098306909E-002
   5.2824130486279736E-002  -1.5367785222910796E-002   3.0026772013439396E-002
   5.2380468399933697E-002  -1.3755149671558768E-002   3.1802271757493311E-002
   5.1936806313587658E-002  -1.1645335998614448E-002   3.3783641330468350E-002
   7.4148504418749650E-002  -2.3927466676221809E-002   2.2940383868773617E-003
   6.2825897146781773E-002  -2.4492597094071811E-002  -4.6016237911239433E-003
   5.1503289874813840E-002  -2.2246638758339293E-002  -7.4509965715757187E-003
   4.0180682602845907E-002  -1.7189591669024167E-002  -6.2540799544782144E-003
   2.8858075330878030E-002  -9.3214558261265346E-003  -1.0108739398320132E-003
   6.7268536113885169E-002  -2.0856934006820205E-002   8.5430350496321639E-003
   5.9404800786468703E-002  -2.0871581955452967E-002   4.2239531117199136E-003
   5.1541065459052293E-002  -1.9138714976260546E-002   2.7763256653612345E-003
   4.3677330131635855E-002  -1.5658333069243031E-002   4.2001527105568481E-003
   3.5813594804219528E-002  -1.0430436234398766E-002   8.4954342473051447E-003
   6.1273263661403371E-002  -1.7786401337418101E-002   1.5874301094482096E-002
   5.5693565372542830E-002  -1.7250566816834512E-002   1.3068225570902231E-002
   5.0113867083682317E-002  -1.6030791194182256E-002   1.1958769632880104E-002
   4.4534168794821805E-002  -1.4127074469461067E-002   1.2545933280416040E-002
   3.8954470505961236E-002  -1.1539416642671219E-002   1.4829716513510394E-002
   5.6162687061304117E-002  -1.4715868668016246E-002   2.4287836521427526E-002
   5.1692190905003974E-002  -1.3629551678215640E-002   2.1931193586422391E-002
   4.7221694748703885E-002  -1.2922867412103516E-002   2.0096335330979712E-002
   4.2751198592403575E-002  -1.2595815869679406E-002   1.8783261755099770E-002
   3.8280702436103639E-002  -1.2648397050943783E-002   1.7991972858782401E-002
   5.1936806313587658E-002  -1.1645335998614448E-002   3.3783641330468350E-002
   4.7400677383852258E-002  -1.0008536539596991E-002   3.0812857158281581E-002
   4.2864548454116885E-002  -9.8149436300246501E-003   2.7189022759661313E-002
   3.8328419524381457E-002  -1.1064557269897742E-002   2.2912138134608392E-002
   3.3792290594646057E-002  -1.3757377459216125E-002   1.7982203283122278E-002
   9.0364924302020422E-002   0.0000000000000000        4.9832641941518749E-002
   9.3964265013512627E-002  -5.4012745299811546E-003   5.3205498476137925E-002
   9.7563605725004818E-002  -1.0667225163882958E-002   5.4957670671593351E-002
  0.10116294643649701       -1.5797851901705403E-002   5.5089158527885013E-002
  0.10476228714798920       -2.0793154743448505E-002   5.3599962045012925E-002
   8.2428553693345535E-002   0.0000000000000000        4.4784510878365102E-002
   8.4636609179717298E-002  -4.5723178366735544E-003   4.8265100964733097E-002
   8.6844664666089075E-002  -9.0346200501213031E-003   5.0583804940023992E-002
   8.9052720152460824E-002  -1.3386906640343246E-002   5.1740622804237794E-002
   9.1260775638832586E-002  -1.7629177607339380E-002   5.1735554557374469E-002
   7.4247847762723557E-002   0.0000000000000000        4.0577990644945841E-002
   7.5523416252061548E-002  -3.7433611433659504E-003   4.4141006010209108E-002
   7.6798984741399526E-002  -7.4020149363596480E-003   4.7000933492481911E-002
   7.8074553230737503E-002  -1.0975961378981087E-002   4.9157773091764272E-002
   7.9350121720075481E-002  -1.4465200471230275E-002   5.0611524808056155E-002
   6.5822806510154486E-002   0.0000000000000000        3.7213081241260951E-002
   6.6624686230545349E-002  -2.9144044500583480E-003   4.0833213612565936E-002
   6.7426565950936199E-002  -5.7694098225979902E-003   4.4209056328967107E-002
   6.8228445671327048E-002  -8.5650161176189284E-003   4.7340609390464486E-002
   6.9030325391717898E-002  -1.1301223335121156E-002   5.0227872797058058E-002
   5.7153429935638350E-002   0.0000000000000000        3.4689782667310431E-002
   5.7940419115168722E-002  -2.0854477567507461E-003   3.8341723771803587E-002
   5.8727408294699093E-002  -4.1368047088363395E-003   4.2208173449479594E-002
   5.9514397474229458E-002  -6.1540708562567732E-003   4.6289131700338451E-002
   6.0301386653759829E-002  -8.1372461990120507E-003   5.0584598524380103E-002
  0.10476228714798920       -2.0793154743448505E-002   5.3599962045012925E-002
  0.10210781654110528       -2.4936836434079804E-002   4.5619757759240126E-002
   9.9453345934221352E-002  -2.7512599718566875E-002   3.9333073661283344E-002
   9.6798875327337414E-002  -2.8520444596909729E-002   3.4739909751142523E-002
   9.4144404720453490E-002  -2.7960371069108383E-002   3.1840266028817801E-002
   9.1260775638832586E-002  -1.7629177607339380E-002   5.1735554557374469E-002
   9.0061152279397400E-002  -2.1205166777106134E-002   4.6502768110322487E-002
   8.8861528919962199E-002  -2.3558607975639845E-002   4.2486155970352012E-002
   8.7661905560526998E-002  -2.4689501202940587E-002   3.9685718137462953E-002
   8.6462282201091784E-002  -2.4597846459008310E-002   3.8101454611655393E-002
   7.9350121720075481E-002  -1.4465200471230275E-002   5.0611524808056155E-002
   7.9127999727354459E-002  -1.7473497120132443E-002   4.7780785764813850E-002
   7.8905877734633451E-002  -1.9604616232712826E-002   4.5688875147918452E-002
   7.8683755741912415E-002  -2.0858557808971421E-002   4.4335792957369877E-002
   7.8461633749191406E-002  -2.1235321848908258E-002   4.3721539193168235E-002
   6.9030325391717898E-002  -1.1301223335121156E-002   5.0227872797058058E-002
   6.9308358884976481E-002  -1.3741827463158761E-002   4.9453810722714132E-002
   6.9586392378235079E-002  -1.5650624489785797E-002   4.8941231193982568E-002
   6.9864425871493649E-002  -1.7027614415002282E-002   4.8690134210863330E-002
   7.0142459364752260E-002  -1.7872797238808202E-002   4.8700519773356384E-002
   6.0301386653759829E-002  -8.1372461990120507E-003   5.0584598524380103E-002
   6.0602229752263474E-002  -1.0010157806185086E-002   5.1521842984023368E-002
   6.0903072850767098E-002  -1.1696632746858769E-002   5.2243224108544428E-002
   6.1203915949270757E-002  -1.3196671021033099E-002   5.2748741897943249E-002
   6.1504759047774381E-002  -1.4510272628708146E-002   5.3038396352219824E-002
   9.4144404720453490E-002  -2.7960371069108383E-002   3.1840266028817801E-002
   9.1759268896924651E-002  -2.6758095536002759E-002   3.1256913513013684E-002
   8.9374133073395826E-002  -2.5839334398432983E-002   3.0735909736580171E-002
   8.6988997249866945E-002  -2.5204087656398994E-002   3.0277254699517277E-002
   8.4603861426338134E-002  -2.4852355309900848E-002   2.9880948401825175E-002
   8.6462282201091784E-002  -2.4597846459008310E-002   3.8101454611655393E-002
   8.4189799075378186E-002  -2.3949473677135270E-002   3.7053566976313533E-002
   8.1917315949664546E-002  -2.3410212790613665E-002   3.6168635997231399E-002
   7.9644832823950920E-002  -2.2980063799443527E-002   3.5446661674409061E-002
   7.7372349698237294E-002  -2.2659026703624852E-002   3.4887644007846635E-002
   7.8461633749191406E-002  -2.1235321848908258E-002   4.3721539193168235E-002
   7.6402411238182158E-002  -2.1140851818267737E-002   4.2383518938472912E-002
   7.4343188727172868E-002  -2.0981091182794336E-002   4.1309063256926536E-002
   7.2283966216163620E-002  -2.0756039942488015E-002   4.0498172148529132E-002
   7.0224743705154385E-002  -2.0465698097348814E-002   3.9950845613280668E-002
   7.0142459364752260E-002  -1.7872797238808202E-002   4.8700519773356384E-002
   6.8397105385336526E-002  -1.8332229959400224E-002   4.7246769399491989E-002
   6.6651751405920806E-002  -1.8551969574974975E-002   4.6157191515665726E-002
   6.4906397426505072E-002  -1.8532016085532524E-002   4.5431786121877558E-002
   6.3161043447089366E-002  -1.8272369491072769E-002   4.5070553218127515E-002
   6.1504759047774381E-002  -1.4510272628708146E-002   5.3038396352219824E-002
   6.0173881516841346E-002  -1.5523608100532701E-002   5.1643318359370707E-002
   5.8843003985908332E-002  -1.6122847967155685E-002   5.0713020773448914E-002
   5.7512126454975297E-002  -1.6307992228576998E-002   5.0247503594454346E-002
   5.6181248924042276E-002  -1.6079040884796766E-002   5.0246766822386976E-002
   8.4603861426338134E-002  -2.4852355309900848E-002   2.9880948401825175E-002
   8.2183554765508551E-002  -2.4553080469960561E-002   2.9131848677937458E-002
   7.9763248104678969E-002  -2.4075206247600116E-002   2.8706243020243660E-002
   7.7342941443849414E-002  -2.3418732642819517E-002   2.8604131428743872E-002
   7.4922634783019804E-002  -2.2583659655618871E-002   2.8825513903438071E-002
   7.7372349698237294E-002  -2.2659026703624852E-002   3.4887644007846635E-002
   7.5250724476467454E-002  -2.2336897540588208E-002   3.4342585097946146E-002
   7.3129099254697572E-002  -2.1903472347764318E-002   3.4071394999971118E-002
   7.1007474032927731E-002  -2.1358751125152994E-002   3.4074073713921529E-002
   6.8885848811157821E-002  -2.0702733872754397E-002   3.4350621239797194E-002
   7.0224743705154385E-002  -2.0465698097348814E-002   3.9950845613280668E-002
   6.8352174668175614E-002  -2.0120714611215916E-002   3.9542524164734839E-002
   6.6479605631196897E-002  -1.9731738447928467E-002   3.9358446273845715E-002
   6.4607036594218167E-002  -1.9298769607486568E-002   3.9398611940613427E-002
   6.2734467557239396E-002  -1.8821808089890063E-002   3.9663021165037948E-002
   6.3161043447089366E-002  -1.8272369491072769E-002   4.5070553218127515E-002
   6.1487905340633149E-002  -1.7904531681843538E-002   4.4731665878303309E-002
   5.9814767234176898E-002  -1.7560004548092700E-002   4.4567396841867293E-002
   5.8141629127720675E-002  -1.7238788089820038E-002   4.4577746108819573E-002
   5.6468491021264430E-002  -1.6940882307025729E-002   4.4762713679159932E-002
   5.6181248924042276E-002  -1.6079040884796766E-002   5.0246766822386976E-002
   5.4657916493839970E-002  -1.5688348752471284E-002   4.9910010238651742E-002
   5.3134584063637635E-002  -1.5388270648256808E-002   4.9698246704036102E-002
   5.1611251633435329E-002  -1.5178806572153630E-002   4.9611476218540021E-002
   5.0087919203233022E-002  -1.5059956524161283E-002   4.9649698782163604E-002
   7.4922634783019804E-002  -2.2583659655618871E-002   2.8825513903438071E-002
   7.2715211854128742E-002  -2.1684395691909067E-002   2.8733931935879198E-002
   7.0507788925237597E-002  -2.0835349157600935E-002   2.8773399595252436E-002
   6.8300365996346507E-002  -2.0036520052694809E-002   2.8943916881557855E-002
   6.6092943067455362E-002  -1.9287908377190244E-002   2.9245483794795357E-002
   6.8885848811157821E-002  -2.0702733872754397E-002   3.4350621239797194E-002
   6.6822914508598966E-002  -1.9995418005292975E-002   3.4128424875050425E-002
   6.4759980206040096E-002  -1.9296800937492906E-002   3.4064156136035854E-002
   6.2697045903481255E-002  -1.8606882669354143E-002   3.4157815022753682E-002
   6.0634111600922386E-002  -1.7925663200877018E-002   3.4409401535203915E-002
   6.2734467557239396E-002  -1.8821808089890063E-002   3.9663021165037948E-002
   6.0842899879813020E-002  -1.8306440318676905E-002   3.9351729032843383E-002
   5.8951332202386582E-002  -1.7758252717384820E-002   3.9225242525181503E-002
   5.7059764524960199E-002  -1.7177245286013755E-002   3.9283561642052170E-002
   5.5168196847533803E-002  -1.6563418024563764E-002   3.9526686383455467E-002
   5.6468491021264430E-002  -1.6940882307025729E-002   4.4762713679159932E-002
   5.4775167967770745E-002  -1.6617462632060879E-002   4.4403844409258222E-002
   5.3081844914277039E-002  -1.6219704497276680E-002   4.4256658762689312E-002
   5.1388521860783382E-002  -1.5747607902673200E-002   4.4321156739453277E-002
   4.9695198807289682E-002  -1.5201172848250497E-002   4.4597338339549764E-002
   5.0087919203233022E-002  -1.5059956524161283E-002   4.9649698782163604E-002
   4.8619718772472259E-002  -1.4928484945444742E-002   4.9284771004294958E-002
   4.7151518341711496E-002  -1.4681156277168671E-002   4.9158404848559253E-002
   4.5683317910950733E-002  -1.4317970519332720E-002   4.9270600314956843E-002
   4.4215117480189997E-002  -1.3838927671937229E-002   4.9621357403487332E-002
   6.6092943067455362E-002  -1.9287908377190244E-002   2.9245483794795357E-002
   6.2997570965334482E-002  -1.8608632005565701E-002   2.8389354216909662E-002
   5.9902198863213615E-002  -1.8017808812298849E-002   2.7745294060498027E-002
   5.6806826761092714E-002  -1.7515438797390034E-002   2.7313303325559909E-002
   5.3711454658971813E-002  -1.7101521960839083E-002   2.7093382012095601E-002
   6.0634111600922386E-002  -1.7925663200877018E-002   3.4409401535203915E-002
   5.7759873999393058E-002  -1.7270890403809802E-002   3.3488929888822544E-002
   5.4885636397863785E-002  -1.6660312149900866E-002   3.2798657822150579E-002
   5.2011398796334506E-002  -1.6093928439150498E-002   3.2338585335188248E-002
   4.9137161194805185E-002  -1.5571739271558471E-002   3.2108712427935227E-002
   5.5168196847533803E-002  -1.6563418024563764E-002   3.9526686383455467E-002
   5.2533223904831797E-002  -1.5933148802053806E-002   3.8586131303777749E-002
   4.9898250962129881E-002  -1.5302815487502834E-002   3.7893905962045081E-002
   4.7263278019427923E-002  -1.4672418080910963E-002   3.7450010358257818E-002
   4.4628305076725952E-002  -1.4041956582278053E-002   3.7254444492415606E-002
   4.9695198807289682E-002  -1.5201172848250497E-002   4.4597338339549764E-002
   4.7317620681650796E-002  -1.4595407200297915E-002   4.3680958461775055E-002
   4.4940042556011917E-002  -1.3945318825104854E-002   4.3031038480181284E-002
   4.2562464430373058E-002  -1.3250907722671401E-002   4.2647578394768522E-002
   4.0184886304734158E-002  -1.2512173892997538E-002   4.2530578205536761E-002
   4.4215117480189997E-002  -1.3838927671937229E-002   4.9621357403487332E-002
   4.2113064329849931E-002  -1.3257665598541885E-002   4.8773411362815045E-002
   4.0011011179509906E-002  -1.2587822162706833E-002   4.8210055376559424E-002
   3.7908958029169840E-002  -1.1829397364431841E-002   4.7931289444720568E-002
   3.5806904878829815E-002  -1.0982391203717079E-002   4.7937113567298351E-002
   5.3711454658971813E-002  -1.7101521960839083E-002   2.7093382012095601E-002
   5.3267792572625761E-002  -1.6483242652671037E-002   2.8457142098306909E-002
   5.2824130486279736E-002  -1.5367785222910796E-002   3.0026772013439396E-002
   5.2380468399933697E-002  -1.3755149671558768E-002   3.1802271757493311E-002
   5.1936806313587658E-002  -1.1645335998614448E-002   3.3783641330468350E-002
   4.9137161194805185E-002  -1.5571739271558471E-002   3.2108712427935227E-002
   4.8851464273877446E-002  -1.4963668263285462E-002   3.3846573369787275E-002
   4.8565767352949707E-002  -1.4139639030491841E-002   3.5694494813554606E-002
   4.8280070432021954E-002  -1.3099651573177461E-002   3.7652476759237233E-002
   4.7994373511094229E-002  -1.1843705891342482E-002   3.9720519206835059E-002
   4.4628305076725952E-002  -1.4041956582278053E-002   3.7254444492415606E-002
   4.4404763994210547E-002  -1.3444093873900026E-002   3.9085186392837035E-002
   4.4181222911695094E-002  -1.2911492838072677E-002   4.0930179468167724E-002
   4.3957681829179654E-002  -1.2444153474796157E-002   4.2789423718407653E-002
   4.3734140746664221E-002  -1.2042075784070488E-002   4.4662919143557037E-002
   4.0184886304734158E-002  -1.2512173892997538E-002   4.2530578205536761E-002
   3.9927691733625037E-002  -1.1924519484514465E-002   4.4172981167455931E-002
   3.9670497162515896E-002  -1.1683346645653701E-002   4.5733825977278750E-002
   3.9413302591406733E-002  -1.1788655376414934E-002   4.7213112635004821E-002
   3.9156108020297627E-002  -1.2240445676798398E-002   4.8610841140634020E-002
   3.5806904878829815E-002  -1.0982391203717079E-002   4.7937113567298351E-002
   3.5420247492120971E-002  -1.0404945095129126E-002   4.9109957693644346E-002
   3.5033590105412141E-002  -1.0455200453234587E-002   5.0105434340887628E-002
   3.4646932718703304E-002  -1.1133157278033719E-002   5.0923543509028196E-002
   3.4260275331994466E-002  -1.2438815569526473E-002   5.1564285198066051E-002
   5.1936806313587658E-002  -1.1645335998614448E-002   3.3783641330468350E-002
   4.7400677383852258E-002  -1.0008536539596991E-002   3.0812857158281581E-002
   4.2864548454116885E-002  -9.8149436300246501E-003   2.7189022759661313E-002
   3.8328419524381457E-002  -1.1064557269897742E-002   2.2912138134608392E-002
   3.3792290594646057E-002  -1.3757377459216125E-002   1.7982203283122278E-002
   4.7994373511094229E-002  -1.1843705891342482E-002   3.9720519206835059E-002
   4.3058837514558107E-002  -1.0760539938983849E-002   3.5683216115884514E-002
   3.8123301518022026E-002  -1.0238891670098990E-002   3.1500149117765663E-002
   3.3187765521485911E-002  -1.0278761084687459E-002   2.7171318212478077E-002
   2.8252229524949879E-002  -1.0880148182749627E-002   2.2696723400022600E-002
   4.3734140746664221E-002  -1.2042075784070488E-002   4.4662919143557037E-002
   3.8906484002592050E-002  -1.1512543338370929E-002   4.0440785999814502E-002
   3.4078827258519892E-002  -1.0662839710173282E-002   3.6580175268168195E-002
   2.9251170514447859E-002  -9.4929648994773724E-003   3.3081086948618318E-002
   2.4423513770375577E-002  -8.0029189062832407E-003   2.9943521041164212E-002
   3.9156108020297627E-002  -1.2240445676798398E-002   4.8610841140634020E-002
   3.4943616847954044E-002  -1.2264546737758009E-002   4.5085566810071157E-002
   3.0731125675610555E-002  -1.1086787750247542E-002   4.2429101210869340E-002
   2.6518634503266955E-002  -8.7071687142671328E-003   4.0641444343028812E-002
   2.2306143330923435E-002  -5.1256896298167431E-003   3.9722596206548930E-002
   3.4260275331994466E-002  -1.2438815569526473E-002   5.1564285198066051E-002
   3.1170236050644173E-002  -1.3016550137144811E-002   4.9617558546654894E-002
   2.8080196769293922E-002  -1.1510735790321899E-002   4.9046926945869290E-002
   2.4990157487943650E-002  -7.9213725290569435E-003   4.9852390395709309E-002
   2.1900118206593322E-002  -2.2484603533503567E-003   5.2033948896175186E-002
   5.7153429935638350E-002   0.0000000000000000        3.4689782667310431E-002
   5.7940419115168722E-002  -2.0854477567507461E-003   3.8341723771803587E-002
   5.8727408294699093E-002  -4.1368047088363395E-003   4.2208173449479594E-002
   5.9514397474229458E-002  -6.1540708562567732E-003   4.6289131700338451E-002
   6.0301386653759829E-002  -8.1372461990120507E-003   5.0584598524380103E-002
   4.8651905655953995E-002   0.0000000000000000        3.2786575728806944E-002
   4.9588270751075775E-002  -1.7098585404437339E-003   3.6964531667131865E-002
   5.0524635846197562E-002  -3.4315927259276277E-003   4.1226730863456740E-002
   5.1461000941319342E-002  -5.1652025564516806E-003   4.5573173317781608E-002
   5.2397366036441115E-002  -6.9106880320158933E-003   5.0003859030106415E-002
   4.0730421287880347E-002   0.0000000000000000        3.1281941231463134E-002
   4.1685896983410665E-002  -1.3342693241367208E-003   3.5939945553914478E-002
   4.2641372678940977E-002  -2.7263807430189186E-003   4.0551927819182931E-002
   4.3596848374471295E-002  -4.1763342566465906E-003   4.5117888027268481E-002
   4.4552324070001599E-002  -5.6841298650197429E-003   4.9637826178171127E-002
   3.3388976831417401E-002   0.0000000000000000        3.0175879175278982E-002
   3.4233297812173366E-002  -9.5868010782970779E-004   3.5267965432151459E-002
   3.5077618792929338E-002  -2.0211687601102064E-003   4.0183764316658155E-002
   3.5921939773685310E-002  -3.1874659568415019E-003   4.4923275828799077E-002
   3.6766260754441275E-002  -4.4575716980235856E-003   4.9486499968574217E-002
   2.6627572286565149E-002   0.0000000000000000        2.9468389560254504E-002
   2.7230473237363897E-002  -5.8309089152269473E-004   3.4948591301842788E-002
   2.7833374188162650E-002  -1.3159567772014994E-003   4.0122240355882424E-002
   2.8436275138961398E-002  -2.1985976570364097E-003   4.4989336722373409E-002
   2.9039176089760151E-002  -3.2310135310274369E-003   4.9549880401315735E-002
   6.0301386653759829E-002  -8.1372461990120507E-003   5.0584598524380103E-002
   6.0602229752263474E-002  -1.0010157806185086E-002   5.1521842984023368E-002
   6.0903072850767098E-002  -1.1696632746858769E-002   5.2243224108544428E-002
   6.1203915949270757E-002  -1.3196671021033099E-002   5.2748741897943249E-002
   6.1504759047774381E-002  -1.4510272628708146E-002   5.3038396352219824E-002
   5.2397366036441115E-002  -6.9106880320158933E-003   5.0003859030106415E-002
   5.2521558719894411E-002  -8.5702235171358186E-003   5.1224401206914807E-002
   5.2645751403347700E-002  -1.0045983376327000E-002   5.2307505888744721E-002
   5.2769944086801017E-002  -1.1337967609589453E-002   5.3253173075596190E-002
   5.2894136770254299E-002  -1.2446176216923177E-002   5.4061402767469208E-002
   4.4552324070001599E-002  -5.6841298650197429E-003   4.9637826178171127E-002
   4.4578292178548327E-002  -7.1302892280865632E-003   5.1139005031574029E-002
   4.4604260287095049E-002  -8.3953340057952366E-003   5.2581172230142234E-002
   4.4630228395641763E-002  -9.4792641981457787E-003   5.3964327773875755E-002
   4.4656196504188499E-002  -1.0382079805138188E-002   5.5288471662774605E-002
   3.6766260754441275E-002  -4.4575716980235856E-003   4.9486499968574217E-002
   3.6772430128225196E-002  -5.6903549390372983E-003   5.1265654458001068E-002
   3.6778599502009117E-002  -6.7446846352634676E-003   5.3064223132736947E-002
   3.6784768875793045E-002  -7.6205607867021116E-003   5.4882205992781923E-002
   3.6790938249576959E-002  -8.3179833933532017E-003   5.6719603038135995E-002
   2.9039176089760151E-002  -3.2310135310274369E-003   4.9549880401315735E-002
   2.9103972568925038E-002  -4.2504206499880430E-003   5.1604349486195883E-002
   2.9168769048089929E-002  -5.0940352647317107E-003   5.3756658596528860E-002
   2.9233565527254823E-002  -5.7618573752584359E-003   5.6006807732314728E-002
   2.9298362006419713E-002  -6.2538869815682227E-003   5.8354796893553433E-002
   6.1504759047774381E-002  -1.4510272628708146E-002   5.3038396352219824E-002
   6.0173881516841346E-002  -1.5523608100532701E-002   5.1643318359370707E-002
   5.8843003985908332E-002  -1.6122847967155685E-002   5.0713020773448914E-002
   5.7512126454975297E-002  -1.6307992228576998E-002   5.0247503594454346E-002
   5.6181248924042276E-002  -1.6079040884796766E-002   5.0246766822386976E-002
   5.2894136770254299E-002  -1.2446176216923177E-002   5.4061402767469208E-002
   5.1974565455736324E-002  -1.3301538823207341E-002   5.3353538586248112E-002
   5.1054994141218356E-002  -1.3834985053321161E-002   5.3003506430929874E-002
   5.0135422826700402E-002  -1.4046514907264610E-002   5.3011306301514613E-002
   4.9215851512182406E-002  -1.3936128385037744E-002   5.3376938198001947E-002
   4.4656196504188499E-002  -1.0382079805138188E-002   5.5288471662774605E-002
   4.4040983025061139E-002  -1.1079469545881980E-002   5.5175642064150363E-002
   4.3425769545933801E-002  -1.1547122139486665E-002   5.5313696110404487E-002
   4.2810556066806456E-002  -1.1785037585952264E-002   5.5702633801537012E-002
   4.2195342587679111E-002  -1.1793215885278728E-002   5.6342455137548000E-002
   3.6790938249576959E-002  -8.3179833933532017E-003   5.6719603038135995E-002
   3.6373134224815813E-002  -8.8574002685566124E-003   5.7109628793077280E-002
   3.5955330200054675E-002  -9.2592592256521625E-003   5.7643589811872543E-002
   3.5537526175293536E-002  -9.5235602646398625E-003   5.8321486094521785E-002
   3.5119722150532398E-002  -9.6503033855197366E-003   5.9143317641024928E-002
   2.9298362006419713E-002  -6.2538869815682227E-003   5.8354796893553433E-002
   2.8971019055000345E-002  -6.6353309912312482E-003   5.9155498773028968E-002
   2.8643676103580970E-002  -6.9713963118176476E-003   5.9993187535334086E-002
   2.8316333152161609E-002  -7.2620829433275441E-003   6.0867863180468718E-002
   2.7988990200742241E-002  -7.5073908857607036E-003   6.1779525708432967E-002
   5.6181248924042276E-002  -1.6079040884796766E-002   5.0246766822386976E-002
   5.4657916493839970E-002  -1.5688348752471284E-002   4.9910010238651742E-002
   5.3134584063637635E-002  -1.5388270648256808E-002   4.9698246704036102E-002
   5.1611251633435329E-002  -1.5178806572153630E-002   4.9611476218540021E-002
   5.0087919203233022E-002  -1.5059956524161283E-002   4.9649698782163604E-002
   4.9215851512182406E-002  -1.3936128385037744E-002   5.3376938198001947E-002
   4.7833422142036001E-002  -1.3680004880088997E-002   5.2940451893140700E-002
   4.6450992771889604E-002  -1.3454323785866869E-002   5.2660778659271650E-002
   4.5068563401743200E-002  -1.3259085102371353E-002   5.2537918496394914E-002
   4.3686134031596782E-002  -1.3094288829602396E-002   5.2571871404510168E-002
   4.2195342587679111E-002  -1.1793215885278728E-002   5.6342455137548000E-002
   4.0985636299461212E-002  -1.1671661007706759E-002   5.5866410728945222E-002
   3.9775930011243299E-002  -1.1520376923476872E-002   5.5578999413207202E-002
   3.8566223723025400E-002  -1.1339363632589116E-002   5.5480221190334050E-002
   3.7356517434807474E-002  -1.1128621135043440E-002   5.5570076060325636E-002
   3.5119722150532398E-002  -9.6503033855197366E-003   5.9143317641024928E-002
   3.4114558966115573E-002  -9.6633171353244958E-003   5.8687886746065218E-002
   3.3109395781698775E-002  -9.5864300610868890E-003   5.8452908965842806E-002
   3.2104232597281970E-002  -9.4196421628068329E-003   5.8438384300357860E-002
   3.1099069412865138E-002  -9.1629534404845323E-003   5.8644312749610190E-002
   2.7988990200742241E-002  -7.5073908857607036E-003   6.1779525708432967E-002
   2.7220190141999112E-002  -7.6549732629422607E-003   6.1404879944500682E-002
   2.6451390083255987E-002  -7.6524831986969598E-003   6.1282507317178346E-002
   2.5682590024512862E-002  -7.4999206930246648E-003   6.1412407826465953E-002
   2.4913789965769748E-002  -7.1972857459255690E-003   6.1794581472363691E-002
   5.0087919203233022E-002  -1.5059956524161283E-002   4.9649698782163604E-002
   4.8619718772472259E-002  -1.4928484945444742E-002   4.9284771004294958E-002
   4.7151518341711496E-002  -1.4681156277168671E-002   4.9158404848559253E-002
   4.5683317910950733E-002  -1.4317970519332720E-002   4.9270600314956843E-002
   4.4215117480189997E-002  -1.3838927671937229E-002   4.9621357403487332E-002
   4.3686134031596782E-002  -1.3094288829602396E-002   5.2571871404510168E-002
   4.2448473804294722E-002  -1.2906276925093246E-002   5.2367456164697429E-002
   4.1210813576992675E-002  -1.2641391346377040E-002   5.2385559709668933E-002
   3.9973153349690593E-002  -1.2299632093453722E-002   5.2626182039424957E-002
   3.8735493122388553E-002  -1.1880999166323403E-002   5.3089323153965196E-002
   3.7356517434807474E-002  -1.1128621135043440E-002   5.5570076060325636E-002
   3.6333354573615376E-002  -1.0884068904741612E-002   5.5487189943216275E-002
   3.5310191712423278E-002  -1.0601626415585413E-002   5.5610779773542535E-002
   3.4287028851231173E-002  -1.0281293667574642E-002   5.5940845551304304E-002
   3.3263865990039082E-002  -9.9230706607095487E-003   5.6477387276501687E-002
   3.1099069412865138E-002  -9.1629534404845323E-003   5.8644312749610190E-002
   3.0274361080434249E-002  -8.8618608843900604E-003   5.8643972339851483E-002
   2.9449652748003364E-002  -8.5618614847937560E-003   5.8834065040179677E-002
   2.8624944415572465E-002  -8.2629552416956572E-003   5.9214590850594641E-002
   2.7800236083141597E-002  -7.9651421550957086E-003   5.9785549771096569E-002
   2.4913789965769748E-002  -7.1972857459255690E-003   6.1794581472363691E-002
   2.4271493324751314E-002  -6.8396528640384674E-003   6.1837803354603149E-002
   2.3629196683732902E-002  -6.5220965540021617E-003   6.2055415509580672E-002
   2.2986900042714482E-002  -6.2446168158165356E-003   6.2447417937296266E-002
   2.2344603401696070E-002  -6.0072136494818684E-003   6.3013810637749912E-002
   4.4215117480189997E-002  -1.3838927671937229E-002   4.9621357403487332E-002
   4.2113064329849931E-002  -1.3257665598541885E-002   4.8773411362815045E-002
   4.0011011179509906E-002  -1.2587822162706833E-002   4.8210055376559424E-002
   3.7908958029169840E-002  -1.1829397364431841E-002   4.7931289444720568E-002
   3.5806904878829815E-002  -1.0982391203717079E-002   4.7937113567298351E-002
   3.8735493122388553E-002  -1.1880999166323403E-002   5.3089323153965196E-002
   3.6906495456684382E-002  -1.1396752598380008E-002   5.2309307253893669E-002
   3.5077497790980239E-002  -1.0858152423017423E-002   5.1790812268677225E-002
   3.3248500125276088E-002  -1.0265198640235968E-002   5.1533838198315703E-002
   3.1419502459571938E-002  -9.6178912500351488E-003   5.1538385042809443E-002
   3.3263865990039082E-002  -9.9230706607095487E-003   5.6477387276501687E-002
   3.1684854669409242E-002  -9.5358395982180072E-003   5.5731073762009933E-002
   3.0105843348779374E-002  -9.1284826833281166E-003   5.5223212022811725E-002
   2.8526832028149533E-002  -8.7009999160397606E-003   5.4953802058907000E-002
   2.6947820707519700E-002  -8.2533912963532463E-003   5.4922843870295696E-002
   2.7800236083141597E-002  -7.9651421550957086E-003   5.9785549771096569E-002
   2.6448141968024440E-002  -7.6749265980560408E-003   5.9038710887163962E-002
   2.5096047852907279E-002  -7.3988129436387863E-003   5.8507254638963391E-002
   2.3743953737790112E-002  -7.1368011918439426E-003   5.8191181026494510E-002
   2.2391859622672962E-002  -6.8888913426713855E-003   5.8090490049757713E-002
   2.2344603401696070E-002  -6.0072136494818684E-003   6.3013810637749912E-002
   2.1196357352530032E-002  -5.8140135978940743E-003   6.2232218629355851E-002
   2.0048111303363973E-002  -5.6691432039493311E-003   6.1642940117131978E-002
   1.8899865254197925E-002  -5.5726024676477741E-003   6.1245975101078473E-002
   1.7751619205031891E-002  -5.5243913889894691E-003   6.1041323581195184E-002
   3.5806904878829815E-002  -1.0982391203717079E-002   4.7937113567298351E-002
   3.5420247492120971E-002  -1.0404945095129126E-002   4.9109957693644346E-002
   3.5033590105412141E-002  -1.0455200453234587E-002   5.0105434340887628E-002
   3.4646932718703304E-002  -1.1133157278033719E-002   5.0923543509028196E-002
   3.4260275331994466E-002  -1.2438815569526473E-002   5.1564285198066051E-002
   3.1419502459571938E-002  -9.6178912500351488E-003   5.1538385042809443E-002
   3.0906137665946062E-002  -9.1167317386438851E-003   5.2190434492680654E-002
   3.0392772872320138E-002  -8.9622215922907367E-003   5.2766436607820710E-002
   2.9879408078694238E-002  -9.1543608109758076E-003   5.3266391388229126E-002
   2.9366043285068338E-002  -9.6931493946988412E-003   5.3690298833906247E-002
   2.6947820707519700E-002  -8.2533912963532463E-003   5.4922843870295696E-002
   2.6409068651347983E-002  -7.8285183821588111E-003   5.5335150745347977E-002
   2.5870316595176305E-002  -7.4692427313469839E-003   5.5772730430039941E-002
   2.5331564539004613E-002  -7.1755643439178375E-003   5.6235582924371870E-002
   2.4792812482832917E-002  -6.9474832198713476E-003   5.6723708228343675E-002
   2.2391859622672962E-002  -6.8888913426713855E-003   5.8090490049757713E-002
   2.1929040448326779E-002  -6.5403050256737094E-003   5.8544106451646351E-002
   2.1466221273980575E-002  -5.9762638704030438E-003   5.9124315807545832E-002
   2.1003402099634364E-002  -5.1967678768599524E-003   5.9831118117456519E-002
   2.0540582925288160E-002  -4.2018170450438402E-003   6.0664513381378266E-002
   1.7751619205031891E-002  -5.5243913889894691E-003   6.1041323581195184E-002
   1.7466053056882452E-002  -5.2520916691885522E-003   6.1817301611575448E-002
   1.7180486908732980E-002  -4.4832850094593951E-003   6.2821192740337983E-002
   1.6894920760583545E-002  -3.2179714098019875E-003   6.4052996967483081E-002
   1.6609354612434082E-002  -1.4561508702163328E-003   6.5512714293010310E-002
   3.4260275331994466E-002  -1.2438815569526473E-002   5.1564285198066051E-002
   3.1170236050644173E-002  -1.3016550137144811E-002   4.9617558546654894E-002
   2.8080196769293922E-002  -1.1510735790321899E-002   4.9046926945869290E-002
   2.4990157487943650E-002  -7.9213725290569435E-003   4.9852390395709309E-002
   2.1900118206593322E-002  -2.2484603533503567E-003   5.2033948896175186E-002
   2.9366043285068338E-002  -9.6931493946988412E-003   5.3690298833906247E-002
   2.7425736358568500E-002  -9.8362841225437536E-003   5.3448963727028648E-002
   2.5485429432068635E-002  -8.8414617735941142E-003   5.4130998279226406E-002
   2.3545122505568693E-002  -6.7086823478503220E-003   5.5736402490499312E-002
   2.1604815579068959E-002  -3.4379458453119849E-003   5.8265176360847382E-002
   2.4792812482832917E-002  -6.9474832198713476E-003   5.6723708228343675E-002
   2.3549512519633130E-002  -6.6560181079425573E-003   5.7242172828352381E-002
   2.2306212556433353E-002  -6.1721877568667802E-003   5.8231281695885907E-002
   2.1062912593233521E-002  -5.4959921666438410E-003   5.9691034830944553E-002
   1.9819612630033720E-002  -4.6274313372738352E-003   6.1621432233528117E-002
   2.0540582925288160E-002  -4.2018170450438402E-003   6.0664513381378266E-002
   1.9541564533838131E-002  -3.4757520933414859E-003   6.0997185850626079E-002
   1.8542546142388049E-002  -3.5029137401392761E-003   6.1347777195848316E-002
   1.7543527750937971E-002  -4.2833019854372897E-003   6.1716287417045212E-002
   1.6544509359487935E-002  -5.8169168292355189E-003   6.2102716514216477E-002
   1.6609354612434082E-002  -1.4561508702163328E-003   6.5512714293010310E-002
   1.5401892401183434E-002  -2.9548607874019250E-004   6.4714002793849812E-002
   1.4194430189932751E-002  -8.3363972341171655E-004   6.3480484779113278E-002
   1.2986967978682099E-002  -3.0706118042308078E-003   6.1812160248801234E-002
   1.1779505767431420E-002  -7.0064023211973137E-003   5.9709029202912989E-002
   2.6627572286565149E-002   0.0000000000000000        2.9468389560254504E-002
   2.7230473237363897E-002  -5.8309089152269473E-004   3.4948591301842788E-002
   2.7833374188162650E-002  -1.3159567772014994E-003   4.0122240355882424E-002
   2.8436275138961398E-002  -2.1985976570364097E-003   4.4989336722373409E-002
   2.9039176089760151E-002  -3.2310135310274369E-003   4.9549880401315735E-002
   2.0109810576884497E-002   0.0000000000000000        2.9023711590100032E-002
   2.0445115702601217E-002  -4.3731816867169804E-004   3.4319062833002012E-002
   2.0780420828317936E-002  -9.8696758295817484E-004   3.9385775113288585E-002
   2.1115725954034652E-002  -1.6489482428594287E-003   4.4223848430959750E-002
   2.1451031079751375E-002  -2.4232601483754647E-003   4.8833282786015508E-002
   1.3499294625936364E-002   0.0000000000000000        2.8706084468525888E-002
   1.3644917651504294E-002  -2.9154544582069919E-004   3.3854028961282895E-002
   1.3790540677072227E-002  -6.5797838871484941E-004   3.8851248216357728E-002
   1.3936163702640159E-002  -1.0992988286824450E-003   4.3697742233750406E-002
   1.4081786728208092E-002  -1.6155067657234951E-003   4.8393511013460927E-002
   6.7960244337207324E-003   0.0000000000000000        2.8515508195532082E-002
   6.8298790840731283E-003  -1.4577272296970056E-004   3.3553489686685430E-002
   6.8637337344255259E-003  -3.2898919447152441E-004   3.8518659665089862E-002
   6.8975883847779236E-003  -5.4964941450546612E-004   4.3411018130745389E-002
   6.9314430351303203E-003  -8.0775338307152939E-004   4.8230565083651998E-002
   2.3761374812192315E-013   0.0000000000000000        2.8451982771118607E-002
   3.0772346476526380E-013  -1.1870365801414096E-013   3.3417445009209630E-002
   3.7783101300425947E-013  -2.2820113854127300E-013   3.8388009459485006E-002
   4.4793834440282065E-013  -3.2848029851706428E-013   4.3363676121944694E-002
   5.1804827788659580E-013  -4.1955675045279861E-013   4.8344444996588729E-002
   2.9039176089760151E-002  -3.2310135310274369E-003   4.9549880401315735E-002
   2.9103972568925038E-002  -4.2504206499880430E-003   5.1604349486195883E-002
   2.9168769048089929E-002  -5.0940352647317107E-003   5.3756658596528860E-002
   2.9233565527254823E-002  -5.7618573752584359E-003   5.6006807732314728E-002
   2.9298362006419713E-002  -6.2538869815682227E-003   5.8354796893553433E-002
   2.1451031079751375E-002  -2.4232601483754647E-003   4.8833282786015508E-002
   2.1585157798064351E-002  -3.1878154876175836E-003   5.1231961184246166E-002
   2.1719284516377335E-002  -3.8205264486970642E-003   5.3671460035320140E-002
   2.1853411234690312E-002  -4.3213930316139265E-003   5.6151779339237484E-002
   2.1987537953003296E-002  -4.6904152363681853E-003   5.8672919095998075E-002
   1.4081786728208092E-002  -1.6155067657234951E-003   4.8393511013460927E-002
   1.4228224113059636E-002  -2.1252103252471176E-003   5.1092450598987794E-002
   1.4374661497911176E-002  -2.5470176326624306E-003   5.3775191064748450E-002
   1.4521098882762718E-002  -2.8809286879694388E-003   5.6441732410742899E-002
   1.4667536267614259E-002  -3.1269434911681375E-003   5.9092074636971165E-002
   6.9314430351303203E-003  -8.0775338307152939E-004   4.8230565083651998E-002
   7.0331715139108908E-003  -1.0626051628766480E-003   5.1185817730420746E-002
   7.1348999926914604E-003  -1.2735088166277871E-003   5.4067851684813761E-002
   7.2366284714720300E-003  -1.4404643443249438E-003   5.6876666946831016E-002
   7.3383569502526030E-003  -1.5634717459680880E-003   5.9612263516472572E-002
   5.1804827788659580E-013  -4.1955675045279861E-013   4.8344444996588729E-002
   6.1811753632179389E-013  -5.0620532071610214E-013   5.1512062578545049E-002
   7.1818809579959897E-013  -5.9315313077901166E-013   5.4549441895516096E-002
   8.1825930579870754E-013  -6.8044246452625412E-013   5.7456582947501909E-002
   9.1832791371260214E-013  -7.6805922732958720E-013   6.0233485734502414E-002
   2.9298362006419713E-002  -6.2538869815682227E-003   5.8354796893553433E-002
   2.8971019055000345E-002  -6.6353309912312482E-003   5.9155498773028968E-002
   2.8643676103580970E-002  -6.9713963118176476E-003   5.9993187535334086E-002
   2.8316333152161609E-002  -7.2620829433275441E-003   6.0867863180468718E-002
   2.7988990200742241E-002  -7.5073908857607036E-003   6.1779525708432967E-002
   2.1987537953003296E-002  -4.6904152363681853E-003   5.8672919095998075E-002
   2.1708394098180026E-002  -4.9764982436346153E-003   5.9515361910212360E-002
   2.1429250243356748E-002  -5.2285472340879869E-003   6.0417216034789299E-002
   2.1150106388533478E-002  -5.4465622077284094E-003   6.1378481469728810E-002
   2.0870962533710208E-002  -5.6305431645557874E-003   6.2399158215031003E-002
   1.4667536267614259E-002  -3.1269434911681375E-003   5.9092074636971165E-002
   1.4459015936920167E-002  -3.3176654960379668E-003   5.9964913713660556E-002
   1.4250495606226071E-002  -3.4856981563583392E-003   6.0919588528245694E-002
   1.4041975275531976E-002  -3.6310414721293163E-003   6.1956099080726551E-002
   1.3833454944837882E-002  -3.7536954433508088E-003   6.3074445371103141E-002
   7.3383569502526030E-003  -1.5634717459680880E-003   5.9612263516472572E-002
   7.2228845712207692E-003  -1.6588327484413608E-003   6.0504154183373592E-002
   7.1074121921889328E-003  -1.7428490786287059E-003   6.1500305015703353E-002
   6.9919398131571015E-003  -1.8155207365302024E-003   6.2600716013461996E-002
   6.8764674341252659E-003  -1.8768477221458753E-003   6.3805387176649367E-002
   9.1832791371260214E-013  -7.6805922732958720E-013   6.0233485734502414E-002
   1.0818334075790581E-012  -8.4467849381653082E-013   6.1133083319351397E-002
   1.2453371667220381E-012  -8.9903952338321602E-013   6.2159365497162250E-002
   1.4088387574606731E-012  -9.3109070800623250E-013   6.3312332267934993E-002
   1.5723464197314740E-012  -9.4088625779420454E-013   6.4591983631669653E-002
   2.7988990200742241E-002  -7.5073908857607036E-003   6.1779525708432967E-002
   2.7220190141999112E-002  -7.6549732629422607E-003   6.1404879944500682E-002
   2.6451390083255987E-002  -7.6524831986969598E-003   6.1282507317178346E-002
   2.5682590024512862E-002  -7.4999206930246648E-003   6.1412407826465953E-002
   2.4913789965769748E-002  -7.1972857459255690E-003   6.1794581472363691E-002
   2.0870962533710208E-002  -5.6305431645557874E-003   6.2399158215031003E-002
   2.0339417331093589E-002  -5.7412299474415424E-003   6.2221327635023457E-002
   1.9807872128476969E-002  -5.7393623992571426E-003   6.2265733630658945E-002
   1.9276326925860347E-002  -5.6249405200026236E-003   6.2532376201937398E-002
   1.8744781723243724E-002  -5.3979643096777885E-003   6.3021255348858954E-002
   1.3833454944837882E-002  -3.7536954433508088E-003   6.3074445371103141E-002
   1.3509128037380802E-002  -3.8274866319408657E-003   6.3055911864663639E-002
   1.3184801129923724E-002  -3.8262415998174103E-003   6.3229578372900247E-002
   1.2860474222466641E-002  -3.7499603469804024E-003   6.3595444895812842E-002
   1.2536147315009558E-002  -3.5986428734299664E-003   6.4153511433401533E-002
   6.8764674341252659E-003  -1.8768477221458753E-003   6.3805387176649367E-002
   6.7293222608607525E-003  -1.9137433164401821E-003   6.3908632633421253E-002
   6.5821770875962452E-003  -1.9131208003776634E-003   6.4174041543902244E-002
   6.4350319143317352E-003  -1.8749801739583267E-003   6.4601613908092312E-002
   6.2878867410672244E-003  -1.7993214371821789E-003   6.5191349725991471E-002
   1.5723464197314740E-012  -9.4088625779420454E-013   6.4591983631669653E-002
   1.5334417763357422E-012  -9.3946378454390356E-013   6.4779489941296259E-002
   1.4945406023869623E-012  -9.3788865562771662E-013   6.5099123143664964E-002
   1.4556385610764444E-012  -9.3613311547002809E-013   6.5550883238775781E-002
   1.4167347850424505E-012  -9.3433594194891612E-013   6.6134770226628753E-002
   2.4913789965769748E-002  -7.1972857459255690E-003   6.1794581472363691E-002
   2.4271493324751314E-002  -6.8396528640384674E-003   6.1837803354603149E-002
   2.3629196683732902E-002  -6.5220965540021617E-003   6.2055415509580672E-002
   2.2986900042714482E-002  -6.2446168158165356E-003   6.2447417937296266E-002
   2.2344603401696070E-002  -6.0072136494818684E-003   6.3013810637749912E-002
   1.8744781723243724E-002  -5.3979643096777885E-003   6.3021255348858954E-002
   1.8273421326875219E-002  -5.1297396482677532E-003   6.2986330036926705E-002
   1.7802060930506718E-002  -4.8915724157574739E-003   6.3118886941556318E-002
   1.7330700534138210E-002  -4.6834626121468135E-003   6.3418926062747516E-002
   1.6859340137769706E-002  -4.5054102374359473E-003   6.3886447400500562E-002
   1.2536147315009558E-002  -3.5986428734299664E-003   6.4153511433401533E-002
   1.2228815107114599E-002  -3.4198264324970459E-003   6.4050458070248811E-002
   1.1921482899219633E-002  -3.2610482775127826E-003   6.4107978867481499E-002
   1.1614150691324668E-002  -3.1223084084770905E-003   6.4326073825099486E-002
   1.1306818483429699E-002  -3.0036068253900816E-003   6.4704742943102897E-002
   6.2878867410672244E-003  -1.7993214371821789E-003   6.5191349725991471E-002
   6.1376746654694236E-003  -1.7099132167263352E-003   6.5030187454569316E-002
   5.9874625898716314E-003  -1.6305241392680653E-003   6.5022691287356202E-002
   5.8372505142738323E-003  -1.5611542048073680E-003   6.5168861224351948E-002
   5.6870384386760323E-003  -1.5018034133442160E-003   6.5468697265556805E-002
   1.4167347850424505E-012  -9.3433594194891612E-013   6.6134770226628753E-002
   1.9397330963677462E-012  -9.5563834623391131E-013   6.5925518189888316E-002
   2.4627227340756619E-012  -1.0234244007811810E-012   6.5863024201180384E-002
   2.9857167085922676E-012  -1.1376229819282102E-012   6.5947288260505138E-002
   3.5087106831088732E-012  -1.2982948049966581E-012   6.6178310367862481E-002
   2.2344603401696070E-002  -6.0072136494818684E-003   6.3013810637749912E-002
   2.1196357352530032E-002  -5.8140135978940743E-003   6.2232218629355851E-002
   2.0048111303363973E-002  -5.6691432039493311E-003   6.1642940117131978E-002
   1.8899865254197925E-002  -5.5726024676477741E-003   6.1245975101078473E-002
   1.7751619205031891E-002  -5.5243913889894691E-003   6.1041323581195184E-002
   1.6859340137769706E-002  -4.5054102374359473E-003   6.3886447400500562E-002
   1.5927094588802607E-002  -4.3605101987534145E-003   6.3018995555321283E-002
   1.4994849039835518E-002  -4.2518574032279766E-003   6.2391231214369680E-002
   1.4062603490868420E-002  -4.1794518508593975E-003   6.2003154377645600E-002
   1.3130357941901316E-002  -4.1432935416482186E-003   6.1854765045149085E-002
   1.1306818483429699E-002  -3.0036068253900816E-003   6.4704742943102897E-002
   1.0637947442718843E-002  -2.9070067996127824E-003   6.3763513675624661E-002
   9.9690764020079776E-003  -2.8345716025065734E-003   6.3109345920431215E-002
   9.3002053612971196E-003  -2.7863012340712447E-003   6.2742239677522751E-002
   8.6313343205862599E-003  -2.7621956943069403E-003   6.2662194946899022E-002
   5.6870384386760323E-003  -1.5018034133442160E-003   6.5468697265556805E-002
   5.3289159142787014E-003  -1.4535034004721642E-003   6.4465772990265638E-002
   4.9707933898813662E-003  -1.4172858017852501E-003   6.3797284235316609E-002
   4.6126708654840318E-003  -1.3931506172829523E-003   6.3463231000709691E-002
   4.2545483410867018E-003  -1.3810978469657315E-003   6.3463613286445120E-002
   3.5087106831088732E-012  -1.2982948049966581E-012   6.6178310367862481E-002
   3.4821867611611879E-012  -1.3314904734329502E-012   6.5125773499244421E-002
   3.4556749822778343E-012  -1.0638712133470563E-012   6.4455046159025836E-002
   3.4291579992240528E-012  -4.9472925756077757E-013   6.4166128347206669E-002
   3.4026392814467954E-012   3.7558844923069046E-013   6.4259020063786976E-002
   1.7751619205031891E-002  -5.5243913889894691E-003   6.1041323581195184E-002
   1.7466053056882452E-002  -5.2520916691885522E-003   6.1817301611575448E-002
   1.7180486908732980E-002  -4.4832850094593951E-003   6.2821192740337983E-002
   1.6894920760583545E-002  -3.2179714098019875E-003   6.4052996967483081E-002
   1.6609354612434082E-002  -1.4561508702163328E-003   6.5512714293010310E-002
   1.3130357941901316E-002  -4.1432935416482186E-003   6.1854765045149085E-002
   1.3033574501810433E-002  -3.9390687517672773E-003   6.3148293899233515E-002
   1.2936791061719535E-002  -3.3624637573894528E-003   6.4591475071052423E-002
   1.2840007621628652E-002  -2.4134785585154771E-003   6.6184308560606045E-002
   1.2743224181537754E-002  -1.0921131551449581E-003   6.7926794367894561E-002
   8.6313343205862599E-003  -2.7621956943069403E-003   6.2662194946899022E-002
   8.6450728079062525E-003  -2.6260458343458082E-003   6.4349147889255706E-002
   8.6588112952262469E-003  -2.2416425053198366E-003   6.6107492368699144E-002
   8.6725497825462447E-003  -1.6089857072291314E-003   6.7937228385229767E-002
   8.6862882698662443E-003  -7.2807544007363889E-004   6.9838355938847518E-002
   4.2545483410867018E-003  -1.3810978469657315E-003   6.3463613286445120E-002
   4.3005479751699084E-003  -1.3130229169242696E-003   6.5419863581642090E-002
   4.3465476092531107E-003  -1.1208212532500018E-003   6.7369244633278563E-002
   4.3925472433363156E-003  -8.0449285594248136E-004   6.9311756441354427E-002
   4.4385468774195214E-003  -3.6403772500218090E-004   7.1247399005869641E-002
   3.4026392814467954E-012   3.7558844923069046E-013   6.4259020063786976E-002
   3.6013865500894582E-012   4.9696358139783570E-013   6.6360440976392876E-002
   3.8001303492851690E-012  -1.1803058530546195E-012   6.8376731864790541E-002
   3.9988776179278318E-012  -4.6561990374449636E-012   7.0307892728979859E-002
   4.1976214171235426E-012  -9.9309449552720253E-012   7.2153923568960887E-002
   1.6609354612434082E-002  -1.4561508702163328E-003   6.5512714293010310E-002
   1.5401892401183434E-002  -2.9548607874019250E-004   6.4714002793849812E-002
   1.4194430189932751E-002  -8.3363972341171655E-004   6.3480484779113278E-002
   1.2986967978682099E-002  -3.0706118042308078E-003   6.1812160248801234E-002
   1.1779505767431420E-002  -7.0064023211973137E-003   5.9709029202912989E-002
   1.2743224181537754E-002  -1.0921131551449581E-003   6.7926794367894561E-002
   1.1285123472996594E-002  -2.2161456115335487E-004   6.5634979276542910E-002
   9.8270227644554412E-003  -6.2522979041616800E-004   6.3276693706186188E-002
   8.3689220559142671E-003  -2.3029588429333107E-003   6.0851937656824284E-002
   6.9108213473731139E-003  -5.2548017187050711E-003   5.8360711128457199E-002
   8.6862882698662443E-003  -7.2807544007363889E-004   6.9838355938847518E-002
   7.3458851006051699E-003  -1.4774304356629520E-004   6.6478141868198184E-002
   6.0054819313441008E-003  -4.1681985742050842E-004   6.3419793355114440E-002
   4.6650787620830395E-003  -1.5353058816358969E-003   6.0663310399595910E-002
   3.3246755928219851E-003  -3.5032011162126064E-003   5.8208693001642831E-002
   4.4385468774195214E-003  -3.6403772500218090E-004   7.1247399005869641E-002
   3.5841772840091253E-003  -7.3871525979457564E-005   6.7243490568815720E-002
   2.7298076905987252E-003  -2.0840992442468231E-004   6.3909783725897618E-002
   1.8754380971883324E-003  -7.6765292033849700E-004   6.1246278477115459E-002
   1.0210685037779291E-003  -1.7516005137203083E-003   5.9252974822469509E-002
   4.1976214171235426E-012  -9.9309449552720253E-012   7.2153923568960887E-002
   2.3208476807035083E-011  -8.3923423765952521E-012   6.7931025378395293E-002
   4.2219328727499672E-011   8.5708662389549772E-012   6.4746664818536193E-002
   6.1230189321581641E-011   4.0959083347225089E-011   6.2600841889384001E-002
   8.0241036037875801E-011   8.8772100781397967E-011   6.1493556590938026E-002
   2.3761374812192315E-013   0.0000000000000000        2.8451982771118607E-002
   3.0772346476526380E-013  -1.1870365801414096E-013   3.3417445009209630E-002
   3.7783101300425947E-013  -2.2820113854127300E-013   3.8388009459485006E-002
   4.4793834440282065E-013  -3.2848029851706428E-013   4.3363676121944694E-002
   5.1804827788659580E-013  -4.1955675045279861E-013   4.8344444996588729E-002
  -6.7960244332557537E-003   0.0000000000000000        2.8515508195292000E-002
  -6.8298790834715756E-003   1.4577272274663659E-004   3.3553489686440896E-002
  -6.8637337336873959E-003   3.2898919404634932E-004   3.8518659664833602E-002
  -6.8975883839032179E-003   5.4964941389913993E-004   4.3411018130470110E-002
  -6.9314430341190381E-003   8.0775338230500062E-004   4.8230565083350413E-002
  -1.3499294625502128E-002   0.0000000000000000        2.8706084468058800E-002
  -1.3644917650944411E-002   2.9154544561197683E-004   3.3854028960809440E-002
  -1.3790540676386695E-002   6.5797838832089717E-004   3.8851248215863346E-002
  -1.3936163701828982E-002   1.0992988281267636E-003   4.3697742233220524E-002
  -1.4081786727271263E-002   1.6155067650295719E-003   4.8393511012880974E-002
  -2.0109810576501505E-002   0.0000000000000000        2.9023711589419007E-002
  -2.0445115702110783E-002   4.3731816847731664E-004   3.4319062832315249E-002
  -2.0780420827720063E-002   9.8696758259544199E-004   3.9385775112574239E-002
  -2.1115725953329344E-002   1.6489482423543839E-003   4.4223848430195944E-002
  -2.1451031078938622E-002   2.4232601477541344E-003   4.8833282785180412E-002
  -2.6627572286253891E-002   0.0000000000000000        2.9468389559372622E-002
  -2.7230473236970698E-002   5.8309089134265645E-004   3.4948591300958343E-002
  -2.7833374187687502E-002   1.3159567768699938E-003   4.0122240354966254E-002
  -2.8436275138404313E-002   2.1985976565820110E-003   4.4989336721396378E-002
  -2.9039176089121120E-002   3.2310135304787014E-003   4.9549880400248714E-002
   5.1804827788659580E-013  -4.1955675045279861E-013   4.8344444996588729E-002
   6.1811753632179389E-013  -5.0620532071610214E-013   5.1512062578545049E-002
   7.1818809579959897E-013  -5.9315313077901166E-013   5.4549441895516096E-002
   8.1825930579870754E-013  -6.8044246452625412E-013   5.7456582947501909E-002
   9.1832791371260214E-013  -7.6805922732958720E-013   6.0233485734502414E-002
  -6.9314430341190381E-003   8.0775338230500062E-004   4.8230565083350413E-002
  -7.0331715127012889E-003   1.0626051619537598E-003   5.1185817730060722E-002
  -7.1348999912835380E-003   1.2735088155351926E-003   5.4067851684391655E-002
  -7.2366284698657862E-003   1.4404643430493270E-003   5.6876666946343211E-002
  -7.3383569484480353E-003   1.5634717444961560E-003   5.9612263515915427E-002
  -1.4081786727271263E-002   1.6155067650295719E-003   4.8393511012880974E-002
  -1.4228224111929937E-002   2.1252103244137070E-003   5.1092450598278293E-002
  -1.4374661496588611E-002   2.5470176316635452E-003   5.3775191063902147E-002
  -1.4521098881247285E-002   2.8809286867790998E-003   5.6441732409752483E-002
  -1.4667536265905961E-002   3.1269434897603747E-003   5.9092074635829432E-002
  -2.1451031078938622E-002   2.4232601477541344E-003   4.8833282785180412E-002
  -2.1585157797067833E-002   3.1878154868736561E-003   5.1231961183197755E-002
  -2.1719284515197033E-002   3.8205264477919115E-003   5.3671460034047526E-002
  -2.1853411233326236E-002   4.3213930305088747E-003   5.6151779337729690E-002
  -2.1987537951455444E-002   4.6904152350245917E-003   5.8672919094244311E-002
  -2.9039176089121120E-002   3.2310135304787014E-003   4.9549880400248714E-002
  -2.9103972568114960E-002   4.2504206493336064E-003   5.1604349484819123E-002
  -2.9168769047108804E-002   5.0940352639202453E-003   5.3756658594827832E-002
  -2.9233565526102644E-002   5.7618573742386466E-003   5.6006807730274853E-002
  -2.9298362005096487E-002   6.2538869802888156E-003   5.8354796891160167E-002
   9.1832791371260214E-013  -7.6805922732958720E-013   6.0233485734502414E-002
   1.0818334075790581E-012  -8.4467849381653082E-013   6.1133083319351397E-002
   1.2453371667220381E-012  -8.9903952338321602E-013   6.2159365497162250E-002
   1.4088387574606731E-012  -9.3109070800623250E-013   6.3312332267934993E-002
   1.5723464197314740E-012  -9.4088625779420454E-013   6.4591983631669653E-002
  -7.3383569484480353E-003   1.5634717444961560E-003   5.9612263515915427E-002
  -7.2228845690992041E-003   1.6588327467978586E-003   6.0504154182795977E-002
  -7.1074121897503721E-003   1.7428490768766139E-003   6.1500305015085285E-002
  -6.9919398104015401E-003   1.8155207347324131E-003   6.2600716012783372E-002
  -6.8764674310527150E-003   1.8768477203653100E-003   6.3805387175890238E-002
  -1.4667536265905961E-002   3.1269434897603747E-003   5.9092074635829432E-002
  -1.4459015934924907E-002   3.3176654944404062E-003   5.9964913712496272E-002
  -1.4250495603943853E-002   3.4856981546522820E-003   6.0919588527018821E-002
  -1.4041975272962800E-002   3.6310414703960283E-003   6.1956099079397059E-002
  -1.3833454941981748E-002   3.7536954416715479E-003   6.3074445369630930E-002
  -2.1987537951455444E-002   4.6904152350245917E-003   5.8672919094244311E-002
  -2.1708394096395276E-002   4.9764982420829763E-003   5.9515361908452323E-002
  -2.1429250241335098E-002   5.2285472324279433E-003   6.0417216032962857E-002
  -2.1150106386274934E-002   5.4465622060595595E-003   6.1378481467776004E-002
  -2.0870962531214760E-002   5.6305431629778066E-003   6.2399158212891707E-002
  -2.9298362005096487E-002   6.2538869802888156E-003   5.8354796891160167E-002
  -2.8971019053510315E-002   6.6353309897254943E-003   5.9155498770664068E-002
  -2.8643676101924129E-002   6.9713963102036054E-003   5.9993187532917436E-002
  -2.8316333150337946E-002   7.2620829417231469E-003   6.0867863177920228E-002
  -2.7988990198751763E-002   7.5073908842840098E-003   6.1779525705672494E-002
   1.5723464197314740E-012  -9.4088625779420454E-013   6.4591983631669653E-002
   1.5334417763357422E-012  -9.3946378454390356E-013   6.4779489941296259E-002
   1.4945406023869623E-012  -9.3788865562771662E-013   6.5099123143664964E-002
   1.4556385610764444E-012  -9.3613311547002809E-013   6.5550883238775781E-002
   1.4167347850424505E-012  -9.3433594194891612E-013   6.6134770226628753E-002
  -6.8764674310527150E-003   1.8768477203653100E-003   6.3805387175890238E-002
  -6.7293222578348926E-003   1.9137433147081509E-003   6.3908632632548951E-002
  -6.5821770846170692E-003   1.9131207986937057E-003   6.4174041542978955E-002
  -6.4350319113992485E-003   1.8749801723221739E-003   6.4601613907180291E-002
  -6.2878867381814234E-003   1.7993214355933596E-003   6.5191349725152961E-002
  -1.3833454941981748E-002   3.7536954416715479E-003   6.3074445369630930E-002
  -1.3509128034478009E-002   3.8274866303557899E-003   6.3055911862964359E-002
  -1.3184801126974262E-002   3.8262415983254389E-003   6.3229578371098313E-002
  -1.2860474219470511E-002   3.7499603455805365E-003   6.3595444894032821E-002
  -1.2536147311966769E-002   3.5986428721210967E-003   6.4153511431767840E-002
  -2.0870962531214760E-002   5.6305431629778066E-003   6.2399158212891707E-002
  -2.0339417328395896E-002   5.7412299460033751E-003   6.2221327632542518E-002
  -1.9807872125577039E-002   5.7393623979570887E-003   6.2265733628023109E-002
  -1.9276326922758182E-002   5.6249405188389685E-003   6.2532376199333356E-002
  -1.8744781719939315E-002   5.3979643086487852E-003   6.3021255346473404E-002
  -2.7988990198751763E-002   7.5073908842840098E-003   6.1779525705672494E-002
  -2.7220190139588589E-002   7.6549732616510782E-003   6.1404879941283408E-002
  -2.6451390080425397E-002   7.6524831975887872E-003   6.1282507313753218E-002
  -2.5682590021262212E-002   7.4999206920972530E-003   6.1412407823081917E-002
  -2.4913789962099038E-002   7.1972857451765293E-003   6.1794581469269583E-002
   1.4167347850424505E-012  -9.3433594194891612E-013   6.6134770226628753E-002
   1.9397330963677462E-012  -9.5563834623391131E-013   6.5925518189888316E-002
   2.4627227340756619E-012  -1.0234244007811810E-012   6.5863024201180384E-002
   2.9857167085922676E-012  -1.1376229819282102E-012   6.5947288260505138E-002
   3.5087106831088732E-012  -1.2982948049966581E-012   6.6178310367862481E-002
  -6.2878867381814234E-003   1.7993214355933596E-003   6.5191349725152961E-002
  -6.1376746615648351E-003   1.7099132151124213E-003   6.5030187453689395E-002
  -5.9874625849482459E-003   1.6305241374839491E-003   6.5022691286380441E-002
  -5.8372505083316550E-003   1.5611542027082655E-003   6.5168861223226002E-002
  -5.6870384317150684E-003   1.5018034107851519E-003   6.5468697264226272E-002
  -1.2536147311966769E-002   3.5986428721210967E-003   6.4153511431767840E-002
  -1.2228815103134595E-002   3.4198264311802937E-003   6.4050458068480254E-002
  -1.1921482894302431E-002   3.2610482759912636E-003   6.4107978865469317E-002
  -1.1614150685470250E-002   3.1223084065540420E-003   6.4326073822734975E-002
  -1.1306818476638085E-002   3.0036068228686541E-003   6.4704742940277143E-002
  -1.8744781719939315E-002   5.3979643086487852E-003   6.3021255346473404E-002
  -1.8273421322769573E-002   5.1297396472482874E-003   6.2986330034261004E-002
  -1.7802060925599824E-002   4.8915724144986909E-003   6.3118886938447222E-002
  -1.7330700528430082E-002   4.6834626103999296E-003   6.3418926059031960E-002
  -1.6859340131260336E-002   4.5054102349521563E-003   6.3886447396015275E-002
  -2.4913789962099038E-002   7.1972857451765293E-003   6.1794581469269583E-002
  -2.4271493320469725E-002   6.8396528633162257E-003   6.1837803351031562E-002
  -2.3629196678840437E-002   6.5220965530059100E-003   6.2055415505313988E-002
  -2.2986900037211135E-002   6.2446168142457383E-003   6.2447417932117028E-002
  -2.2344603395581839E-002   6.0072136470356030E-003   6.3013810631440570E-002
   3.5087106831088732E-012  -1.2982948049966581E-012   6.6178310367862481E-002
   3.4821867611611879E-012  -1.3314904734329502E-012   6.5125773499244421E-002
   3.4556749822778343E-012  -1.0638712133470563E-012   6.4455046159025836E-002
   3.4291579992240528E-012  -4.9472925756077757E-013   6.4166128347206669E-002
   3.4026392814467954E-012   3.7558844923069046E-013   6.4259020063786976E-002
  -5.6870384317150684E-003   1.5018034107851519E-003   6.5468697264226272E-002
  -5.3289159073059717E-003   1.4535033976443706E-003   6.4465772989451539E-002
  -4.9707933828968699E-003   1.4172857992151983E-003   6.3797284235148605E-002
  -4.6126708584877723E-003   1.3931506154980684E-003   6.3463231001317427E-002
  -4.2545483340786713E-003   1.3810978464923740E-003   6.3463613287958048E-002
  -1.1306818476638085E-002   3.0036068228686541E-003   6.4704742940277143E-002
  -1.0637947435721065E-002   2.9070067966202595E-003   6.3763513673756364E-002
  -9.9690763948040353E-003   2.8345715994942677E-003   6.3109345919779833E-002
  -9.3002053538870106E-003   2.7863012314905886E-003   6.2742239678347314E-002
  -8.6313343129699929E-003   2.7621956926092150E-003   6.2662194949458794E-002
  -1.6859340131260336E-002   4.5054102349521563E-003   6.3886447396015275E-002
  -1.5927094581763078E-002   4.3605101955961900E-003   6.3018995552159077E-002
  -1.4994849032265825E-002   4.2518573997733372E-003   6.2391231212919250E-002
  -1.4062603482768573E-002   4.1794518474832475E-003   6.2003154378295913E-002
  -1.3130357933271320E-002   4.1432935387260561E-003   6.1854765048288733E-002
  -2.2344603395581839E-002   6.0072136470356030E-003   6.3013810631440570E-002
  -2.1196357345432053E-002   5.8140135945720095E-003   6.2232218624659552E-002
  -2.0048111295282237E-002   5.6691432000523095E-003   6.1642940114567141E-002
  -1.8899865245132437E-002   5.5726024634757711E-003   6.1245975101163461E-002
  -1.7751619194982644E-002   5.5243913848428972E-003   6.1041323584448470E-002
   3.4026392814467954E-012   3.7558844923069046E-013   6.4259020063786976E-002
   3.6013865500894582E-012   4.9696358139783570E-013   6.6360440976392876E-002
   3.8001303492851690E-012  -1.1803058530546195E-012   6.8376731864790541E-002
   3.9988776179278318E-012  -4.6561990374449636E-012   7.0307892728979859E-002
   4.1976214171235426E-012  -9.9309449552720253E-012   7.2153923568960887E-002
  -4.2545483340786713E-003   1.3810978464923740E-003   6.3463613287958048E-002
  -4.3005479679000258E-003   1.3130229168997476E-003   6.5419863580499893E-002
  -4.3465476017213751E-003   1.1208212514208782E-003   6.7369244629209582E-002
  -4.3925472355427191E-003   8.0449285005601556E-004   6.9311756434087490E-002
  -4.4385468693640719E-003   3.6403771280518749E-004   7.1247398995133604E-002
  -8.6313343129699929E-003   2.7621956926092150E-003   6.2662194949458794E-002
  -8.6450728004350361E-003   2.6260458333024067E-003   6.4349147887848929E-002
  -8.6588112879000898E-003   2.2416425040220206E-003   6.6107492362783626E-002
  -8.6725497753651383E-003   1.6089857047683447E-003   6.7937228374262804E-002
  -8.6862882628301868E-003   7.2807543554120890E-004   6.9838355922286433E-002
  -1.3130357933271320E-002   4.1432935387260561E-003   6.1854765048288733E-002
  -1.3033574494003674E-002   3.9390687497050728E-003   6.3148293898440094E-002
  -1.2936791054736009E-002   3.3624637566231283E-003   6.4591475065512313E-002
  -1.2840007615468354E-002   2.4134785594806720E-003   6.6184308549505383E-002
  -1.2743224176200697E-002   1.0921131582772303E-003   6.7926794350419359E-002
  -1.7751619194982644E-002   5.5243913848428972E-003   6.1041323584448470E-002
  -1.7466053048605896E-002   5.2520916661078498E-003   6.1817301612273501E-002
  -1.7180486902229140E-002   4.4832850092243054E-003   6.2821192737395753E-002
  -1.6894920755852388E-002   3.2179714141928502E-003   6.4052996959815409E-002
  -1.6609354609475629E-002   1.4561508810132517E-003   6.5512714279532314E-002
   4.1976214171235426E-012  -9.9309449552720253E-012   7.2153923568960887E-002
   2.3208476807035083E-011  -8.3923423765952521E-012   6.7931025378395293E-002
   4.2219328727499672E-011   8.5708662389549772E-012   6.4746664818536193E-002
   6.1230189321581641E-011   4.0959083347225089E-011   6.2600841889384001E-002
   8.0241036037875801E-011   8.8772100781397967E-011   6.1493556590938026E-002
  -4.4385468693640719E-003   3.6403771280518749E-004   7.1247398995133604E-002
  -3.5841772383552080E-003   7.3871514590179155E-005   6.7243490580646298E-002
  -2.7298076073463250E-003   2.0840993033242883E-004   6.3909783759448668E-002
  -1.8754379763374681E-003   7.6765296003250202E-004   6.1246278531540313E-002
  -1.0210683453285921E-003   1.7516006036900622E-003   5.9252974896921828E-002
  -8.6862882628301868E-003   7.2807543554120890E-004   6.9838355922286433E-002
  -7.3458850572403356E-003   1.4774303757250640E-004   6.6478141882410122E-002
  -6.0054818516504923E-003   4.1681985209404693E-004   6.3419793398406324E-002
  -4.6650786460606594E-003   1.5353058791060317E-003   6.0663310470275095E-002
  -3.3246754404708118E-003   3.5032011186081347E-003   5.8208693098016129E-002
  -1.2743224176200697E-002   1.0921131582772303E-003   6.7926794350419359E-002
  -1.1285123433446925E-002   2.2161456055493078E-004   6.5634979283686862E-002
  -9.8270226906931341E-003   6.2522977385563727E-004   6.3276693735409839E-002
  -8.3689219479393655E-003   2.3029587981793949E-003   6.0851937705588013E-002
  -6.9108212051855848E-003   5.2548016335261516E-003   5.8360711194221898E-002
  -1.6609354609475629E-002   1.4561508810132517E-003   6.5512714279532314E-002
  -1.5401892366974965E-002   2.9548608353735517E-004   6.4714002784476310E-002
  -1.4194430124474289E-002   8.3363969561711659E-004   6.3480484770458478E-002
  -1.2986967881973623E-002   3.0706117172530079E-003   6.1812160237479180E-002
  -1.1779505639472942E-002   7.0064021484441685E-003   5.9709029185537998E-002
  -2.6627572286253891E-002   0.0000000000000000        2.9468389559372622E-002
  -2.7230473236970698E-002   5.8309089134265645E-004   3.4948591300958343E-002
  -2.7833374187687502E-002   1.3159567768699938E-003   4.0122240354966254E-002
  -2.8436275138404313E-002   2.1985976565820110E-003   4.4989336721396378E-002
  -2.9039176089121120E-002   3.2310135304787014E-003   4.9549880400248714E-002
  -3.3388976831191408E-002   0.0000000000000000        3.0175879174227385E-002
  -3.4233297811893840E-002   9.5868010769451992E-004   3.5267965431115676E-002
  -3.5077618792596264E-002   2.0211687598596841E-003   4.0183764315610493E-002
  -3.5921939773298710E-002   3.1874659564954944E-003   4.4923275827711870E-002
  -3.6766260754001134E-002   4.4575716976019411E-003   4.9486499967419773E-002
  -4.0730421287746184E-002   0.0000000000000000        3.1281941230291016E-002
  -4.1685896983249905E-002   1.3342693240463847E-003   3.5939945552767846E-002
  -4.2641372678753627E-002   2.7263807428493754E-003   4.0551927818035551E-002
  -4.3596848374257348E-002   4.1763342564089759E-003   4.5117888026094129E-002
  -4.4552324069761069E-002   5.6841298647251834E-003   4.9637826176943581E-002
  -4.8651905655918204E-002   0.0000000000000000        3.2786575727563542E-002
  -4.9588270751038888E-002   1.7098585403982475E-003   3.6964531665914874E-002
  -5.0524635846159557E-002   3.4315927258390657E-003   4.1226730862241413E-002
  -5.1461000941280241E-002   5.1652025563224601E-003   4.5573173316543161E-002
  -5.2397366036400925E-002   6.9106880318484179E-003   5.0003859028820132E-002
  -5.7153429935707489E-002   0.0000000000000000        3.4689782666044944E-002
  -5.7940419115260780E-002   2.0854477567501129E-003   3.8341723770556738E-002
  -5.8727408294814085E-002   4.1368047088287570E-003   4.2208173448228081E-002
  -5.9514397474367389E-002   6.1540708562359443E-003   4.6289131699058961E-002
  -6.0301386653920694E-002   8.1372461989716680E-003   5.0584598523049397E-002
  -2.9039176089121120E-002   3.2310135304787014E-003   4.9549880400248714E-002
  -2.9103972568114960E-002   4.2504206493336064E-003   5.1604349484819123E-002
  -2.9168769047108804E-002   5.0940352639202453E-003   5.3756658594827832E-002
  -2.9233565526102644E-002   5.7618573742386466E-003   5.6006807730274853E-002
  -2.9298362005096487E-002   6.2538869802888156E-003   5.8354796891160167E-002
  -3.6766260754001134E-002   4.4575716976019411E-003   4.9486499967419773E-002
  -3.6772430127632455E-002   5.6903549385320549E-003   5.1265654456488695E-002
  -3.6778599501263776E-002   6.7446846346388614E-003   5.3064223130844357E-002
  -3.6784768874895089E-002   7.6205607859223595E-003   5.4882205990486752E-002
  -3.6790938248526396E-002   8.3179833923825372E-003   5.6719603035415886E-002
  -4.4552324069761069E-002   5.6841298647251834E-003   4.9637826176943581E-002
  -4.4578292178181440E-002   7.1302892277304991E-003   5.1139005029955956E-002
  -4.4604260286601798E-002   8.3953340053574705E-003   5.2581172228103504E-002
  -4.4630228395022169E-002   9.4792641976060420E-003   5.3964327771386232E-002
  -4.4656196503442519E-002   1.0382079804476269E-002   5.5288471659804106E-002
  -5.2397366036400925E-002   6.9106880318484179E-003   5.0003859028820132E-002
  -5.2521558719761906E-002   8.5702235169289424E-003   5.1224401205220899E-002
  -5.2645751403122887E-002   1.0045983376076081E-002   5.2307505886605273E-002
  -5.2769944086483875E-002   1.1337967609289727E-002   5.3253173072973246E-002
  -5.2894136769844842E-002   1.2446176216569982E-002   5.4061402764324806E-002
  -6.0301386653920694E-002   8.1372461989716680E-003   5.0584598523049397E-002
  -6.0602229752373865E-002   1.0010157806127396E-002   5.1521842982283517E-002
  -6.0903072850827022E-002   1.1696632746794673E-002   5.2243224106349677E-002
  -6.1203915949280180E-002   1.3196671020973426E-002   5.2748741895247836E-002
  -6.1504759047733365E-002   1.4510272628663730E-002   5.3038396348978049E-002
  -2.9298362005096487E-002   6.2538869802888156E-003   5.8354796891160167E-002
  -2.8971019053510315E-002   6.6353309897254943E-003   5.9155498770664068E-002
  -2.8643676101924129E-002   6.9713963102036054E-003   5.9993187532917436E-002
  -2.8316333150337946E-002   7.2620829417231469E-003   6.0867863177920228E-002
  -2.7988990198751763E-002   7.5073908842840098E-003   6.1779525705672494E-002
  -3.6790938248526396E-002   8.3179833923825372E-003   5.6719603035415886E-002
  -3.6373134223692864E-002   8.8574002674167394E-003   5.7109628790437836E-002
  -3.5955330198859360E-002   9.2592592244222106E-003   5.7643589809205004E-002
  -3.5537526174025842E-002   9.5235602633990460E-003   5.8321486091717410E-002
  -3.5119722149192303E-002   9.6503033843472197E-003   5.9143317637975069E-002
  -4.4656196503442519E-002   1.0382079804476269E-002   5.5288471659804106E-002
  -4.4040983024365883E-002   1.1079469545107927E-002   5.5175642061274011E-002
  -4.3425769545289226E-002   1.1547122138640814E-002   5.5313696107484940E-002
  -4.2810556066212584E-002   1.1785037585074987E-002   5.5702633798436881E-002
  -4.2195342587135941E-002   1.1793215884410360E-002   5.6342455134129769E-002
  -5.2894136769844842E-002   1.2446176216569982E-002   5.4061402764324806E-002
  -5.1974565455529295E-002   1.3301538822799129E-002   5.3353538583172634E-002
  -5.1054994141213762E-002   1.3834985052859378E-002   5.3003506427757217E-002
  -5.0135422826898229E-002   1.4046514906750893E-002   5.3011306298078556E-002
  -4.9215851512582676E-002   1.3936128384473508E-002   5.3376938194136796E-002
  -6.1504759047733365E-002   1.4510272628663730E-002   5.3038396348978049E-002
  -6.0173881517183142E-002   1.5523608100490353E-002   5.1643318356133651E-002
  -5.8843003986632926E-002   1.6122847967077983E-002   5.0713020770021863E-002
  -5.7512126456082710E-002   1.6307992228426844E-002   5.0247503590642610E-002
  -5.6181248925532494E-002   1.6079040884536683E-002   5.0246766817995975E-002
  -2.7988990198751763E-002   7.5073908842840098E-003   6.1779525705672494E-002
  -2.7220190139588589E-002   7.6549732616510782E-003   6.1404879941283408E-002
  -2.6451390080425397E-002   7.6524831975887872E-003   6.1282507313753218E-002
  -2.5682590021262212E-002   7.4999206920972530E-003   6.1412407823081917E-002
  -2.4913789962099038E-002   7.1972857451765293E-003   6.1794581469269583E-002
  -3.5119722149192303E-002   9.6503033843472197E-003   5.9143317637975069E-002
  -3.4114558964117657E-002   9.6633171342170518E-003   5.8687886742356803E-002
  -3.3109395779043010E-002   9.5864300599589058E-003   5.8452908961702549E-002
  -3.2104232593968364E-002   9.4196421615728582E-003   5.8438384296012308E-002
  -3.1099069408893711E-002   9.1629534390589296E-003   5.8644312745286004E-002
  -4.2195342587135941E-002   1.1793215884410360E-002   5.6342455134129769E-002
  -4.0985636298044754E-002   1.1671661006783091E-002   5.5866410724583662E-002
  -3.9775930008953582E-002   1.1520376922329083E-002   5.5578999408106691E-002
  -3.8566223719862389E-002   1.1339363631048479E-002   5.5480221184698718E-002
  -3.7356517430771223E-002   1.1128621132941219E-002   5.5570076054359832E-002
  -4.9215851512582676E-002   1.3936128384473508E-002   5.3376938194136796E-002
  -4.7833422141369875E-002   1.3680004879349056E-002   5.2940451887964167E-002
  -4.6450992770157074E-002   1.3454323784699287E-002   5.2660778652965617E-002
  -4.5068563398944272E-002   1.3259085100524063E-002   5.2537918489141265E-002
  -4.3686134027731478E-002   1.3094288826823522E-002   5.2571871396491041E-002
  -5.6181248925532494E-002   1.6079040884536683E-002   5.0246766817995975E-002
  -5.4657916494093010E-002   1.5688348751915104E-002   4.9910010232497984E-002
  -5.3134584062653506E-002   1.5388270647069394E-002   4.9698246696279313E-002
  -5.1611251631214008E-002   1.5178806569999679E-002   4.9611476209339783E-002
  -5.0087919199774511E-002   1.5059956520705881E-002   4.9649698771679601E-002
  -2.4913789962099038E-002   7.1972857451765293E-003   6.1794581469269583E-002
  -2.4271493320469725E-002   6.8396528633162257E-003   6.1837803351031562E-002
  -2.3629196678840437E-002   6.5220965530059100E-003   6.2055415505313988E-002
  -2.2986900037211135E-002   6.2446168142457383E-003   6.2447417932117028E-002
  -2.2344603395581839E-002   6.0072136470356030E-003   6.3013810631440570E-002
  -3.1099069408893711E-002   9.1629534390589296E-003   5.8644312745286004E-002
  -3.0274361075994145E-002   8.8618608826860207E-003   5.8643972334694941E-002
  -2.9449652743094547E-002   8.5618614827229628E-003   5.8834065034123917E-002
  -2.8624944410194975E-002   8.2629552391701132E-003   5.9214590843572917E-002
  -2.7800236077295388E-002   7.9651421520273158E-003   5.9785549763041929E-002
  -3.7356517430771223E-002   1.1128621132941219E-002   5.5570076054359832E-002
  -3.6333354569101854E-002   1.0884068902055621E-002   5.5487189936275771E-002
  -3.5310191707432471E-002   1.0601626412440092E-002   5.5610779765711237E-002
  -3.4287028845763116E-002   1.0281293664094486E-002   5.5940845542666165E-002
  -3.3263865984093755E-002   9.9230706570189731E-003   5.6477387267140702E-002
  -4.3686134027731478E-002   1.3094288826823522E-002   5.2571871396491041E-002
  -4.2448473799792830E-002   1.2906276921425389E-002   5.2367456155773914E-002
  -4.1210813571854223E-002   1.2641391342157127E-002   5.2385559700075836E-002
  -3.9973153343915581E-002   1.2299632089018943E-002   5.2626182029396756E-002
  -3.8735493115976939E-002   1.1880999162010686E-002   5.3089323143736641E-002
  -5.0087919199774511E-002   1.5059956520705881E-002   4.9649698771679601E-002
  -4.8619718768067130E-002   1.4928484940795017E-002   4.9284770993189481E-002
  -4.7151518336359749E-002   1.4681156271874225E-002   4.9158404837217798E-002
  -4.5683317904652368E-002   1.4317970513943222E-002   4.9270600303764643E-002
  -4.4215117472944973E-002   1.3838927667002343E-002   4.9621357392829968E-002
  -2.2344603395581839E-002   6.0072136470356030E-003   6.3013810631440570E-002
  -2.1196357345432053E-002   5.8140135945720095E-003   6.2232218624659552E-002
  -2.0048111295282237E-002   5.6691432000523095E-003   6.1642940114567141E-002
  -1.8899865245132437E-002   5.5726024634757711E-003   6.1245975101163461E-002
  -1.7751619194982644E-002   5.5243913848428972E-003   6.1041323584448470E-002
  -2.7800236077295388E-002   7.9651421520273158E-003   5.9785549763041929E-002
  -2.6448141960853357E-002   7.6749265944886791E-003   5.9038710881150563E-002
  -2.5096047844411336E-002   7.3988129397486863E-003   5.8507254635154965E-002
  -2.3743953727969308E-002   7.1368011878070840E-003   5.8191181025055050E-002
  -2.2391859611527280E-002   6.8888913386638828E-003   5.8090490050851040E-002
  -3.3263865984093755E-002   9.9230706570189731E-003   5.6477387267140702E-002
  -3.1684854662152408E-002   9.5358395944051266E-003   5.5731073754993990E-002
  -3.0105843340211109E-002   9.1284826794448895E-003   5.5223212017950059E-002
  -2.8526832018269811E-002   8.7009999121381177E-003   5.4953802056009027E-002
  -2.6947820696328489E-002   8.2533912924848407E-003   5.4922843869170776E-002
  -3.8735493115976939E-002   1.1880999162010686E-002   5.3089323143736641E-002
  -3.6906495449329280E-002   1.1396752594321713E-002   5.2309307246189637E-002
  -3.5077497782681620E-002   1.0858152419141318E-002   5.1790812262952568E-002
  -3.3248500116033967E-002   1.0265198636469373E-002   5.1533838194025308E-002
  -3.1419502449386294E-002   9.6178912463057847E-003   5.1538385039407941E-002
  -4.4215117472944973E-002   1.3838927667002343E-002   4.9621357392829968E-002
  -4.2113064322383917E-002   1.3257665594238188E-002   4.8773411354737728E-002
  -4.0011011171822826E-002   1.2587822158837428E-002   4.8210055370162291E-002
  -3.7908958021261735E-002   1.1829397360800482E-002   4.7931289439103880E-002
  -3.5806904870700679E-002   1.0982391200126784E-002   4.7937113561562383E-002
  -1.7751619194982644E-002   5.5243913848428972E-003   6.1041323584448470E-002
  -1.7466053048605896E-002   5.2520916661078498E-003   6.1817301612273501E-002
  -1.7180486902229140E-002   4.4832850092243054E-003   6.2821192737395753E-002
  -1.6894920755852388E-002   3.2179714141928502E-003   6.4052996959815409E-002
  -1.6609354609475629E-002   1.4561508810132517E-003   6.5512714279532314E-002
  -2.2391859611527280E-002   6.8888913386638828E-003   5.8090490050851040E-002
  -2.1929040439670977E-002   6.5403050226390536E-003   5.8544106451246802E-002
  -2.1466221267814698E-002   5.9762638700529003E-003   5.9124315805304334E-002
  -2.1003402095958391E-002   5.1967678809049789E-003   5.9831118113023718E-002
  -2.0540582924102116E-002   4.2018170551952894E-003   6.0664513374404705E-002
  -2.6947820696328489E-002   8.2533912924848407E-003   5.4922843869170776E-002
  -2.6409068642628184E-002   7.8285183791708124E-003   5.5335150743723846E-002
  -2.5870316588927918E-002   7.4692427308814882E-003   5.5772730428303087E-002
  -2.5331564535227627E-002   7.1755643476171058E-003   5.6235582922908589E-002
  -2.4792812481527350E-002   6.9474832293773825E-003   5.6723708227540443E-002
  -3.1419502449386294E-002   9.6178912463057847E-003   5.1538385039407941E-002
  -3.0906137657477531E-002   9.1167317357022382E-003   5.2190434489704784E-002
  -3.0392772865568782E-002   8.9622215917099964E-003   5.2766436606392152E-002
  -2.9879408073660012E-002   9.1543608143291773E-003   5.3266391389470355E-002
  -2.9366043281751245E-002   9.6931494035594479E-003   5.3690298838939263E-002
  -3.5806904870700679E-002   1.0982391200126784E-002   4.7937113561562383E-002
  -3.5420247484218972E-002   1.0404945092233830E-002   4.9109957689189410E-002
  -3.5033590097737294E-002   1.0455200452538657E-002   5.0105434339571514E-002
  -3.4646932711255615E-002   1.1133157281041441E-002   5.0923543512708849E-002
  -3.4260275324773909E-002   1.2438815577741569E-002   5.1564285208601401E-002
  -1.6609354609475629E-002   1.4561508810132517E-003   6.5512714279532314E-002
  -1.5401892366974965E-002   2.9548608353735517E-004   6.4714002784476310E-002
  -1.4194430124474289E-002   8.3363969561711659E-004   6.3480484770458478E-002
  -1.2986967881973623E-002   3.0706117172530079E-003   6.1812160237479180E-002
  -1.1779505639472942E-002   7.0064021484441685E-003   5.9709029185537998E-002
  -2.0540582924102116E-002   4.2018170551952894E-003   6.0664513374404705E-002
  -1.9541564505010038E-002   3.4757521013978054E-003   6.0997185827073724E-002
  -1.8542546085917933E-002   3.5029137279859179E-003   6.1347777151887134E-002
  -1.7543527666825848E-002   4.2833019349600363E-003   6.1716287348844934E-002
  -1.6544509247733749E-002   5.8169167223196538E-003   6.2102716417947179E-002
  -2.4792812481527350E-002   6.9474832293773825E-003   5.6723708227540443E-002
  -2.3549512494737704E-002   6.6560181192580892E-003   5.7242172798764451E-002
  -2.2306212507948116E-002   6.1721877603547193E-003   5.8231281633239138E-002
  -2.1062912521158508E-002   5.4959921526670646E-003   5.9691034730964473E-002
  -1.9819612534368859E-002   4.6274312961951392E-003   6.1621432091939987E-002
  -2.9366043281751245E-002   9.6931494035594479E-003   5.3690298838939263E-002
  -2.7425736336158038E-002   9.8362841371184562E-003   5.3448963699548456E-002
  -2.5485429390564786E-002   8.8414617927234096E-003   5.4130998214514323E-002
  -2.3545122444971610E-002   6.7086823703741486E-003   5.5736402383836932E-002
  -2.1604815499378326E-002   3.4379458700706800E-003   5.8265176207516131E-002
  -3.4260275324773909E-002   1.2438815577741569E-002   5.1564285208601401E-002
  -3.1170236029270965E-002   1.3016550154978823E-002   4.9617558529425787E-002
  -2.8080196733767993E-002   1.1510735825092225E-002   4.9046926895713078E-002
  -2.4990157438265083E-002   7.9213725880812082E-003   4.9852390307463010E-002
  -2.1900118142762104E-002   2.2484604439461098E-003   5.2033948764675930E-002
  -5.7153429935707489E-002   0.0000000000000000        3.4689782666044944E-002
  -5.7940419115260780E-002   2.0854477567501129E-003   3.8341723770556738E-002
  -5.8727408294814085E-002   4.1368047088287570E-003   4.2208173448228081E-002
  -5.9514397474367389E-002   6.1540708562359443E-003   4.6289131699058961E-002
  -6.0301386653920694E-002   8.1372461989716680E-003   5.0584598523049397E-002
  -6.5822806510325252E-002   0.0000000000000000        3.7213081240017536E-002
  -6.6624686230758484E-002   2.9144044500909643E-003   4.0833213611346036E-002
  -6.7426565951191730E-002   5.7694098226451686E-003   4.4209056327755118E-002
  -6.8228445671624963E-002   8.5650161176626313E-003   4.7340609389244760E-002
  -6.9030325392058195E-002   1.1301223335143331E-002   5.0227872795814976E-002
  -7.4247847762982683E-002   0.0000000000000000        4.0577990643763620E-002
  -7.5523416252374867E-002   3.7433611434318122E-003   4.4141006009043547E-002
  -7.6798984741766996E-002   7.4020149364615777E-003   4.7000933491325066E-002
  -7.8074553231159152E-002   1.0975961379089310E-002   4.9157773090608189E-002
  -7.9350121720551323E-002   1.4465200471314995E-002   5.0611524806892898E-002
  -8.2428553693679837E-002   0.0000000000000000        4.4784510877283197E-002
  -8.4636609180109887E-002   4.5723178367726601E-003   4.8265100963649249E-002
  -8.6844664666539922E-002   9.0346200502779903E-003   5.0583804938937944E-002
  -8.9052720152969972E-002   1.3386906640515991E-002   5.1740622803149242E-002
  -9.1260775639400021E-002   1.7629177607486661E-002   5.1735554556283155E-002
  -9.0364924302416674E-002   0.0000000000000000        4.9832641940576274E-002
  -9.3964265013963585E-002   5.4012745301135114E-003   5.3205498475163177E-002
  -9.7563605725510497E-002   1.0667225164094397E-002   5.4957670670593720E-002
 -0.10116294643705739        1.5797851901942675E-002   5.5089158526867917E-002
 -0.10476228714860431        2.0793154743658327E-002   5.3599962043985774E-002
  -6.0301386653920694E-002   8.1372461989716680E-003   5.0584598523049397E-002
  -6.0602229752373865E-002   1.0010157806127396E-002   5.1521842982283517E-002
  -6.0903072850827022E-002   1.1696632746794673E-002   5.2243224106349677E-002
  -6.1203915949280180E-002   1.3196671020973426E-002   5.2748741895247836E-002
  -6.1504759047733365E-002   1.4510272628663730E-002   5.3038396348978049E-002
  -6.9030325392058195E-002   1.1301223335143331E-002   5.0227872795814976E-002
  -6.9308358885306287E-002   1.3741827463165471E-002   4.9453810721132155E-002
  -6.9586392378554351E-002   1.5650624489807245E-002   4.8941231192027528E-002
  -6.9864425871802388E-002   1.7027614415068611E-002   4.8690134208501087E-002
  -7.0142459365050466E-002   1.7872797238949668E-002   4.8700519770552807E-002
  -7.9350121720551323E-002   1.4465200471314995E-002   5.0611524806892898E-002
  -7.9127999727848092E-002   1.7473497120203532E-002   4.7780785763401258E-002
  -7.8905877735144930E-002   1.9604616232819814E-002   4.5688875146233938E-002
  -7.8683755742441713E-002   2.0858557809163826E-002   4.4335792955390974E-002
  -7.8461633749738552E-002   2.1235321849235590E-002   4.3721539190872329E-002
  -9.1260775639400021E-002   1.7629177607486661E-002   5.1735554556283155E-002
  -9.0061152279999432E-002   2.1205166777241574E-002   4.6502768109090813E-002
  -8.8861528920598801E-002   2.3558607975832369E-002   4.2486155968968917E-002
  -8.7661905561198170E-002   2.4689501203259006E-002   3.9685718135917550E-002
  -8.6462282201797552E-002   2.4597846459521511E-002   3.8101454609936698E-002
 -0.10476228714860431        2.0793154743658327E-002   5.3599962043985774E-002
 -0.10210781654176013        2.4936836434279672E-002   4.5619757758200818E-002
  -9.9453345934915935E-002   2.7512599718844961E-002   3.9333073660232476E-002
  -9.6798875328071743E-002   2.8520444597354228E-002   3.4739909750080816E-002
  -9.4144404721227537E-002   2.7960371069807456E-002   3.1840266027745791E-002
  -6.1504759047733365E-002   1.4510272628663730E-002   5.3038396348978049E-002
  -6.0173881517183142E-002   1.5523608100490353E-002   5.1643318356133651E-002
  -5.8843003986632926E-002   1.6122847967077983E-002   5.0713020770021863E-002
  -5.7512126456082710E-002   1.6307992228426844E-002   5.0247503590642610E-002
  -5.6181248925532494E-002   1.6079040884536683E-002   5.0246766817995975E-002
  -7.0142459365050466E-002   1.7872797238949668E-002   4.8700519770552807E-002
  -6.8397105386180448E-002   1.8332229959602351E-002   4.7246769396767085E-002
  -6.6651751407310431E-002   1.8551969575178601E-002   4.6157191512888412E-002
  -6.4906397428440427E-002   1.8532016085678567E-002   4.5431786118916760E-002
  -6.3161043449570395E-002   1.8272369491102183E-002   4.5070553214852177E-002
  -7.8461633749738552E-002   2.1235321849235590E-002   4.3721539190872329E-002
  -7.6402411239374218E-002   2.1140851818714331E-002   4.2383518936307790E-002
  -7.4343188729009926E-002   2.0981091183279253E-002   4.1309063254824779E-002
  -7.2283966218645607E-002   2.0756039942930359E-002   4.0498172146423358E-002
  -7.0224743708281315E-002   2.0465698097667670E-002   3.9950845611103347E-002
  -8.6462282201797552E-002   2.4597846459521511E-002   3.8101454609936698E-002
  -8.4189799076764479E-002   2.3949473677826308E-002   3.7053566974755897E-002
  -8.1917315951731448E-002   2.3410212791379861E-002   3.6168635995831117E-002
  -7.9644832826698389E-002   2.2980063800182141E-002   3.5446661673162294E-002
  -7.7372349701665330E-002   2.2659026704233164E-002   3.4887644006749569E-002
  -9.4144404721227537E-002   2.7960371069807456E-002   3.1840266027745791E-002
  -9.1759268898351259E-002   2.6758095536938319E-002   3.1256913512111302E-002
  -8.9374133075474954E-002   2.5839334399480496E-002   3.0735909735907303E-002
  -8.6988997252598663E-002   2.5204087657433906E-002   3.0277254699133761E-002
  -8.4603861429722357E-002   2.4852355310798657E-002   2.9880948401790730E-002
  -5.6181248925532494E-002   1.6079040884536683E-002   5.0246766817995975E-002
  -5.4657916494093010E-002   1.5688348751915104E-002   4.9910010232497984E-002
  -5.3134584062653506E-002   1.5388270647069394E-002   4.9698246696279313E-002
  -5.1611251631214008E-002   1.5178806569999679E-002   4.9611476209339783E-002
  -5.0087919199774511E-002   1.5059956520705881E-002   4.9649698771679601E-002
  -6.3161043449570395E-002   1.8272369491102183E-002   4.5070553214852177E-002
  -6.1487905341776894E-002   1.7904531681585192E-002   4.4731665873241511E-002
  -5.9814767233983365E-002   1.7560004547263346E-002   4.4567396835059628E-002
  -5.8141629126189857E-002   1.7238788088136666E-002   4.4577746100306584E-002
  -5.6468491018396336E-002   1.6940882304205068E-002   4.4762713668982296E-002
  -7.0224743708281315E-002   2.0465698097667670E-002   3.9950845611103347E-002
  -6.8352174669984236E-002   2.0120714611255253E-002   3.9542524160799175E-002
  -6.6479605631687144E-002   1.9731738447457244E-002   3.9358446268073402E-002
  -6.4607036593390066E-002   1.9298769606273539E-002   3.9398611932925973E-002
  -6.2734467555092918E-002   1.8821808087704270E-002   3.9663021155356921E-002
  -7.7372349701665330E-002   2.2659026704233164E-002   3.4887644006749569E-002
  -7.5250724478715100E-002   2.2336897540925355E-002   3.4342585095171102E-002
  -7.3129099255764815E-002   2.1903472347651168E-002   3.4071394995320657E-002
  -7.1007474032814558E-002   2.1358751124410512E-002   3.4074073707198033E-002
  -6.8885848809864342E-002   2.0702733871203492E-002   3.4350621230803381E-002
  -8.4603861429722357E-002   2.4852355310798657E-002   2.9880948401790730E-002
  -8.2183554767969388E-002   2.4553080470595415E-002   2.9131848676357278E-002
  -7.9763248106216433E-002   2.4075206247845080E-002   2.8706243016801192E-002
  -7.7342941444463464E-002   2.3418732642547384E-002   2.8604131423122695E-002
  -7.4922634782710495E-002   2.2583659654702659E-002   2.8825513895321703E-002
  -5.0087919199774511E-002   1.5059956520705881E-002   4.9649698771679601E-002
  -4.8619718768067130E-002   1.4928484940795017E-002   4.9284770993189481E-002
  -4.7151518336359749E-002   1.4681156271874225E-002   4.9158404837217798E-002
  -4.5683317904652368E-002   1.4317970513943222E-002   4.9270600303764643E-002
  -4.4215117472944973E-002   1.3838927667002343E-002   4.9621357392829968E-002
  -5.6468491018396336E-002   1.6940882304205068E-002   4.4762713668982296E-002
  -5.4775167963634193E-002   1.6617462628145924E-002   4.4403844398723497E-002
  -5.3081844908872015E-002   1.6219704492636509E-002   4.4256658752055741E-002
  -5.1388521854109859E-002   1.5747607897676645E-002   4.4321156728978975E-002
  -4.9695198799347688E-002   1.5201172843266664E-002   4.4597338329493308E-002
  -6.2734467555092918E-002   1.8821808087704270E-002   3.9663021155356921E-002
  -6.0842899876203477E-002   1.8306440315496858E-002   3.9351729022889061E-002
  -5.8951332197314014E-002   1.7758252713398846E-002   3.9225242515084885E-002
  -5.7059764518424524E-002   1.7177245281410118E-002   3.9283561631944325E-002
  -5.5168196839535069E-002   1.6563418019530818E-002   3.9526686373467221E-002
  -6.8885848809864342E-002   2.0702733871203492E-002   3.4350621230803381E-002
  -6.6822914505774975E-002   1.9995418002847778E-002   3.4128424865686284E-002
  -6.4759980201685649E-002   1.9296800934161099E-002   3.4064156126305374E-002
  -6.2697045897596296E-002   1.8606882665143567E-002   3.4157815012660506E-002
  -6.0634111593506970E-002   1.7925663195795055E-002   3.4409401524751859E-002
  -7.4922634782710495E-002   2.2583659654702659E-002   2.8825513895321703E-002
  -7.2715211852348749E-002   2.1684395690198671E-002   2.8733931927115069E-002
  -7.0507788921986975E-002   2.0835349154923480E-002   2.8773399585717008E-002
  -6.8300365991625242E-002   2.0036520048876908E-002   2.8943916871127670E-002
  -6.6092943061263454E-002   1.9287908372059237E-002   2.9245483783347070E-002
  -4.4215117472944973E-002   1.3838927667002343E-002   4.9621357392829968E-002
  -4.2113064322383917E-002   1.3257665594238188E-002   4.8773411354737728E-002
  -4.0011011171822826E-002   1.2587822158837428E-002   4.8210055370162291E-002
  -3.7908958021261735E-002   1.1829397360800482E-002   4.7931289439103880E-002
  -3.5806904870700679E-002   1.0982391200126784E-002   4.7937113561562383E-002
  -4.9695198799347688E-002   1.5201172843266664E-002   4.4597338329493308E-002
  -4.7317620674208721E-002   1.4595407195601318E-002   4.3680958453829133E-002
  -4.4940042549069775E-002   1.3945318820876240E-002   4.3031038473803837E-002
  -4.2562464423930808E-002   1.3250907719091057E-002   4.2647578389417365E-002
  -4.0184886298791800E-002   1.2512173890246059E-002   4.2530578200669855E-002
  -5.5168196839535069E-002   1.6563418019530818E-002   3.9526686373467221E-002
  -5.2533223897696310E-002   1.5933148796964530E-002   3.8586131295807805E-002
  -4.9898250955857537E-002   1.5302815482914824E-002   3.7893905955909087E-002
  -4.7263278014018757E-002   1.4672418077381741E-002   3.7450010353771171E-002
  -4.4628305072180005E-002   1.4041956580365333E-002   3.7254444489394009E-002
  -6.0634111593506970E-002   1.7925663195795055E-002   3.4409401524751859E-002
  -5.7759873992846510E-002   1.7270890398327590E-002   3.3488929880673764E-002
  -5.4885636392186021E-002   1.6660312144953383E-002   3.2798657816478186E-002
  -5.2011398791525588E-002   1.6093928435672370E-002   3.2338585332165271E-002
  -4.9137161190865128E-002   1.5571739270484553E-002   3.2108712427735109E-002
  -6.6092943061263454E-002   1.9287908372059237E-002   2.9245483783347070E-002
  -6.2997570959659410E-002   1.8608631999690817E-002   2.8389354208426837E-002
  -5.9902198858055325E-002   1.8017808806992178E-002   2.7745294055510961E-002
  -5.6806826756451274E-002   1.7515438793963018E-002   2.7313303324599691E-002
  -5.3711454654847224E-002   1.7101521960603827E-002   2.7093382015693002E-002
  -3.5806904870700679E-002   1.0982391200126784E-002   4.7937113561562383E-002
  -3.5420247484218972E-002   1.0404945092233830E-002   4.9109957689189410E-002
  -3.5033590097737294E-002   1.0455200452538657E-002   5.0105434339571514E-002
  -3.4646932711255615E-002   1.1133157281041441E-002   5.0923543512708849E-002
  -3.4260275324773909E-002   1.2438815577741569E-002   5.1564285208601401E-002
  -4.0184886298791800E-002   1.2512173890246059E-002   4.2530578200669855E-002
  -3.9927691726546442E-002   1.1924519482895302E-002   4.4172981165131436E-002
  -3.9670497154301057E-002   1.1683346645592910E-002   4.5733825978365339E-002
  -3.9413302582055686E-002   1.1788655378339261E-002   4.7213112640371480E-002
  -3.9156108009810245E-002   1.2240445681133916E-002   4.8610841151149886E-002
  -4.4628305072180005E-002   1.4041956580365333E-002   3.7254444489394009E-002
  -4.4404763988153795E-002   1.3444093873556745E-002   3.9085186392540938E-002
  -4.4181222904127605E-002   1.2911492838647336E-002   4.0930179470477328E-002
  -4.3957681820101444E-002   1.2444153475637139E-002   4.2789423723203074E-002
  -4.3734140736075268E-002   1.2042075784526013E-002   4.4662919150717975E-002
  -4.9137161190865128E-002   1.5571739270484553E-002   3.2108712427735109E-002
  -4.8851464269041051E-002   1.4963668264218202E-002   3.3846573371418123E-002
  -4.8565767347217029E-002   1.4139639031701731E-002   3.5694494815907557E-002
  -4.8280070425392972E-002   1.3099651572935044E-002   3.7652476761203452E-002
  -4.7994373503568923E-002   1.1843705887918124E-002   3.9720519207305641E-002
  -5.3711454654847224E-002   1.7101521960603827E-002   2.7093382015693002E-002
  -5.3267792569208217E-002   1.6483242654879687E-002   2.8457142101762867E-002
  -5.2824130483569237E-002   1.5367785224756042E-002   3.0026772014656089E-002
  -5.2380468397930299E-002   1.3755149670232926E-002   3.1802271754372780E-002
  -5.1936806312291250E-002   1.1645335991310402E-002   3.3783641320912994E-002
  -3.4260275324773909E-002   1.2438815577741569E-002   5.1564285208601401E-002
  -3.1170236029270965E-002   1.3016550154978823E-002   4.9617558529425787E-002
  -2.8080196733767993E-002   1.1510735825092225E-002   4.9046926895713078E-002
  -2.4990157438265083E-002   7.9213725880812082E-003   4.9852390307463010E-002
  -2.1900118142762104E-002   2.2484604439461098E-003   5.2033948764675930E-002
  -3.9156108009810245E-002   1.2240445681133916E-002   4.8610841151149886E-002
  -3.4943616827914477E-002   1.2264546750208272E-002   4.5085566799369231E-002
  -3.0731125646018778E-002   1.1086787781793880E-002   4.2429101174911527E-002
  -2.6518634464123024E-002   8.7071687758906550E-003   4.0641444277776620E-002
  -2.2306143282227298E-002   5.1256897324984951E-003   3.9722596107964248E-002
  -4.3734140736075268E-002   1.2042075784526013E-002   4.4662919150717975E-002
  -3.8906483985926672E-002   1.1512543345437609E-002   4.0440785995967579E-002
  -3.4078827235778014E-002   1.0662839738495640E-002   3.6580175250400089E-002
  -2.9251170485629460E-002   9.4929649637001557E-003   3.3081086914015248E-002
  -2.4423513735480809E-002   8.0029190210509915E-003   2.9943520986813799E-002
  -4.7994373503568923E-002   1.1843705887918124E-002   3.9720519207305641E-002
  -4.3058837503307384E-002   1.0760539940667002E-002   3.5683216119220804E-002
  -3.8123301503045888E-002   1.0238891695197459E-002   3.1500149122178453E-002
  -3.3187765502784260E-002   1.0278761151509629E-002   2.7171318216179366E-002
  -2.8252229502522850E-002   1.0880148309603377E-002   2.2696723401223085E-002
  -5.1936806312291250E-002   1.1645335991310402E-002   3.3783641320912994E-002
  -4.7400677380056683E-002   1.0008536535896506E-002   3.0812857169128738E-002
  -4.2864548447822115E-002   9.8149436518992356E-003   2.7189022790247069E-002
  -3.8328419515587631E-002   1.1064557339319232E-002   2.2912138184268807E-002
  -3.3792290583352924E-002   1.3757377598155873E-002   1.7982203351193382E-002
  -9.0364924302416674E-002   0.0000000000000000        4.9832641940576274E-002
  -9.3964265013963585E-002   5.4012745301135114E-003   5.3205498475163177E-002
  -9.7563605725510497E-002   1.0667225164094397E-002   5.4957670670593720E-002
 -0.10116294643705739        1.5797851901942675E-002   5.5089158526867917E-002
 -0.10476228714860431        2.0793154743658327E-002   5.3599962043985774E-002
 -0.10329602925076285        0.0000000000000000        5.8659021716192687E-002
 -0.10683384461671817        1.0885152637800828E-002   5.2113951551030054E-002
 -0.11037165998267351        1.9172964405097283E-002   4.7312616416206939E-002
 -0.11390947534862884        2.4863435301889399E-002   4.4255016311723343E-002
 -0.11744729071458415        2.7956565328177151E-002   4.2941151237579245E-002
 -0.12646093820028800        0.0000000000000000        7.4200288086682289E-002
 -0.12657280885115588        1.6369030745488143E-002   5.5275274247398386E-002
 -0.12668467950202375        2.7678703646100179E-002   4.1458414807949859E-002
 -0.12679655015289165        3.3929018701836115E-002   3.2749709768336716E-002
 -0.12690842080375953        3.5119975912695958E-002   2.9149159128558956E-002
 -0.15985965115099210        0.0000000000000000        9.6456441052045067E-002
 -0.15318115771727672        2.1852908853175455E-002   6.2689466564268159E-002
 -0.14650266428356129        3.6184442887103069E-002   3.7395065845822494E-002
 -0.13982417084984586        4.2994602101782853E-002   2.0573238896708018E-002
 -0.13314567741613043        4.2283386497214796E-002   1.2223985716924875E-002
 -0.20349216810287521        0.0000000000000000       0.12542748061228104     
 -0.18665889121508061        2.7336786960862773E-002   7.4356528501639374E-002
 -0.16982561432728602        4.4690182128105958E-002   3.5122569529824801E-002
 -0.15299233743949142        5.2060185501729563E-002   7.7256036968373770E-003
 -0.13615906055169680        4.9446797081733607E-002  -7.8343689973229616E-003
 -0.10476228714860431        2.0793154743658327E-002   5.3599962043985774E-002
 -0.10210781654176013        2.4936836434279672E-002   4.5619757758200818E-002
  -9.9453345934915935E-002   2.7512599718844961E-002   3.9333073660232476E-002
  -9.6798875328071743E-002   2.8520444597354228E-002   3.4739909750080816E-002
  -9.4144404721227537E-002   2.7960371069807456E-002   3.1840266027745791E-002
 -0.11744729071458415        2.7956565328177151E-002   4.2941151237579245E-002
 -0.11348912943131813        2.9427391858984263E-002   3.6687398653947483E-002
 -0.10953096814805208        3.0250952269334479E-002   3.1347507235342784E-002
 -0.10557280686478604        3.0427246559227832E-002   2.6921476981765145E-002
 -0.10161464558152000        2.9956274728664266E-002   2.3409307893214566E-002
 -0.12690842080375953        3.5119975912695958E-002   2.9149159128558956E-002
 -0.12242622786686123        3.3917947283688882E-002   2.5542510532679603E-002
 -0.11794403492996294        3.2989304819823990E-002   2.2070064079037579E-002
 -0.11346184199306467        3.2334048521101423E-002   1.8731819767633121E-002
 -0.10897964905616635        3.1952178387521055E-002   1.5527777598466066E-002
 -0.13314567741613043        4.2283386497214796E-002   1.2223985716924875E-002
 -0.12891911184838947        3.8408502708393487E-002   1.2185093394396988E-002
 -0.12469254628064853        3.5727657370313595E-002   1.1500744191316867E-002
 -0.12046598071290759        3.4240850482975031E-002   1.0170938107684739E-002
 -0.11623941514516660        3.3948082046377850E-002   8.1956751435002789E-003
 -0.13615906055169680        4.9446797081733607E-002  -7.8343689973229616E-003
 -0.13296778137590282        4.2899058133098078E-002  -3.3848527609003295E-003
 -0.12977650220010883        3.8466009920803047E-002  -3.6045242781924426E-004
 -0.12658522302431488        3.6147652444848619E-002   1.2388320019200128E-003
 -0.12339394384852084        3.5943985705234660E-002   1.4130005283174984E-003
  -9.4144404721227537E-002   2.7960371069807456E-002   3.1840266027745791E-002
  -9.1759268898351259E-002   2.6758095536938319E-002   3.1256913512111302E-002
  -8.9374133075474954E-002   2.5839334399480496E-002   3.0735909735907303E-002
  -8.6988997252598663E-002   2.5204087657433906E-002   3.0277254699133761E-002
  -8.4603861429722357E-002   2.4852355310798657E-002   2.9880948401790730E-002
 -0.10161464558152000        2.9956274728664266E-002   2.3409307893214566E-002
  -9.9146566431066854E-002   2.9186507113339706E-002   2.3118381824545571E-002
  -9.6678487280613706E-002   2.8466414048949999E-002   2.2930993671599821E-002
  -9.4210408130160572E-002   2.7795995535495159E-002   2.2847143434377219E-002
  -9.1742328979707438E-002   2.7175251572975193E-002   2.2866831112877878E-002
 -0.10897964905616635        3.1952178387521055E-002   1.5527777598466066E-002
 -0.10638743740184364        3.1614918689741096E-002   1.5295438132286237E-002
 -0.10379522574752098        3.1093493698419461E-002   1.5207825758122198E-002
 -0.10120301409319830        3.0387903413556367E-002   1.5264940475974143E-002
  -9.8610802438875628E-002   2.9498147835151645E-002   1.5466782285841980E-002
 -0.11623941514516660        3.3948082046377850E-002   8.1956751435002789E-003
 -0.11348188181068167        3.4043330266142424E-002   7.7880824353331757E-003
 -0.11072434847619671        3.3720573347888944E-002   7.5664059954746177E-003
 -0.10796681514171179        3.2979811291617547E-002   7.5306458239245404E-003
 -0.10520928180722683        3.1821044097328111E-002   7.6808019206832633E-003
 -0.12339394384852084        3.5943985705234660E-002   1.4130005283174984E-003
 -0.12042989965758091        3.6471741842543828E-002   5.9631473368637611E-004
 -0.11746585546664097        3.6347652997358523E-002   6.7343836567257398E-006
 -0.11450181127570103        3.5571719169678870E-002  -3.5574052177150817E-004
 -0.11153776708476110        3.4143940359504632E-002  -4.9110998259849215E-004
  -8.4603861429722357E-002   2.4852355310798657E-002   2.9880948401790730E-002
  -8.2183554767969388E-002   2.4553080470595415E-002   2.9131848676357278E-002
  -7.9763248106216433E-002   2.4075206247845080E-002   2.8706243016801192E-002
  -7.7342941444463464E-002   2.3418732642547384E-002   2.8604131423122695E-002
  -7.4922634782710495E-002   2.2583659654702659E-002   2.8825513895321703E-002
  -9.1742328979707438E-002   2.7175251572975193E-002   2.2866831112877878E-002
  -8.9046363409044732E-002   2.6554957838158373E-002   2.2226203582255653E-002
  -8.6350397838381998E-002   2.5885890007812887E-002   2.1813399803575446E-002
  -8.3654432267719306E-002   2.5168048081938926E-002   2.1628419776837254E-002
  -8.0958466697056558E-002   2.4401432060536354E-002   2.1671263502041072E-002
  -9.8610802438875628E-002   2.9498147835151645E-002   1.5466782285841980E-002
  -9.5734848273238582E-002   2.8556835205721200E-002   1.5064452237049764E-002
  -9.2858894107601619E-002   2.7696573767780779E-002   1.4794275626263974E-002
  -8.9982939941964699E-002   2.6917363521330416E-002   1.4656252453484720E-002
  -8.7106985776327639E-002   2.6219204466370105E-002   1.4650382718712038E-002
 -0.10520928180722683        3.1821044097328111E-002   7.6808019206832633E-003
 -0.10224900936055108        3.0558712573284037E-002   7.6465946407395314E-003
  -9.9288736913875325E-002   2.9507257527748697E-002   7.6488704848667998E-003
  -9.6328464467199559E-002   2.8666678960721958E-002   7.6876294530651120E-003
  -9.3368192020523794E-002   2.8036976872203773E-002   7.7628715453344002E-003
 -0.11153776708476110        3.4143940359504632E-002  -4.9110998259849215E-004
 -0.10858884667098201        3.2560589940846985E-002  -2.7369206675009750E-005
 -0.10563992625720303        3.1317941287716505E-002   3.7718437938408234E-004
 -0.10269100584342400        3.0415994400113396E-002   7.2255077557854125E-004
  -9.9742085429644967E-002   2.9854749278037440E-002   1.0087299819085405E-003
  -7.4922634782710495E-002   2.2583659654702659E-002   2.8825513895321703E-002
  -7.2715211852348749E-002   2.1684395690198671E-002   2.8733931927115069E-002
  -7.0507788921986975E-002   2.0835349154923480E-002   2.8773399585717008E-002
  -6.8300365991625242E-002   2.0036520048876908E-002   2.8943916871127670E-002
  -6.6092943061263454E-002   1.9287908372059237E-002   2.9245483783347070E-002
  -8.0958466697056558E-002   2.4401432060536354E-002   2.1671263502041072E-002
  -7.8603688616027012E-002   2.3606248473376903E-002   2.1504228089390273E-002
  -7.6248910534997383E-002   2.2802703850232212E-002   2.1500853351266461E-002
  -7.3894132453967823E-002   2.1990798191102213E-002   2.1661139287669426E-002
  -7.1539354372938208E-002   2.1170531495986911E-002   2.1985085898599654E-002
  -8.7106985776327639E-002   2.6219204466370105E-002   1.4650382718712038E-002
  -8.4572241496911976E-002   2.5528101256555150E-002   1.4349315396403113E-002
  -8.2037497217496300E-002   2.4770058545540825E-002   1.4244519796339290E-002
  -7.9502752938080623E-002   2.3945076333327486E-002   1.4335995918520764E-002
  -7.6968008658664960E-002   2.3053154619914612E-002   1.4623743762947450E-002
  -9.3368192020523794E-002   2.8036976872203773E-002   7.7628715453344002E-003
  -9.0620870495003766E-002   2.7449954039733361E-002   7.2691938481534123E-003
  -8.7873548969483684E-002   2.6737413240849748E-002   7.0043989209355399E-003
  -8.5126227443963587E-002   2.5899354475552611E-002   6.9684867636814448E-003
  -8.2378905918443518E-002   2.4935777743842300E-002   7.1614573763907792E-003
  -9.9742085429644967E-002   2.9854749278037440E-002   1.0087299819085405E-003
  -9.6749575610302230E-002   2.9371806822911711E-002   2.6386344464107703E-004
  -9.3757065790959521E-002   2.8704767936158365E-002  -2.1950927494457373E-004
  -9.0764555971616825E-002   2.7853632617778089E-002  -4.4138817684817588E-004
  -8.7772046152274075E-002   2.6818400867769876E-002  -4.0177326107043720E-004
  -6.6092943061263454E-002   1.9287908372059237E-002   2.9245483783347070E-002
  -6.2997570959659410E-002   1.8608631999690817E-002   2.8389354208426837E-002
  -5.9902198858055325E-002   1.8017808806992178E-002   2.7745294055510961E-002
  -5.6806826756451274E-002   1.7515438793963018E-002   2.7313303324599691E-002
  -5.3711454654847224E-002   1.7101521960603827E-002   2.7093382015693002E-002
  -7.1539354372938208E-002   2.1170531495986911E-002   2.1985085898599654E-002
  -6.8217202362550744E-002   2.0378718256548661E-002   2.1238284399910684E-002
  -6.4895050352163267E-002   1.9652172964449877E-002   2.0732973296784141E-002
  -6.1572898341775768E-002   1.8990895619690459E-002   2.0469152589219927E-002
  -5.8250746331388312E-002   1.8394886222270479E-002   2.0446822277217919E-002
  -7.6968008658664960E-002   2.3053154619914612E-002   1.4623743762947450E-002
  -7.3389655765936285E-002   2.2148804513406700E-002   1.3963085108159801E-002
  -6.9811302873207637E-002   2.1286537121907902E-002   1.3573337822492045E-002
  -6.6232949980478975E-002   2.0466352445417897E-002   1.3454501905944490E-002
  -6.2654597087750327E-002   1.9688250483937048E-002   1.3606577358516878E-002
  -8.2378905918443518E-002   2.4935777743842300E-002   7.1614573763907792E-003
  -7.8514931169816018E-002   2.3918890770264559E-002   6.5637563331738570E-003
  -7.4650956421188422E-002   2.2920901279365736E-002   6.2663876326348664E-003
  -7.0786981672560825E-002   2.1941809271145560E-002   6.2693512747733953E-003
  -6.6923006923933326E-002   2.0981614745603935E-002   6.5726472595899789E-003
  -8.7772046152274075E-002   2.6818400867769876E-002  -4.0177326107043720E-004
  -8.3593028574189876E-002   2.5688977027122417E-002  -9.5970192504685192E-004
  -7.9414010996105677E-002   2.4555265436823487E-002  -1.1878772727879211E-003
  -7.5234993418021423E-002   2.3417266096872773E-002  -1.0862993042931902E-003
  -7.1055975839937280E-002   2.2274979007270268E-002  -6.5496801956310691E-004
  -5.3711454654847224E-002   1.7101521960603827E-002   2.7093382015693002E-002
  -5.3267792569208217E-002   1.6483242654879687E-002   2.8457142101762867E-002
  -5.2824130483569237E-002   1.5367785224756042E-002   3.0026772014656089E-002
  -5.2380468397930299E-002   1.3755149670232926E-002   3.1802271754372780E-002
  -5.1936806312291250E-002   1.1645335991310402E-002   3.3783641320912994E-002
  -5.8250746331388312E-002   1.8394886222270479E-002   2.0446822277217919E-002
  -5.7728731514941192E-002   1.7742416057191845E-002   2.1480822383923293E-002
  -5.7206716698494108E-002   1.6911756409456580E-002   2.2465658125421520E-002
  -5.6684701882047051E-002   1.5902907279064862E-002   2.3401329501712372E-002
  -5.6162687065599917E-002   1.4715868666016485E-002   2.4287836512796035E-002
  -6.2654597087750327E-002   1.9688250483937048E-002   1.3606577358516878E-002
  -6.2309263732525863E-002   1.9001589459503990E-002   1.4629806127600814E-002
  -6.1963930377301420E-002   1.8455727594157215E-002   1.5348836339446899E-002
  -6.1618597022076935E-002   1.8050664887896684E-002   1.5763667994054605E-002
  -6.1273263666852457E-002   1.7786401340722485E-002   1.5874301091424695E-002
  -6.6923006923933326E-002   2.0981614745603935E-002   6.5726472595899789E-003
  -6.7009389221962312E-002   2.0260762861816085E-002   7.9040933327953963E-003
  -6.7095771519991201E-002   1.9999698778857745E-002   8.6763066567319622E-003
  -6.7182153818020146E-002   2.0198422496728451E-002   8.8892872314000424E-003
  -6.7268536116049105E-002   2.0856934015428749E-002   8.5430350567990317E-003
  -7.1055975839937280E-002   2.2274979007270268E-002  -6.5496801956310691E-004
  -7.1829107983250373E-002   2.1519936264128181E-002   1.3036839995064220E-003
  -7.2602240126563466E-002   2.1543669963558248E-002   2.4480690772769043E-003
  -7.3375372269876532E-002   2.2346180105560380E-002   2.7781872137475627E-003
  -7.4148504413189653E-002   2.3927466690134680E-002   2.2940384089189525E-003
  -5.1936806312291250E-002   1.1645335991310402E-002   3.3783641320912994E-002
  -4.7400677380056683E-002   1.0008536535896506E-002   3.0812857169128738E-002
  -4.2864548447822115E-002   9.8149436518992356E-003   2.7189022790247069E-002
  -3.8328419515587631E-002   1.1064557339319232E-002   2.2912138184268807E-002
  -3.3792290583352924E-002   1.3757377598155873E-002   1.7982203351193382E-002
  -5.6162687065599917E-002   1.4715868666016485E-002   2.4287836512796035E-002
  -5.1692190902286980E-002   1.3629551673995488E-002   2.1931193619307177E-002
  -4.7221694738973925E-002   1.2922867406686023E-002   2.0096335415072220E-002
  -4.2751198575660954E-002   1.2595815864088034E-002   1.8783261900091150E-002
  -3.8280702412347933E-002   1.2648397046201465E-002   1.7991973074363621E-002
  -6.1273263666852457E-002   1.7786401340722485E-002   1.5874301091424695E-002
  -5.5693565356110225E-002   1.7250566812094748E-002   1.3068225609526044E-002
  -5.0113867045367980E-002   1.6030791161472636E-002   1.1958769733232032E-002
  -4.4534168734625734E-002   1.4127074388856806E-002   1.2545933462542607E-002
  -3.8954470423883489E-002   1.1539416494247279E-002   1.4829716797458203E-002
  -6.7268536116049105E-002   2.0856934015428749E-002   8.5430350567990317E-003
  -5.9404800741526792E-002   2.0871581950194090E-002   4.2239531397851235E-003
  -5.1541065367004493E-002   1.9138714916259559E-002   2.7763257447267677E-003
  -4.3677329992482167E-002   1.5658332913625925E-002   4.2001528716237172E-003
  -3.5813594617959840E-002   1.0430435942292815E-002   8.4954345204762832E-003
  -7.4148504413189653E-002   2.3927466690134680E-002   2.2940384089189525E-003
  -6.2825897058536473E-002   2.4492597088292878E-002  -4.6016237899152990E-003
  -5.1503289703883237E-002   2.2246638671045843E-002  -7.4509965504435116E-003
  -4.0180682349230168E-002   1.7189591438394443E-002  -6.2540798726655328E-003
  -2.8858074994576821E-002   9.3214553903386843E-003  -1.0108737565810433E-003
 </DataArray>
 </PointData>
 </Piece>
 <Piece  NumberOfPoints="          1600 "  NumberOfCells="         1024 ">
 <Points>
 <DataArray  type="Float64" NumberOfComponents="3"  format="ascii" >
  0.50000000000000000        0.0000000000000000        0.0000000000000000     
  0.53125000000000000        0.0000000000000000        0.0000000000000000     
  0.56250000000000000        0.0000000000000000        0.0000000000000000     
  0.59375000000000000        0.0000000000000000        0.0000000000000000     
  0.62500000000000000        0.0000000000000000        0.0000000000000000     
  0.50000000000000000        3.1250000000000000E-002   0.0000000000000000     
  0.53125000000000000        3.1250000000000000E-002   0.0000000000000000     
  0.56250000000000000        3.1250000000000000E-002   0.0000000000000000     
  0.59375000000000000        3.1250000000000000E-002   0.0000000000000000     
  0.62500000000000000        3.1250000000000000E-002   0.0000000000000000     
  0.50000000000000000        6.2500000000000000E-002   0.0000000000000000     
  0.53125000000000000        6.2500000000000000E-002   0.0000000000000000     
  0.56250000000000000        6.2500000000000000E-002   0.0000000000000000     
  0.59375000000000000        6.2500000000000000E-002   0.0000000000000000     
  0.62500000000000000        6.2500000000000000E-002   0.0000000000000000     
  0.50000000000000000        9.3750000000000000E-002   0.0000000000000000     
  0.53125000000000000        9.3750000000000000E-002   0.0000000000000000     
  0.56250000000000000        9.3750000000000000E-002   0.0000000000000000     
  0.59375000000000000        9.3750000000000000E-002   0.0000000000000000     
  0.62500000000000000        9.3750000000000000E-002   0.0000000000000000     
  0.50000000000000000       0.12500000000000000        0.0000000000000000     
  0.53125000000000000       0.12500000000000000        0.0000000000000000     
  0.56250000000000000       0.12500000000000000        0.0000000000000000     
  0.59375000000000000       0.12500000000000000        0.0000000000000000     
  0.62500000000000000       0.12500000000000000        0.0000000000000000     
  0.62500000000000000        0.0000000000000000        0.0000000000000000     
  0.65625000000000000        0.0000000000000000        0.0000000000000000     
  0.68750000000000000        0.0000000000000000        0.0000000000000000     
  0.71875000000000000        0.0000000000000000        0.0000000000000000     
  0.75000000000000000        0.0000000000000000        0.0000000000000000     
  0.62500000000000000        3.1250000000000000E-002   0.0000000000000000     
  0.65625000000000000        3.1250000000000000E-002   0.0000000000000000     
  0.68750000000000000        3.1250000000000000E-002   0.0000000000000000     
  0.71875000000000000        3.1250000000000000E-002   0.0000000000000000     
  0.75000000000000000        3.1250000000000000E-002   0.0000000000000000     
  0.62500000000000000        6.2500000000000000E-002   0.0000000000000000     
  0.65625000000000000        6.2500000000000000E-002   0.0000000000000000     
  0.68750000000000000        6.2500000000000000E-002   0.0000000000000000     
  0.71875000000000000        6.2500000000000000E-002   0.0000000000000000     
  0.75000000000000000        6.2500000000000000E-002   0.0000000000000000     
  0.62500000000000000        9.3750000000000000E-002   0.0000000000000000     
  0.65625000000000000        9.3750000000000000E-002   0.0000000000000000     
  0.68750000000000000        9.3750000000000000E-002   0.0000000000000000     
  0.71875000000000000        9.3750000000000000E-002   0.0000000000000000     
  0.75000000000000000        9.3750000000000000E-002   0.0000000000000000     
  0.62500000000000000       0.12500000000000000        0.0000000000000000     
  0.65625000000000000       0.12500000000000000        0.0000000000000000     
  0.68750000000000000       0.12500000000000000        0.0000000000000000     
  0.71875000000000000       0.12500000000000000        0.0000000000000000     
  0.75000000000000000       0.12500000000000000        0.0000000000000000     
  0.75000000000000000        0.0000000000000000        0.0000000000000000     
  0.78125000000000000        0.0000000000000000        0.0000000000000000     
  0.81250000000000000        0.0000000000000000        0.0000000000000000     
  0.84375000000000000        0.0000000000000000        0.0000000000000000     
  0.87500000000000000        0.0000000000000000        0.0000000000000000     
  0.75000000000000000        3.1250000000000000E-002   0.0000000000000000     
  0.78125000000000000        3.1250000000000000E-002   0.0000000000000000     
  0.81250000000000000        3.1250000000000000E-002   0.0000000000000000     
  0.84375000000000000        3.1250000000000000E-002   0.0000000000000000     
  0.87500000000000000        3.1250000000000000E-002   0.0000000000000000     
  0.75000000000000000        6.2500000000000000E-002   0.0000000000000000     
  0.78125000000000000        6.2500000000000000E-002   0.0000000000000000     
  0.81250000000000000        6.2500000000000000E-002   0.0000000000000000     
  0.84375000000000000        6.2500000000000000E-002   0.0000000000000000     
  0.87500000000000000        6.2500000000000000E-002   0.0000000000000000     
  0.75000000000000000        9.3750000000000000E-002   0.0000000000000000     
  0.78125000000000000        9.3750000000000000E-002   0.0000000000000000     
  0.81250000000000000        9.3750000000000000E-002   0.0000000000000000     
  0.84375000000000000        9.3750000000000000E-002   0.0000000000000000     
  0.87500000000000000        9.3750000000000000E-002   0.0000000000000000     
  0.75000000000000000       0.12500000000000000        0.0000000000000000     
  0.78125000000000000       0.12500000000000000        0.0000000000000000     
  0.81250000000000000       0.12500000000000000        0.0000000000000000     
  0.84375000000000000       0.12500000000000000        0.0000000000000000     
  0.87500000000000000       0.12500000000000000        0.0000000000000000     
  0.87500000000000000        0.0000000000000000        0.0000000000000000     
  0.90625000000000000        0.0000000000000000        0.0000000000000000     
  0.93750000000000000        0.0000000000000000        0.0000000000000000     
  0.96875000000000000        0.0000000000000000        0.0000000000000000     
   1.0000000000000000        0.0000000000000000        0.0000000000000000     
  0.87500000000000000        3.1250000000000000E-002   0.0000000000000000     
  0.90625000000000000        3.1250000000000000E-002   0.0000000000000000     
  0.93750000000000000        3.1250000000000000E-002   0.0000000000000000     
  0.96875000000000000        3.1250000000000000E-002   0.0000000000000000     
   1.0000000000000000        3.1250000000000000E-002   0.0000000000000000     
  0.87500000000000000        6.2500000000000000E-002   0.0000000000000000     
  0.90625000000000000        6.2500000000000000E-002   0.0000000000000000     
  0.93750000000000000        6.2500000000000000E-002   0.0000000000000000     
  0.96875000000000000        6.2500000000000000E-002   0.0000000000000000     
   1.0000000000000000        6.2500000000000000E-002   0.0000000000000000     
  0.87500000000000000        9.3750000000000000E-002   0.0000000000000000     
  0.90625000000000000        9.3750000000000000E-002   0.0000000000000000     
  0.93750000000000000        9.3750000000000000E-002   0.0000000000000000     
  0.96875000000000000        9.3750000000000000E-002   0.0000000000000000     
   1.0000000000000000        9.3750000000000000E-002   0.0000000000000000     
  0.87500000000000000       0.12500000000000000        0.0000000000000000     
  0.90625000000000000       0.12500000000000000        0.0000000000000000     
  0.93750000000000000       0.12500000000000000        0.0000000000000000     
  0.96875000000000000       0.12500000000000000        0.0000000000000000     
   1.0000000000000000       0.12500000000000000        0.0000000000000000     
   1.0000000000000000        0.0000000000000000        0.0000000000000000     
   1.0312500000000000        0.0000000000000000        0.0000000000000000     
   1.0625000000000000        0.0000000000000000        0.0000000000000000     
   1.0937500000000000        0.0000000000000000        0.0000000000000000     
   1.1250000000000000        0.0000000000000000        0.0000000000000000     
   1.0000000000000000        3.1250000000000000E-002   0.0000000000000000     
   1.0312500000000000        3.1250000000000000E-002   0.0000000000000000     
   1.0625000000000000        3.1250000000000000E-002   0.0000000000000000     
   1.0937500000000000        3.1250000000000000E-002   0.0000000000000000     
   1.1250000000000000        3.1250000000000000E-002   0.0000000000000000     
   1.0000000000000000        6.2500000000000000E-002   0.0000000000000000     
   1.0312500000000000        6.2500000000000000E-002   0.0000000000000000     
   1.0625000000000000        6.2500000000000000E-002   0.0000000000000000     
   1.0937500000000000        6.2500000000000000E-002   0.0000000000000000     
   1.1250000000000000        6.2500000000000000E-002   0.0000000000000000     
   1.0000000000000000        9.3750000000000000E-002   0.0000000000000000     
   1.0312500000000000        9.3750000000000000E-002   0.0000000000000000     
   1.0625000000000000        9.3750000000000000E-002   0.0000000000000000     
   1.0937500000000000        9.3750000000000000E-002   0.0000000000000000     
   1.1250000000000000        9.3750000000000000E-002   0.0000000000000000     
   1.0000000000000000       0.12500000000000000        0.0000000000000000     
   1.0312500000000000       0.12500000000000000        0.0000000000000000     
   1.0625000000000000       0.12500000000000000        0.0000000000000000     
   1.0937500000000000       0.12500000000000000        0.0000000000000000     
   1.1250000000000000       0.12500000000000000        0.0000000000000000     
   1.1250000000000000        0.0000000000000000        0.0000000000000000     
   1.1562500000000000        0.0000000000000000        0.0000000000000000     
   1.1875000000000000        0.0000000000000000        0.0000000000000000     
   1.2187500000000000        0.0000000000000000        0.0000000000000000     
   1.2500000000000000        0.0000000000000000        0.0000000000000000     
   1.1250000000000000        3.1250000000000000E-002   0.0000000000000000     
   1.1562500000000000        3.1250000000000000E-002   0.0000000000000000     
   1.1875000000000000        3.1250000000000000E-002   0.0000000000000000     
   1.2187500000000000        3.1250000000000000E-002   0.0000000000000000     
   1.2500000000000000        3.1250000000000000E-002   0.0000000000000000     
   1.1250000000000000        6.2500000000000000E-002   0.0000000000000000     
   1.1562500000000000        6.2500000000000000E-002   0.0000000000000000     
   1.1875000000000000        6.2500000000000000E-002   0.0000000000000000     
   1.2187500000000000        6.2500000000000000E-002   0.0000000000000000     
   1.2500000000000000        6.2500000000000000E-002   0.0000000000000000     
   1.1250000000000000        9.3750000000000000E-002   0.0000000000000000     
   1.1562500000000000        9.3750000000000000E-002   0.0000000000000000     
   1.1875000000000000        9.3750000000000000E-002   0.0000000000000000     
   1.2187500000000000        9.3750000000000000E-002   0.0000000000000000     
   1.2500000000000000        9.3750000000000000E-002   0.0000000000000000     
   1.1250000000000000       0.12500000000000000        0.0000000000000000     
   1.1562500000000000       0.12500000000000000        0.0000000000000000     
   1.1875000000000000       0.12500000000000000        0.0000000000000000     
   1.2187500000000000       0.12500000000000000        0.0000000000000000     
   1.2500000000000000       0.12500000000000000        0.0000000000000000     
   1.2500000000000000        0.0000000000000000        0.0000000000000000     
   1.2812500000000000        0.0000000000000000        0.0000000000000000     
   1.3125000000000000        0.0000000000000000        0.0000000000000000     
   1.3437500000000000        0.0000000000000000        0.0000000000000000     
   1.3750000000000000        0.0000000000000000        0.0000000000000000     
   1.2500000000000000        3.1250000000000000E-002   0.0000000000000000     
   1.2812500000000000        3.1250000000000000E-002   0.0000000000000000     
   1.3125000000000000        3.1250000000000000E-002   0.0000000000000000     
   1.3437500000000000        3.1250000000000000E-002   0.0000000000000000     
   1.3750000000000000        3.1250000000000000E-002   0.0000000000000000     
   1.2500000000000000        6.2500000000000000E-002   0.0000000000000000     
   1.2812500000000000        6.2500000000000000E-002   0.0000000000000000     
   1.3125000000000000        6.2500000000000000E-002   0.0000000000000000     
   1.3437500000000000        6.2500000000000000E-002   0.0000000000000000     
   1.3750000000000000        6.2500000000000000E-002   0.0000000000000000     
   1.2500000000000000        9.3750000000000000E-002   0.0000000000000000     
   1.2812500000000000        9.3750000000000000E-002   0.0000000000000000     
   1.3125000000000000        9.3750000000000000E-002   0.0000000000000000     
   1.3437500000000000        9.3750000000000000E-002   0.0000000000000000     
   1.3750000000000000        9.3750000000000000E-002   0.0000000000000000     
   1.2500000000000000       0.12500000000000000        0.0000000000000000     
   1.2812500000000000       0.12500000000000000        0.0000000000000000     
   1.3125000000000000       0.12500000000000000        0.0000000000000000     
   1.3437500000000000       0.12500000000000000        0.0000000000000000     
   1.3750000000000000       0.12500000000000000        0.0000000000000000     
   1.3750000000000000        0.0000000000000000        0.0000000000000000     
   1.4062500000000000        0.0000000000000000        0.0000000000000000     
   1.4375000000000000        0.0000000000000000        0.0000000000000000     
   1.4687500000000000        0.0000000000000000        0.0000000000000000     
   1.5000000000000000        0.0000000000000000        0.0000000000000000     
   1.3750000000000000        3.1250000000000000E-002   0.0000000000000000     
   1.4062500000000000        3.1250000000000000E-002   0.0000000000000000     
   1.4375000000000000        3.1250000000000000E-002   0.0000000000000000     
   1.4687500000000000        3.1250000000000000E-002   0.0000000000000000     
   1.5000000000000000        3.1250000000000000E-002   0.0000000000000000     
   1.3750000000000000        6.2500000000000000E-002   0.0000000000000000     
   1.4062500000000000        6.2500000000000000E-002   0.0000000000000000     
   1.4375000000000000        6.2500000000000000E-002   0.0000000000000000     
   1.4687500000000000        6.2500000000000000E-002   0.0000000000000000     
   1.5000000000000000        6.2500000000000000E-002   0.0000000000000000     
   1.3750000000000000        9.3750000000000000E-002   0.0000000000000000     
   1.4062500000000000        9.3750000000000000E-002   0.0000000000000000     
   1.4375000000000000        9.3750000000000000E-002   0.0000000000000000     
   1.4687500000000000        9.3750000000000000E-002   0.0000000000000000     
   1.5000000000000000        9.3750000000000000E-002   0.0000000000000000     
   1.3750000000000000       0.12500000000000000        0.0000000000000000     
   1.4062500000000000       0.12500000000000000        0.0000000000000000     
   1.4375000000000000       0.12500000000000000        0.0000000000000000     
   1.4687500000000000       0.12500000000000000        0.0000000000000000     
   1.5000000000000000       0.12500000000000000        0.0000000000000000     
  0.50000000000000000       0.12500000000000000        0.0000000000000000     
  0.53125000000000000       0.12500000000000000        0.0000000000000000     
  0.56250000000000000       0.12500000000000000        0.0000000000000000     
  0.59375000000000000       0.12500000000000000        0.0000000000000000     
  0.62500000000000000       0.12500000000000000        0.0000000000000000     
  0.50000000000000000       0.15625000000000000        0.0000000000000000     
  0.53125000000000000       0.15625000000000000        0.0000000000000000     
  0.56250000000000000       0.15625000000000000        0.0000000000000000     
  0.59375000000000000       0.15625000000000000        0.0000000000000000     
  0.62500000000000000       0.15625000000000000        0.0000000000000000     
  0.50000000000000000       0.18750000000000000        0.0000000000000000     
  0.53125000000000000       0.18750000000000000        0.0000000000000000     
  0.56250000000000000       0.18750000000000000        0.0000000000000000     
  0.59375000000000000       0.18750000000000000        0.0000000000000000     
  0.62500000000000000       0.18750000000000000        0.0000000000000000     
  0.50000000000000000       0.21875000000000000        0.0000000000000000     
  0.53125000000000000       0.21875000000000000        0.0000000000000000     
  0.56250000000000000       0.21875000000000000        0.0000000000000000     
  0.59375000000000000       0.21875000000000000        0.0000000000000000     
  0.62500000000000000       0.21875000000000000        0.0000000000000000     
  0.50000000000000000       0.25000000000000000        0.0000000000000000     
  0.53125000000000000       0.25000000000000000        0.0000000000000000     
  0.56250000000000000       0.25000000000000000        0.0000000000000000     
  0.59375000000000000       0.25000000000000000        0.0000000000000000     
  0.62500000000000000       0.25000000000000000        0.0000000000000000     
  0.62500000000000000       0.12500000000000000        0.0000000000000000     
  0.65625000000000000       0.12500000000000000        0.0000000000000000     
  0.68750000000000000       0.12500000000000000        0.0000000000000000     
  0.71875000000000000       0.12500000000000000        0.0000000000000000     
  0.75000000000000000       0.12500000000000000        0.0000000000000000     
  0.62500000000000000       0.15625000000000000        0.0000000000000000     
  0.65625000000000000       0.15625000000000000        0.0000000000000000     
  0.68750000000000000       0.15625000000000000        0.0000000000000000     
  0.71875000000000000       0.15625000000000000        0.0000000000000000     
  0.75000000000000000       0.15625000000000000        0.0000000000000000     
  0.62500000000000000       0.18750000000000000        0.0000000000000000     
  0.65625000000000000       0.18750000000000000        0.0000000000000000     
  0.68750000000000000       0.18750000000000000        0.0000000000000000     
  0.71875000000000000       0.18750000000000000        0.0000000000000000     
  0.75000000000000000       0.18750000000000000        0.0000000000000000     
  0.62500000000000000       0.21875000000000000        0.0000000000000000     
  0.65625000000000000       0.21875000000000000        0.0000000000000000     
  0.68750000000000000       0.21875000000000000        0.0000000000000000     
  0.71875000000000000       0.21875000000000000        0.0000000000000000     
  0.75000000000000000       0.21875000000000000        0.0000000000000000     
  0.62500000000000000       0.25000000000000000        0.0000000000000000     
  0.65625000000000000       0.25000000000000000        0.0000000000000000     
  0.68750000000000000       0.25000000000000000        0.0000000000000000     
  0.71875000000000000       0.25000000000000000        0.0000000000000000     
  0.75000000000000000       0.25000000000000000        0.0000000000000000     
  0.75000000000000000       0.12500000000000000        0.0000000000000000     
  0.78125000000000000       0.12500000000000000        0.0000000000000000     
  0.81250000000000000       0.12500000000000000        0.0000000000000000     
  0.84375000000000000       0.12500000000000000        0.0000000000000000     
  0.87500000000000000       0.12500000000000000        0.0000000000000000     
  0.75000000000000000       0.15625000000000000        0.0000000000000000     
  0.78125000000000000       0.15625000000000000        0.0000000000000000     
  0.81250000000000000       0.15625000000000000        0.0000000000000000     
  0.84375000000000000       0.15625000000000000        0.0000000000000000     
  0.87500000000000000       0.15625000000000000        0.0000000000000000     
  0.75000000000000000       0.18750000000000000        0.0000000000000000     
  0.78125000000000000       0.18750000000000000        0.0000000000000000     
  0.81250000000000000       0.18750000000000000        0.0000000000000000     
  0.84375000000000000       0.18750000000000000        0.0000000000000000     
  0.87500000000000000       0.18750000000000000        0.0000000000000000     
  0.75000000000000000       0.21875000000000000        0.0000000000000000     
  0.78125000000000000       0.21875000000000000        0.0000000000000000     
  0.81250000000000000       0.21875000000000000        0.0000000000000000     
  0.84375000000000000       0.21875000000000000        0.0000000000000000     
  0.87500000000000000       0.21875000000000000        0.0000000000000000     
  0.75000000000000000       0.25000000000000000        0.0000000000000000     
  0.78125000000000000       0.25000000000000000        0.0000000000000000     
  0.81250000000000000       0.25000000000000000        0.0000000000000000     
  0.84375000000000000       0.25000000000000000        0.0000000000000000     
  0.87500000000000000       0.25000000000000000        0.0000000000000000     
  0.87500000000000000       0.12500000000000000        0.0000000000000000     
  0.90625000000000000       0.12500000000000000        0.0000000000000000     
  0.93750000000000000       0.12500000000000000        0.0000000000000000     
  0.96875000000000000       0.12500000000000000        0.0000000000000000     
   1.0000000000000000       0.12500000000000000        0.0000000000000000     
  0.87500000000000000       0.15625000000000000        0.0000000000000000     
  0.90625000000000000       0.15625000000000000        0.0000000000000000     
  0.93750000000000000       0.15625000000000000        0.0000000000000000     
  0.96875000000000000       0.15625000000000000        0.0000000000000000     
   1.0000000000000000       0.15625000000000000        0.0000000000000000     
  0.87500000000000000       0.18750000000000000        0.0000000000000000     
  0.90625000000000000       0.18750000000000000        0.0000000000000000     
  0.93750000000000000       0.18750000000000000        0.0000000000000000     
  0.96875000000000000       0.18750000000000000        0.0000000000000000     
   1.0000000000000000       0.18750000000000000        0.0000000000000000     
  0.87500000000000000       0.21875000000000000        0.0000000000000000     
  0.90625000000000000       0.21875000000000000        0.0000000000000000     
  0.93750000000000000       0.21875000000000000        0.0000000000000000     
  0.96875000000000000       0.21875000000000000        0.0000000000000000     
   1.0000000000000000       0.21875000000000000        0.0000000000000000     
  0.87500000000000000       0.25000000000000000        0.0000000000000000     
  0.90625000000000000       0.25000000000000000        0.0000000000000000     
  0.93750000000000000       0.25000000000000000        0.0000000000000000     
  0.96875000000000000       0.25000000000000000        0.0000000000000000     
   1.0000000000000000       0.25000000000000000        0.0000000000000000     
   1.0000000000000000       0.12500000000000000        0.0000000000000000     
   1.0312500000000000       0.12500000000000000        0.0000000000000000     
   1.0625000000000000       0.12500000000000000        0.0000000000000000     
   1.0937500000000000       0.12500000000000000        0.0000000000000000     
   1.1250000000000000       0.12500000000000000        0.0000000000000000     
   1.0000000000000000       0.15625000000000000        0.0000000000000000     
   1.0312500000000000       0.15625000000000000        0.0000000000000000     
   1.0625000000000000       0.15625000000000000        0.0000000000000000     
   1.0937500000000000       0.15625000000000000        0.0000000000000000     
   1.1250000000000000       0.15625000000000000        0.0000000000000000     
   1.0000000000000000       0.18750000000000000        0.0000000000000000     
   1.0312500000000000       0.18750000000000000        0.0000000000000000     
   1.0625000000000000       0.18750000000000000        0.0000000000000000     
   1.0937500000000000       0.18750000000000000        0.0000000000000000     
   1.1250000000000000       0.18750000000000000        0.0000000000000000     
   1.0000000000000000       0.21875000000000000        0.0000000000000000     
   1.0312500000000000       0.21875000000000000        0.0000000000000000     
   1.0625000000000000       0.21875000000000000        0.0000000000000000     
   1.0937500000000000       0.21875000000000000        0.0000000000000000     
   1.1250000000000000       0.21875000000000000        0.0000000000000000     
   1.0000000000000000       0.25000000000000000        0.0000000000000000     
   1.0312500000000000       0.25000000000000000        0.0000000000000000     
   1.0625000000000000       0.25000000000000000        0.0000000000000000     
   1.0937500000000000       0.25000000000000000        0.0000000000000000     
   1.1250000000000000       0.25000000000000000        0.0000000000000000     
   1.1250000000000000       0.12500000000000000        0.0000000000000000     
   1.1562500000000000       0.12500000000000000        0.0000000000000000     
   1.1875000000000000       0.12500000000000000        0.0000000000000000     
   1.2187500000000000       0.12500000000000000        0.0000000000000000     
   1.2500000000000000       0.12500000000000000        0.0000000000000000     
   1.1250000000000000       0.15625000000000000        0.0000000000000000     
   1.1562500000000000       0.15625000000000000        0.0000000000000000     
   1.1875000000000000       0.15625000000000000        0.0000000000000000     
   1.2187500000000000       0.15625000000000000        0.0000000000000000     
   1.2500000000000000       0.15625000000000000        0.0000000000000000     
   1.1250000000000000       0.18750000000000000        0.0000000000000000     
   1.1562500000000000       0.18750000000000000        0.0000000000000000     
   1.1875000000000000       0.18750000000000000        0.0000000000000000     
   1.2187500000000000       0.18750000000000000        0.0000000000000000     
   1.2500000000000000       0.18750000000000000        0.0000000000000000     
   1.1250000000000000       0.21875000000000000        0.0000000000000000     
   1.1562500000000000       0.21875000000000000        0.0000000000000000     
   1.1875000000000000       0.21875000000000000        0.0000000000000000     
   1.2187500000000000       0.21875000000000000        0.0000000000000000     
   1.2500000000000000       0.21875000000000000        0.0000000000000000     
   1.1250000000000000       0.25000000000000000        0.0000000000000000     
   1.1562500000000000       0.25000000000000000        0.0000000000000000     
   1.1875000000000000       0.25000000000000000        0.0000000000000000     
   1.2187500000000000       0.25000000000000000        0.0000000000000000     
   1.2500000000000000       0.25000000000000000        0.0000000000000000     
   1.2500000000000000       0.12500000000000000        0.0000000000000000     
   1.2812500000000000       0.12500000000000000        0.0000000000000000     
   1.3125000000000000       0.12500000000000000        0.0000000000000000     
   1.3437500000000000       0.12500000000000000        0.0000000000000000     
   1.3750000000000000       0.12500000000000000        0.0000000000000000     
   1.2500000000000000       0.15625000000000000        0.0000000000000000     
   1.2812500000000000       0.15625000000000000        0.0000000000000000     
   1.3125000000000000       0.15625000000000000        0.0000000000000000     
   1.3437500000000000       0.15625000000000000        0.0000000000000000     
   1.3750000000000000       0.15625000000000000        0.0000000000000000     
   1.2500000000000000       0.18750000000000000        0.0000000000000000     
   1.2812500000000000       0.18750000000000000        0.0000000000000000     
   1.3125000000000000       0.18750000000000000        0.0000000000000000     
   1.3437500000000000       0.18750000000000000        0.0000000000000000     
   1.3750000000000000       0.18750000000000000        0.0000000000000000     
   1.2500000000000000       0.21875000000000000        0.0000000000000000     
   1.2812500000000000       0.21875000000000000        0.0000000000000000     
   1.3125000000000000       0.21875000000000000        0.0000000000000000     
   1.3437500000000000       0.21875000000000000        0.0000000000000000     
   1.3750000000000000       0.21875000000000000        0.0000000000000000     
   1.2500000000000000       0.25000000000000000        0.0000000000000000     
   1.2812500000000000       0.25000000000000000        0.0000000000000000     
   1.3125000000000000       0.25000000000000000        0.0000000000000000     
   1.3437500000000000       0.25000000000000000        0.0000000000000000     
   1.3750000000000000       0.25000000000000000        0.0000000000000000     
   1.3750000000000000       0.12500000000000000        0.0000000000000000     
   1.4062500000000000       0.12500000000000000        0.0000000000000000     
   1.4375000000000000       0.12500000000000000        0.0000000000000000     
   1.4687500000000000       0.12500000000000000        0.0000000000000000     
   1.5000000000000000       0.12500000000000000        0.0000000000000000     
   1.3750000000000000       0.15625000000000000        0.0000000000000000     
   1.4062500000000000       0.15625000000000000        0.0000000000000000     
   1.4375000000000000       0.15625000000000000        0.0000000000000000     
   1.4687500000000000       0.15625000000000000        0.0000000000000000     
   1.5000000000000000       0.15625000000000000        0.0000000000000000     
   1.3750000000000000       0.18750000000000000        0.0000000000000000     
   1.4062500000000000       0.18750000000000000        0.0000000000000000     
   1.4375000000000000       0.18750000000000000        0.0000000000000000     
   1.4687500000000000       0.18750000000000000        0.0000000000000000     
   1.5000000000000000       0.18750000000000000        0.0000000000000000     
   1.3750000000000000       0.21875000000000000        0.0000000000000000     
   1.4062500000000000       0.21875000000000000        0.0000000000000000     
   1.4375000000000000       0.21875000000000000        0.0000000000000000     
   1.4687500000000000       0.21875000000000000        0.0000000000000000     
   1.5000000000000000       0.21875000000000000        0.0000000000000000     
   1.3750000000000000       0.25000000000000000        0.0000000000000000     
   1.4062500000000000       0.25000000000000000        0.0000000000000000     
   1.4375000000000000       0.25000000000000000        0.0000000000000000     
   1.4687500000000000       0.25000000000000000        0.0000000000000000     
   1.5000000000000000       0.25000000000000000        0.0000000000000000     
  0.50000000000000000       0.25000000000000000        0.0000000000000000     
  0.53125000000000000       0.25000000000000000        0.0000000000000000     
  0.56250000000000000       0.25000000000000000        0.0000000000000000     
  0.59375000000000000       0.25000000000000000        0.0000000000000000     
  0.62500000000000000       0.25000000000000000        0.0000000000000000     
  0.50000000000000000       0.28125000000000000        0.0000000000000000     
  0.53125000000000000       0.28125000000000000        0.0000000000000000     
  0.56250000000000000       0.28125000000000000        0.0000000000000000     
  0.59375000000000000       0.28125000000000000        0.0000000000000000     
  0.62500000000000000       0.28125000000000000        0.0000000000000000     
  0.50000000000000000       0.31250000000000000        0.0000000000000000     
  0.53125000000000000       0.31250000000000000        0.0000000000000000     
  0.56250000000000000       0.31250000000000000        0.0000000000000000     
  0.59375000000000000       0.31250000000000000        0.0000000000000000     
  0.62500000000000000       0.31250000000000000        0.0000000000000000     
  0.50000000000000000       0.34375000000000000        0.0000000000000000     
  0.53125000000000000       0.34375000000000000        0.0000000000000000     
  0.56250000000000000       0.34375000000000000        0.0000000000000000     
  0.59375000000000000       0.34375000000000000        0.0000000000000000     
  0.62500000000000000       0.34375000000000000        0.0000000000000000     
  0.50000000000000000       0.37500000000000000        0.0000000000000000     
  0.53125000000000000       0.37500000000000000        0.0000000000000000     
  0.56250000000000000       0.37500000000000000        0.0000000000000000     
  0.59375000000000000       0.37500000000000000        0.0000000000000000     
  0.62500000000000000       0.37500000000000000        0.0000000000000000     
  0.62500000000000000       0.25000000000000000        0.0000000000000000     
  0.65625000000000000       0.25000000000000000        0.0000000000000000     
  0.68750000000000000       0.25000000000000000        0.0000000000000000     
  0.71875000000000000       0.25000000000000000        0.0000000000000000     
  0.75000000000000000       0.25000000000000000        0.0000000000000000     
  0.62500000000000000       0.28125000000000000        0.0000000000000000     
  0.65625000000000000       0.28125000000000000        0.0000000000000000     
  0.68750000000000000       0.28125000000000000        0.0000000000000000     
  0.71875000000000000       0.28125000000000000        0.0000000000000000     
  0.75000000000000000       0.28125000000000000        0.0000000000000000     
  0.62500000000000000       0.31250000000000000        0.0000000000000000     
  0.65625000000000000       0.31250000000000000        0.0000000000000000     
  0.68750000000000000       0.31250000000000000        0.0000000000000000     
  0.71875000000000000       0.31250000000000000        0.0000000000000000     
  0.75000000000000000       0.31250000000000000        0.0000000000000000     
  0.62500000000000000       0.34375000000000000        0.0000000000000000     
  0.65625000000000000       0.34375000000000000        0.0000000000000000     
  0.68750000000000000       0.34375000000000000        0.0000000000000000     
  0.71875000000000000       0.34375000000000000        0.0000000000000000     
  0.75000000000000000       0.34375000000000000        0.0000000000000000     
  0.62500000000000000       0.37500000000000000        0.0000000000000000     
  0.65625000000000000       0.37500000000000000        0.0000000000000000     
  0.68750000000000000       0.37500000000000000        0.0000000000000000     
  0.71875000000000000       0.37500000000000000        0.0000000000000000     
  0.75000000000000000       0.37500000000000000        0.0000000000000000     
  0.75000000000000000       0.25000000000000000        0.0000000000000000     
  0.78125000000000000       0.25000000000000000        0.0000000000000000     
  0.81250000000000000       0.25000000000000000        0.0000000000000000     
  0.84375000000000000       0.25000000000000000        0.0000000000000000     
  0.87500000000000000       0.25000000000000000        0.0000000000000000     
  0.75000000000000000       0.28125000000000000        0.0000000000000000     
  0.78125000000000000       0.28125000000000000        0.0000000000000000     
  0.81250000000000000       0.28125000000000000        0.0000000000000000     
  0.84375000000000000       0.28125000000000000        0.0000000000000000     
  0.87500000000000000       0.28125000000000000        0.0000000000000000     
  0.75000000000000000       0.31250000000000000        0.0000000000000000     
  0.78125000000000000       0.31250000000000000        0.0000000000000000     
  0.81250000000000000       0.31250000000000000        0.0000000000000000     
  0.84375000000000000       0.31250000000000000        0.0000000000000000     
  0.87500000000000000       0.31250000000000000        0.0000000000000000     
  0.75000000000000000       0.34375000000000000        0.0000000000000000     
  0.78125000000000000       0.34375000000000000        0.0000000000000000     
  0.81250000000000000       0.34375000000000000        0.0000000000000000     
  0.84375000000000000       0.34375000000000000        0.0000000000000000     
  0.87500000000000000       0.34375000000000000        0.0000000000000000     
  0.75000000000000000       0.37500000000000000        0.0000000000000000     
  0.78125000000000000       0.37500000000000000        0.0000000000000000     
  0.81250000000000000       0.37500000000000000        0.0000000000000000     
  0.84375000000000000       0.37500000000000000        0.0000000000000000     
  0.87500000000000000       0.37500000000000000        0.0000000000000000     
  0.87500000000000000       0.25000000000000000        0.0000000000000000     
  0.90625000000000000       0.25000000000000000        0.0000000000000000     
  0.93750000000000000       0.25000000000000000        0.0000000000000000     
  0.96875000000000000       0.25000000000000000        0.0000000000000000     
   1.0000000000000000       0.25000000000000000        0.0000000000000000     
  0.87500000000000000       0.28125000000000000        0.0000000000000000     
  0.90625000000000000       0.28125000000000000        0.0000000000000000     
  0.93750000000000000       0.28125000000000000        0.0000000000000000     
  0.96875000000000000       0.28125000000000000        0.0000000000000000     
   1.0000000000000000       0.28125000000000000        0.0000000000000000     
  0.87500000000000000       0.31250000000000000        0.0000000000000000     
  0.90625000000000000       0.31250000000000000        0.0000000000000000     
  0.93750000000000000       0.31250000000000000        0.0000000000000000     
  0.96875000000000000       0.31250000000000000        0.0000000000000000     
   1.0000000000000000       0.31250000000000000        0.0000000000000000     
  0.87500000000000000       0.34375000000000000        0.0000000000000000     
  0.90625000000000000       0.34375000000000000        0.0000000000000000     
  0.93750000000000000       0.34375000000000000        0.0000000000000000     
  0.96875000000000000       0.34375000000000000        0.0000000000000000     
   1.0000000000000000       0.34375000000000000        0.0000000000000000     
  0.87500000000000000       0.37500000000000000        0.0000000000000000     
  0.90625000000000000       0.37500000000000000        0.0000000000000000     
  0.93750000000000000       0.37500000000000000        0.0000000000000000     
  0.96875000000000000       0.37500000000000000        0.0000000000000000     
   1.0000000000000000       0.37500000000000000        0.0000000000000000     
   1.0000000000000000       0.25000000000000000        0.0000000000000000     
   1.0312500000000000       0.25000000000000000        0.0000000000000000     
   1.0625000000000000       0.25000000000000000        0.0000000000000000     
   1.0937500000000000       0.25000000000000000        0.0000000000000000     
   1.1250000000000000       0.25000000000000000        0.0000000000000000     
   1.0000000000000000       0.28125000000000000        0.0000000000000000     
   1.0312500000000000       0.28125000000000000        0.0000000000000000     
   1.0625000000000000       0.28125000000000000        0.0000000000000000     
   1.0937500000000000       0.28125000000000000        0.0000000000000000     
   1.1250000000000000       0.28125000000000000        0.0000000000000000     
   1.0000000000000000       0.31250000000000000        0.0000000000000000     
   1.0312500000000000       0.31250000000000000        0.0000000000000000     
   1.0625000000000000       0.31250000000000000        0.0000000000000000     
   1.0937500000000000       0.31250000000000000        0.0000000000000000     
   1.1250000000000000       0.31250000000000000        0.0000000000000000     
   1.0000000000000000       0.34375000000000000        0.0000000000000000     
   1.0312500000000000       0.34375000000000000        0.0000000000000000     
   1.0625000000000000       0.34375000000000000        0.0000000000000000     
   1.0937500000000000       0.34375000000000000        0.0000000000000000     
   1.1250000000000000       0.34375000000000000        0.0000000000000000     
   1.0000000000000000       0.37500000000000000        0.0000000000000000     
   1.0312500000000000       0.37500000000000000        0.0000000000000000     
   1.0625000000000000       0.37500000000000000        0.0000000000000000     
   1.0937500000000000       0.37500000000000000        0.0000000000000000     
   1.1250000000000000       0.37500000000000000        0.0000000000000000     
   1.1250000000000000       0.25000000000000000        0.0000000000000000     
   1.1562500000000000       0.25000000000000000        0.0000000000000000     
   1.1875000000000000       0.25000000000000000        0.0000000000000000     
   1.2187500000000000       0.25000000000000000        0.0000000000000000     
   1.2500000000000000       0.25000000000000000        0.0000000000000000     
   1.1250000000000000       0.28125000000000000        0.0000000000000000     
   1.1562500000000000       0.28125000000000000        0.0000000000000000     
   1.1875000000000000       0.28125000000000000        0.0000000000000000     
   1.2187500000000000       0.28125000000000000        0.0000000000000000     
   1.2500000000000000       0.28125000000000000        0.0000000000000000     
   1.1250000000000000       0.31250000000000000        0.0000000000000000     
   1.1562500000000000       0.31250000000000000        0.0000000000000000     
   1.1875000000000000       0.31250000000000000        0.0000000000000000     
   1.2187500000000000       0.31250000000000000        0.0000000000000000     
   1.2500000000000000       0.31250000000000000        0.0000000000000000     
   1.1250000000000000       0.34375000000000000        0.0000000000000000     
   1.1562500000000000       0.34375000000000000        0.0000000000000000     
   1.1875000000000000       0.34375000000000000        0.0000000000000000     
   1.2187500000000000       0.34375000000000000        0.0000000000000000     
   1.2500000000000000       0.34375000000000000        0.0000000000000000     
   1.1250000000000000       0.37500000000000000        0.0000000000000000     
   1.1562500000000000       0.37500000000000000        0.0000000000000000     
   1.1875000000000000       0.37500000000000000        0.0000000000000000     
   1.2187500000000000       0.37500000000000000        0.0000000000000000     
   1.2500000000000000       0.37500000000000000        0.0000000000000000     
   1.2500000000000000       0.25000000000000000        0.0000000000000000     
   1.2812500000000000       0.25000000000000000        0.0000000000000000     
   1.3125000000000000       0.25000000000000000        0.0000000000000000     
   1.3437500000000000       0.25000000000000000        0.0000000000000000     
   1.3750000000000000       0.25000000000000000        0.0000000000000000     
   1.2500000000000000       0.28125000000000000        0.0000000000000000     
   1.2812500000000000       0.28125000000000000        0.0000000000000000     
   1.3125000000000000       0.28125000000000000        0.0000000000000000     
   1.3437500000000000       0.28125000000000000        0.0000000000000000     
   1.3750000000000000       0.28125000000000000        0.0000000000000000     
   1.2500000000000000       0.31250000000000000        0.0000000000000000     
   1.2812500000000000       0.31250000000000000        0.0000000000000000     
   1.3125000000000000       0.31250000000000000        0.0000000000000000     
   1.3437500000000000       0.31250000000000000        0.0000000000000000     
   1.3750000000000000       0.31250000000000000        0.0000000000000000     
   1.2500000000000000       0.34375000000000000        0.0000000000000000     
   1.2812500000000000       0.34375000000000000        0.0000000000000000     
   1.3125000000000000       0.34375000000000000        0.0000000000000000     
   1.3437500000000000       0.34375000000000000        0.0000000000000000     
   1.3750000000000000       0.34375000000000000        0.0000000000000000     
   1.2500000000000000       0.37500000000000000        0.0000000000000000     
   1.2812500000000000       0.37500000000000000        0.0000000000000000     
   1.3125000000000000       0.37500000000000000        0.0000000000000000     
   1.3437500000000000       0.37500000000000000        0.0000000000000000     
   1.3750000000000000       0.37500000000000000        0.0000000000000000     
   1.3750000000000000       0.25000000000000000        0.0000000000000000     
   1.4062500000000000       0.25000000000000000        0.0000000000000000     
   1.4375000000000000       0.25000000000000000        0.0000000000000000     
   1.4687500000000000       0.25000000000000000        0.0000000000000000     
   1.5000000000000000       0.25000000000000000        0.0000000000000000     
   1.3750000000000000       0.28125000000000000        0.0000000000000000     
   1.4062500000000000       0.28125000000000000        0.0000000000000000     
   1.4375000000000000       0.28125000000000000        0.0000000000000000     
   1.4687500000000000       0.28125000000000000        0.0000000000000000     
   1.5000000000000000       0.28125000000000000        0.0000000000000000     
   1.3750000000000000       0.31250000000000000        0.0000000000000000     
   1.4062500000000000       0.31250000000000000        0.0000000000000000     
   1.4375000000000000       0.31250000000000000        0.0000000000000000     
   1.4687500000000000       0.31250000000000000        0.0000000000000000     
   1.5000000000000000       0.31250000000000000        0.0000000000000000     
   1.3750000000000000       0.34375000000000000        0.0000000000000000     
   1.4062500000000000       0.34375000000000000        0.0000000000000000     
   1.4375000000000000       0.34375000000000000        0.0000000000000000     
   1.4687500000000000       0.34375000000000000        0.0000000000000000     
   1.5000000000000000       0.34375000000000000        0.0000000000000000     
   1.3750000000000000       0.37500000000000000        0.0000000000000000     
   1.4062500000000000       0.37500000000000000        0.0000000000000000     
   1.4375000000000000       0.37500000000000000        0.0000000000000000     
   1.4687500000000000       0.37500000000000000        0.0000000000000000     
   1.5000000000000000       0.37500000000000000        0.0000000000000000     
  0.50000000000000000       0.37500000000000000        0.0000000000000000     
  0.53125000000000000       0.37500000000000000        0.0000000000000000     
  0.56250000000000000       0.37500000000000000        0.0000000000000000     
  0.59375000000000000       0.37500000000000000        0.0000000000000000     
  0.62500000000000000       0.37500000000000000        0.0000000000000000     
  0.50000000000000000       0.40625000000000000        0.0000000000000000     
  0.53125000000000000       0.40625000000000000        0.0000000000000000     
  0.56250000000000000       0.40625000000000000        0.0000000000000000     
  0.59375000000000000       0.40625000000000000        0.0000000000000000     
  0.62500000000000000       0.40625000000000000        0.0000000000000000     
  0.50000000000000000       0.43750000000000000        0.0000000000000000     
  0.53125000000000000       0.43750000000000000        0.0000000000000000     
  0.56250000000000000       0.43750000000000000        0.0000000000000000     
  0.59375000000000000       0.43750000000000000        0.0000000000000000     
  0.62500000000000000       0.43750000000000000        0.0000000000000000     
  0.50000000000000000       0.46875000000000000        0.0000000000000000     
  0.53125000000000000       0.46875000000000000        0.0000000000000000     
  0.56250000000000000       0.46875000000000000        0.0000000000000000     
  0.59375000000000000       0.46875000000000000        0.0000000000000000     
  0.62500000000000000       0.46875000000000000        0.0000000000000000     
  0.50000000000000000       0.50000000000000000        0.0000000000000000     
  0.53125000000000000       0.50000000000000000        0.0000000000000000     
  0.56250000000000000       0.50000000000000000        0.0000000000000000     
  0.59375000000000000       0.50000000000000000        0.0000000000000000     
  0.62500000000000000       0.50000000000000000        0.0000000000000000     
  0.62500000000000000       0.37500000000000000        0.0000000000000000     
  0.65625000000000000       0.37500000000000000        0.0000000000000000     
  0.68750000000000000       0.37500000000000000        0.0000000000000000     
  0.71875000000000000       0.37500000000000000        0.0000000000000000     
  0.75000000000000000       0.37500000000000000        0.0000000000000000     
  0.62500000000000000       0.40625000000000000        0.0000000000000000     
  0.65625000000000000       0.40625000000000000        0.0000000000000000     
  0.68750000000000000       0.40625000000000000        0.0000000000000000     
  0.71875000000000000       0.40625000000000000        0.0000000000000000     
  0.75000000000000000       0.40625000000000000        0.0000000000000000     
  0.62500000000000000       0.43750000000000000        0.0000000000000000     
  0.65625000000000000       0.43750000000000000        0.0000000000000000     
  0.68750000000000000       0.43750000000000000        0.0000000000000000     
  0.71875000000000000       0.43750000000000000        0.0000000000000000     
  0.75000000000000000       0.43750000000000000        0.0000000000000000     
  0.62500000000000000       0.46875000000000000        0.0000000000000000     
  0.65625000000000000       0.46875000000000000        0.0000000000000000     
  0.68750000000000000       0.46875000000000000        0.0000000000000000     
  0.71875000000000000       0.46875000000000000        0.0000000000000000     
  0.75000000000000000       0.46875000000000000        0.0000000000000000     
  0.62500000000000000       0.50000000000000000        0.0000000000000000     
  0.65625000000000000       0.50000000000000000        0.0000000000000000     
  0.68750000000000000       0.50000000000000000        0.0000000000000000     
  0.71875000000000000       0.50000000000000000        0.0000000000000000     
  0.75000000000000000       0.50000000000000000        0.0000000000000000     
  0.75000000000000000       0.37500000000000000        0.0000000000000000     
  0.78125000000000000       0.37500000000000000        0.0000000000000000     
  0.81250000000000000       0.37500000000000000        0.0000000000000000     
  0.84375000000000000       0.37500000000000000        0.0000000000000000     
  0.87500000000000000       0.37500000000000000        0.0000000000000000     
  0.75000000000000000       0.40625000000000000        0.0000000000000000     
  0.78125000000000000       0.40625000000000000        0.0000000000000000     
  0.81250000000000000       0.40625000000000000        0.0000000000000000     
  0.84375000000000000       0.40625000000000000        0.0000000000000000     
  0.87500000000000000       0.40625000000000000        0.0000000000000000     
  0.75000000000000000       0.43750000000000000        0.0000000000000000     
  0.78125000000000000       0.43750000000000000        0.0000000000000000     
  0.81250000000000000       0.43750000000000000        0.0000000000000000     
  0.84375000000000000       0.43750000000000000        0.0000000000000000     
  0.87500000000000000       0.43750000000000000        0.0000000000000000     
  0.75000000000000000       0.46875000000000000        0.0000000000000000     
  0.78125000000000000       0.46875000000000000        0.0000000000000000     
  0.81250000000000000       0.46875000000000000        0.0000000000000000     
  0.84375000000000000       0.46875000000000000        0.0000000000000000     
  0.87500000000000000       0.46875000000000000        0.0000000000000000     
  0.75000000000000000       0.50000000000000000        0.0000000000000000     
  0.78125000000000000       0.50000000000000000        0.0000000000000000     
  0.81250000000000000       0.50000000000000000        0.0000000000000000     
  0.84375000000000000       0.50000000000000000        0.0000000000000000     
  0.87500000000000000       0.50000000000000000        0.0000000000000000     
  0.87500000000000000       0.37500000000000000        0.0000000000000000     
  0.90625000000000000       0.37500000000000000        0.0000000000000000     
  0.93750000000000000       0.37500000000000000        0.0000000000000000     
  0.96875000000000000       0.37500000000000000        0.0000000000000000     
   1.0000000000000000       0.37500000000000000        0.0000000000000000     
  0.87500000000000000       0.40625000000000000        0.0000000000000000     
  0.90625000000000000       0.40625000000000000        0.0000000000000000     
  0.93750000000000000       0.40625000000000000        0.0000000000000000     
  0.96875000000000000       0.40625000000000000        0.0000000000000000     
   1.0000000000000000       0.40625000000000000        0.0000000000000000     
  0.87500000000000000       0.43750000000000000        0.0000000000000000     
  0.90625000000000000       0.43750000000000000        0.0000000000000000     
  0.93750000000000000       0.43750000000000000        0.0000000000000000     
  0.96875000000000000       0.43750000000000000        0.0000000000000000     
   1.0000000000000000       0.43750000000000000        0.0000000000000000     
  0.87500000000000000       0.46875000000000000        0.0000000000000000     
  0.90625000000000000       0.46875000000000000        0.0000000000000000     
  0.93750000000000000       0.46875000000000000        0.0000000000000000     
  0.96875000000000000       0.46875000000000000        0.0000000000000000     
   1.0000000000000000       0.46875000000000000        0.0000000000000000     
  0.87500000000000000       0.50000000000000000        0.0000000000000000     
  0.90625000000000000       0.50000000000000000        0.0000000000000000     
  0.93750000000000000       0.50000000000000000        0.0000000000000000     
  0.96875000000000000       0.50000000000000000        0.0000000000000000     
   1.0000000000000000       0.50000000000000000        0.0000000000000000     
   1.0000000000000000       0.37500000000000000        0.0000000000000000     
   1.0312500000000000       0.37500000000000000        0.0000000000000000     
   1.0625000000000000       0.37500000000000000        0.0000000000000000     
   1.0937500000000000       0.37500000000000000        0.0000000000000000     
   1.1250000000000000       0.37500000000000000        0.0000000000000000     
   1.0000000000000000       0.40625000000000000        0.0000000000000000     
   1.0312500000000000       0.40625000000000000        0.0000000000000000     
   1.0625000000000000       0.40625000000000000        0.0000000000000000     
   1.0937500000000000       0.40625000000000000        0.0000000000000000     
   1.1250000000000000       0.40625000000000000        0.0000000000000000     
   1.0000000000000000       0.43750000000000000        0.0000000000000000     
   1.0312500000000000       0.43750000000000000        0.0000000000000000     
   1.0625000000000000       0.43750000000000000        0.0000000000000000     
   1.0937500000000000       0.43750000000000000        0.0000000000000000     
   1.1250000000000000       0.43750000000000000        0.0000000000000000     
   1.0000000000000000       0.46875000000000000        0.0000000000000000     
   1.0312500000000000       0.46875000000000000        0.0000000000000000     
   1.0625000000000000       0.46875000000000000        0.0000000000000000     
   1.0937500000000000       0.46875000000000000        0.0000000000000000     
   1.1250000000000000       0.46875000000000000        0.0000000000000000     
   1.0000000000000000       0.50000000000000000        0.0000000000000000     
   1.0312500000000000       0.50000000000000000        0.0000000000000000     
   1.0625000000000000       0.50000000000000000        0.0000000000000000     
   1.0937500000000000       0.50000000000000000        0.0000000000000000     
   1.1250000000000000       0.50000000000000000        0.0000000000000000     
   1.1250000000000000       0.37500000000000000        0.0000000000000000     
   1.1562500000000000       0.37500000000000000        0.0000000000000000     
   1.1875000000000000       0.37500000000000000        0.0000000000000000     
   1.2187500000000000       0.37500000000000000        0.0000000000000000     
   1.2500000000000000       0.37500000000000000        0.0000000000000000     
   1.1250000000000000       0.40625000000000000        0.0000000000000000     
   1.1562500000000000       0.40625000000000000        0.0000000000000000     
   1.1875000000000000       0.40625000000000000        0.0000000000000000     
   1.2187500000000000       0.40625000000000000        0.0000000000000000     
   1.2500000000000000       0.40625000000000000        0.0000000000000000     
   1.1250000000000000       0.43750000000000000        0.0000000000000000     
   1.1562500000000000       0.43750000000000000        0.0000000000000000     
   1.1875000000000000       0.43750000000000000        0.0000000000000000     
   1.2187500000000000       0.43750000000000000        0.0000000000000000     
   1.2500000000000000       0.43750000000000000        0.0000000000000000     
   1.1250000000000000       0.46875000000000000        0.0000000000000000     
   1.1562500000000000       0.46875000000000000        0.0000000000000000     
   1.1875000000000000       0.46875000000000000        0.0000000000000000     
   1.2187500000000000       0.46875000000000000        0.0000000000000000     
   1.2500000000000000       0.46875000000000000        0.0000000000000000     
   1.1250000000000000       0.50000000000000000        0.0000000000000000     
   1.1562500000000000       0.50000000000000000        0.0000000000000000     
   1.1875000000000000       0.50000000000000000        0.0000000000000000     
   1.2187500000000000       0.50000000000000000        0.0000000000000000     
   1.2500000000000000       0.50000000000000000        0.0000000000000000     
   1.2500000000000000       0.37500000000000000        0.0000000000000000     
   1.2812500000000000       0.37500000000000000        0.0000000000000000     
   1.3125000000000000       0.37500000000000000        0.0000000000000000     
   1.3437500000000000       0.37500000000000000        0.0000000000000000     
   1.3750000000000000       0.37500000000000000        0.0000000000000000     
   1.2500000000000000       0.40625000000000000        0.0000000000000000     
   1.2812500000000000       0.40625000000000000        0.0000000000000000     
   1.3125000000000000       0.40625000000000000        0.0000000000000000     
   1.3437500000000000       0.40625000000000000        0.0000000000000000     
   1.3750000000000000       0.40625000000000000        0.0000000000000000     
   1.2500000000000000       0.43750000000000000        0.0000000000000000     
   1.2812500000000000       0.43750000000000000        0.0000000000000000     
   1.3125000000000000       0.43750000000000000        0.0000000000000000     
   1.3437500000000000       0.43750000000000000        0.0000000000000000     
   1.3750000000000000       0.43750000000000000        0.0000000000000000     
   1.2500000000000000       0.46875000000000000        0.0000000000000000     
   1.2812500000000000       0.46875000000000000        0.0000000000000000     
   1.3125000000000000       0.46875000000000000        0.0000000000000000     
   1.3437500000000000       0.46875000000000000        0.0000000000000000     
   1.3750000000000000       0.46875000000000000        0.0000000000000000     
   1.2500000000000000       0.50000000000000000        0.0000000000000000     
   1.2812500000000000       0.50000000000000000        0.0000000000000000     
   1.3125000000000000       0.50000000000000000        0.0000000000000000     
   1.3437500000000000       0.50000000000000000        0.0000000000000000     
   1.3750000000000000       0.50000000000000000        0.0000000000000000     
   1.3750000000000000       0.37500000000000000        0.0000000000000000     
   1.4062500000000000       0.37500000000000000        0.0000000000000000     
   1.4375000000000000       0.37500000000000000        0.0000000000000000     
   1.4687500000000000       0.37500000000000000        0.0000000000000000     
   1.5000000000000000       0.37500000000000000        0.0000000000000000     
   1.3750000000000000       0.40625000000000000        0.0000000000000000     
   1.4062500000000000       0.40625000000000000        0.0000000000000000     
   1.4375000000000000       0.40625000000000000        0.0000000000000000     
   1.4687500000000000       0.40625000000000000        0.0000000000000000     
   1.5000000000000000       0.40625000000000000        0.0000000000000000     
   1.3750000000000000       0.43750000000000000        0.0000000000000000     
   1.4062500000000000       0.43750000000000000        0.0000000000000000     
   1.4375000000000000       0.43750000000000000        0.0000000000000000     
   1.4687500000000000       0.43750000000000000        0.0000000000000000     
   1.5000000000000000       0.43750000000000000        0.0000000000000000     
   1.3750000000000000       0.46875000000000000        0.0000000000000000     
   1.4062500000000000       0.46875000000000000        0.0000000000000000     
   1.4375000000000000       0.46875000000000000        0.0000000000000000     
   1.4687500000000000       0.46875000000000000        0.0000000000000000     
   1.5000000000000000       0.46875000000000000        0.0000000000000000     
   1.3750000000000000       0.50000000000000000        0.0000000000000000     
   1.4062500000000000       0.50000000000000000        0.0000000000000000     
   1.4375000000000000       0.50000000000000000        0.0000000000000000     
   1.4687500000000000       0.50000000000000000        0.0000000000000000     
   1.5000000000000000       0.50000000000000000        0.0000000000000000     
  0.50000000000000000       0.50000000000000000        0.0000000000000000     
  0.53125000000000000       0.50000000000000000        0.0000000000000000     
  0.56250000000000000       0.50000000000000000        0.0000000000000000     
  0.59375000000000000       0.50000000000000000        0.0000000000000000     
  0.62500000000000000       0.50000000000000000        0.0000000000000000     
  0.50000000000000000       0.53125000000000000        0.0000000000000000     
  0.53125000000000000       0.53125000000000000        0.0000000000000000     
  0.56250000000000000       0.53125000000000000        0.0000000000000000     
  0.59375000000000000       0.53125000000000000        0.0000000000000000     
  0.62500000000000000       0.53125000000000000        0.0000000000000000     
  0.50000000000000000       0.56250000000000000        0.0000000000000000     
  0.53125000000000000       0.56250000000000000        0.0000000000000000     
  0.56250000000000000       0.56250000000000000        0.0000000000000000     
  0.59375000000000000       0.56250000000000000        0.0000000000000000     
  0.62500000000000000       0.56250000000000000        0.0000000000000000     
  0.50000000000000000       0.59375000000000000        0.0000000000000000     
  0.53125000000000000       0.59375000000000000        0.0000000000000000     
  0.56250000000000000       0.59375000000000000        0.0000000000000000     
  0.59375000000000000       0.59375000000000000        0.0000000000000000     
  0.62500000000000000       0.59375000000000000        0.0000000000000000     
  0.50000000000000000       0.62500000000000000        0.0000000000000000     
  0.53125000000000000       0.62500000000000000        0.0000000000000000     
  0.56250000000000000       0.62500000000000000        0.0000000000000000     
  0.59375000000000000       0.62500000000000000        0.0000000000000000     
  0.62500000000000000       0.62500000000000000        0.0000000000000000     
  0.62500000000000000       0.50000000000000000        0.0000000000000000     
  0.65625000000000000       0.50000000000000000        0.0000000000000000     
  0.68750000000000000       0.50000000000000000        0.0000000000000000     
  0.71875000000000000       0.50000000000000000        0.0000000000000000     
  0.75000000000000000       0.50000000000000000        0.0000000000000000     
  0.62500000000000000       0.53125000000000000        0.0000000000000000     
  0.65625000000000000       0.53125000000000000        0.0000000000000000     
  0.68750000000000000       0.53125000000000000        0.0000000000000000     
  0.71875000000000000       0.53125000000000000        0.0000000000000000     
  0.75000000000000000       0.53125000000000000        0.0000000000000000     
  0.62500000000000000       0.56250000000000000        0.0000000000000000     
  0.65625000000000000       0.56250000000000000        0.0000000000000000     
  0.68750000000000000       0.56250000000000000        0.0000000000000000     
  0.71875000000000000       0.56250000000000000        0.0000000000000000     
  0.75000000000000000       0.56250000000000000        0.0000000000000000     
  0.62500000000000000       0.59375000000000000        0.0000000000000000     
  0.65625000000000000       0.59375000000000000        0.0000000000000000     
  0.68750000000000000       0.59375000000000000        0.0000000000000000     
  0.71875000000000000       0.59375000000000000        0.0000000000000000     
  0.75000000000000000       0.59375000000000000        0.0000000000000000     
  0.62500000000000000       0.62500000000000000        0.0000000000000000     
  0.65625000000000000       0.62500000000000000        0.0000000000000000     
  0.68750000000000000       0.62500000000000000        0.0000000000000000     
  0.71875000000000000       0.62500000000000000        0.0000000000000000     
  0.75000000000000000       0.62500000000000000        0.0000000000000000     
  0.75000000000000000       0.50000000000000000        0.0000000000000000     
  0.78125000000000000       0.50000000000000000        0.0000000000000000     
  0.81250000000000000       0.50000000000000000        0.0000000000000000     
  0.84375000000000000       0.50000000000000000        0.0000000000000000     
  0.87500000000000000       0.50000000000000000        0.0000000000000000     
  0.75000000000000000       0.53125000000000000        0.0000000000000000     
  0.78125000000000000       0.53125000000000000        0.0000000000000000     
  0.81250000000000000       0.53125000000000000        0.0000000000000000     
  0.84375000000000000       0.53125000000000000        0.0000000000000000     
  0.87500000000000000       0.53125000000000000        0.0000000000000000     
  0.75000000000000000       0.56250000000000000        0.0000000000000000     
  0.78125000000000000       0.56250000000000000        0.0000000000000000     
  0.81250000000000000       0.56250000000000000        0.0000000000000000     
  0.84375000000000000       0.56250000000000000        0.0000000000000000     
  0.87500000000000000       0.56250000000000000        0.0000000000000000     
  0.75000000000000000       0.59375000000000000        0.0000000000000000     
  0.78125000000000000       0.59375000000000000        0.0000000000000000     
  0.81250000000000000       0.59375000000000000        0.0000000000000000     
  0.84375000000000000       0.59375000000000000        0.0000000000000000     
  0.87500000000000000       0.59375000000000000        0.0000000000000000     
  0.75000000000000000       0.62500000000000000        0.0000000000000000     
  0.78125000000000000       0.62500000000000000        0.0000000000000000     
  0.81250000000000000       0.62500000000000000        0.0000000000000000     
  0.84375000000000000       0.62500000000000000        0.0000000000000000     
  0.87500000000000000       0.62500000000000000        0.0000000000000000     
  0.87500000000000000       0.50000000000000000        0.0000000000000000     
  0.90625000000000000       0.50000000000000000        0.0000000000000000     
  0.93750000000000000       0.50000000000000000        0.0000000000000000     
  0.96875000000000000       0.50000000000000000        0.0000000000000000     
   1.0000000000000000       0.50000000000000000        0.0000000000000000     
  0.87500000000000000       0.53125000000000000        0.0000000000000000     
  0.90625000000000000       0.53125000000000000        0.0000000000000000     
  0.93750000000000000       0.53125000000000000        0.0000000000000000     
  0.96875000000000000       0.53125000000000000        0.0000000000000000     
   1.0000000000000000       0.53125000000000000        0.0000000000000000     
  0.87500000000000000       0.56250000000000000        0.0000000000000000     
  0.90625000000000000       0.56250000000000000        0.0000000000000000     
  0.93750000000000000       0.56250000000000000        0.0000000000000000     
  0.96875000000000000       0.56250000000000000        0.0000000000000000     
   1.0000000000000000       0.56250000000000000        0.0000000000000000     
  0.87500000000000000       0.59375000000000000        0.0000000000000000     
  0.90625000000000000       0.59375000000000000        0.0000000000000000     
  0.93750000000000000       0.59375000000000000        0.0000000000000000     
  0.96875000000000000       0.59375000000000000        0.0000000000000000     
   1.0000000000000000       0.59375000000000000        0.0000000000000000     
  0.87500000000000000       0.62500000000000000        0.0000000000000000     
  0.90625000000000000       0.62500000000000000        0.0000000000000000     
  0.93750000000000000       0.62500000000000000        0.0000000000000000     
  0.96875000000000000       0.62500000000000000        0.0000000000000000     
   1.0000000000000000       0.62500000000000000        0.0000000000000000     
   1.0000000000000000       0.50000000000000000        0.0000000000000000     
   1.0312500000000000       0.50000000000000000        0.0000000000000000     
   1.0625000000000000       0.50000000000000000        0.0000000000000000     
   1.0937500000000000       0.50000000000000000        0.0000000000000000     
   1.1250000000000000       0.50000000000000000        0.0000000000000000     
   1.0000000000000000       0.53125000000000000        0.0000000000000000     
   1.0312500000000000       0.53125000000000000        0.0000000000000000     
   1.0625000000000000       0.53125000000000000        0.0000000000000000     
   1.0937500000000000       0.53125000000000000        0.0000000000000000     
   1.1250000000000000       0.53125000000000000        0.0000000000000000     
   1.0000000000000000       0.56250000000000000        0.0000000000000000     
   1.0312500000000000       0.56250000000000000        0.0000000000000000     
   1.0625000000000000       0.56250000000000000        0.0000000000000000     
   1.0937500000000000       0.56250000000000000        0.0000000000000000     
   1.1250000000000000       0.56250000000000000        0.0000000000000000     
   1.0000000000000000       0.59375000000000000        0.0000000000000000     
   1.0312500000000000       0.59375000000000000        0.0000000000000000     
   1.0625000000000000       0.59375000000000000        0.0000000000000000     
   1.0937500000000000       0.59375000000000000        0.0000000000000000     
   1.1250000000000000       0.59375000000000000        0.0000000000000000     
   1.0000000000000000       0.62500000000000000        0.0000000000000000     
   1.0312500000000000       0.62500000000000000        0.0000000000000000     
   1.0625000000000000       0.62500000000000000        0.0000000000000000     
   1.0937500000000000       0.62500000000000000        0.0000000000000000     
   1.1250000000000000       0.62500000000000000        0.0000000000000000     
   1.1250000000000000       0.50000000000000000        0.0000000000000000     
   1.1562500000000000       0.50000000000000000        0.0000000000000000     
   1.1875000000000000       0.50000000000000000        0.0000000000000000     
   1.2187500000000000       0.50000000000000000        0.0000000000000000     
   1.2500000000000000       0.50000000000000000        0.0000000000000000     
   1.1250000000000000       0.53125000000000000        0.0000000000000000     
   1.1562500000000000       0.53125000000000000        0.0000000000000000     
   1.1875000000000000       0.53125000000000000        0.0000000000000000     
   1.2187500000000000       0.53125000000000000        0.0000000000000000     
   1.2500000000000000       0.53125000000000000        0.0000000000000000     
   1.1250000000000000       0.56250000000000000        0.0000000000000000     
   1.1562500000000000       0.56250000000000000        0.0000000000000000     
   1.1875000000000000       0.56250000000000000        0.0000000000000000     
   1.2187500000000000       0.56250000000000000        0.0000000000000000     
   1.2500000000000000       0.56250000000000000        0.0000000000000000     
   1.1250000000000000       0.59375000000000000        0.0000000000000000     
   1.1562500000000000       0.59375000000000000        0.0000000000000000     
   1.1875000000000000       0.59375000000000000        0.0000000000000000     
   1.2187500000000000       0.59375000000000000        0.0000000000000000     
   1.2500000000000000       0.59375000000000000        0.0000000000000000     
   1.1250000000000000       0.62500000000000000        0.0000000000000000     
   1.1562500000000000       0.62500000000000000        0.0000000000000000     
   1.1875000000000000       0.62500000000000000        0.0000000000000000     
   1.2187500000000000       0.62500000000000000        0.0000000000000000     
   1.2500000000000000       0.62500000000000000        0.0000000000000000     
   1.2500000000000000       0.50000000000000000        0.0000000000000000     
   1.2812500000000000       0.50000000000000000        0.0000000000000000     
   1.3125000000000000       0.50000000000000000        0.0000000000000000     
   1.3437500000000000       0.50000000000000000        0.0000000000000000     
   1.3750000000000000       0.50000000000000000        0.0000000000000000     
   1.2500000000000000       0.53125000000000000        0.0000000000000000     
   1.2812500000000000       0.53125000000000000        0.0000000000000000     
   1.3125000000000000       0.53125000000000000        0.0000000000000000     
   1.3437500000000000       0.53125000000000000        0.0000000000000000     
   1.3750000000000000       0.53125000000000000        0.0000000000000000     
   1.2500000000000000       0.56250000000000000        0.0000000000000000     
   1.2812500000000000       0.56250000000000000        0.0000000000000000     
   1.3125000000000000       0.56250000000000000        0.0000000000000000     
   1.3437500000000000       0.56250000000000000        0.0000000000000000     
   1.3750000000000000       0.56250000000000000        0.0000000000000000     
   1.2500000000000000       0.59375000000000000        0.0000000000000000     
   1.2812500000000000       0.59375000000000000        0.0000000000000000     
   1.3125000000000000       0.59375000000000000        0.0000000000000000     
   1.3437500000000000       0.59375000000000000        0.0000000000000000     
   1.3750000000000000       0.59375000000000000        0.0000000000000000     
   1.2500000000000000       0.62500000000000000        0.0000000000000000     
   1.2812500000000000       0.62500000000000000        0.0000000000000000     
   1.3125000000000000       0.62500000000000000        0.0000000000000000     
   1.3437500000000000       0.62500000000000000        0.0000000000000000     
   1.3750000000000000       0.62500000000000000        0.0000000000000000     
   1.3750000000000000       0.50000000000000000        0.0000000000000000     
   1.4062500000000000       0.50000000000000000        0.0000000000000000     
   1.4375000000000000       0.50000000000000000        0.0000000000000000     
   1.4687500000000000       0.50000000000000000        0.0000000000000000     
   1.5000000000000000       0.50000000000000000        0.0000000000000000     
   1.3750000000000000       0.53125000000000000        0.0000000000000000     
   1.4062500000000000       0.53125000000000000        0.0000000000000000     
   1.4375000000000000       0.53125000000000000        0.0000000000000000     
   1.4687500000000000       0.53125000000000000        0.0000000000000000     
   1.5000000000000000       0.53125000000000000        0.0000000000000000     
   1.3750000000000000       0.56250000000000000        0.0000000000000000     
   1.4062500000000000       0.56250000000000000        0.0000000000000000     
   1.4375000000000000       0.56250000000000000        0.0000000000000000     
   1.4687500000000000       0.56250000000000000        0.0000000000000000     
   1.5000000000000000       0.56250000000000000        0.0000000000000000     
   1.3750000000000000       0.59375000000000000        0.0000000000000000     
   1.4062500000000000       0.59375000000000000        0.0000000000000000     
   1.4375000000000000       0.59375000000000000        0.0000000000000000     
   1.4687500000000000       0.59375000000000000        0.0000000000000000     
   1.5000000000000000       0.59375000000000000        0.0000000000000000     
   1.3750000000000000       0.62500000000000000        0.0000000000000000     
   1.4062500000000000       0.62500000000000000        0.0000000000000000     
   1.4375000000000000       0.62500000000000000        0.0000000000000000     
   1.4687500000000000       0.62500000000000000        0.0000000000000000     
   1.5000000000000000       0.62500000000000000        0.0000000000000000     
  0.50000000000000000       0.62500000000000000        0.0000000000000000     
  0.53125000000000000       0.62500000000000000        0.0000000000000000     
  0.56250000000000000       0.62500000000000000        0.0000000000000000     
  0.59375000000000000       0.62500000000000000        0.0000000000000000     
  0.62500000000000000       0.62500000000000000        0.0000000000000000     
  0.50000000000000000       0.65625000000000000        0.0000000000000000     
  0.53125000000000000       0.65625000000000000        0.0000000000000000     
  0.56250000000000000       0.65625000000000000        0.0000000000000000     
  0.59375000000000000       0.65625000000000000        0.0000000000000000     
  0.62500000000000000       0.65625000000000000        0.0000000000000000     
  0.50000000000000000       0.68750000000000000        0.0000000000000000     
  0.53125000000000000       0.68750000000000000        0.0000000000000000     
  0.56250000000000000       0.68750000000000000        0.0000000000000000     
  0.59375000000000000       0.68750000000000000        0.0000000000000000     
  0.62500000000000000       0.68750000000000000        0.0000000000000000     
  0.50000000000000000       0.71875000000000000        0.0000000000000000     
  0.53125000000000000       0.71875000000000000        0.0000000000000000     
  0.56250000000000000       0.71875000000000000        0.0000000000000000     
  0.59375000000000000       0.71875000000000000        0.0000000000000000     
  0.62500000000000000       0.71875000000000000        0.0000000000000000     
  0.50000000000000000       0.75000000000000000        0.0000000000000000     
  0.53125000000000000       0.75000000000000000        0.0000000000000000     
  0.56250000000000000       0.75000000000000000        0.0000000000000000     
  0.59375000000000000       0.75000000000000000        0.0000000000000000     
  0.62500000000000000       0.75000000000000000        0.0000000000000000     
  0.62500000000000000       0.62500000000000000        0.0000000000000000     
  0.65625000000000000       0.62500000000000000        0.0000000000000000     
  0.68750000000000000       0.62500000000000000        0.0000000000000000     
  0.71875000000000000       0.62500000000000000        0.0000000000000000     
  0.75000000000000000       0.62500000000000000        0.0000000000000000     
  0.62500000000000000       0.65625000000000000        0.0000000000000000     
  0.65625000000000000       0.65625000000000000        0.0000000000000000     
  0.68750000000000000       0.65625000000000000        0.0000000000000000     
  0.71875000000000000       0.65625000000000000        0.0000000000000000     
  0.75000000000000000       0.65625000000000000        0.0000000000000000     
  0.62500000000000000       0.68750000000000000        0.0000000000000000     
  0.65625000000000000       0.68750000000000000        0.0000000000000000     
  0.68750000000000000       0.68750000000000000        0.0000000000000000     
  0.71875000000000000       0.68750000000000000        0.0000000000000000     
  0.75000000000000000       0.68750000000000000        0.0000000000000000     
  0.62500000000000000       0.71875000000000000        0.0000000000000000     
  0.65625000000000000       0.71875000000000000        0.0000000000000000     
  0.68750000000000000       0.71875000000000000        0.0000000000000000     
  0.71875000000000000       0.71875000000000000        0.0000000000000000     
  0.75000000000000000       0.71875000000000000        0.0000000000000000     
  0.62500000000000000       0.75000000000000000        0.0000000000000000     
  0.65625000000000000       0.75000000000000000        0.0000000000000000     
  0.68750000000000000       0.75000000000000000        0.0000000000000000     
  0.71875000000000000       0.75000000000000000        0.0000000000000000     
  0.75000000000000000       0.75000000000000000        0.0000000000000000     
  0.75000000000000000       0.62500000000000000        0.0000000000000000     
  0.78125000000000000       0.62500000000000000        0.0000000000000000     
  0.81250000000000000       0.62500000000000000        0.0000000000000000     
  0.84375000000000000       0.62500000000000000        0.0000000000000000     
  0.87500000000000000       0.62500000000000000        0.0000000000000000     
  0.75000000000000000       0.65625000000000000        0.0000000000000000     
  0.78125000000000000       0.65625000000000000        0.0000000000000000     
  0.81250000000000000       0.65625000000000000        0.0000000000000000     
  0.84375000000000000       0.65625000000000000        0.0000000000000000     
  0.87500000000000000       0.65625000000000000        0.0000000000000000     
  0.75000000000000000       0.68750000000000000        0.0000000000000000     
  0.78125000000000000       0.68750000000000000        0.0000000000000000     
  0.81250000000000000       0.68750000000000000        0.0000000000000000     
  0.84375000000000000       0.68750000000000000        0.0000000000000000     
  0.87500000000000000       0.68750000000000000        0.0000000000000000     
  0.75000000000000000       0.71875000000000000        0.0000000000000000     
  0.78125000000000000       0.71875000000000000        0.0000000000000000     
  0.81250000000000000       0.71875000000000000        0.0000000000000000     
  0.84375000000000000       0.71875000000000000        0.0000000000000000     
  0.87500000000000000       0.71875000000000000        0.0000000000000000     
  0.75000000000000000       0.75000000000000000        0.0000000000000000     
  0.78125000000000000       0.75000000000000000        0.0000000000000000     
  0.81250000000000000       0.75000000000000000        0.0000000000000000     
  0.84375000000000000       0.75000000000000000        0.0000000000000000     
  0.87500000000000000       0.75000000000000000        0.0000000000000000     
  0.87500000000000000       0.62500000000000000        0.0000000000000000     
  0.90625000000000000       0.62500000000000000        0.0000000000000000     
  0.93750000000000000       0.62500000000000000        0.0000000000000000     
  0.96875000000000000       0.62500000000000000        0.0000000000000000     
   1.0000000000000000       0.62500000000000000        0.0000000000000000     
  0.87500000000000000       0.65625000000000000        0.0000000000000000     
  0.90625000000000000       0.65625000000000000        0.0000000000000000     
  0.93750000000000000       0.65625000000000000        0.0000000000000000     
  0.96875000000000000       0.65625000000000000        0.0000000000000000     
   1.0000000000000000       0.65625000000000000        0.0000000000000000     
  0.87500000000000000       0.68750000000000000        0.0000000000000000     
  0.90625000000000000       0.68750000000000000        0.0000000000000000     
  0.93750000000000000       0.68750000000000000        0.0000000000000000     
  0.96875000000000000       0.68750000000000000        0.0000000000000000     
   1.0000000000000000       0.68750000000000000        0.0000000000000000     
  0.87500000000000000       0.71875000000000000        0.0000000000000000     
  0.90625000000000000       0.71875000000000000        0.0000000000000000     
  0.93750000000000000       0.71875000000000000        0.0000000000000000     
  0.96875000000000000       0.71875000000000000        0.0000000000000000     
   1.0000000000000000       0.71875000000000000        0.0000000000000000     
  0.87500000000000000       0.75000000000000000        0.0000000000000000     
  0.90625000000000000       0.75000000000000000        0.0000000000000000     
  0.93750000000000000       0.75000000000000000        0.0000000000000000     
  0.96875000000000000       0.75000000000000000        0.0000000000000000     
   1.0000000000000000       0.75000000000000000        0.0000000000000000     
   1.0000000000000000       0.62500000000000000        0.0000000000000000     
   1.0312500000000000       0.62500000000000000        0.0000000000000000     
   1.0625000000000000       0.62500000000000000        0.0000000000000000     
   1.0937500000000000       0.62500000000000000        0.0000000000000000     
   1.1250000000000000       0.62500000000000000        0.0000000000000000     
   1.0000000000000000       0.65625000000000000        0.0000000000000000     
   1.0312500000000000       0.65625000000000000        0.0000000000000000     
   1.0625000000000000       0.65625000000000000        0.0000000000000000     
   1.0937500000000000       0.65625000000000000        0.0000000000000000     
   1.1250000000000000       0.65625000000000000        0.0000000000000000     
   1.0000000000000000       0.68750000000000000        0.0000000000000000     
   1.0312500000000000       0.68750000000000000        0.0000000000000000     
   1.0625000000000000       0.68750000000000000        0.0000000000000000     
   1.0937500000000000       0.68750000000000000        0.0000000000000000     
   1.1250000000000000       0.68750000000000000        0.0000000000000000     
   1.0000000000000000       0.71875000000000000        0.0000000000000000     
   1.0312500000000000       0.71875000000000000        0.0000000000000000     
   1.0625000000000000       0.71875000000000000        0.0000000000000000     
   1.0937500000000000       0.71875000000000000        0.0000000000000000     
   1.1250000000000000       0.71875000000000000        0.0000000000000000     
   1.0000000000000000       0.75000000000000000        0.0000000000000000     
   1.0312500000000000       0.75000000000000000        0.0000000000000000     
   1.0625000000000000       0.75000000000000000        0.0000000000000000     
   1.0937500000000000       0.75000000000000000        0.0000000000000000     
   1.1250000000000000       0.75000000000000000        0.0000000000000000     
   1.1250000000000000       0.62500000000000000        0.0000000000000000     
   1.1562500000000000       0.62500000000000000        0.0000000000000000     
   1.1875000000000000       0.62500000000000000        0.0000000000000000     
   1.2187500000000000       0.62500000000000000        0.0000000000000000     
   1.2500000000000000       0.62500000000000000        0.0000000000000000     
   1.1250000000000000       0.65625000000000000        0.0000000000000000     
   1.1562500000000000       0.65625000000000000        0.0000000000000000     
   1.1875000000000000       0.65625000000000000        0.0000000000000000     
   1.2187500000000000       0.65625000000000000        0.0000000000000000     
   1.2500000000000000       0.65625000000000000        0.0000000000000000     
   1.1250000000000000       0.68750000000000000        0.0000000000000000     
   1.1562500000000000       0.68750000000000000        0.0000000000000000     
   1.1875000000000000       0.68750000000000000        0.0000000000000000     
   1.2187500000000000       0.68750000000000000        0.0000000000000000     
   1.2500000000000000       0.68750000000000000        0.0000000000000000     
   1.1250000000000000       0.71875000000000000        0.0000000000000000     
   1.1562500000000000       0.71875000000000000        0.0000000000000000     
   1.1875000000000000       0.71875000000000000        0.0000000000000000     
   1.2187500000000000       0.71875000000000000        0.0000000000000000     
   1.2500000000000000       0.71875000000000000        0.0000000000000000     
   1.1250000000000000       0.75000000000000000        0.0000000000000000     
   1.1562500000000000       0.75000000000000000        0.0000000000000000     
   1.1875000000000000       0.75000000000000000        0.0000000000000000     
   1.2187500000000000       0.75000000000000000        0.0000000000000000     
   1.2500000000000000       0.75000000000000000        0.0000000000000000     
   1.2500000000000000       0.62500000000000000        0.0000000000000000     
   1.2812500000000000       0.62500000000000000        0.0000000000000000     
   1.3125000000000000       0.62500000000000000        0.0000000000000000     
   1.3437500000000000       0.62500000000000000        0.0000000000000000     
   1.3750000000000000       0.62500000000000000        0.0000000000000000     
   1.2500000000000000       0.65625000000000000        0.0000000000000000     
   1.2812500000000000       0.65625000000000000        0.0000000000000000     
   1.3125000000000000       0.65625000000000000        0.0000000000000000     
   1.3437500000000000       0.65625000000000000        0.0000000000000000     
   1.3750000000000000       0.65625000000000000        0.0000000000000000     
   1.2500000000000000       0.68750000000000000        0.0000000000000000     
   1.2812500000000000       0.68750000000000000        0.0000000000000000     
   1.3125000000000000       0.68750000000000000        0.0000000000000000     
   1.3437500000000000       0.68750000000000000        0.0000000000000000     
   1.3750000000000000       0.68750000000000000        0.0000000000000000     
   1.2500000000000000       0.71875000000000000        0.0000000000000000     
   1.2812500000000000       0.71875000000000000        0.0000000000000000     
   1.3125000000000000       0.71875000000000000        0.0000000000000000     
   1.3437500000000000       0.71875000000000000        0.0000000000000000     
   1.3750000000000000       0.71875000000000000        0.0000000000000000     
   1.2500000000000000       0.75000000000000000        0.0000000000000000     
   1.2812500000000000       0.75000000000000000        0.0000000000000000     
   1.3125000000000000       0.75000000000000000        0.0000000000000000     
   1.3437500000000000       0.75000000000000000        0.0000000000000000     
   1.3750000000000000       0.75000000000000000        0.0000000000000000     
   1.3750000000000000       0.62500000000000000        0.0000000000000000     
   1.4062500000000000       0.62500000000000000        0.0000000000000000     
   1.4375000000000000       0.62500000000000000        0.0000000000000000     
   1.4687500000000000       0.62500000000000000        0.0000000000000000     
   1.5000000000000000       0.62500000000000000        0.0000000000000000     
   1.3750000000000000       0.65625000000000000        0.0000000000000000     
   1.4062500000000000       0.65625000000000000        0.0000000000000000     
   1.4375000000000000       0.65625000000000000        0.0000000000000000     
   1.4687500000000000       0.65625000000000000        0.0000000000000000     
   1.5000000000000000       0.65625000000000000        0.0000000000000000     
   1.3750000000000000       0.68750000000000000        0.0000000000000000     
   1.4062500000000000       0.68750000000000000        0.0000000000000000     
   1.4375000000000000       0.68750000000000000        0.0000000000000000     
   1.4687500000000000       0.68750000000000000        0.0000000000000000     
   1.5000000000000000       0.68750000000000000        0.0000000000000000     
   1.3750000000000000       0.71875000000000000        0.0000000000000000     
   1.4062500000000000       0.71875000000000000        0.0000000000000000     
   1.4375000000000000       0.71875000000000000        0.0000000000000000     
   1.4687500000000000       0.71875000000000000        0.0000000000000000     
   1.5000000000000000       0.71875000000000000        0.0000000000000000     
   1.3750000000000000       0.75000000000000000        0.0000000000000000     
   1.4062500000000000       0.75000000000000000        0.0000000000000000     
   1.4375000000000000       0.75000000000000000        0.0000000000000000     
   1.4687500000000000       0.75000000000000000        0.0000000000000000     
   1.5000000000000000       0.75000000000000000        0.0000000000000000     
  0.50000000000000000       0.75000000000000000        0.0000000000000000     
  0.53125000000000000       0.75000000000000000        0.0000000000000000     
  0.56250000000000000       0.75000000000000000        0.0000000000000000     
  0.59375000000000000       0.75000000000000000        0.0000000000000000     
  0.62500000000000000       0.75000000000000000        0.0000000000000000     
  0.50000000000000000       0.78125000000000000        0.0000000000000000     
  0.53125000000000000       0.78125000000000000        0.0000000000000000     
  0.56250000000000000       0.78125000000000000        0.0000000000000000     
  0.59375000000000000       0.78125000000000000        0.0000000000000000     
  0.62500000000000000       0.78125000000000000        0.0000000000000000     
  0.50000000000000000       0.81250000000000000        0.0000000000000000     
  0.53125000000000000       0.81250000000000000        0.0000000000000000     
  0.56250000000000000       0.81250000000000000        0.0000000000000000     
  0.59375000000000000       0.81250000000000000        0.0000000000000000     
  0.62500000000000000       0.81250000000000000        0.0000000000000000     
  0.50000000000000000       0.84375000000000000        0.0000000000000000     
  0.53125000000000000       0.84375000000000000        0.0000000000000000     
  0.56250000000000000       0.84375000000000000        0.0000000000000000     
  0.59375000000000000       0.84375000000000000        0.0000000000000000     
  0.62500000000000000       0.84375000000000000        0.0000000000000000     
  0.50000000000000000       0.87500000000000000        0.0000000000000000     
  0.53125000000000000       0.87500000000000000        0.0000000000000000     
  0.56250000000000000       0.87500000000000000        0.0000000000000000     
  0.59375000000000000       0.87500000000000000        0.0000000000000000     
  0.62500000000000000       0.87500000000000000        0.0000000000000000     
  0.62500000000000000       0.75000000000000000        0.0000000000000000     
  0.65625000000000000       0.75000000000000000        0.0000000000000000     
  0.68750000000000000       0.75000000000000000        0.0000000000000000     
  0.71875000000000000       0.75000000000000000        0.0000000000000000     
  0.75000000000000000       0.75000000000000000        0.0000000000000000     
  0.62500000000000000       0.78125000000000000        0.0000000000000000     
  0.65625000000000000       0.78125000000000000        0.0000000000000000     
  0.68750000000000000       0.78125000000000000        0.0000000000000000     
  0.71875000000000000       0.78125000000000000        0.0000000000000000     
  0.75000000000000000       0.78125000000000000        0.0000000000000000     
  0.62500000000000000       0.81250000000000000        0.0000000000000000     
  0.65625000000000000       0.81250000000000000        0.0000000000000000     
  0.68750000000000000       0.81250000000000000        0.0000000000000000     
  0.71875000000000000       0.81250000000000000        0.0000000000000000     
  0.75000000000000000       0.81250000000000000        0.0000000000000000     
  0.62500000000000000       0.84375000000000000        0.0000000000000000     
  0.65625000000000000       0.84375000000000000        0.0000000000000000     
  0.68750000000000000       0.84375000000000000        0.0000000000000000     
  0.71875000000000000       0.84375000000000000        0.0000000000000000     
  0.75000000000000000       0.84375000000000000        0.0000000000000000     
  0.62500000000000000       0.87500000000000000        0.0000000000000000     
  0.65625000000000000       0.87500000000000000        0.0000000000000000     
  0.68750000000000000       0.87500000000000000        0.0000000000000000     
  0.71875000000000000       0.87500000000000000        0.0000000000000000     
  0.75000000000000000       0.87500000000000000        0.0000000000000000     
  0.75000000000000000       0.75000000000000000        0.0000000000000000     
  0.78125000000000000       0.75000000000000000        0.0000000000000000     
  0.81250000000000000       0.75000000000000000        0.0000000000000000     
  0.84375000000000000       0.75000000000000000        0.0000000000000000     
  0.87500000000000000       0.75000000000000000        0.0000000000000000     
  0.75000000000000000       0.78125000000000000        0.0000000000000000     
  0.78125000000000000       0.78125000000000000        0.0000000000000000     
  0.81250000000000000       0.78125000000000000        0.0000000000000000     
  0.84375000000000000       0.78125000000000000        0.0000000000000000     
  0.87500000000000000       0.78125000000000000        0.0000000000000000     
  0.75000000000000000       0.81250000000000000        0.0000000000000000     
  0.78125000000000000       0.81250000000000000        0.0000000000000000     
  0.81250000000000000       0.81250000000000000        0.0000000000000000     
  0.84375000000000000       0.81250000000000000        0.0000000000000000     
  0.87500000000000000       0.81250000000000000        0.0000000000000000     
  0.75000000000000000       0.84375000000000000        0.0000000000000000     
  0.78125000000000000       0.84375000000000000        0.0000000000000000     
  0.81250000000000000       0.84375000000000000        0.0000000000000000     
  0.84375000000000000       0.84375000000000000        0.0000000000000000     
  0.87500000000000000       0.84375000000000000        0.0000000000000000     
  0.75000000000000000       0.87500000000000000        0.0000000000000000     
  0.78125000000000000       0.87500000000000000        0.0000000000000000     
  0.81250000000000000       0.87500000000000000        0.0000000000000000     
  0.84375000000000000       0.87500000000000000        0.0000000000000000     
  0.87500000000000000       0.87500000000000000        0.0000000000000000     
  0.87500000000000000       0.75000000000000000        0.0000000000000000     
  0.90625000000000000       0.75000000000000000        0.0000000000000000     
  0.93750000000000000       0.75000000000000000        0.0000000000000000     
  0.96875000000000000       0.75000000000000000        0.0000000000000000     
   1.0000000000000000       0.75000000000000000        0.0000000000000000     
  0.87500000000000000       0.78125000000000000        0.0000000000000000     
  0.90625000000000000       0.78125000000000000        0.0000000000000000     
  0.93750000000000000       0.78125000000000000        0.0000000000000000     
  0.96875000000000000       0.78125000000000000        0.0000000000000000     
   1.0000000000000000       0.78125000000000000        0.0000000000000000     
  0.87500000000000000       0.81250000000000000        0.0000000000000000     
  0.90625000000000000       0.81250000000000000        0.0000000000000000     
  0.93750000000000000       0.81250000000000000        0.0000000000000000     
  0.96875000000000000       0.81250000000000000        0.0000000000000000     
   1.0000000000000000       0.81250000000000000        0.0000000000000000     
  0.87500000000000000       0.84375000000000000        0.0000000000000000     
  0.90625000000000000       0.84375000000000000        0.0000000000000000     
  0.93750000000000000       0.84375000000000000        0.0000000000000000     
  0.96875000000000000       0.84375000000000000        0.0000000000000000     
   1.0000000000000000       0.84375000000000000        0.0000000000000000     
  0.87500000000000000       0.87500000000000000        0.0000000000000000     
  0.90625000000000000       0.87500000000000000        0.0000000000000000     
  0.93750000000000000       0.87500000000000000        0.0000000000000000     
  0.96875000000000000       0.87500000000000000        0.0000000000000000     
   1.0000000000000000       0.87500000000000000        0.0000000000000000     
   1.0000000000000000       0.75000000000000000        0.0000000000000000     
   1.0312500000000000       0.75000000000000000        0.0000000000000000     
   1.0625000000000000       0.75000000000000000        0.0000000000000000     
   1.0937500000000000       0.75000000000000000        0.0000000000000000     
   1.1250000000000000       0.75000000000000000        0.0000000000000000     
   1.0000000000000000       0.78125000000000000        0.0000000000000000     
   1.0312500000000000       0.78125000000000000        0.0000000000000000     
   1.0625000000000000       0.78125000000000000        0.0000000000000000     
   1.0937500000000000       0.78125000000000000        0.0000000000000000     
   1.1250000000000000       0.78125000000000000        0.0000000000000000     
   1.0000000000000000       0.81250000000000000        0.0000000000000000     
   1.0312500000000000       0.81250000000000000        0.0000000000000000     
   1.0625000000000000       0.81250000000000000        0.0000000000000000     
   1.0937500000000000       0.81250000000000000        0.0000000000000000     
   1.1250000000000000       0.81250000000000000        0.0000000000000000     
   1.0000000000000000       0.84375000000000000        0.0000000000000000     
   1.0312500000000000       0.84375000000000000        0.0000000000000000     
   1.0625000000000000       0.84375000000000000        0.0000000000000000     
   1.0937500000000000       0.84375000000000000        0.0000000000000000     
   1.1250000000000000       0.84375000000000000        0.0000000000000000     
   1.0000000000000000       0.87500000000000000        0.0000000000000000     
   1.0312500000000000       0.87500000000000000        0.0000000000000000     
   1.0625000000000000       0.87500000000000000        0.0000000000000000     
   1.0937500000000000       0.87500000000000000        0.0000000000000000     
   1.1250000000000000       0.87500000000000000        0.0000000000000000     
   1.1250000000000000       0.75000000000000000        0.0000000000000000     
   1.1562500000000000       0.75000000000000000        0.0000000000000000     
   1.1875000000000000       0.75000000000000000        0.0000000000000000     
   1.2187500000000000       0.75000000000000000        0.0000000000000000     
   1.2500000000000000       0.75000000000000000        0.0000000000000000     
   1.1250000000000000       0.78125000000000000        0.0000000000000000     
   1.1562500000000000       0.78125000000000000        0.0000000000000000     
   1.1875000000000000       0.78125000000000000        0.0000000000000000     
   1.2187500000000000       0.78125000000000000        0.0000000000000000     
   1.2500000000000000       0.78125000000000000        0.0000000000000000     
   1.1250000000000000       0.81250000000000000        0.0000000000000000     
   1.1562500000000000       0.81250000000000000        0.0000000000000000     
   1.1875000000000000       0.81250000000000000        0.0000000000000000     
   1.2187500000000000       0.81250000000000000        0.0000000000000000     
   1.2500000000000000       0.81250000000000000        0.0000000000000000     
   1.1250000000000000       0.84375000000000000        0.0000000000000000     
   1.1562500000000000       0.84375000000000000        0.0000000000000000     
   1.1875000000000000       0.84375000000000000        0.0000000000000000     
   1.2187500000000000       0.84375000000000000        0.0000000000000000     
   1.2500000000000000       0.84375000000000000        0.0000000000000000     
   1.1250000000000000       0.87500000000000000        0.0000000000000000     
   1.1562500000000000       0.87500000000000000        0.0000000000000000     
   1.1875000000000000       0.87500000000000000        0.0000000000000000     
   1.2187500000000000       0.87500000000000000        0.0000000000000000     
   1.2500000000000000       0.87500000000000000        0.0000000000000000     
   1.2500000000000000       0.75000000000000000        0.0000000000000000     
   1.2812500000000000       0.75000000000000000        0.0000000000000000     
   1.3125000000000000       0.75000000000000000        0.0000000000000000     
   1.3437500000000000       0.75000000000000000        0.0000000000000000     
   1.3750000000000000       0.75000000000000000        0.0000000000000000     
   1.2500000000000000       0.78125000000000000        0.0000000000000000     
   1.2812500000000000       0.78125000000000000        0.0000000000000000     
   1.3125000000000000       0.78125000000000000        0.0000000000000000     
   1.3437500000000000       0.78125000000000000        0.0000000000000000     
   1.3750000000000000       0.78125000000000000        0.0000000000000000     
   1.2500000000000000       0.81250000000000000        0.0000000000000000     
   1.2812500000000000       0.81250000000000000        0.0000000000000000     
   1.3125000000000000       0.81250000000000000        0.0000000000000000     
   1.3437500000000000       0.81250000000000000        0.0000000000000000     
   1.3750000000000000       0.81250000000000000        0.0000000000000000     
   1.2500000000000000       0.84375000000000000        0.0000000000000000     
   1.2812500000000000       0.84375000000000000        0.0000000000000000     
   1.3125000000000000       0.84375000000000000        0.0000000000000000     
   1.3437500000000000       0.84375000000000000        0.0000000000000000     
   1.3750000000000000       0.84375000000000000        0.0000000000000000     
   1.2500000000000000       0.87500000000000000        0.0000000000000000     
   1.2812500000000000       0.87500000000000000        0.0000000000000000     
   1.3125000000000000       0.87500000000000000        0.0000000000000000     
   1.3437500000000000       0.87500000000000000        0.0000000000000000     
   1.3750000000000000       0.87500000000000000        0.0000000000000000     
   1.3750000000000000       0.75000000000000000        0.0000000000000000     
   1.4062500000000000       0.75000000000000000        0.0000000000000000     
   1.4375000000000000       0.75000000000000000        0.0000000000000000     
   1.4687500000000000       0.75000000000000000        0.0000000000000000     
   1.5000000000000000       0.75000000000000000        0.0000000000000000     
   1.3750000000000000       0.78125000000000000        0.0000000000000000     
   1.4062500000000000       0.78125000000000000        0.0000000000000000     
   1.4375000000000000       0.78125000000000000        0.0000000000000000     
   1.4687500000000000       0.78125000000000000        0.0000000000000000     
   1.5000000000000000       0.78125000000000000        0.0000000000000000     
   1.3750000000000000       0.81250000000000000        0.0000000000000000     
   1.4062500000000000       0.81250000000000000        0.0000000000000000     
   1.4375000000000000       0.81250000000000000        0.0000000000000000     
   1.4687500000000000       0.81250000000000000        0.0000000000000000     
   1.5000000000000000       0.81250000000000000        0.0000000000000000     
   1.3750000000000000       0.84375000000000000        0.0000000000000000     
   1.4062500000000000       0.84375000000000000        0.0000000000000000     
   1.4375000000000000       0.84375000000000000        0.0000000000000000     
   1.4687500000000000       0.84375000000000000        0.0000000000000000     
   1.5000000000000000       0.84375000000000000        0.0000000000000000     
   1.3750000000000000       0.87500000000000000        0.0000000000000000     
   1.4062500000000000       0.87500000000000000        0.0000000000000000     
   1.4375000000000000       0.87500000000000000        0.0000000000000000     
   1.4687500000000000       0.87500000000000000        0.0000000000000000     
   1.5000000000000000       0.87500000000000000        0.0000000000000000     
  0.50000000000000000       0.87500000000000000        0.0000000000000000     
  0.53125000000000000       0.87500000000000000        0.0000000000000000     
  0.56250000000000000       0.87500000000000000        0.0000000000000000     
  0.59375000000000000       0.87500000000000000        0.0000000000000000     
  0.62500000000000000       0.87500000000000000        0.0000000000000000     
  0.50000000000000000       0.90625000000000000        0.0000000000000000     
  0.53125000000000000       0.90625000000000000        0.0000000000000000     
  0.56250000000000000       0.90625000000000000        0.0000000000000000     
  0.59375000000000000       0.90625000000000000        0.0000000000000000     
  0.62500000000000000       0.90625000000000000        0.0000000000000000     
  0.50000000000000000       0.93750000000000000        0.0000000000000000     
  0.53125000000000000       0.93750000000000000        0.0000000000000000     
  0.56250000000000000       0.93750000000000000        0.0000000000000000     
  0.59375000000000000       0.93750000000000000        0.0000000000000000     
  0.62500000000000000       0.93750000000000000        0.0000000000000000     
  0.50000000000000000       0.96875000000000000        0.0000000000000000     
  0.53125000000000000       0.96875000000000000        0.0000000000000000     
  0.56250000000000000       0.96875000000000000        0.0000000000000000     
  0.59375000000000000       0.96875000000000000        0.0000000000000000     
  0.62500000000000000       0.96875000000000000        0.0000000000000000     
  0.50000000000000000        1.0000000000000000        0.0000000000000000     
  0.53125000000000000        1.0000000000000000        0.0000000000000000     
  0.56250000000000000        1.0000000000000000        0.0000000000000000     
  0.59375000000000000        1.0000000000000000        0.0000000000000000     
  0.62500000000000000        1.0000000000000000        0.0000000000000000     
  0.62500000000000000       0.87500000000000000        0.0000000000000000     
  0.65625000000000000       0.87500000000000000        0.0000000000000000     
  0.68750000000000000       0.87500000000000000        0.0000000000000000     
  0.71875000000000000       0.87500000000000000        0.0000000000000000     
  0.75000000000000000       0.87500000000000000        0.0000000000000000     
  0.62500000000000000       0.90625000000000000        0.0000000000000000     
  0.65625000000000000       0.90625000000000000        0.0000000000000000     
  0.68750000000000000       0.90625000000000000        0.0000000000000000     
  0.71875000000000000       0.90625000000000000        0.0000000000000000     
  0.75000000000000000       0.90625000000000000        0.0000000000000000     
  0.62500000000000000       0.93750000000000000        0.0000000000000000     
  0.65625000000000000       0.93750000000000000        0.0000000000000000     
  0.68750000000000000       0.93750000000000000        0.0000000000000000     
  0.71875000000000000       0.93750000000000000        0.0000000000000000     
  0.75000000000000000       0.93750000000000000        0.0000000000000000     
  0.62500000000000000       0.96875000000000000        0.0000000000000000     
  0.65625000000000000       0.96875000000000000        0.0000000000000000     
  0.68750000000000000       0.96875000000000000        0.0000000000000000     
  0.71875000000000000       0.96875000000000000        0.0000000000000000     
  0.75000000000000000       0.96875000000000000        0.0000000000000000     
  0.62500000000000000        1.0000000000000000        0.0000000000000000     
  0.65625000000000000        1.0000000000000000        0.0000000000000000     
  0.68750000000000000        1.0000000000000000        0.0000000000000000     
  0.71875000000000000        1.0000000000000000        0.0000000000000000     
  0.75000000000000000        1.0000000000000000        0.0000000000000000     
  0.75000000000000000       0.87500000000000000        0.0000000000000000     
  0.78125000000000000       0.87500000000000000        0.0000000000000000     
  0.81250000000000000       0.87500000000000000        0.0000000000000000     
  0.84375000000000000       0.87500000000000000        0.0000000000000000     
  0.87500000000000000       0.87500000000000000        0.0000000000000000     
  0.75000000000000000       0.90625000000000000        0.0000000000000000     
  0.78125000000000000       0.90625000000000000        0.0000000000000000     
  0.81250000000000000       0.90625000000000000        0.0000000000000000     
  0.84375000000000000       0.90625000000000000        0.0000000000000000     
  0.87500000000000000       0.90625000000000000        0.0000000000000000     
  0.75000000000000000       0.93750000000000000        0.0000000000000000     
  0.78125000000000000       0.93750000000000000        0.0000000000000000     
  0.81250000000000000       0.93750000000000000        0.0000000000000000     
  0.84375000000000000       0.93750000000000000        0.0000000000000000     
  0.87500000000000000       0.93750000000000000        0.0000000000000000     
  0.75000000000000000       0.96875000000000000        0.0000000000000000     
  0.78125000000000000       0.96875000000000000        0.0000000000000000     
  0.81250000000000000       0.96875000000000000        0.0000000000000000     
  0.84375000000000000       0.96875000000000000        0.0000000000000000     
  0.87500000000000000       0.96875000000000000        0.0000000000000000     
  0.75000000000000000        1.0000000000000000        0.0000000000000000     
  0.78125000000000000        1.0000000000000000        0.0000000000000000     
  0.81250000000000000        1.0000000000000000        0.0000000000000000     
  0.84375000000000000        1.0000000000000000        0.0000000000000000     
  0.87500000000000000        1.0000000000000000        0.0000000000000000     
  0.87500000000000000       0.87500000000000000        0.0000000000000000     
  0.90625000000000000       0.87500000000000000        0.0000000000000000     
  0.93750000000000000       0.87500000000000000        0.0000000000000000     
  0.96875000000000000       0.87500000000000000        0.0000000000000000     
   1.0000000000000000       0.87500000000000000        0.0000000000000000     
  0.87500000000000000       0.90625000000000000        0.0000000000000000     
  0.90625000000000000       0.90625000000000000        0.0000000000000000     
  0.93750000000000000       0.90625000000000000        0.0000000000000000     
  0.96875000000000000       0.90625000000000000        0.0000000000000000     
   1.0000000000000000       0.90625000000000000        0.0000000000000000     
  0.87500000000000000       0.93750000000000000        0.0000000000000000     
  0.90625000000000000       0.93750000000000000        0.0000000000000000     
  0.93750000000000000       0.93750000000000000        0.0000000000000000     
  0.96875000000000000       0.93750000000000000        0.0000000000000000     
   1.0000000000000000       0.93750000000000000        0.0000000000000000     
  0.87500000000000000       0.96875000000000000        0.0000000000000000     
  0.90625000000000000       0.96875000000000000        0.0000000000000000     
  0.93750000000000000       0.96875000000000000        0.0000000000000000     
  0.96875000000000000       0.96875000000000000        0.0000000000000000     
   1.0000000000000000       0.96875000000000000        0.0000000000000000     
  0.87500000000000000        1.0000000000000000        0.0000000000000000     
  0.90625000000000000        1.0000000000000000        0.0000000000000000     
  0.93750000000000000        1.0000000000000000        0.0000000000000000     
  0.96875000000000000        1.0000000000000000        0.0000000000000000     
   1.0000000000000000        1.0000000000000000        0.0000000000000000     
   1.0000000000000000       0.87500000000000000        0.0000000000000000     
   1.0312500000000000       0.87500000000000000        0.0000000000000000     
   1.0625000000000000       0.87500000000000000        0.0000000000000000     
   1.0937500000000000       0.87500000000000000        0.0000000000000000     
   1.1250000000000000       0.87500000000000000        0.0000000000000000     
   1.0000000000000000       0.90625000000000000        0.0000000000000000     
   1.0312500000000000       0.90625000000000000        0.0000000000000000     
   1.0625000000000000       0.90625000000000000        0.0000000000000000     
   1.0937500000000000       0.90625000000000000        0.0000000000000000     
   1.1250000000000000       0.90625000000000000        0.0000000000000000     
   1.0000000000000000       0.93750000000000000        0.0000000000000000     
   1.0312500000000000       0.93750000000000000        0.0000000000000000     
   1.0625000000000000       0.93750000000000000        0.0000000000000000     
   1.0937500000000000       0.93750000000000000        0.0000000000000000     
   1.1250000000000000       0.93750000000000000        0.0000000000000000     
   1.0000000000000000       0.96875000000000000        0.0000000000000000     
   1.0312500000000000       0.96875000000000000        0.0000000000000000     
   1.0625000000000000       0.96875000000000000        0.0000000000000000     
   1.0937500000000000       0.96875000000000000        0.0000000000000000     
   1.1250000000000000       0.96875000000000000        0.0000000000000000     
   1.0000000000000000        1.0000000000000000        0.0000000000000000     
   1.0312500000000000        1.0000000000000000        0.0000000000000000     
   1.0625000000000000        1.0000000000000000        0.0000000000000000     
   1.0937500000000000        1.0000000000000000        0.0000000000000000     
   1.1250000000000000        1.0000000000000000        0.0000000000000000     
   1.1250000000000000       0.87500000000000000        0.0000000000000000     
   1.1562500000000000       0.87500000000000000        0.0000000000000000     
   1.1875000000000000       0.87500000000000000        0.0000000000000000     
   1.2187500000000000       0.87500000000000000        0.0000000000000000     
   1.2500000000000000       0.87500000000000000        0.0000000000000000     
   1.1250000000000000       0.90625000000000000        0.0000000000000000     
   1.1562500000000000       0.90625000000000000        0.0000000000000000     
   1.1875000000000000       0.90625000000000000        0.0000000000000000     
   1.2187500000000000       0.90625000000000000        0.0000000000000000     
   1.2500000000000000       0.90625000000000000        0.0000000000000000     
   1.1250000000000000       0.93750000000000000        0.0000000000000000     
   1.1562500000000000       0.93750000000000000        0.0000000000000000     
   1.1875000000000000       0.93750000000000000        0.0000000000000000     
   1.2187500000000000       0.93750000000000000        0.0000000000000000     
   1.2500000000000000       0.93750000000000000        0.0000000000000000     
   1.1250000000000000       0.96875000000000000        0.0000000000000000     
   1.1562500000000000       0.96875000000000000        0.0000000000000000     
   1.1875000000000000       0.96875000000000000        0.0000000000000000     
   1.2187500000000000       0.96875000000000000        0.0000000000000000     
   1.2500000000000000       0.96875000000000000        0.0000000000000000     
   1.1250000000000000        1.0000000000000000        0.0000000000000000     
   1.1562500000000000        1.0000000000000000        0.0000000000000000     
   1.1875000000000000        1.0000000000000000        0.0000000000000000     
   1.2187500000000000        1.0000000000000000        0.0000000000000000     
   1.2500000000000000        1.0000000000000000        0.0000000000000000     
   1.2500000000000000       0.87500000000000000        0.0000000000000000     
   1.2812500000000000       0.87500000000000000        0.0000000000000000     
   1.3125000000000000       0.87500000000000000        0.0000000000000000     
   1.3437500000000000       0.87500000000000000        0.0000000000000000     
   1.3750000000000000       0.87500000000000000        0.0000000000000000     
   1.2500000000000000       0.90625000000000000        0.0000000000000000     
   1.2812500000000000       0.90625000000000000        0.0000000000000000     
   1.3125000000000000       0.90625000000000000        0.0000000000000000     
   1.3437500000000000       0.90625000000000000        0.0000000000000000     
   1.3750000000000000       0.90625000000000000        0.0000000000000000     
   1.2500000000000000       0.93750000000000000        0.0000000000000000     
   1.2812500000000000       0.93750000000000000        0.0000000000000000     
   1.3125000000000000       0.93750000000000000        0.0000000000000000     
   1.3437500000000000       0.93750000000000000        0.0000000000000000     
   1.3750000000000000       0.93750000000000000        0.0000000000000000     
   1.2500000000000000       0.96875000000000000        0.0000000000000000     
   1.2812500000000000       0.96875000000000000        0.0000000000000000     
   1.3125000000000000       0.96875000000000000        0.0000000000000000     
   1.3437500000000000       0.96875000000000000        0.0000000000000000     
   1.3750000000000000       0.96875000000000000        0.0000000000000000     
   1.2500000000000000        1.0000000000000000        0.0000000000000000     
   1.2812500000000000        1.0000000000000000        0.0000000000000000     
   1.3125000000000000        1.0000000000000000        0.0000000000000000     
   1.3437500000000000        1.0000000000000000        0.0000000000000000     
   1.3750000000000000        1.0000000000000000        0.0000000000000000     
   1.3750000000000000       0.87500000000000000        0.0000000000000000     
   1.4062500000000000       0.87500000000000000        0.0000000000000000     
   1.4375000000000000       0.87500000000000000        0.0000000000000000     
   1.4687500000000000       0.87500000000000000        0.0000000000000000     
   1.5000000000000000       0.87500000000000000        0.0000000000000000     
   1.3750000000000000       0.90625000000000000        0.0000000000000000     
   1.4062500000000000       0.90625000000000000        0.0000000000000000     
   1.4375000000000000       0.90625000000000000        0.0000000000000000     
   1.4687500000000000       0.90625000000000000        0.0000000000000000     
   1.5000000000000000       0.90625000000000000        0.0000000000000000     
   1.3750000000000000       0.93750000000000000        0.0000000000000000     
   1.4062500000000000       0.93750000000000000        0.0000000000000000     
   1.4375000000000000       0.93750000000000000        0.0000000000000000     
   1.4687500000000000       0.93750000000000000        0.0000000000000000     
   1.5000000000000000       0.93750000000000000        0.0000000000000000     
   1.3750000000000000       0.96875000000000000        0.0000000000000000     
   1.4062500000000000       0.96875000000000000        0.0000000000000000     
   1.4375000000000000       0.96875000000000000        0.0000000000000000     
   1.4687500000000000       0.96875000000000000        0.0000000000000000     
   1.5000000000000000       0.96875000000000000        0.0000000000000000     
   1.3750000000000000        1.0000000000000000        0.0000000000000000     
   1.4062500000000000        1.0000000000000000        0.0000000000000000     
   1.4375000000000000        1.0000000000000000        0.0000000000000000     
   1.4687500000000000        1.0000000000000000        0.0000000000000000     
   1.5000000000000000        1.0000000000000000        0.0000000000000000     
 </DataArray>
 </Points>
 <Cells>
 <DataArray  type="Int32"  Name="connectivity"  format="ascii">
           0           1           6           5
           1           2           7           6
           2           3           8           7
           3           4           9           8
           5           6          11          10
           6           7          12          11
           7           8          13          12
           8           9          14          13
          10          11          16          15
          11          12          17          16
          12          13          18          17
          13          14          19          18
          15          16          21          20
          16          17          22          21
          17          18          23          22
          18          19          24          23
          25          26          31          30
          26          27          32          31
          27          28          33          32
          28          29          34          33
          30          31          36          35
          31          32          37          36
          32          33          38          37
          33          34          39          38
          35          36          41          40
          36          37          42          41
          37          38          43          42
          38          39          44          43
          40          41          46          45
          41          42          47          46
          42          43          48          47
          43          44          49          48
          50          51          56          55
          51          52          57          56
          52          53          58          57
          53          54          59          58
          55          56          61          60
          56          57          62          61
          57          58          63          62
          58          59          64          63
          60          61          66          65
          61          62          67          66
          62          63          68          67
          63          64          69          68
          65          66          71          70
          66          67          72          71
          67          68          73          72
          68          69          74          73
          75          76          81          80
          76          77          82          81
          77          78          83          82
          78          79          84          83
          80          81          86          85
          81          82          87          86
          82          83          88          87
          83          84          89          88
          85          86          91          90
          86          87          92          91
          87          88          93          92
          88          89          94          93
          90          91          96          95
          91          92          97          96
          92          93          98          97
          93          94          99          98
         100         101         106         105
         101         102         107         106
         102         103         108         107
         103         104         109         108
         105         106         111         110
         106         107         112         111
         107         108         113         112
         108         109         114         113
         110         111         116         115
         111         112         117         116
         112         113         118         117
         113         114         119         118
         115         116         121         120
         116         117         122         121
         117         118         123         122
         118         119         124         123
         125         126         131         130
         126         127         132         131
         127         128         133         132
         128         129         134         133
         130         131         136         135
         131         132         137         136
         132         133         138         137
         133         134         139         138
         135         136         141         140
         136         137         142         141
         137         138         143         142
         138         139         144         143
         140         141         146         145
         141         142         147         146
         142         143         148         147
         143         144         149         148
         150         151         156         155
         151         152         157         156
         152         153         158         157
         153         154         159         158
         155         156         161         160
         156         157         162         161
         157         158         163         162
         158         159         164         163
         160         161         166         165
         161         162         167         166
         162         163         168         167
         163         164         169         168
         165         166         171         170
         166         167         172         171
         167         168         173         172
         168         169         174         173
         175         176         181         180
         176         177         182         181
         177         178         183         182
         178         179         184         183
         180         181         186         185
         181         182         187         186
         182         183         188         187
         183         184         189         188
         185         186         191         190
         186         187         192         191
         187         188         193         192
         188         189         194         193
         190         191         196         195
         191         192         197         196
         192         193         198         197
         193         194         199         198
         200         201         206         205
         201         202         207         206
         202         203         208         207
         203         204         209         208
         205         206         211         210
         206         207         212         211
         207         208         213         212
         208         209         214         213
         210         211         216         215
         211         212         217         216
         212         213         218         217
         213         214         219         218
         215         216         221         220
         216         217         222         221
         217         218         223         222
         218         219         224         223
         225         226         231         230
         226         227         232         231
         227         228         233         232
         228         229         234         233
         230         231         236         235
         231         232         237         236
         232         233         238         237
         233         234         239         238
         235         236         241         240
         236         237         242         241
         237         238         243         242
         238         239         244         243
         240         241         246         245
         241         242         247         246
         242         243         248         247
         243         244         249         248
         250         251         256         255
         251         252         257         256
         252         253         258         257
         253         254         259         258
         255         256         261         260
         256         257         262         261
         257         258         263         262
         258         259         264         263
         260         261         266         265
         261         262         267         266
         262         263         268         267
         263         264         269         268
         265         266         271         270
         266         267         272         271
         267         268         273         272
         268         269         274         273
         275         276         281         280
         276         277         282         281
         277         278         283         282
         278         279         284         283
         280         281         286         285
         281         282         287         286
         282         283         288         287
         283         284         289         288
         285         286         291         290
         286         287         292         291
         287         288         293         292
         288         289         294         293
         290         291         296         295
         291         292         297         296
         292         293         298         297
         293         294         299         298
         300         301         306         305
         301         302         307         306
         302         303         308         307
         303         304         309         308
         305         306         311         310
         306         307         312         311
         307         308         313         312
         308         309         314         313
         310         311         316         315
         311         312         317         316
         312         313         318         317
         313         314         319         318
         315         316         321         320
         316         317         322         321
         317         318         323         322
         318         319         324         323
         325         326         331         330
         326         327         332         331
         327         328         333         332
         328         329         334         333
         330         331         336         335
         331         332         337         336
         332         333         338         337
         333         334         339         338
         335         336         341         340
         336         337         342         341
         337         338         343         342
         338         339         344         343
         340         341         346         345
         341         342         347         346
         342         343         348         347
         343         344         349         348
         350         351         356         355
         351         352         357         356
         352         353         358         357
         353         354         359         358
         355         356         361         360
         356         357         362         361
         357         358         363         362
         358         359         364         363
         360         361         366         365
         361         362         367         366
         362         363         368         367
         363         364         369         368
         365         366         371         370
         366         367         372         371
         367         368         373         372
         368         369         374         373
         375         376         381         380
         376         377         382         381
         377         378         383         382
         378         379         384         383
         380         381         386         385
         381         382         387         386
         382         383         388         387
         383         384         389         388
         385         386         391         390
         386         387         392         391
         387         388         393         392
         388         389         394         393
         390         391         396         395
         391         392         397         396
         392         393         398         397
         393         394         399         398
         400         401         406         405
         401         402         407         406
         402         403         408         407
         403         404         409         408
         405         406         411         410
         406         407         412         411
         407         408         413         412
         408         409         414         413
         410         411         416         415
         411         412         417         416
         412         413         418         417
         413         414         419         418
         415         416         421         420
         416         417         422         421
         417         418         423         422
         418         419         424         423
         425         426         431         430
         426         427         432         431
         427         428         433         432
         428         429         434         433
         430         431         436         435
         431         432         437         436
         432         433         438         437
         433         434         439         438
         435         436         441         440
         436         437         442         441
         437         438         443         442
         438         439         444         443
         440         441         446         445
         441         442         447         446
         442         443         448         447
         443         444         449         448
         450         451         456         455
         451         452         457         456
         452         453         458         457
         453         454         459         458
         455         456         461         460
         456         457         462         461
         457         458         463         462
         458         459         464         463
         460         461         466         465
         461         462         467         466
         462         463         468         467
         463         464         469         468
         465         466         471         470
         466         467         472         471
         467         468         473         472
         468         469         474         473
         475         476         481         480
         476         477         482         481
         477         478         483         482
         478         479         484         483
         480         481         486         485
         481         482         487         486
         482         483         488         487
         483         484         489         488
         485         486         491         490
         486         487         492         491
         487         488         493         492
         488         489         494         493
         490         491         496         495
         491         492         497         496
         492         493         498         497
         493         494         499         498
         500         501         506         505
         501         502         507         506
         502         503         508         507
         503         504         509         508
         505         506         511         510
         506         507         512         511
         507         508         513         512
         508         509         514         513
         510         511         516         515
         511         512         517         516
         512         513         518         517
         513         514         519         518
         515         516         521         520
         516         517         522         521
         517         518         523         522
         518         519         524         523
         525         526         531         530
         526         527         532         531
         527         528         533         532
         528         529         534         533
         530         531         536         535
         531         532         537         536
         532         533         538         537
         533         534         539         538
         535         536         541         540
         536         537         542         541
         537         538         543         542
         538         539         544         543
         540         541         546         545
         541         542         547         546
         542         543         548         547
         543         544         549         548
         550         551         556         555
         551         552         557         556
         552         553         558         557
         553         554         559         558
         555         556         561         560
         556         557         562         561
         557         558         563         562
         558         559         564         563
         560         561         566         565
         561         562         567         566
         562         563         568         567
         563         564         569         568
         565         566         571         570
         566         567         572         571
         567         568         573         572
         568         569         574         573
         575         576         581         580
         576         577         582         581
         577         578         583         582
         578         579         584         583
         580         581         586         585
         581         582         587         586
         582         583         588         587
         583         584         589         588
         585         586         591         590
         586         587         592         591
         587         588         593         592
         588         589         594         593
         590         591         596         595
         591         592         597         596
         592         593         598         597
         593         594         599         598
         600         601         606         605
         601         602         607         606
         602         603         608         607
         603         604         609         608
         605         606         611         610
         606         607         612         611
         607         608         613         612
         608         609         614         613
         610         611         616         615
         611         612         617         616
         612         613         618         617
         613         614         619         618
         615         616         621         620
         616         617         622         621
         617         618         623         622
         618         619         624         623
         625         626         631         630
         626         627         632         631
         627         628         633         632
         628         629         634         633
         630         631         636         635
         631         632         637         636
         632         633         638         637
         633         634         639         638
         635         636         641         640
         636         637         642         641
         637         638         643         642
         638         639         644         643
         640         641         646         645
         641         642         647         646
         642         643         648         647
         643         644         649         648
         650         651         656         655
         651         652         657         656
         652         653         658         657
         653         654         659         658
         655         656         661         660
         656         657         662         661
         657         658         663         662
         658         659         664         663
         660         661         666         665
         661         662         667         666
         662         663         668         667
         663         664         669         668
         665         666         671         670
         666         667         672         671
         667         668         673         672
         668         669         674         673
         675         676         681         680
         676         677         682         681
         677         678         683         682
         678         679         684         683
         680         681         686         685
         681         682         687         686
         682         683         688         687
         683         684         689         688
         685         686         691         690
         686         687         692         691
         687         688         693         692
         688         689         694         693
         690         691         696         695
         691         692         697         696
         692         693         698         697
         693         694         699         698
         700         701         706         705
         701         702         707         706
         702         703         708         707
         703         704         709         708
         705         706         711         710
         706         707         712         711
         707         708         713         712
         708         709         714         713
         710         711         716         715
         711         712         717         716
         712         713         718         717
         713         714         719         718
         715         716         721         720
         716         717         722         721
         717         718         723         722
         718         719         724         723
         725         726         731         730
         726         727         732         731
         727         728         733         732
         728         729         734         733
         730         731         736         735
         731         732         737         736
         732         733         738         737
         733         734         739         738
         735         736         741         740
         736         737         742         741
         737         738         743         742
         738         739         744         743
         740         741         746         745
         741         742         747         746
         742         743         748         747
         743         744         749         748
         750         751         756         755
         751         752         757         756
         752         753         758         757
         753         754         759         758
         755         756         761         760
         756         757         762         761
         757         758         763         762
         758         759         764         763
         760         761         766         765
         761         762         767         766
         762         763         768         767
         763         764         769         768
         765         766         771         770
         766         767         772         771
         767         768         773         772
         768         769         774         773
         775         776         781         780
         776         777         782         781
         777         778         783         782
         778         779         784         783
         780         781         786         785
         781         782         787         786
         782         783         788         787
         783         784         789         788
         785         786         791         790
         786         787         792         791
         787         788         793         792
         788         789         794         793
         790         791         796         795
         791         792         797         796
         792         793         798         797
         793         794         799         798
         800         801         806         805
         801         802         807         806
         802         803         808         807
         803         804         809         808
         805         806         811         810
         806         807         812         811
         807         808         813         812
         808         809         814         813
         810         811         816         815
         811         812         817         816
         812         813         818         817
         813         814         819         818
         815         816         821         820
         816         817         822         821
         817         818         823         822
         818         819         824         823
         825         826         831         830
         826         827         832         831
         827         828         833         832
         828         829         834         833
         830         831         836         835
         831         832         837         836
         832         833         838         837
         833         834         839         838
         835         836         841         840
         836         837         842         841
         837         838         843         842
         838         839         844         843
         840         841         846         845
         841         842         847         846
         842         843         848         847
         843         844         849         848
         850         851         856         855
         851         852         857         856
         852         853         858         857
         853         854         859         858
         855         856         861         860
         856         857         862         861
         857         858         863         862
         858         859         864         863
         860         861         866         865
         861         862         867         866
         862         863         868         867
         863         864         869         868
         865         866         871         870
         866         867         872         871
         867         868         873         872
         868         869         874         873
         875         876         881         880
         876         877         882         881
         877         878         883         882
         878         879         884         883
         880         881         886         885
         881         882         887         886
         882         883         888         887
         883         884         889         888
         885         886         891         890
         886         887         892         891
         887         888         893         892
         888         889         894         893
         890         891         896         895
         891         892         897         896
         892         893         898         897
         893         894         899         898
         900         901         906         905
         901         902         907         906
         902         903         908         907
         903         904         909         908
         905         906         911         910
         906         907         912         911
         907         908         913         912
         908         909         914         913
         910         911         916         915
         911         912         917         916
         912         913         918         917
         913         914         919         918
         915         916         921         920
         916         917         922         921
         917         918         923         922
         918         919         924         923
         925         926         931         930
         926         927         932         931
         927         928         933         932
         928         929         934         933
         930         931         936         935
         931         932         937         936
         932         933         938         937
         933         934         939         938
         935         936         941         940
         936         937         942         941
         937         938         943         942
         938         939         944         943
         940         941         946         945
         941         942         947         946
         942         943         948         947
         943         944         949         948
         950         951         956         955
         951         952         957         956
         952         953         958         957
         953         954         959         958
         955         956         961         960
         956         957         962         961
         957         958         963         962
         958         959         964         963
         960         961         966         965
         961         962         967         966
         962         963         968         967
         963         964         969         968
         965         966         971         970
         966         967         972         971
         967         968         973         972
         968         969         974         973
         975         976         981         980
         976         977         982         981
         977         978         983         982
         978         979         984         983
         980         981         986         985
         981         982         987         986
         982         983         988         987
         983         984         989         988
         985         986         991         990
         986         987         992         991
         987         988         993         992
         988         989         994         993
         990         991         996         995
         991         992         997         996
         992         993         998         997
         993         994         999         998
        1000        1001        1006        1005
        1001        1002        1007        1006
        1002        1003        1008        1007
        1003        1004        1009        1008
        1005        1006        1011        1010
        1006        1007        1012        1011
        1007        1008        1013        1012
        1008        1009        1014        1013
        1010        1011        1016        1015
        1011        1012        1017        1016
        1012        1013        1018        1017
        1013        1014        1019        1018
        1015        1016        1021        1020
        1016        1017        1022        1021
        1017        1018        1023        1022
        1018        1019        1024        1023
        1025        1026        1031        1030
        1026        1027        1032        1031
        1027        1028        1033        1032
        1028        1029        1034        1033
        1030        1031        1036        1035
        1031        1032        1037        1036
        1032        1033        1038        1037
        1033        1034        1039        1038
        1035        1036        1041        1040
        1036        1037        1042        1041
        1037        1038        1043        1042
        1038        1039        1044        1043
        1040        1041        1046        1045
        1041        1042        1047        1046
        1042        1043        1048        1047
        1043        1044        1049        1048
        1050        1051        1056        1055
        1051        1052        1057        1056
        1052        1053        1058        1057
        1053        1054        1059        1058
        1055        1056        1061        1060
        1056        1057        1062        1061
        1057        1058        1063        1062
        1058        1059        1064        1063
        1060        1061        1066        1065
        1061        1062        1067        1066
        1062        1063        1068        1067
        1063        1064        1069        1068
        1065        1066        1071        1070
        1066        1067        1072        1071
        1067        1068        1073        1072
        1068        1069        1074        1073
        1075        1076        1081        1080
        1076        1077        1082        1081
        1077        1078        1083        1082
        1078        1079        1084        1083
        1080        1081        1086        1085
        1081        1082        1087        1086
        1082        1083        1088        1087
        1083        1084        1089        1088
        1085        1086        1091        1090
        1086        1087        1092        1091
        1087        1088        1093        1092
        1088        1089        1094        1093
        1090        1091        1096        1095
        1091        1092        1097        1096
        1092        1093        1098        1097
        1093        1094        1099        1098
        1100        1101        1106        1105
        1101        1102        1107        1106
        1102        1103        1108        1107
        1103        1104        1109        1108
        1105        1106        1111        1110
        1106        1107        1112        1111
        1107        1108        1113        1112
        1108        1109        1114        1113
        1110        1111        1116        1115
        1111        1112        1117        1116
        1112        1113        1118        1117
        1113        1114        1119        1118
        1115        1116        1121        1120
        1116        1117        1122        1121
        1117        1118        1123        1122
        1118        1119        1124        1123
        1125        1126        1131        1130
        1126        1127        1132        1131
        1127        1128        1133        1132
        1128        1129        1134        1133
        1130        1131        1136        1135
        1131        1132        1137        1136
        1132        1133        1138        1137
        1133        1134        1139        1138
        1135        1136        1141        1140
        1136        1137        1142        1141
        1137        1138        1143        1142
        1138        1139        1144        1143
        1140        1141        1146        1145
        1141        1142        1147        1146
        1142        1143        1148        1147
        1143        1144        1149        1148
        1150        1151        1156        1155
        1151        1152        1157        1156
        1152        1153        1158        1157
        1153        1154        1159        1158
        1155        1156        1161        1160
        1156        1157        1162        1161
        1157        1158        1163        1162
        1158        1159        1164        1163
        1160        1161        1166        1165
        1161        1162        1167        1166
        1162        1163        1168        1167
        1163        1164        1169        1168
        1165        1166        1171        1170
        1166        1167        1172        1171
        1167        1168        1173        1172
        1168        1169        1174        1173
        1175        1176        1181        1180
        1176        1177        1182        1181
        1177        1178        1183        1182
        1178        1179        1184        1183
        1180        1181        1186        1185
        1181        1182        1187        1186
        1182        1183        1188        1187
        1183        1184        1189        1188
        1185        1186        1191        1190
        1186        1187        1192        1191
        1187        1188        1193        1192
        1188        1189        1194        1193
        1190        1191        1196        1195
        1191        1192        1197        1196
        1192        1193        1198        1197
        1193        1194        1199        1198
        1200        1201        1206        1205
        1201        1202        1207        1206
        1202        1203        1208        1207
        1203        1204        1209        1208
        1205        1206        1211        1210
        1206        1207        1212        1211
        1207        1208        1213        1212
        1208        1209        1214        1213
        1210        1211        1216        1215
        1211        1212        1217        1216
        1212        1213        1218        1217
        1213        1214        1219        1218
        1215        1216        1221        1220
        1216        1217        1222        1221
        1217        1218        1223        1222
        1218        1219        1224        1223
        1225        1226        1231        1230
        1226        1227        1232        1231
        1227        1228        1233        1232
        1228        1229        1234        1233
        1230        1231        1236        1235
        1231        1232        1237        1236
        1232        1233        1238        1237
        1233        1234        1239        1238
        1235        1236        1241        1240
        1236        1237        1242        1241
        1237        1238        1243        1242
        1238        1239        1244        1243
        1240        1241        1246        1245
        1241        1242        1247        1246
        1242        1243        1248        1247
        1243        1244        1249        1248
        1250        1251        1256        1255
        1251        1252        1257        1256
        1252        1253        1258        1257
        1253        1254        1259        1258
        1255        1256        1261        1260
        1256        1257        1262        1261
        1257        1258        1263        1262
        1258        1259        1264        1263
        1260        1261        1266        1265
        1261        1262        1267        1266
        1262        1263        1268        1267
        1263        1264        1269        1268
        1265        1266        1271        1270
        1266        1267        1272        1271
        1267        1268        1273        1272
        1268        1269        1274        1273
        1275        1276        1281        1280
        1276        1277        1282        1281
        1277        1278        1283        1282
        1278        1279        1284        1283
        1280        1281        1286        1285
        1281        1282        1287        1286
        1282        1283        1288        1287
        1283        1284        1289        1288
        1285        1286        1291        1290
        1286        1287        1292        1291
        1287        1288        1293        1292
        1288        1289        1294        1293
        1290        1291        1296        1295
        1291        1292        1297        1296
        1292        1293        1298        1297
        1293        1294        1299        1298
        1300        1301        1306        1305
        1301        1302        1307        1306
        1302        1303        1308        1307
        1303        1304        1309        1308
        1305        1306        1311        1310
        1306        1307        1312        1311
        1307        1308        1313        1312
        1308        1309        1314        1313
        1310        1311        1316        1315
        1311        1312        1317        1316
        1312        1313        1318        1317
        1313        1314        1319        1318
        1315        1316        1321        1320
        1316        1317        1322        1321
        1317        1318        1323        1322
        1318        1319        1324        1323
        1325        1326        1331        1330
        1326        1327        1332        1331
        1327        1328        1333        1332
        1328        1329        1334        1333
        1330        1331        1336        1335
        1331        1332        1337        1336
        1332        1333        1338        1337
        1333        1334        1339        1338
        1335        1336        1341        1340
        1336        1337        1342        1341
        1337        1338        1343        1342
        1338        1339        1344        1343
        1340        1341        1346        1345
        1341        1342        1347        1346
        1342        1343        1348        1347
        1343        1344        1349        1348
        1350        1351        1356        1355
        1351        1352        1357        1356
        1352        1353        1358        1357
        1353        1354        1359        1358
        1355        1356        1361        1360
        1356        1357        1362        1361
        1357        1358        1363        1362
        1358        1359        1364        1363
        1360        1361        1366        1365
        1361        1362        1367        1366
        1362        1363        1368        1367
        1363        1364        1369        1368
        1365        1366        1371        1370
        1366        1367        1372        1371
        1367        1368        1373        1372
        1368        1369        1374        1373
        1375        1376        1381        1380
        1376        1377        1382        1381
        1377        1378        1383        1382
        1378        1379        1384        1383
        1380        1381        1386        1385
        1381        1382        1387        1386
        1382        1383        1388        1387
        1383        1384        1389        1388
        1385        1386        1391        1390
        1386        1387        1392        1391
        1387        1388        1393        1392
        1388        1389        1394        1393
        1390        1391        1396        1395
        1391        1392        1397        1396
        1392        1393        1398        1397
        1393        1394        1399        1398
        1400        1401        1406        1405
        1401        1402        1407        1406
        1402        1403        1408        1407
        1403        1404        1409        1408
        1405        1406        1411        1410
        1406        1407        1412        1411
        1407        1408        1413        1412
        1408        1409        1414        1413
        1410        1411        1416        1415
        1411        1412        1417        1416
        1412        1413        1418        1417
        1413        1414        1419        1418
        1415        1416        1421        1420
        1416        1417        1422        1421
        1417        1418        1423        1422
        1418        1419        1424        1423
        1425        1426        1431        1430
        1426        1427        1432        1431
        1427        1428        1433        1432
        1428        1429        1434        1433
        1430        1431        1436        1435
        1431        1432        1437        1436
        1432        1433        1438        1437
        1433        1434        1439        1438
        1435        1436        1441        1440
        1436        1437        1442        1441
        1437        1438        1443        1442
        1438        1439        1444        1443
        1440        1441        1446        1445
        1441        1442        1447        1446
        1442        1443        1448        1447
        1443        1444        1449        1448
        1450        1451        1456        1455
        1451        1452        1457        1456
        1452        1453        1458        1457
        1453        1454        1459        1458
        1455        1456        1461        1460
        1456        1457        1462        1461
        1457        1458        1463        1462
        1458        1459        1464        1463
        1460        1461        1466        1465
        1461        1462        1467        1466
        1462        1463        1468        1467
        1463        1464        1469        1468
        1465        1466        1471        1470
        1466        1467        1472        1471
        1467        1468        1473        1472
        1468        1469        1474        1473
        1475        1476        1481        1480
        1476        1477        1482        1481
        1477        1478        1483        1482
        1478        1479        1484        1483
        1480        1481        1486        1485
        1481        1482        1487        1486
        1482        1483        1488        1487
        1483        1484        1489        1488
        1485        1486        1491        1490
        1486        1487        1492        1491
        1487        1488        1493        1492
        1488        1489        1494        1493
        1490        1491        1496        1495
        1491        1492        1497        1496
        1492        1493        1498        1497
        1493        1494        1499        1498
        1500        1501        1506        1505
        1501        1502        1507        1506
        1502        1503        1508        1507
        1503        1504        1509        1508
        1505        1506        1511        1510
        1506        1507        1512        1511
        1507        1508        1513        1512
        1508        1509        1514        1513
        1510        1511        1516        1515
        1511        1512        1517        1516
        1512        1513        1518        1517
        1513        1514        1519        1518
        1515        1516        1521        1520
        1516        1517        1522        1521
        1517        1518        1523        1522
        1518        1519        1524        1523
        1525        1526        1531        1530
        1526        1527        1532        1531
        1527        1528        1533        1532
        1528        1529        1534        1533
        1530        1531        1536        1535
        1531        1532        1537        1536
        1532        1533        1538        1537
        1533        1534        1539        1538
        1535        1536        1541        1540
        1536        1537        1542        1541
        1537        1538        1543        1542
        1538        1539        1544        1543
        1540        1541        1546        1545
        1541        1542        1547        1546
        1542        1543        1548        1547
        1543        1544        1549        1548
        1550        1551        1556        1555
        1551        1552        1557        1556
        1552        1553        1558        1557
        1553        1554        1559        1558
        1555        1556        1561        1560
        1556        1557        1562        1561
        1557        1558        1563        1562
        1558        1559        1564        1563
        1560        1561        1566        1565
        1561        1562        1567        1566
        1562        1563        1568        1567
        1563        1564        1569        1568
        1565        1566        1571        1570
        1566        1567        1572        1571
        1567        1568        1573        1572
        1568        1569        1574        1573
        1575        1576        1581        1580
        1576        1577        1582        1581
        1577        1578        1583        1582
        1578        1579        1584        1583
        1580        1581        1586        1585
        1581        1582        1587        1586
        1582        1583        1588        1587
        1583        1584        1589        1588
        1585        1586        1591        1590
        1586        1587        1592        1591
        1587        1588        1593        1592
        1588        1589        1594        1593
        1590        1591        1596        1595
        1591        1592        1597        1596
        1592        1593        1598        1597
        1593        1594        1599        1598
 </DataArray>
 <DataArray  type="Int32"  Name="offsets"  format="ascii"> 
           4
           8
          12
          16
          20
          24
          28
          32
          36
          40
          44
          48
          52
          56
          60
          64
          68
          72
          76
          80
          84
          88
          92
          96
         100
         104
         108
         112
         116
         120
         124
         128
         132
         136
         140
         144
         148
         152
         156
         160
         164
         168
         172
         176
         180
         184
         188
         192
         196
         200
         204
         208
         212
         216
         220
         224
         228
         232
         236
         240
         244
         248
         252
         256
         260
         264
         268
         272
         276
         280
         284
         288
         292
         296
         300
         304
         308
         312
         316
         320
         324
         328
         332
         336
         340
         344
         348
         352
         356
         360
         364
         368
         372
         376
         380
         384
         388
         392
         396
         400
         404
         408
         412
         416
         420
         424
         428
         432
         436
         440
         444
         448
         452
         456
         460
         464
         468
         472
         476
         480
         484
         488
         492
         496
         500
         504
         508
         512
         516
         520
         524
         528
         532
         536
         540
         544
         548
         552
         556
         560
         564
         568
         572
         576
         580
         584
         588
         592
         596
         600
         604
         608
         612
         616
         620
         624
         628
         632
         636
         640
         644
         648
         652
         656
         660
         664
         668
         672
         676
         680
         684
         688
         692
         696
         700
         704
         708
         712
         716
         720
         724
         728
         732
         736
         740
         744
         748
         752
         756
         760
         764
         768
         772
         776
         780
         784
         788
         792
         796
         800
         804
         808
         812
         816
         820
         824
         828
         832
         836
         840
         844
         848
         852
         856
         860
         864
         868
         872
         876
         880
         884
         888
         892
         896
         900
         904
         908
         912
         916
         920
         924
         928
         932
         936
         940
         944
         948
         952
         956
         960
         964
         968
         972
         976
         980
         984
         988
         992
         996
        1000
        1004
        1008
        1012
        1016
        1020
        1024
        1028
        1032
        1036
        1040
        1044
        1048
        1052
        1056
        1060
        1064
        1068
        1072
        1076
        1080
        1084
        1088
        1092
        1096
        1100
        1104
        1108
        1112
        1116
        1120
        1124
        1128
        1132
        1136
        1140
        1144
        1148
        1152
        1156
        1160
        1164
        1168
        1172
        1176
        1180
        1184
        1188
        1192
        1196
        1200
        1204
        1208
        1212
        1216
        1220
        1224
        1228
        1232
        1236
        1240
        1244
        1248
        1252
        1256
        1260
        1264
        1268
        1272
        1276
        1280
        1284
        1288
        1292
        1296
        1300
        1304
        1308
        1312
        1316
        1320
        1324
        1328
        1332
        1336
        1340
        1344
        1348
        1352
        1356
        1360
        1364
        1368
        1372
        1376
        1380
        1384
        1388
        1392
        1396
        1400
        1404
        1408
        1412
        1416
        1420
        1424
        1428
        1432
        1436
        1440
        1444
        1448
        1452
        1456
        1460
        1464
        1468
        1472
        1476
        1480
        1484
        1488
        1492
        1496
        1500
        1504
        1508
        1512
        1516
        1520
        1524
        1528
        1532
        1536
        1540
        1544
        1548
        1552
        1556
        1560
        1564
        1568
        1572
        1576
        1580
        1584
        1588
        1592
        1596
        1600
        1604
        1608
        1612
        1616
        1620
        1624
        1628
        1632
        1636
        1640
        1644
        1648
        1652
        1656
        1660
        1664
        1668
        1672
        1676
        1680
        1684
        1688
        1692
        1696
        1700
        1704
        1708
        1712
        1716
        1720
        1724
        1728
        1732
        1736
        1740
        1744
        1748
        1752
        1756
        1760
        1764
        1768
        1772
        1776
        1780
        1784
        1788
        1792
        1796
        1800
        1804
        1808
        1812
        1816
        1820
        1824
        1828
        1832
        1836
        1840
        1844
        1848
        1852
        1856
        1860
        1864
        1868
        1872
        1876
        1880
        1884
        1888
        1892
        1896
        1900
        1904
        1908
        1912
        1916
        1920
        1924
        1928
        1932
        1936
        1940
        1944
        1948
        1952
        1956
        1960
        1964
        1968
        1972
        1976
        1980
        1984
        1988
        1992
        1996
        2000
        2004
        2008
        2012
        2016
        2020
        2024
        2028
        2032
        2036
        2040
        2044
        2048
        2052
        2056
        2060
        2064
        2068
        2072
        2076
        2080
        2084
        2088
        2092
        2096
        2100
        2104
        2108
        2112
        2116
        2120
        2124
        2128
        2132
        2136
        2140
        2144
        2148
        2152
        2156
        2160
        2164
        2168
        2172
        2176
        2180
        2184
        2188
        2192
        2196
        2200
        2204
        2208
        2212
        2216
        2220
        2224
        2228
        2232
        2236
        2240
        2244
        2248
        2252
        2256
        2260
        2264
        2268
        2272
        2276
        2280
        2284
        2288
        2292
        2296
        2300
        2304
        2308
        2312
        2316
        2320
        2324
        2328
        2332
        2336
        2340
        2344
        2348
        2352
        2356
        2360
        2364
        2368
        2372
        2376
        2380
        2384
        2388
        2392
        2396
        2400
        2404
        2408
        2412
        2416
        2420
        2424
        2428
        2432
        2436
        2440
        2444
        2448
        2452
        2456
        2460
        2464
        2468
        2472
        2476
        2480
        2484
        2488
        2492
        2496
        2500
        2504
        2508
        2512
        2516
        2520
        2524
        2528
        2532
        2536
        2540
        2544
        2548
        2552
        2556
        2560
        2564
        2568
        2572
        2576
        2580
        2584
        2588
        2592
        2596
        2600
        2604
        2608
        2612
        2616
        2620
        2624
        2628
        2632
        2636
        2640
        2644
        2648
        2652
        2656
        2660
        2664
        2668
        2672
        2676
        2680
        2684
        2688
        2692
        2696
        2700
        2704
        2708
        2712
        2716
        2720
        2724
        2728
        2732
        2736
        2740
        2744
        2748
        2752
        2756
        2760
        2764
        2768
        2772
        2776
        2780
        2784
        2788
        2792
        2796
        2800
        2804
        2808
        2812
        2816
        2820
        2824
        2828
        2832
        2836
        2840
        2844
        2848
        2852
        2856
        2860
        2864
        2868
        2872
        2876
        2880
        2884
        2888
        2892
        2896
        2900
        2904
        2908
        2912
        2916
        2920
        2924
        2928
        2932
        2936
        2940
        2944
        2948
        2952
        2956
        2960
        2964
        2968
        2972
        2976
        2980
        2984
        2988
        2992
        2996
        3000
        3004
        3008
        3012
        3016
        3020
        3024
        3028
        3032
        3036
        3040
        3044
        3048
        3052
        3056
        3060
        3064
        3068
        3072
        3076
        3080
        3084
        3088
        3092
        3096
        3100
        3104
        3108
        3112
        3116
        3120
        3124
        3128
        3132
        3136
        3140
        3144
        3148
        3152
        3156
        3160
        3164
        3168
        3172
        3176
        3180
        3184
        3188
        3192
        3196
        3200
        3204
        3208
        3212
        3216
        3220
        3224
        3228
        3232
        3236
        3240
        3244
        3248
        3252
        3256
        3260
        3264
        3268
        3272
        3276
        3280
        3284
        3288
        3292
        3296
        3300
        3304
        3308
        3312
        3316
        3320
        3324
        3328
        3332
        3336
        3340
        3344
        3348
        3352
        3356
        3360
        3364
        3368
        3372
        3376
        3380
        3384
        3388
        3392
        3396
        3400
        3404
        3408
        3412
        3416
        3420
        3424
        3428
        3432
        3436
        3440
        3444
        3448
        3452
        3456
        3460
        3464
        3468
        3472
        3476
        3480
        3484
        3488
        3492
        3496
        3500
        3504
        3508
        3512
        3516
        3520
        3524
        3528
        3532
        3536
        3540
        3544
        3548
        3552
        3556
        3560
        3564
        3568
        3572
        3576
        3580
        3584
        3588
        3592
        3596
        3600
        3604
        3608
        3612
        3616
        3620
        3624
        3628
        3632
        3636
        3640
        3644
        3648
        3652
        3656
        3660
        3664
        3668
        3672
        3676
        3680
        3684
        3688
        3692
        3696
        3700
        3704
        3708
        3712
        3716
        3720
        3724
        3728
        3732
        3736
        3740
        3744
        3748
        3752
        3756
        3760
        3764
        3768
        3772
        3776
        3780
        3784
        3788
        3792
        3796
        3800
        3804
        3808
        3812
        3816
        3820
        3824
        3828
        3832
        3836
        3840
        3844
        3848
        3852
        3856
        3860
        3864
        3868
        3872
        3876
        3880
        3884
        3888
        3892
        3896
        3900
        3904
        3908
        3912
        3916
        3920
        3924
        3928
        3932
        3936
        3940
        3944
        3948
        3952
        3956
        3960
        3964
        3968
        3972
        3976
        3980
        3984
        3988
        3992
        3996
        4000
        4004
        4008
        4012
        4016
        4020
        4024
        4028
        4032
        4036
        4040
        4044
        4048
        4052
        4056
        4060
        4064
        4068
        4072
        4076
        4080
        4084
        4088
        4092
        4096
 </DataArray>
 <DataArray  type="UInt8"  Name="types"  format="ascii">
 9
 9
 9
 9
 9
 9
 9
 9
 9
 9
 9
 9
 9
 9
 9
 9
 9
 9
 9
 9
 9
 9
 9
 9
 9
 9
 9
 9
 9
 9
 9
 9
 9
 9
 9
 9
 9
 9
 9
 9
 9
 9
 9
 9
 9
 9
 9
 9
 9
 9
 9
 9
 9
 9
 9
 9
 9
 9
 9
 9
 9
 9
 9
 9
 9
 9
 9
 9
 9
 9
 9
 9
 9
 9
 9
 9
 9
 9
 9
 9
 9
 9
 9
 9
 9
 9
 9
 9
 9
 9
 9
 9
 9
 9
 9
 9
 9
 9
 9
 9
 9
 9
 9
 9
 9
 9
 9
 9
 9
 9
 9
 9
 9
 9
 9
 9
 9
 9
 9
 9
 9
 9
 9
 9
 9
 9
 9
 9
 9
 9
 9
 9
 9
 9
 9
 9
 9
 9
 9
 9
 9
 9
 9
 9
 9
 9
 9
 9
 9
 9
 9
 9
 9
 9
 9
 9
 9
 9
 9
 9
 9
 9
 9
 9
 9
 9
 9
 9
 9
 9
 9
 9
 9
 9
 9
 9
 9
 9
 9
 9
 9
 9
 9
 9
 9
 9
 9
 9
 9
 9
 9
 9
 9
 9
 9
 9
 9
 9
 9
 9
 9
 9
 9
 9
 9
 9
 9
 9
 9
 9
 9
 9
 9
 9
 9
 9
 9
 9
 9
 9
 9
 9
 9
 9
 9
 9
 9
 9
 9
 9
 9
 9
 9
 9
 9
 9
 9
 9
 9
 9
 9
 9
 9
 9
 9
 9
 9
 9
 9
 9
 9
 9
 9
 9
 9
 9
 9
 9
 9
 9
 9
 9
 9
 9
 9
 9
 9
 9
 9
 9
 9
 9
 9
 9
 9
 9
 9
 9
 9
 9
 9
 9
 9
 9
 9
 9
 9
 9
 9
 9
 9
 9
 9
 9
 9
 9
 9
 9
 9
 9
 9
 9
 9
 9
 9
 9
 9
 9
 9
 9
 9
 9
 9
 9
 9
 9
 9
 9
 9
 9
 9
 9
 9
 9
 9
 9
 9
 9
 9
 9
 9
 9
 9
 9
 9
 9
 9
 9
 9
 9
 9
 9
 9
 9
 9
 9
 9
 9
 9
 9
 9
 9
 9
 9
 9
 9
 9
 9
 9
 9
 9
 9
 9
 9
 9
 9
 9
 9
 9
 9
 9
 9
 9
 9
 9
 9
 9
 9
 9
 9
 9
 9
 9
 9
 9
 9
 9
 9
 9
 9
 9
 9
 9
 9
 9
 9
 9
 9
 9
 9
 9
 9
 9
 9
 9
 9
 9
 9
 9
 9
 9
 9
 9
 9
 9
 9
 9
 9
 9
 9
 9
 9
 9
 9
 9
 9
 9
 9
 9
 9
 9
 9
 9
 9
 9
 9
 9
 9
 9
 9
 9
 9
 9
 9
 9
 9
 9
 9
 9
 9
 9
 9
 9
 9
 9
 9
 9
 9
 9
 9
 9
 9
 9
 9
 9
 9
 9
 9
 9
 9
 9
 9
 9
 9
 9
 9
 9
 9
 9
 9
 9
 9
 9
 9
 9
 9
 9
 9
 9
 9
 9
 9
 9
 9
 9
 9
 9
 9
 9
 9
 9
 9
 9
 9
 9
 9
 9
 9
 9
 9
 9
 9
 9
 9
 9
 9
 9
 9
 9
 9
 9
 9
 9
 9
 9
 9
 9
 9
 9
 9
 9
 9
 9
 9
 9
 9
 9
 9
 9
 9
 9
 9
 9
 9
 9
 9
 9
 9
 9
 9
 9
 9
 9
 9
 9
 9
 9
 9
 9
 9
 9
 9
 9
 9
 9
 9
 9
 9
 9
 9
 9
 9
 9
 9
 9
 9
 9
 9
 9
 9
 9
 9
 9
 9
 9
 9
 9
 9
 9
 9
 9
 9
 9
 9
 9
 9
 9
 9
 9
 9
 9
 9
 9
 9
 9
 9
 9
 9
 9
 9
 9
 9
 9
 9
 9
 9
 9
 9
 9
 9
 9
 9
 9
 9
 9
 9
 9
 9
 9
 9
 9
 9
 9
 9
 9
 9
 9
 9
 9
 9
 9
 9
 9
 9
 9
 9
 9
 9
 9
 9
 9
 9
 9
 9
 9
 9
 9
 9
 9
 9
 9
 9
 9
 9
 9
 9
 9
 9
 9
 9
 9
 9
 9
 9
 9
 9
 9
 9
 9
 9
 9
 9
 9
 9
 9
 9
 9
 9
 9
 9
 9
 9
 9
 9
 9
 9
 9
 9
 9
 9
 9
 9
 9
 9
 9
 9
 9
 9
 9
 9
 9
 9
 9
 9
 9
 9
 9
 9
 9
 9
 9
 9
 9
 9
 9
 9
 9
 9
 9
 9
 9
 9
 9
 9
 9
 9
 9
 9
 9
 9
 9
 9
 9
 9
 9
 9
 9
 9
 9
 9
 9
 9
 9
 9
 9
 9
 9
 9
 9
 9
 9
 9
 9
 9
 9
 9
 9
 9
 9
 9
 9
 9
 9
 9
 9
 9
 9
 9
 9
 9
 9
 9
 9
 9
 9
 9
 9
 9
 9
 9
 9
 9
 9
 9
 9
 9
 9
 9
 9
 9
 9
 9
 9
 9
 9
 9
 9
 9
 9
 9
 9
 9
 9
 9
 9
 9
 9
 9
 9
 9
 9
 9
 9
 9
 9
 9
 9
 9
 9
 9
 9
 9
 9
 9
 9
 9
 9
 9
 9
 9
 9
 9
 9
 9
 9
 9
 9
 9
 9
 9
 9
 9
 9
 9
 9
 9
 9
 9
 9
 9
 9
 9
 9
 9
 9
 9
 9
 9
 9
 9
 9
 9
 9
 9
 9
 9
 9
 9
 9
 9
 9
 9
 9
 9
 9
 9
 9
 9
 9
 9
 9
 9
 9
 9
 9
 9
 9
 9
 9
 9
 9
 9
 9
 9
 9
 9
 9
 9
 9
 9
 9
 9
 9
 9
 9
 9
 9
 9
 9
 9
 9
 9
 9
 9
 9
 9
 9
 9
 9
 9
 9
 9
 9
 9
 9
 9
 9
 9
 9
 9
 9
 9
 9
 9
 9
 9
 9
 9
 9
 9
 9
 9
 9
 9
 9
 9
 9
 9
 9
 9
 9
 9
 9
 9
 9
 9
 9
 9
 9
 9
 9
 9
 9
 9
 9
 9
 9
 9
 9
 9
 9
 9
 9
 9
 9
 9
 9
 9
 9
 9
 9
 9
 9
 9
 9
 9
 9
 9
 9
 9
 9
 9
 9
 9
 9
 9
 9
 9
 9
 9
 9
 9
 9
 9
 9
 9
 9
 9
 9
 9
 9
 9
 9
 9
 </DataArray>
 </Cells> 
 <PointData>
 <DataArray  type="Float64" Name="disp" NumberOfComponents="3" format="ascii">
   6.5658389119517019E-002   6.2932264149871853E-002   0.0000000000000000     
   6.8392662089605344E-002   6.8175373145546309E-002   0.0000000000000000     
   7.1148862047009986E-002   7.3653123571672474E-002   0.0000000000000000     
   7.3926988991730974E-002   7.9365515428250377E-002   0.0000000000000000     
   7.6727042923768252E-002   8.5312548715279962E-002   0.0000000000000000     
   6.0193633590504725E-002   6.1928039502573327E-002   0.0000000000000000     
   6.2972612830738128E-002   6.7307509961447715E-002   0.0000000000000000     
   6.5693990961322224E-002   7.2877061823859113E-002   0.0000000000000000     
   6.8357767982257039E-002   7.8636695089807501E-002   0.0000000000000000     
   7.0963943893542575E-002   8.4586409759292880E-002   0.0000000000000000     
   5.5049708029877763E-002   6.1030044398055268E-002   0.0000000000000000     
   5.7780791481798016E-002   6.6489774293092316E-002   0.0000000000000000     
   6.0407944579378862E-002   7.2117451529392113E-002   0.0000000000000000     
   6.2931167322620302E-002   7.7913076106954693E-002   0.0000000000000000     
   6.5350459711522327E-002   8.3876648025780043E-002   0.0000000000000000     
   5.0226612437636153E-002   6.0238278836317681E-002   0.0000000000000000     
   5.2817198042785035E-002   6.5722166140480071E-002   0.0000000000000000     
   5.5290722901179909E-002   7.1374292688271487E-002   0.0000000000000000     
   5.7647187012820733E-002   7.7194658479691966E-002   0.0000000000000000     
   5.9886590377707549E-002   8.3183263514741479E-002   0.0000000000000000     
   4.5724346813779883E-002   5.9552742817360546E-002   0.0000000000000000     
   4.8081832513699199E-002   6.5004685503610993E-002   0.0000000000000000     
   5.0342325926725350E-002   7.0647585300497251E-002   0.0000000000000000     
   5.2505827052858355E-002   7.6481442208019279E-002   0.0000000000000000     
   5.4572335892098187E-002   8.2506256226177119E-002   0.0000000000000000     
   7.6727042923768252E-002   8.5312548715279962E-002   0.0000000000000000     
   7.9490526640695489E-002   9.1453457674839450E-002   0.0000000000000000     
   8.2158942940086271E-002   9.7747476549006923E-002   0.0000000000000000     
   8.4732291821940600E-002  0.10419460533778242        0.0000000000000000     
   8.7210573286258503E-002  0.11079484404116591        0.0000000000000000     
   7.0963943893542575E-002   8.4586409759292880E-002   0.0000000000000000     
   7.3504385197369612E-002   9.0715106298209183E-002   0.0000000000000000     
   7.5970958395928961E-002   9.7011685172450304E-002   0.0000000000000000     
   7.8363663489220622E-002  0.10347614638201624        0.0000000000000000     
   8.0682500477244595E-002  0.11010848992690703        0.0000000000000000     
   6.5350459711522327E-002   8.3876648025780043E-002   0.0000000000000000     
   6.7688292567550851E-002   9.0011857745452409E-002   0.0000000000000000     
   6.9967136712171737E-002   9.6322395725556037E-002   0.0000000000000000     
   7.2186992145385043E-002  0.10280826196609091        0.0000000000000000     
   7.4347858867190725E-002  0.10946945646705702        0.0000000000000000     
   5.9886590377707549E-002   8.3183263514741479E-002   0.0000000000000000     
   6.2042248751239211E-002   8.9343712016569141E-002   0.0000000000000000     
   6.4147477888814669E-002   9.5679608208324093E-002   0.0000000000000000     
   6.6202277790433875E-002  0.10219095209000638        0.0000000000000000     
   6.8206648456096863E-002  0.10887774366161596        0.0000000000000000     
   5.4572335892098187E-002   8.2506256226177119E-002   0.0000000000000000     
   5.6566253748434693E-002   8.8710669111559337E-002   0.0000000000000000     
   5.8511981925857673E-002   9.5083322620754515E-002   0.0000000000000000     
   6.0409520424367119E-002  0.10162421675376267        0.0000000000000000     
   6.2258869243963053E-002  0.10833335151058379        0.0000000000000000     
   8.7210573286258503E-002  0.11079484404116591        0.0000000000000000     
   8.9570947486069127E-002  0.11753047239290386        0.0000000000000000     
   9.1790574574401637E-002  0.12438377012674265        0.0000000000000000     
   9.3869454551256046E-002  0.13135473724268232        0.0000000000000000     
   9.5807587416632339E-002  0.13844337374072282        0.0000000000000000     
   8.0682500477244595E-002  0.11010848992690703        0.0000000000000000     
   8.2898871919358713E-002  0.11688257700273991        0.0000000000000000     
   8.4984180374920851E-002  0.12377226880513223        0.0000000000000000     
   8.6938425843930953E-002  0.13077756533408399        0.0000000000000000     
   8.8761608326389074E-002  0.13789846658959518        0.0000000000000000     
   7.4347858867190725E-002  0.10946945646705702        0.0000000000000000     
   7.6418379634461506E-002  0.11627553251102783        0.0000000000000000     
   7.8367197204070121E-002  0.12319604338057674        0.0000000000000000     
   8.0194311576016614E-002  0.13023098907570377        0.0000000000000000     
   8.1899722750300941E-002  0.13738036959640890        0.0000000000000000     
   6.8206648456096863E-002  0.10887774366161596        0.0000000000000000     
   7.0129470631377464E-002  0.11570933891776763        0.0000000000000000     
   7.1939625061849519E-002  0.12265509385307617        0.0000000000000000     
   7.3637111747512973E-002  0.12971500846754164        0.0000000000000000     
   7.5221930688367911E-002  0.13688908276116399        0.0000000000000000     
   6.2258869243963053E-002  0.10833335151058379        0.0000000000000000     
   6.4032144910106614E-002  0.11518399622295927        0.0000000000000000     
   6.5701463948258959E-002  0.12214942022263053        0.0000000000000000     
   6.7266826358420087E-002  0.12922962350959760        0.0000000000000000     
   6.8728232140590012E-002  0.13642460608386048        0.0000000000000000     
   9.5807587416632339E-002  0.13844337374072282        0.0000000000000000     
   9.7645191384889446E-002  0.14565251678692342        0.0000000000000000     
   9.9422484670386169E-002  0.15298500354734337        0.0000000000000000     
  0.10113946727312258       0.16044083402198264        0.0000000000000000     
  0.10279613919309863       0.16802000821084123        0.0000000000000000     
   8.8761608326389074E-002  0.13789846658959518        0.0000000000000000     
   9.0488727610391687E-002  0.14513663613190275        0.0000000000000000     
   9.2154783484035274E-002  0.15249373752124362        0.0000000000000000     
   9.3759775947319837E-002  0.15996977075761781        0.0000000000000000     
   9.5303705000245403E-002  0.16756473584102533        0.0000000000000000     
   8.1899722750300941E-002  0.13738036959640890        0.0000000000000000     
   8.3513975718133238E-002  0.14464529959594813        0.0000000000000000     
   8.5067615470723695E-002  0.15202689372757752        0.0000000000000000     
   8.6560642008072258E-002  0.15952515199129697        0.0000000000000000     
   8.7993055330178968E-002  0.16714007438710651        0.0000000000000000     
   7.5221930688367911E-002  0.13688908276116399        0.0000000000000000     
   7.6720935708114099E-002  0.14417850717905964        0.0000000000000000     
   7.8160980630451404E-002  0.15158447216634499        0.0000000000000000     
   7.9542065455379826E-002  0.15910697772302002        0.0000000000000000     
   8.0864190182899323E-002  0.16674602384908474        0.0000000000000000     
   6.8728232140590012E-002  0.13642460608386048        0.0000000000000000     
   7.0109607580334271E-002  0.14373625888123723        0.0000000000000000     
   7.1434878963218457E-002  0.15116647283754608        0.0000000000000000     
   7.2704046289242513E-002  0.15871524795278699        0.0000000000000000     
   7.3917109558406482E-002  0.16638258422695998        0.0000000000000000     
  0.10279613919309863       0.16802000821084123        0.0000000000000000     
  0.10437387027175804       0.17570248254773080        0.0000000000000000     
  0.10585403035054450       0.18346821346646305        0.0000000000000000     
  0.10723661942945800       0.19131720096703797        0.0000000000000000     
  0.10852163750849855       0.19924944504945555        0.0000000000000000     
   9.5303705000245403E-002  0.16756473584102533        0.0000000000000000     
   9.6771479250002290E-002  0.17526319126637546        0.0000000000000000     
   9.8148007303780871E-002  0.18304969552857736        0.0000000000000000     
   9.9433289161581173E-002  0.19092424862763105        0.0000000000000000     
  0.10062732482340314       0.19888685056353658        0.0000000000000000     
   8.7993055330178968E-002  0.16714007438710651        0.0000000000000000     
   8.9352253707508558E-002  0.17485856917237419        0.0000000000000000     
   9.0625635410525818E-002  0.18266754460446788        0.0000000000000000     
   9.1813200439230760E-002  0.19056700068338764        0.0000000000000000     
   9.2914948793623345E-002  0.19855693740913338        0.0000000000000000     
   8.0864190182899323E-002  0.16674602384908474        0.0000000000000000     
   8.2116193644276872E-002  0.17448861626572698        0.0000000000000000     
   8.3286914670779338E-002  0.18232176069413464        0.0000000000000000     
   8.4376353262406778E-002  0.19024545713430763        0.0000000000000000     
   8.5384509419159149E-002  0.19825970558624603        0.0000000000000000     
   7.3917109558406482E-002  0.16638258422695998        0.0000000000000000     
   7.5063299060307176E-002  0.17415333254643395        0.0000000000000000     
   7.6131845084541419E-002  0.18201234379757761        0.0000000000000000     
   7.7122747631109226E-002  0.18995961798039113        0.0000000000000000     
   7.8036006700010568E-002  0.19799515509487442        0.0000000000000000     
  0.10852163750849855       0.19924944504945555        0.0000000000000000     
  0.10972171221738579       0.20726519490516196        0.0000000000000000     
  0.11084947118583932       0.21536469972560338        0.0000000000000000     
  0.11190491441385916       0.22354795951077983        0.0000000000000000     
  0.11288804190144530       0.23181497426069125        0.0000000000000000     
  0.10062732482340314       0.19888685056353658        0.0000000000000000     
  0.10173999880495013       0.20693234160602542        0.0000000000000000     
  0.10278119562192546       0.21505556202482906        0.0000000000000000     
  0.10375091527432911       0.22325651181994752        0.0000000000000000     
  0.10464915776216106       0.23153519099138076        0.0000000000000000     
   9.2914948793623345E-002  0.19855693740913338        0.0000000000000000     
   9.3938171951166424E-002  0.20662926537447990        0.0000000000000000     
   9.4890161389322825E-002  0.21477589517220175        0.0000000000000000     
   9.5770917108092532E-002  0.22299682680229896        0.0000000000000000     
   9.6580439107475533E-002  0.23129206026477150        0.0000000000000000     
   8.5384509419159149E-002  0.19825970558624603        0.0000000000000000     
   8.6316231656034650E-002  0.20635596621052543        0.0000000000000000     
   8.7176368488031397E-002  0.21452569916772149        0.0000000000000000     
   8.7964919915149403E-002  0.22276890445783418        0.0000000000000000     
   8.8681885937388710E-002  0.23108558208086352        0.0000000000000000     
   7.8036006700010568E-002  0.19799515509487442        0.0000000000000000     
   7.8874177919554783E-002  0.20611244411416202        0.0000000000000000     
   7.9639816918051193E-002  0.21430497401138823        0.0000000000000000     
   8.0332923695499783E-002  0.22257274478655314        0.0000000000000000     
   8.0953498251900596E-002  0.23091575643965678        0.0000000000000000     
  0.11288804190144530       0.23181497426069125        0.0000000000000000     
  0.11382508965698679       0.24018088685747629        0.0000000000000000     
  0.11474229368887268       0.24866084018327367        0.0000000000000000     
  0.11563965399710292       0.25725483423808326        0.0000000000000000     
  0.11651717058167757       0.26596286902190514        0.0000000000000000     
  0.10464915776216106       0.23153519099138076        0.0000000000000000     
  0.10547987417651455       0.23991499330954913        0.0000000000000000     
  0.10624701560848274       0.24841931254487279        0.0000000000000000     
  0.10695058205806562       0.25704814869735176        0.0000000000000000     
  0.10759057352526323       0.26580150176698614        0.0000000000000000     
   9.6580439107475533E-002  0.23129206026477150        0.0000000000000000     
   9.7309031321359554E-002  0.23968867078169953        0.0000000000000000     
   9.7946997683632228E-002  0.24821373357516310        0.0000000000000000     
   9.8494338194293637E-002  0.25686724864516219        0.0000000000000000     
   9.8951052853343685E-002  0.26564921599169683        0.0000000000000000     
   8.8681885937388710E-002  0.23108558208086352        0.0000000000000000     
   8.9312561091521789E-002  0.23950191927392764        0.0000000000000000     
   8.9842239914321206E-002  0.24804410327414456        0.0000000000000000     
   9.0270922405786935E-002  0.25671213408151439        0.0000000000000000     
   9.0598608565918948E-002  0.26550601169603710        0.0000000000000000     
   8.0953498251900596E-002  0.23091575643965678        0.0000000000000000     
   8.1490463487001299E-002  0.23935473878623337        0.0000000000000000     
   8.1932742300549602E-002  0.24791042164181729        0.0000000000000000     
   8.2280334692545504E-002  0.25658280500640851        0.0000000000000000     
   8.2533240662989005E-002  0.26537188888000701        0.0000000000000000     
  0.11651717058167757       0.26596286902190514        0.0000000000000000     
  0.11731570451204060       0.27495024064916457        0.0000000000000000     
  0.11797611685763600       0.28438224523428673        0.0000000000000000     
  0.11849840761846377       0.29425888277727175        0.0000000000000000     
  0.11888257679452391       0.30458015327811955        0.0000000000000000     
  0.10759057352526323       0.26580150176698614        0.0000000000000000     
  0.10814827183595237       0.27481150213098987        0.0000000000000000     
  0.10860495881600987       0.28421028016657707        0.0000000000000000     
  0.10896063446543575       0.29399783587374756        0.0000000000000000     
  0.10921529878423000       0.30417416925250151        0.0000000000000000     
   9.8951052853343685E-002  0.26564921599169683        0.0000000000000000     
   9.9328275154262596E-002  0.27465753255226188        0.0000000000000000     
   9.9637138590530486E-002  0.28399009526435226        0.0000000000000000     
   9.9877643162147381E-002  0.29364690412796796        0.0000000000000000     
  0.10004978886911327       0.30362795914310892        0.0000000000000000     
   9.0598608565918948E-002  0.26550601169603710        0.0000000000000000     
   9.0855714466971230E-002  0.27448833191298050        0.0000000000000000     
   9.1072656181197809E-002  0.28372169052761237        0.0000000000000000     
   9.1249433708598615E-002  0.29320608753993282        0.0000000000000000     
   9.1386047049173663E-002  0.30294152294994176        0.0000000000000000     
   8.2533240662989005E-002  0.26537188888000701        0.0000000000000000     
   8.2730589774078378E-002  0.27430390021314571        0.0000000000000000     
   8.2911511588011882E-002  0.28340506595635745        0.0000000000000000     
   8.3076006104789477E-002  0.29267538610964217        0.0000000000000000     
   8.3224073324411216E-002  0.30211486067300009        0.0000000000000000     
   4.5724346813779883E-002   5.9552742817360546E-002   0.0000000000000000     
   4.8081832513699199E-002   6.5004685503610993E-002   0.0000000000000000     
   5.0342325926725350E-002   7.0647585300497251E-002   0.0000000000000000     
   5.2505827052858355E-002   7.6481442208019279E-002   0.0000000000000000     
   5.4572335892098187E-002   8.2506256226177119E-002   0.0000000000000000     
   4.1418514658678844E-002   5.8924918789998018E-002   0.0000000000000000     
   4.3518950785963843E-002   6.4343666630368140E-002   0.0000000000000000     
   4.5551382002159344E-002   6.9976047840770245E-002   0.0000000000000000     
   4.7515808307265373E-002   7.5822062421204303E-002   0.0000000000000000     
   4.9412229701281903E-002   8.1881710371670316E-002   0.0000000000000000     
   3.7184719472702930E-002   5.8306289203044211E-002   0.0000000000000000     
   3.9072808751002351E-002   6.3745443768634585E-002   0.0000000000000000     
   4.0906519473626043E-002   6.9398398783791393E-002   0.0000000000000000     
   4.2685851640574007E-002   7.5265154248514654E-002   0.0000000000000000     
   4.4410805251846264E-002   8.1345710162804341E-002   0.0000000000000000     
   3.3022961255852135E-002   5.7696854056499138E-002   0.0000000000000000     
   3.4743406408814716E-002   6.3210016918410300E-002   0.0000000000000000     
   3.6407738341125435E-002   6.8914638129560696E-002   0.0000000000000000     
   3.8015957052784287E-002   7.4810717689950318E-002   0.0000000000000000     
   3.9568062543791277E-002   8.0898255599579208E-002   0.0000000000000000     
   2.8933240008126457E-002   5.7096613350362785E-002   0.0000000000000000     
   3.0530743759400937E-002   6.2737386079695284E-002   0.0000000000000000     
   3.2055038604657513E-002   6.8524765878078125E-002   0.0000000000000000     
   3.3506124543896183E-002   7.4458752745511336E-002   0.0000000000000000     
   3.4884001577116942E-002   8.0539346681994889E-002   0.0000000000000000     
   5.4572335892098187E-002   8.2506256226177119E-002   0.0000000000000000     
   5.6566253748434693E-002   8.8710669111559337E-002   0.0000000000000000     
   5.8511981925857673E-002   9.5083322620754515E-002   0.0000000000000000     
   6.0409520424367119E-002  0.10162421675376267        0.0000000000000000     
   6.2258869243963053E-002  0.10833335151058379        0.0000000000000000     
   4.9412229701281903E-002   8.1881710371670316E-002   0.0000000000000000     
   5.1250698457219794E-002   8.8128569822272587E-002   0.0000000000000000     
   5.3041266848089887E-002   9.4536218903115476E-002   0.0000000000000000     
   5.4783934873892194E-002  0.10110465761419900        0.0000000000000000     
   5.6478702534626703E-002  0.10783388595552308        0.0000000000000000     
   4.4410805251846264E-002   8.1345710162804341E-002   0.0000000000000000     
   4.6085973775676990E-002   8.7613254940558521E-002   0.0000000000000000     
   4.7715950680300386E-002   9.4040976995675249E-002   0.0000000000000000     
   4.9300735965716477E-002  0.10062887632815452        0.0000000000000000     
   5.0840329631925238E-002  0.10737695293799637        0.0000000000000000     
   3.9568062543791277E-002   8.0898255599579208E-002   0.0000000000000000     
   4.1072079703806275E-002   8.7164724466417098E-002   0.0000000000000000     
   4.2536033422489176E-002   9.3597596898433791E-002   0.0000000000000000     
   4.3959923699839976E-002  0.10019687289562931        0.0000000000000000     
   4.5343750535858651E-002  0.10696255245800367        0.0000000000000000     
   3.4884001577116942E-002   8.0539346681994889E-002   0.0000000000000000     
   3.6209016241607675E-002   8.6782978399848318E-002   0.0000000000000000     
   3.7501515074656253E-002   9.3206078611391130E-002   0.0000000000000000     
   3.8761498076262689E-002   9.9808647316623353E-002   0.0000000000000000     
   3.9988965246426957E-002  0.10659068451554495        0.0000000000000000     
   6.2258869243963053E-002  0.10833335151058379        0.0000000000000000     
   6.4032144910106614E-002  0.11518399622295927        0.0000000000000000     
   6.5701463948258959E-002  0.12214942022263053        0.0000000000000000     
   6.7266826358420087E-002  0.12922962350959760        0.0000000000000000     
   6.8728232140590012E-002  0.13642460608386048        0.0000000000000000     
   5.6478702534626703E-002  0.10783388595552308        0.0000000000000000     
   5.8101814598373401E-002  0.11470130943998573        0.0000000000000000     
   5.9629515833212257E-002  0.12168433358048493        0.0000000000000000     
   6.1061806239143257E-002  0.12878295837702061        0.0000000000000000     
   6.2398685816166422E-002  0.13599718382959286        0.0000000000000000     
   5.0840329631925238E-002  0.10737695293799637        0.0000000000000000     
   5.2313891823902253E-002  0.11426308358222992        0.0000000000000000     
   5.3700582686623102E-002  0.12126514501788434        0.0000000000000000     
   5.5000402220087778E-002  0.12838313724495962        0.0000000000000000     
   5.6213350424296274E-002  0.13561706026345577        0.0000000000000000     
   4.5343750535858651E-002  0.10696255245800367        0.0000000000000000     
   4.6668376586693185E-002  0.11386931864969181        0.0000000000000000     
   4.7914664508491522E-002  0.12089185453482879        0.0000000000000000     
   4.9082614301253651E-002  0.12803016011341453        0.0000000000000000     
   5.0172225964979597E-002  0.13528423538544915        0.0000000000000000     
   3.9988965246426957E-002  0.10659068451554495        0.0000000000000000     
   4.1165268886746188E-002  0.11352001464237142        0.0000000000000000     
   4.2271761298817503E-002  0.12056446213131829        0.0000000000000000     
   4.3308442482640895E-002  0.12772402698238550        0.0000000000000000     
   4.4275312438216363E-002  0.13499870919557308        0.0000000000000000     
   6.8728232140590012E-002  0.13642460608386048        0.0000000000000000     
   7.0109607580334271E-002  0.14373625888123723        0.0000000000000000     
   7.1434878963218457E-002  0.15116647283754608        0.0000000000000000     
   7.2704046289242513E-002  0.15871524795278699        0.0000000000000000     
   7.3917109558406482E-002  0.16638258422695998        0.0000000000000000     
   6.2398685816166422E-002  0.13599718382959286        0.0000000000000000     
   6.3661531827497342E-002  0.14332968148448710        0.0000000000000000     
   6.4871721536351609E-002  0.15078312288798884        0.0000000000000000     
   6.6029254942729251E-002  0.15835750804009804        0.0000000000000000     
   6.7134132046630254E-002  0.16605283694081474        0.0000000000000000     
   5.6213350424296274E-002  0.13561706026345577        0.0000000000000000     
   5.7358248942306851E-002  0.14296990177081545        0.0000000000000000     
   5.8453919417177723E-002  0.15044464946448124        0.0000000000000000     
   5.9500361848908924E-002  0.15804130334445324        0.0000000000000000     
   6.0497576237500433E-002  0.16575986341073137        0.0000000000000000     
   5.0172225964979597E-002  0.13528423538544915        0.0000000000000000     
   5.1199758924762806E-002  0.14265691974022224        0.0000000000000000     
   5.2181472605696791E-002  0.15015105256702338        0.0000000000000000     
   5.3117367007781524E-002  0.15776663386585263        0.0000000000000000     
   5.4007442131017026E-002  0.16550366363670996        0.0000000000000000     
   4.4275312438216363E-002  0.13499870919557308        0.0000000000000000     
   4.5186061774865227E-002  0.14239073539270747        0.0000000000000000     
   4.6054381101908792E-002  0.14990233219561519        0.0000000000000000     
   4.6880270419347059E-002  0.15753349960429616        0.0000000000000000     
   4.7663729727180026E-002  0.16528423761875044        0.0000000000000000     
   7.3917109558406482E-002  0.16638258422695998        0.0000000000000000     
   7.5063299060307176E-002  0.17415333254643395        0.0000000000000000     
   7.6131845084541419E-002  0.18201234379757761        0.0000000000000000     
   7.7122747631109226E-002  0.18995961798039113        0.0000000000000000     
   7.8036006700010568E-002  0.19799515509487442        0.0000000000000000     
   6.7134132046630254E-002  0.16605283694081474        0.0000000000000000     
   6.8175677549310018E-002  0.17385144773097999        0.0000000000000000     
   6.9143216152023942E-002  0.18173567855143508        0.0000000000000000     
   7.0036747854772027E-002  0.18970552940217988        0.0000000000000000     
   7.0856272657554287E-002  0.19776100028321447        0.0000000000000000     
   6.0497576237500433E-002  0.16575986341073137        0.0000000000000000     
   6.1435436704995849E-002  0.17358169153585040        0.0000000000000000     
   6.2303817373438750E-002  0.18148814959234519        0.0000000000000000     
   6.3102718242829148E-002  0.18947923758021568        0.0000000000000000     
   6.3832139313167044E-002  0.19755495549946184        0.0000000000000000     
   5.4007442131017026E-002  0.16550366363670996        0.0000000000000000     
   5.4842576527364670E-002  0.17334406396104513        0.0000000000000000     
   5.5613648748785847E-002  0.18126975692030797        0.0000000000000000     
   5.6320658795280552E-002  0.18928074251449850        0.0000000000000000     
   5.6963606666848805E-002  0.19737702074361663        0.0000000000000000     
   4.7663729727180026E-002  0.16528423761875044        0.0000000000000000     
   4.8397097016416500E-002  0.17313856500656416        0.0000000000000000     
   4.9072710278065236E-002  0.18108050053532346        0.0000000000000000     
   4.9690569512126276E-002  0.18911004420502833        0.0000000000000000     
   5.0250674718599585E-002  0.19722719601567881        0.0000000000000000     
   7.8036006700010568E-002  0.19799515509487442        0.0000000000000000     
   7.8874177919554783E-002  0.20611244411416202        0.0000000000000000     
   7.9639816918051193E-002  0.21430497401138823        0.0000000000000000     
   8.0332923695499783E-002  0.22257274478655314        0.0000000000000000     
   8.0953498251900596E-002  0.23091575643965678        0.0000000000000000     
   7.0856272657554287E-002  0.19776100028321447        0.0000000000000000     
   7.1602446223781840E-002  0.20589794671767772        0.0000000000000000     
   7.2275924216865794E-002  0.21411222422870874        0.0000000000000000     
   7.2876706636806177E-002  0.22240383281630746        0.0000000000000000     
   7.3404793483602959E-002  0.23077277248047384        0.0000000000000000     
   6.3832139313167044E-002  0.19755495549946184        0.0000000000000000     
   6.4491472050770798E-002  0.20571172165336082        0.0000000000000000     
   6.5080107921958827E-002  0.21394595434518981        0.0000000000000000     
   6.5598046926731088E-002  0.22225765357494862        0.0000000000000000     
   6.6045289065087595E-002  0.23064681934263748        0.0000000000000000     
   5.6963606666848805E-002  0.19737702074361663        0.0000000000000000     
   5.7541255400521671E-002  0.20555376892121130        0.0000000000000000     
   5.8052368033330248E-002  0.21380616436083133        0.0000000000000000     
   5.8496944565274531E-002  0.22213420706247672        0.0000000000000000     
   5.8874984996354518E-002  0.23053789702614755        0.0000000000000000     
   5.0250674718599585E-002  0.19722719601567881        0.0000000000000000     
   5.0751796273034437E-002  0.20542408852122909        0.0000000000000000     
   5.1192704550980080E-002  0.21369285427563339        0.0000000000000000     
   5.1573399552436491E-002  0.22203349327889174        0.0000000000000000     
   5.1893881277403700E-002  0.23044600553100417        0.0000000000000000     
   8.0953498251900596E-002  0.23091575643965678        0.0000000000000000     
   8.1490463487001299E-002  0.23935473878623337        0.0000000000000000     
   8.1932742300549602E-002  0.24791042164181729        0.0000000000000000     
   8.2280334692545504E-002  0.25658280500640851        0.0000000000000000     
   8.2533240662989005E-002  0.26537188888000701        0.0000000000000000     
   7.3404793483602959E-002  0.23077277248047384        0.0000000000000000     
   7.3856252577506692E-002  0.23923213755845218        0.0000000000000000     
   7.4227151738767899E-002  0.24779502238748660        0.0000000000000000     
   7.4517490967386565E-002  0.25646142696757718        0.0000000000000000     
   7.4727270263362719E-002  0.26523135129872377        0.0000000000000000     
   6.6045289065087595E-002  0.23064681934263748        0.0000000000000000     
   6.6423442432746657E-002  0.23911912383041950        0.0000000000000000     
   6.6734115125426569E-002  0.24768023922045804        0.0000000000000000     
   6.6977307143127315E-002  0.25633016551275312        0.0000000000000000     
   6.7153018485848925E-002  0.26506890270730465        0.0000000000000000     
   5.8874984996354518E-002  0.23053789702614755        0.0000000000000000     
   5.9192033052721207E-002  0.23901569760213529        0.0000000000000000     
   5.9453632460525638E-002  0.24756607214073159        0.0000000000000000     
   5.9659783219767767E-002  0.25618902064193638        0.0000000000000000     
   5.9810485330447624E-002  0.26488454310574960        0.0000000000000000     
   5.1893881277403700E-002  0.23044600553100417        0.0000000000000000     
   5.2162024437430336E-002  0.23892185887359960        0.0000000000000000     
   5.2385703744065065E-002  0.24745252114830721        0.0000000000000000     
   5.2564919197307901E-002  0.25603799235512692        0.0000000000000000     
   5.2699670797158822E-002  0.26467827249405873        0.0000000000000000     
   8.2533240662989005E-002  0.26537188888000701        0.0000000000000000     
   8.2730589774078378E-002  0.27430390021314571        0.0000000000000000     
   8.2911511588011882E-002  0.28340506595635745        0.0000000000000000     
   8.3076006104789477E-002  0.29267538610964217        0.0000000000000000     
   8.3224073324411216E-002  0.30211486067300009        0.0000000000000000     
   7.4727270263362719E-002  0.26523135129872377        0.0000000000000000     
   7.4897673705097534E-002  0.27409863417649044        0.0000000000000000     
   7.5069885370992198E-002  0.28305711439644121        0.0000000000000000     
   7.5243905261046712E-002  0.29210679195857608        0.0000000000000000     
   7.5419733375261089E-002  0.30124766686289495        0.0000000000000000     
   6.7153018485848925E-002  0.26506890270730465        0.0000000000000000     
   6.7301738889542301E-002  0.27386693052674776        0.0000000000000000     
   6.7463958090158330E-002  0.28269472869371765        0.0000000000000000     
   6.7639676087697054E-002  0.29155229720821413        0.0000000000000000     
   6.7828892882158459E-002  0.30043963607023733        0.0000000000000000     
   5.9810485330447624E-002  0.26488454310574960        0.0000000000000000     
   5.9942785327412630E-002  0.27360878926391768        0.0000000000000000     
   6.0093729745510270E-002  0.28231790884818658        0.0000000000000000     
   6.0263318584740502E-002  0.29101190185855652        0.0000000000000000     
   6.0451551845103334E-002  0.29969076829502728        0.0000000000000000     
   5.2699670797158822E-002  0.26467827249405873        0.0000000000000000     
   5.2820813018708598E-002  0.27332421038800009        0.0000000000000000     
   5.2959200337048012E-002  0.28192665485984814        0.0000000000000000     
   5.3114832752177051E-002  0.29048560590960304        0.0000000000000000     
   5.3287710264095706E-002  0.29900106353726474        0.0000000000000000     
   2.8933240008126457E-002   5.7096613350362785E-002   0.0000000000000000     
   3.0530743759400937E-002   6.2737386079695284E-002   0.0000000000000000     
   3.2055038604657513E-002   6.8524765878078125E-002   0.0000000000000000     
   3.3506124543896183E-002   7.4458752745511336E-002   0.0000000000000000     
   3.4884001577116942E-002   8.0539346681994889E-002   0.0000000000000000     
   2.4956257187694456E-002   5.6560806431032021E-002   0.0000000000000000     
   2.6431380172105744E-002   6.2321860948458714E-002   0.0000000000000000     
   2.7815826536720593E-002   6.8186722087670931E-002   0.0000000000000000     
   2.9109596281538995E-002   7.4155389848668651E-002   0.0000000000000000     
   3.0312689406560948E-002   8.0227864231451881E-002   0.0000000000000000     
   2.1132714252724682E-002   5.6144672644903706E-002   0.0000000000000000     
   2.2441875016273850E-002   6.1957751220669773E-002   0.0000000000000000     
   2.3657508409812955E-002   6.7858446816666293E-002   0.0000000000000000     
   2.4779614433341996E-002   7.3846759432893247E-002   0.0000000000000000     
   2.5808193086860973E-002   7.9922689069350641E-002   0.0000000000000000     
   1.7462611203217127E-002   5.5848211991977849E-002   0.0000000000000000     
   1.8562228291905250E-002   6.1645056896328460E-002   0.0000000000000000     
   1.9580084223934608E-002   6.7539940065064225E-002   0.0000000000000000     
   2.0516178999305194E-002   7.3532861498185123E-002   0.0000000000000000     
   2.1370512618017017E-002   7.9623821195691169E-002   0.0000000000000000     
   1.3945948039171806E-002   5.5671424472254434E-002   0.0000000000000000     
   1.4792439998999953E-002   6.1383777975434761E-002   0.0000000000000000     
   1.5583553979085549E-002   6.7231201832864698E-002   0.0000000000000000     
   1.6319289979428591E-002   7.3213696044544280E-002   0.0000000000000000     
   1.6999648000029087E-002   7.9331260610473450E-002   0.0000000000000000     
   3.4884001577116942E-002   8.0539346681994889E-002   0.0000000000000000     
   3.6209016241607675E-002   8.6782978399848318E-002   0.0000000000000000     
   3.7501515074656253E-002   9.3206078611391130E-002   0.0000000000000000     
   3.8761498076262689E-002   9.9808647316623353E-002   0.0000000000000000     
   3.9988965246426957E-002  0.10659068451554495        0.0000000000000000     
   3.0312689406560948E-002   8.0227864231451881E-002   0.0000000000000000     
   3.1458172049433075E-002   8.6448301512069406E-002   0.0000000000000000     
   3.2579110347801976E-002   9.2860857966569954E-002   0.0000000000000000     
   3.3675504301667651E-002   9.9465533594953567E-002   0.0000000000000000     
   3.4747353911030100E-002  0.10626232839722023        0.0000000000000000     
   2.5808193086860973E-002   7.9922689069350641E-002   0.0000000000000000     
   2.6780935787634380E-002   8.6140978574297533E-002   0.0000000000000000     
   2.7735533952926692E-002   9.2556370795992979E-002   0.0000000000000000     
   2.8671987582737920E-002   9.9168865734436965E-002   0.0000000000000000     
   2.9590296677068063E-002  0.10597846338962949        0.0000000000000000     
   2.1370512618017017E-002   7.9623821195691169E-002   0.0000000000000000     
   2.2177307456211590E-002   8.5861009586532713E-002   0.0000000000000000     
   2.2970785890030411E-002   9.2292617099660162E-002   0.0000000000000000     
   2.3750947919473492E-002   9.8918643735073475E-002   0.0000000000000000     
   2.4517793544540832E-002  0.10573908949277269        0.0000000000000000     
   1.6999648000029087E-002   7.9331260610473450E-002   0.0000000000000000     
   1.7647287055164704E-002   8.5608394548774974E-002   0.0000000000000000     
   1.8284866159113136E-002   9.2069596877571547E-002   0.0000000000000000     
   1.8912385311874367E-002   9.8714867596863196E-002   0.0000000000000000     
   1.9529844513448413E-002  0.10554420670664989        0.0000000000000000     
   3.9988965246426957E-002  0.10659068451554495        0.0000000000000000     
   4.1165268886746188E-002  0.11352001464237142        0.0000000000000000     
   4.2271761298817503E-002  0.12056446213131829        0.0000000000000000     
   4.3308442482640895E-002  0.12772402698238550        0.0000000000000000     
   4.4275312438216363E-002  0.13499870919557308        0.0000000000000000     
   3.4747353911030100E-002  0.10626232839722023        0.0000000000000000     
   3.5776207174624590E-002  0.11321246304714914        0.0000000000000000     
   3.6743612091186352E-002  0.12027715821851954        0.0000000000000000     
   3.7649568660715393E-002  0.12745641391133142        0.0000000000000000     
   3.8494076883211707E-002  0.13475023012558482        0.0000000000000000     
   2.9590296677068063E-002  0.10597846338962949        0.0000000000000000     
   3.0472829900891677E-002  0.11294395535090536        0.0000000000000000     
   3.1301955919183326E-002  0.12002413320759936        0.0000000000000000     
   3.2077674731943007E-002  0.12721899695971151        0.0000000000000000     
   3.2799986339170716E-002  0.13452854660724176        0.0000000000000000     
   2.4517793544540832E-002  0.10573908949277269        0.0000000000000000     
   2.5255137065547460E-002  0.11271449155364001        0.0000000000000000     
   2.5946792782808436E-002  0.11980538709855766        0.0000000000000000     
   2.6592760696323749E-002  0.12701177612752559        0.0000000000000000     
   2.7193040806093395E-002  0.13433365864054386        0.0000000000000000     
   1.9529844513448413E-002  0.10554420670664989        0.0000000000000000     
   2.0123128668591953E-002  0.11252407165535315        0.0000000000000000     
   2.0678122682061692E-002  0.11962091989139446        0.0000000000000000     
   2.1194826553857619E-002  0.12683475141477379        0.0000000000000000     
   2.1673240283979742E-002  0.13416556622549122        0.0000000000000000     
   4.4275312438216363E-002  0.13499870919557308        0.0000000000000000     
   4.5186061774865227E-002  0.14239073539270747        0.0000000000000000     
   4.6054381101908792E-002  0.14990233219561519        0.0000000000000000     
   4.6880270419347059E-002  0.15753349960429616        0.0000000000000000     
   4.7663729727180026E-002  0.16528423761875044        0.0000000000000000     
   3.8494076883211707E-002  0.13475023012558482        0.0000000000000000     
   3.9288538999608956E-002  0.14216013000190963        0.0000000000000000     
   4.0044357250840754E-002  0.14968763668093590        0.0000000000000000     
   4.0761531636907114E-002  0.15733275016266354        0.0000000000000000     
   4.1440062157808030E-002  0.16509547044709263        0.0000000000000000     
   3.2799986339170716E-002  0.13452854660724176        0.0000000000000000     
   3.3478572105988820E-002  0.14195388484146718        0.0000000000000000     
   3.4123113397519667E-002  0.14949611435366472        0.0000000000000000     
   3.4733610213763262E-002  0.15715523514383442        0.0000000000000000     
   3.5310062554719586E-002  0.16493124721197627        0.0000000000000000     
   2.7193040806093395E-002  0.13433365864054386        0.0000000000000000     
   2.7756161094004844E-002  0.14177199991138006        0.0000000000000000     
   2.8290649541945542E-002  0.14932776521380170        0.0000000000000000     
   2.8796506149915507E-002  0.15700095454780885        0.0000000000000000     
   2.9273730917914714E-002  0.16479156791340135        0.0000000000000000     
   2.1673240283979742E-002  0.13416556622549122        0.0000000000000000     
   2.2121305963657009E-002  0.14161447521164833        0.0000000000000000     
   2.2546965684118375E-002  0.14918258926134681        0.0000000000000000     
   2.2950219445363847E-002  0.15686990837458673        0.0000000000000000     
   2.3331067247393415E-002  0.16467643255136799        0.0000000000000000     
   4.7663729727180026E-002  0.16528423761875044        0.0000000000000000     
   4.8397097016416500E-002  0.17313856500656416        0.0000000000000000     
   4.9072710278065236E-002  0.18108050053532346        0.0000000000000000     
   4.9690569512126276E-002  0.18911004420502833        0.0000000000000000     
   5.0250674718599585E-002  0.19722719601567881        0.0000000000000000     
   4.1440062157808030E-002  0.16509547044709263        0.0000000000000000     
   4.2073751128102008E-002  0.17296198356914069        0.0000000000000000     
   4.2656400862347559E-002  0.18091847556372520        0.0000000000000000     
   4.3188011360544690E-002  0.18896494643084627        0.0000000000000000     
   4.3668582622693387E-002  0.19710139617050382        0.0000000000000000     
   3.5310062554719586E-002  0.16493124721197627        0.0000000000000000     
   3.5847291818371894E-002  0.17281110854550791        0.0000000000000000     
   3.6340119402703444E-002  0.18078177713184695        0.0000000000000000     
   3.6788545307714200E-002  0.18884325297099339        0.0000000000000000     
   3.7192569533404191E-002  0.19699553606294720        0.0000000000000000     
   2.9273730917914714E-002  0.16479156791340135        0.0000000000000000     
   2.9717719087226181E-002  0.17268593993566583        0.0000000000000000     
   3.0123865899132879E-002  0.18067040523968858        0.0000000000000000     
   3.0492171353634821E-002  0.18874496382546965        0.0000000000000000     
   3.0822635450732001E-002  0.19690961569300888        0.0000000000000000     
   2.3331067247393415E-002  0.16467643255136799        0.0000000000000000     
   2.3685032934664840E-002  0.17258647773961450        0.0000000000000000     
   2.4007640351635884E-002  0.18058435988725011        0.0000000000000000     
   2.4298889498306542E-002  0.18867007899427496        0.0000000000000000     
   2.4558780374676820E-002  0.19684363506068892        0.0000000000000000     
   5.0250674718599585E-002  0.19722719601567881        0.0000000000000000     
   5.0751796273034437E-002  0.20542408852122909        0.0000000000000000     
   5.1192704550980080E-002  0.21369285427563339        0.0000000000000000     
   5.1573399552436491E-002  0.22203349327889174        0.0000000000000000     
   5.1893881277403700E-002  0.23044600553100417        0.0000000000000000     
   4.3668582622693387E-002  0.19710139617050382        0.0000000000000000     
   4.4097295645647031E-002  0.20531653200624869        0.0000000000000000     
   4.4473331426258998E-002  0.21359906116163163        0.0000000000000000     
   4.4796689964529283E-002  0.22194898363665269        0.0000000000000000     
   4.5067371260457893E-002  0.23036629943131179        0.0000000000000000     
   3.7192569533404191E-002  0.19699553606294720        0.0000000000000000     
   3.7551954495697364E-002  0.20522495092910459        0.0000000000000000     
   3.7866462610517702E-002  0.21351782209086165        0.0000000000000000     
   3.8136093877865200E-002  0.22187414954821846        0.0000000000000000     
   3.8360848297739850E-002  0.23029393330117492        0.0000000000000000     
   3.0822635450732001E-002  0.19690961569300888        0.0000000000000000     
   3.1115772823185450E-002  0.20514934528979681        0.0000000000000000     
   3.1372098103756192E-002  0.21344913706332352        0.0000000000000000     
   3.1591611292444220E-002  0.22180899101358917        0.0000000000000000     
   3.1774312389249562E-002  0.23022890714059360        0.0000000000000000     
   2.4558780374676820E-002  0.19684363506068892        0.0000000000000000     
   2.4788750628111270E-002  0.20508971508832524        0.0000000000000000     
   2.4990237905974450E-002  0.21339300607901718        0.0000000000000000     
   2.5163242208266372E-002  0.22175350803276472        0.0000000000000000     
   2.5307763534987024E-002  0.23017122094956788        0.0000000000000000     
   5.1893881277403700E-002  0.23044600553100417        0.0000000000000000     
   5.2162024437430336E-002  0.23892185887359960        0.0000000000000000     
   5.2385703744065065E-002  0.24745252114830721        0.0000000000000000     
   5.2564919197307901E-002  0.25603799235512692        0.0000000000000000     
   5.2699670797158822E-002  0.26467827249405873        0.0000000000000000     
   4.5067371260457893E-002  0.23036629943131179        0.0000000000000000     
   4.5294271413232876E-002  0.23883613691450645        0.0000000000000000     
   4.5486286522042278E-002  0.24734362445513430        0.0000000000000000     
   4.5643416586886115E-002  0.25588876205319522        0.0000000000000000     
   4.5765661607764380E-002  0.26447154970868930        0.0000000000000000     
   3.8360848297739850E-002  0.23029393330117492        0.0000000000000000     
   3.8549628806487664E-002  0.23875706099454988        0.0000000000000000     
   3.8711338340454655E-002  0.24724342027316218        0.0000000000000000     
   3.8845976899640818E-002  0.25575301113701171        0.0000000000000000     
   3.8953544484046150E-002  0.26428583358609858        0.0000000000000000     
   3.1774312389249562E-002  0.23022890714059360        0.0000000000000000     
   3.1928096617194708E-002  0.23868463111372987        0.0000000000000000     
   3.2060859199302183E-002  0.24715190860239078        0.0000000000000000     
   3.2172600135572001E-002  0.25563073960657634        0.0000000000000000     
   3.2263319426004154E-002  0.26412112412628663        0.0000000000000000     
   2.5307763534987024E-002  0.23017122094956788        0.0000000000000000     
   2.5429674845353998E-002  0.23861884727204644        0.0000000000000000     
   2.5534849098584882E-002  0.24706908944282019        0.0000000000000000     
   2.5623286294679675E-002  0.25552194746188911        0.0000000000000000     
   2.5694986433638378E-002  0.26397742132925334        0.0000000000000000     
   5.2699670797158822E-002  0.26467827249405873        0.0000000000000000     
   5.2820813018708598E-002  0.27332421038800009        0.0000000000000000     
   5.2959200337048012E-002  0.28192665485984814        0.0000000000000000     
   5.3114832752177051E-002  0.29048560590960304        0.0000000000000000     
   5.3287710264095706E-002  0.29900106353726474        0.0000000000000000     
   4.5765661607764380E-002  0.26447154970868930        0.0000000000000000     
   4.5877043124798976E-002  0.27304186414362180        0.0000000000000000     
   4.6001582678111837E-002  0.28154958207999814        0.0000000000000000     
   4.6139280267702969E-002  0.28999470351781831        0.0000000000000000     
   4.6290135893572351E-002  0.29837722845708226        0.0000000000000000     
   3.8953544484046150E-002  0.26428583358609858        0.0000000000000000     
   3.9052696807052582E-002  0.27279042077540988        0.0000000000000000     
   3.9162089582042044E-002  0.28121530585993254        0.0000000000000000     
   3.9281722809014520E-002  0.28956048883966667        0.0000000000000000     
   3.9411596487970033E-002  0.29782596971461234        0.0000000000000000     
   3.2263319426004154E-002  0.26412112412628663        0.0000000000000000     
   3.2347774065469424E-002  0.27256988028336404        0.0000000000000000     
   3.2440721048838619E-002  0.28092382619965128        0.0000000000000000     
   3.2542160376111726E-002  0.28918296187514830        0.0000000000000000     
   3.2652092047288736E-002  0.29734728730985499        0.0000000000000000     
   2.5694986433638378E-002  0.26397742132925334        0.0000000000000000     
   2.5762274900049502E-002  0.27238024266748451        0.0000000000000000     
   2.5837477078501567E-002  0.28067514309915437        0.0000000000000000     
   2.5920592968994557E-002  0.28886212262426292        0.0000000000000000     
   2.6011622571528493E-002  0.29694118124281021        0.0000000000000000     
   1.3945948039171806E-002   5.5671424472254434E-002   0.0000000000000000     
   1.4792439998999953E-002   6.1383777975434761E-002   0.0000000000000000     
   1.5583553979085549E-002   6.7231201832864698E-002   0.0000000000000000     
   1.6319289979428591E-002   7.3213696044544280E-002   0.0000000000000000     
   1.6999648000029087E-002   7.9331260610473450E-002   0.0000000000000000     
   1.0494368870701041E-002   5.5569092388428568E-002   0.0000000000000000     
   1.1081768191161634E-002   6.1177653158742795E-002   0.0000000000000000     
   1.1642519399630718E-002   6.6965329606959945E-002   0.0000000000000000     
   1.2176622496108290E-002   7.2932121733080030E-002   0.0000000000000000     
   1.2684077480594351E-002   7.9078029537103051E-002   0.0000000000000000     
   7.0195178079171753E-003   5.5495998043195348E-002   0.0000000000000000     
   7.3794709219939802E-003   6.1030421147006672E-002   0.0000000000000000     
   7.7315822099350518E-003   6.6775420874242139E-002   0.0000000000000000     
   8.0758516717403927E-003   7.2730997224901756E-002   0.0000000000000000     
   8.4122793074100019E-003   7.8897150198985508E-002   0.0000000000000000     
   3.5213948508202040E-003   5.5452141436554761E-002   0.0000000000000000     
   3.6855481914969848E-003   6.0942081940226378E-002   0.0000000000000000     
   3.8507424099985510E-003   6.6661475634711254E-002   0.0000000000000000     
   4.0169775063249027E-003   7.2610322520009415E-002   0.0000000000000000     
   4.1842534804760389E-003   7.8788622596120822E-002   0.0000000000000000     
  -5.8986973291985656E-013   5.5437522568506828E-002   0.0000000000000000     
  -3.2934722657418369E-013   6.0912635538401927E-002   0.0000000000000000     
  -1.7878504666307693E-013   6.6623493888367330E-002   0.0000000000000000     
  -1.3818332871180783E-013   7.2570097618403009E-002   0.0000000000000000     
  -2.0754101562325822E-013   7.8752446728509007E-002   0.0000000000000000     
   1.6999648000029087E-002   7.9331260610473450E-002   0.0000000000000000     
   1.7647287055164704E-002   8.5608394548774974E-002   0.0000000000000000     
   1.8284866159113136E-002   9.2069596877571547E-002   0.0000000000000000     
   1.8912385311874367E-002   9.8714867596863196E-002   0.0000000000000000     
   1.9529844513448413E-002  0.10554420670664989        0.0000000000000000     
   1.2684077480594351E-002   7.9078029537103051E-002   0.0000000000000000     
   1.3174419287302935E-002   8.5399323743874572E-002   0.0000000000000000     
   1.3657182850448073E-002   9.1892275078240160E-002   0.0000000000000000     
   1.4132368170029771E-002   9.8556883540199855E-002   0.0000000000000000     
   1.4599975246048020E-002  0.10539314912975362        0.0000000000000000     
   8.4122793074100019E-003   7.8897150198985508E-002   0.0000000000000000     
   8.7422488554354909E-003   8.5249987454681819E-002   0.0000000000000000     
   9.0671440543084684E-003   9.1765616650179072E-002   0.0000000000000000     
   9.3869649040289310E-003   9.8444037785477265E-002   0.0000000000000000     
   9.7017114045968838E-003  0.10528525086057643        0.0000000000000000     
   4.1842534804760389E-003   7.8788622596120822E-002   0.0000000000000000     
   4.3507757595623699E-003   8.5160385681196701E-002   0.0000000000000000     
   4.5147497706943080E-003   9.1689621593388240E-002   0.0000000000000000     
   4.6761755138718490E-003   9.8376330332695452E-002   0.0000000000000000     
   4.8350529890949972E-003  0.10522051189911832        0.0000000000000000     
  -2.0754101562325822E-013   7.8752446728509007E-002   0.0000000000000000     
  -3.1642527140163246E-013   8.5130518423419246E-002   0.0000000000000000     
  -3.9440358531178665E-013   9.1664289907867721E-002   0.0000000000000000     
  -4.4147397868475602E-013   9.8353761181854404E-002   0.0000000000000000     
  -4.5763826755917947E-013  0.10519893224537931        0.0000000000000000     
   1.9529844513448413E-002  0.10554420670664989        0.0000000000000000     
   2.0123128668591953E-002  0.11252407165535315        0.0000000000000000     
   2.0678122682061692E-002  0.11962091989139446        0.0000000000000000     
   2.1194826553857619E-002  0.12683475141477379        0.0000000000000000     
   2.1673240283979742E-002  0.13416556622549122        0.0000000000000000     
   1.4599975246048020E-002  0.10539314912975362        0.0000000000000000     
   1.5048558493455096E-002  0.11237453595016783        0.0000000000000000     
   1.5466672327203262E-002  0.11947450810470885        0.0000000000000000     
   1.5854316747292520E-002  0.12669306559337665        0.0000000000000000     
   1.6211491753722870E-002  0.13403020841617125        0.0000000000000000     
   9.7017114045968838E-003  0.10528525086057643        0.0000000000000000     
   1.0003180323566844E-002  0.11226772473220710        0.0000000000000000     
   1.0283168428493332E-002  0.11936992825709981        0.0000000000000000     
   1.0541675719376347E-002  0.12659186143525458        0.0000000000000000     
   1.0778702196215892E-002  0.13393352426667143        0.0000000000000000     
   4.8350529890949972E-003  0.10522051189911832        0.0000000000000000     
   4.9869941589271976E-003  0.11220363800147094        0.0000000000000000     
   5.1276109859319007E-003  0.11930718034856740        0.0000000000000000     
   5.2569034701091056E-003  0.12653113894040771        0.0000000000000000     
   5.3748716114588131E-003  0.13387551377699181        0.0000000000000000     
  -4.5763826755917947E-013  0.10519893224537931        0.0000000000000000     
  -4.6384142186883803E-013  0.11218227575795939        0.0000000000000000     
  -4.8103079679229221E-013  0.11928626437911158        0.0000000000000000     
  -5.0920698864073688E-013  0.12651089810883592        0.0000000000000000     
  -5.4836950952319441E-013  0.13385617694713237        0.0000000000000000     
   2.1673240283979742E-002  0.13416556622549122        0.0000000000000000     
   2.2121305963657009E-002  0.14161447521164833        0.0000000000000000     
   2.2546965684118375E-002  0.14918258926134681        0.0000000000000000     
   2.2950219445363847E-002  0.15686990837458673        0.0000000000000000     
   2.3331067247393415E-002  0.16467643255136799        0.0000000000000000     
   1.6211491753722870E-002  0.13403020841617125        0.0000000000000000     
   1.6545416448744316E-002  0.14148729870016810        0.0000000000000000     
   1.6863309934606868E-002  0.14906569857244265        0.0000000000000000     
   1.7165172211310517E-002  0.15676540803299494        0.0000000000000000     
   1.7451003278855275E-002  0.16458642708182489        0.0000000000000000     
   1.0778702196215892E-002  0.13393352426667143        0.0000000000000000     
   1.0999902283065750E-002  0.14139645833483544        0.0000000000000000     
   1.1210930403979703E-002  0.14898220522323172        0.0000000000000000     
   1.1411786558957755E-002  0.15669076493186027        0.0000000000000000     
   1.1602470747999902E-002  0.16452213746072111        0.0000000000000000     
   5.3748716114588131E-003  0.13387551377699181        0.0000000000000000     
   5.4847634666213112E-003  0.14134195411565043        0.0000000000000000     
   5.5898270922368912E-003  0.14893210921371405        0.0000000000000000     
   5.6900624883055488E-003  0.15664597907118277        0.0000000000000000     
   5.7854696548272902E-003  0.16448356368805656        0.0000000000000000     
  -5.4836950952319441E-013  0.13385617694713237        0.0000000000000000     
  -5.8899890173491620E-013  0.14132378604261295        0.0000000000000000     
  -6.2157353916680869E-013  0.14891541054388963        0.0000000000000000     
  -6.4609201235604763E-013  0.15663105045096237        0.0000000000000000     
  -6.6255768232936774E-013  0.16447070576383133        0.0000000000000000     
   2.3331067247393415E-002  0.16467643255136799        0.0000000000000000     
   2.3685032934664840E-002  0.17258647773961450        0.0000000000000000     
   2.4007640351635884E-002  0.18058435988725011        0.0000000000000000     
   2.4298889498306542E-002  0.18867007899427496        0.0000000000000000     
   2.4558780374676820E-002  0.19684363506068892        0.0000000000000000     
   1.7451003278855275E-002  0.16458642708182489        0.0000000000000000     
   1.7716536228754839E-002  0.17251069487410084        0.0000000000000000     
   1.7957504152522917E-002  0.18052015056499088        0.0000000000000000     
   1.8173907050159508E-002  0.18861479415449514        0.0000000000000000     
   1.8365744921664609E-002  0.19679462564261352        0.0000000000000000     
   1.1602470747999902E-002  0.16452213746072111        0.0000000000000000     
   1.1779531837563138E-002  0.17245656425587183        0.0000000000000000     
   1.1939518694104458E-002  0.18047428676337005        0.0000000000000000     
   1.2082431317623862E-002  0.18857530498321579        0.0000000000000000     
   1.2208269708121349E-002  0.19675961891540900        0.0000000000000000     
   5.7854696548272902E-003  0.16448356368805656        0.0000000000000000     
   5.8740197610897341E-003  0.17242408588492752        0.0000000000000000     
   5.9536839763805055E-003  0.18044676848238766        0.0000000000000000     
   6.0244623006996062E-003  0.18855161148043689        0.0000000000000000     
   6.0863547340470328E-003  0.19673861487907537        0.0000000000000000     
  -6.6255768232936774E-013  0.16447070576383133        0.0000000000000000     
  -6.6537357221174709E-013  0.17241325976126787        0.0000000000000000     
  -6.4893945252164631E-013  0.18043759572204360        0.0000000000000000     
  -6.1326209952264343E-013  0.18854371364615849        0.0000000000000000     
  -5.5833506221181217E-013  0.19673161353361260        0.0000000000000000     
   2.4558780374676820E-002  0.19684363506068892        0.0000000000000000     
   2.4788750628111270E-002  0.20508971508832524        0.0000000000000000     
   2.4990237905974450E-002  0.21339300607901718        0.0000000000000000     
   2.5163242208266372E-002  0.22175350803276472        0.0000000000000000     
   2.5307763534987024E-002  0.23017122094956788        0.0000000000000000     
   1.8365744921664609E-002  0.19679462564261352        0.0000000000000000     
   1.8535121871556641E-002  0.20504452791608793        0.0000000000000000     
   1.8684142004354014E-002  0.21334938386166005        0.0000000000000000     
   1.8812805320056736E-002  0.22170919347933002        0.0000000000000000     
   1.8921111818664797E-002  0.23012395676909772        0.0000000000000000     
   1.2208269708121349E-002  0.19675961891540900        0.0000000000000000     
   1.2319120514603373E-002  0.20501225136448264        0.0000000000000000     
   1.2417070386076397E-002  0.21331822513496959        0.0000000000000000     
   1.2502119322540419E-002  0.22167754022686975        0.0000000000000000     
   1.2574267323995431E-002  0.23009019664018329        0.0000000000000000     
   6.0863547340470328E-003  0.19673861487907537        0.0000000000000000     
   6.1407465572514705E-003  0.20499288543350949        0.0000000000000000     
   6.1890230511415980E-003  0.21329952989894571        0.0000000000000000     
   6.2311842157174177E-003  0.22165854827538406        0.0000000000000000     
   6.2672300509789280E-003  0.23006994056282457        0.0000000000000000     
  -5.5833506221181217E-013  0.19673161353361260        0.0000000000000000     
  -4.9907322198505799E-013  0.20498643012316839        0.0000000000000000     
  -4.5038105189743050E-013  0.21329329815358847        0.0000000000000000     
  -4.1226158771501265E-013  0.22165221762487283        0.0000000000000000     
  -3.8471439575693545E-013  0.23006318853702148        0.0000000000000000     
   2.5307763534987024E-002  0.23017122094956788        0.0000000000000000     
   2.5429674845353998E-002  0.23861884727204644        0.0000000000000000     
   2.5534849098584882E-002  0.24706908944282019        0.0000000000000000     
   2.5623286294679675E-002  0.25552194746188911        0.0000000000000000     
   2.5694986433638378E-002  0.26397742132925334        0.0000000000000000     
   1.8921111818664797E-002  0.23012395676909772        0.0000000000000000     
   1.9012670245160734E-002  0.23856419405269227        0.0000000000000000     
   1.9091089344527058E-002  0.24700042565184271        0.0000000000000000     
   1.9156369116763786E-002  0.25543265156654898        0.0000000000000000     
   1.9208509561870906E-002  0.26386087179681111        0.0000000000000000     
   1.2574267323995431E-002  0.23009019664018329        0.0000000000000000     
   1.2635389570810092E-002  0.23852515603886018        0.0000000000000000     
   1.2687361243353042E-002  0.24695138008685061        0.0000000000000000     
   1.2730182341624282E-002  0.25536886878415460        0.0000000000000000     
   1.2763852865623818E-002  0.26377762213077210        0.0000000000000000     
   6.2672300509789280E-003  0.23006994056282457        0.0000000000000000     
   6.2978328223020821E-003  0.23850173323055021        0.0000000000000000     
   6.3236647950628304E-003  0.24692195274784404        0.0000000000000000     
   6.3447259692611720E-003  0.25533059911470607        0.0000000000000000     
   6.3610163448971089E-003  0.26372767233113636        0.0000000000000000     
  -3.8471439575693545E-013  0.23006318853702148        0.0000000000000000     
  -3.6330075232904324E-013  0.23849392562776220        0.0000000000000000     
  -3.4357857271044567E-013  0.24691214363482286        0.0000000000000000     
  -3.2554951030945578E-013  0.25531784255820333        0.0000000000000000     
  -3.0921315855025888E-013  0.26371102239790384        0.0000000000000000     
   2.5694986433638378E-002  0.26397742132925334        0.0000000000000000     
   2.5762274900049502E-002  0.27238024266748451        0.0000000000000000     
   2.5837477078501567E-002  0.28067514309915437        0.0000000000000000     
   2.5920592968994557E-002  0.28886212262426292        0.0000000000000000     
   2.6011622571528493E-002  0.29694118124281021        0.0000000000000000     
   1.9208509561870906E-002  0.26386087179681111        0.0000000000000000     
   1.9257792185774291E-002  0.27222782976190851        0.0000000000000000     
   1.9314498494399805E-002  0.28047626888112065        0.0000000000000000     
   1.9378628487747462E-002  0.28860618915444752        0.0000000000000000     
   1.9450182165817245E-002  0.29661759058188908        0.0000000000000000     
   1.2763852865623818E-002  0.26377762213077210        0.0000000000000000     
   1.2795918797625271E-002  0.27211896340077346        0.0000000000000000     
   1.2833926119902282E-002  0.28033421586822904        0.0000000000000000     
   1.2877874832454849E-002  0.28842337953313879        0.0000000000000000     
   1.2927764935282974E-002  0.29638645439550276        0.0000000000000000     
   6.3610163448971089E-003  0.26372767233113636        0.0000000000000000     
   6.3766547356024460E-003  0.27205364358407930        0.0000000000000000     
   6.3957599550089868E-003  0.28024898406047938        0.0000000000000000     
   6.4183320031167288E-003  0.28831369376033689        0.0000000000000000     
   6.4443708799256745E-003  0.29624777268365132        0.0000000000000000     
  -3.0921315855025888E-013  0.26371102239790384        0.0000000000000000     
  -2.9418524907787180E-013  0.27203187031182607        0.0000000000000000     
  -2.8008216405861486E-013  0.28022057345787194        0.0000000000000000     
  -2.6690536716542090E-013  0.28827713183604148        0.0000000000000000     
  -2.5465220210296735E-013  0.29620154544633459        0.0000000000000000     
  -5.8986973291985656E-013   5.5437522568506828E-002   0.0000000000000000     
  -3.2934722657418369E-013   6.0912635538401927E-002   0.0000000000000000     
  -1.7878504666307693E-013   6.6623493888367330E-002   0.0000000000000000     
  -1.3818332871180783E-013   7.2570097618403009E-002   0.0000000000000000     
  -2.0754101562325822E-013   7.8752446728509007E-002   0.0000000000000000     
  -3.5213948518506267E-003   5.5452141438341429E-002   0.0000000000000000     
  -3.6855481920547136E-003   6.0942081941181038E-002   0.0000000000000000     
  -3.8507424102907357E-003   6.6661475635105175E-002   0.0000000000000000     
  -4.0169775065586923E-003   7.2610322520113790E-002   0.0000000000000000     
  -4.1842534808585827E-003   7.8788622596206934E-002   0.0000000000000000     
  -7.0195178084996469E-003   5.5495998045348452E-002   0.0000000000000000     
  -7.3794709222488120E-003   6.1030421148211410E-002   0.0000000000000000     
  -7.7315822100310818E-003   6.6775420874819566E-002   0.0000000000000000     
  -8.0758516718464554E-003   7.2730997225172955E-002   0.0000000000000000     
  -8.4122793076949354E-003   7.8897150199271557E-002   0.0000000000000000     
  -1.0494368870536929E-002   5.5569092389527910E-002   0.0000000000000000     
  -1.1081768190911641E-002   6.1177653159493056E-002   0.0000000000000000     
  -1.1642519399399819E-002   6.6965329607510601E-002   0.0000000000000000     
  -1.2176622496001472E-002   7.2932121733580518E-002   0.0000000000000000     
  -1.2684077480716597E-002   7.9078029537702835E-002   0.0000000000000000     
  -1.3945948037962473E-002   5.5671424470879811E-002   0.0000000000000000     
  -1.4792439998043198E-002   6.1383777975025998E-002   0.0000000000000000     
  -1.5583553978396955E-002   6.7231201833178211E-002   0.0000000000000000     
  -1.6319289979023748E-002   7.3213696045336493E-002   0.0000000000000000     
  -1.6999647999923567E-002   7.9331260611500781E-002   0.0000000000000000     
  -2.0754101562325822E-013   7.8752446728509007E-002   0.0000000000000000     
  -3.1642527140163246E-013   8.5130518423419246E-002   0.0000000000000000     
  -3.9440358531178665E-013   9.1664289907867721E-002   0.0000000000000000     
  -4.4147397868475602E-013   9.8353761181854404E-002   0.0000000000000000     
  -4.5763826755917947E-013  0.10519893224537931        0.0000000000000000     
  -4.1842534808585827E-003   7.8788622596206934E-002   0.0000000000000000     
  -4.3507757601661630E-003   8.5160385681380055E-002   0.0000000000000000     
  -4.5147497714571839E-003   9.1689621593628604E-002   0.0000000000000000     
  -4.6761755147316474E-003   9.8376330332952594E-002   0.0000000000000000     
  -4.8350529899895524E-003  0.10522051189935200        0.0000000000000000     
  -8.4122793076949354E-003   7.8897150199271557E-002   0.0000000000000000     
  -8.7422488559521089E-003   8.5249987455109796E-002   0.0000000000000000     
  -9.0671440549935541E-003   9.1765616650682114E-002   0.0000000000000000     
  -9.3869649048192779E-003   9.8444037785988509E-002   0.0000000000000000     
  -9.7017114054292787E-003  0.10528525086102901        0.0000000000000000     
  -1.2684077480716597E-002   7.9078029537702835E-002   0.0000000000000000     
  -1.3174419287674256E-002   8.5399323744608444E-002   0.0000000000000000     
  -1.3657182851003516E-002   9.1892275079028210E-002   0.0000000000000000     
  -1.4132368170704363E-002   9.8556883540962203E-002   0.0000000000000000     
  -1.4599975246776817E-002  0.10539314913041037        0.0000000000000000     
  -1.6999647999923567E-002   7.9331260611500781E-002   0.0000000000000000     
  -1.7647287055332615E-002   8.5608394549875969E-002   0.0000000000000000     
  -1.8284866159487059E-002   9.2069596878666921E-002   0.0000000000000000     
  -1.8912385312386915E-002   9.8714867597873596E-002   0.0000000000000000     
  -1.9529844514032165E-002  0.10554420670749604        0.0000000000000000     
  -4.5763826755917947E-013  0.10519893224537931        0.0000000000000000     
  -4.6384142186883803E-013  0.11218227575795939        0.0000000000000000     
  -4.8103079679229221E-013  0.11928626437911158        0.0000000000000000     
  -5.0920698864073688E-013  0.12651089810883592        0.0000000000000000     
  -5.4836950952319441E-013  0.13385617694713237        0.0000000000000000     
  -4.8350529899895524E-003  0.10522051189935200        0.0000000000000000     
  -4.9869941598361389E-003  0.11220363800166348        0.0000000000000000     
  -5.1276109868766441E-003  0.11930718034872376        0.0000000000000000     
  -5.2569034711110723E-003  0.12653113894053275        0.0000000000000000     
  -5.3748716125394200E-003  0.13387551377709053        0.0000000000000000     
  -9.7017114054292787E-003  0.10528525086102901        0.0000000000000000     
  -1.0003180324419558E-002  0.11226772473257433        0.0000000000000000     
  -1.0283168429386124E-002  0.11936992825739523        0.0000000000000000     
  -1.0541675720328970E-002  0.12659186143549167        0.0000000000000000     
  -1.0778702197248101E-002  0.13393352426686372        0.0000000000000000     
  -1.4599975246776817E-002  0.10539314913041037        0.0000000000000000     
  -1.5048558494214102E-002  0.11237453595069191        0.0000000000000000     
  -1.5466672328009464E-002  0.11947450810512601        0.0000000000000000     
  -1.5854316748162896E-002  0.12669306559371266        0.0000000000000000     
  -1.6211491754674411E-002  0.13403020841645188        0.0000000000000000     
  -1.9529844514032165E-002  0.10554420670749604        0.0000000000000000     
  -2.0123128669219767E-002  0.11252407165601622        0.0000000000000000     
  -2.0678122682746672E-002  0.11962091989191612        0.0000000000000000     
  -2.1194826554612863E-002  0.12683475141519576        0.0000000000000000     
  -2.1673240284818356E-002  0.13416556622585510        0.0000000000000000     
  -5.4836950952319441E-013  0.13385617694713237        0.0000000000000000     
  -5.8899890173491620E-013  0.14132378604261295        0.0000000000000000     
  -6.2157353916680869E-013  0.14891541054388963        0.0000000000000000     
  -6.4609201235604763E-013  0.15663105045096237        0.0000000000000000     
  -6.6255768232936774E-013  0.16447070576383133        0.0000000000000000     
  -5.3748716125394200E-003  0.13387551377709053        0.0000000000000000     
  -5.4847634677830442E-003  0.14134195411572478        0.0000000000000000     
  -5.5898270934633043E-003  0.14893210921376326        0.0000000000000000     
  -5.6900624895801942E-003  0.15664597907120595        0.0000000000000000     
  -5.7854696561337217E-003  0.16448356368805289        0.0000000000000000     
  -1.0778702197248101E-002  0.13393352426686372        0.0000000000000000     
  -1.0999902284178693E-002  0.14139645833498765        0.0000000000000000     
  -1.1210930405155915E-002  0.14898220522333977        0.0000000000000000     
  -1.1411786560179779E-002  0.15669076493192022        0.0000000000000000     
  -1.1602470749250277E-002  0.16452213746072886        0.0000000000000000     
  -1.6211491754674411E-002  0.13403020841645188        0.0000000000000000     
  -1.6545416449775939E-002  0.14148729870040144        0.0000000000000000     
  -1.6863309935699417E-002  0.14906569857261923        0.0000000000000000     
  -1.7165172212444846E-002  0.15676540803310512        0.0000000000000000     
  -1.7451003280012232E-002  0.16458642708185922        0.0000000000000000     
  -2.1673240284818356E-002  0.13416556622585510        0.0000000000000000     
  -2.2121305964574782E-002  0.14161447521196632        0.0000000000000000     
  -2.2546965685093796E-002  0.14918258926160155        0.0000000000000000     
  -2.2950219446375392E-002  0.15686990837476075        0.0000000000000000     
  -2.3331067248419570E-002  0.16467643255144399        0.0000000000000000     
  -6.6255768232936774E-013  0.16447070576383133        0.0000000000000000     
  -6.6537357221174709E-013  0.17241325976126787        0.0000000000000000     
  -6.4893945252164631E-013  0.18043759572204360        0.0000000000000000     
  -6.1326209952264343E-013  0.18854371364615849        0.0000000000000000     
  -5.5833506221181217E-013  0.19673161353361260        0.0000000000000000     
  -5.7854696561337217E-003  0.16448356368805289        0.0000000000000000     
  -5.8740197624009179E-003  0.17242408588490035        0.0000000000000000     
  -5.9536839776588250E-003  0.18044676848234459        0.0000000000000000     
  -6.0244623019074395E-003  0.18855161148038568        0.0000000000000000     
  -6.0863547351467616E-003  0.19673861487902361        0.0000000000000000     
  -1.1602470749250277E-002  0.16452213746072886        0.0000000000000000     
  -1.1779531838815638E-002  0.17245656425583233        0.0000000000000000     
  -1.1939518695324088E-002  0.18047428676329730        0.0000000000000000     
  -1.2082431318775627E-002  0.18857530498312369        0.0000000000000000     
  -1.2208269709170251E-002  0.19675961891531146        0.0000000000000000     
  -1.7451003280012232E-002  0.16458642708185922        0.0000000000000000     
  -1.7716536229909534E-002  0.17251069487406392        0.0000000000000000     
  -1.7957504153644728E-002  0.18052015056490162        0.0000000000000000     
  -1.8173907051217821E-002  0.18861479415437238        0.0000000000000000     
  -1.8365744922628807E-002  0.19679462564247616        0.0000000000000000     
  -2.3331067248419570E-002  0.16467643255144399        0.0000000000000000     
  -2.3685032935682603E-002  0.17258647773959501        0.0000000000000000     
  -2.4007640352620752E-002  0.18058435988715765        0.0000000000000000     
  -2.4298889499234026E-002  0.18867007899413185        0.0000000000000000     
  -2.4558780375522421E-002  0.19684363506051761        0.0000000000000000     
  -5.5833506221181217E-013  0.19673161353361260        0.0000000000000000     
  -4.9907322198505799E-013  0.20498643012316839        0.0000000000000000     
  -4.5038105189743050E-013  0.21329329815358847        0.0000000000000000     
  -4.1226158771501265E-013  0.22165221762487283        0.0000000000000000     
  -3.8471439575693545E-013  0.23006318853702148        0.0000000000000000     
  -6.0863547351467616E-003  0.19673861487902361        0.0000000000000000     
  -6.1407465582346580E-003  0.20499288543346028        0.0000000000000000     
  -6.1890230520289836E-003  0.21329952989889758        0.0000000000000000     
  -6.2311842165297402E-003  0.22165854827533554        0.0000000000000000     
  -6.2672300517369259E-003  0.23006994056277413        0.0000000000000000     
  -1.2208269709170251E-002  0.19675961891531146        0.0000000000000000     
  -1.2319120515541689E-002  0.20501225136438606        0.0000000000000000     
  -1.2417070386923646E-002  0.21331822513487281        0.0000000000000000     
  -1.2502119323316133E-002  0.22167754022677172        0.0000000000000000     
  -1.2574267324719139E-002  0.23009019664008265        0.0000000000000000     
  -1.8365744922628807E-002  0.19679462564247616        0.0000000000000000     
  -1.8535121872420166E-002  0.20504452791594582        0.0000000000000000     
  -1.8684142005134376E-002  0.21334938386151414        0.0000000000000000     
  -1.8812805320771436E-002  0.22170919347918119        0.0000000000000000     
  -1.8921111819331350E-002  0.23012395676894692        0.0000000000000000     
  -2.4558780375522421E-002  0.19684363506051761        0.0000000000000000     
  -2.4788750628870090E-002  0.20508971508813942        0.0000000000000000     
  -2.4990237906661168E-002  0.21339300607882158        0.0000000000000000     
  -2.5163242208895660E-002  0.22175350803256411        0.0000000000000000     
  -2.5307763535573555E-002  0.23017122094936704        0.0000000000000000     
  -3.8471439575693545E-013  0.23006318853702148        0.0000000000000000     
  -3.6330075232904324E-013  0.23849392562776220        0.0000000000000000     
  -3.4357857271044567E-013  0.24691214363482286        0.0000000000000000     
  -3.2554951030945578E-013  0.25531784255820333        0.0000000000000000     
  -3.0921315855025888E-013  0.26371102239790384        0.0000000000000000     
  -6.2672300517369259E-003  0.23006994056277413        0.0000000000000000     
  -6.2978328230178142E-003  0.23850173323049723        0.0000000000000000     
  -6.3236647957396691E-003  0.24692195274778858        0.0000000000000000     
  -6.3447259699024932E-003  0.25533059911464823        0.0000000000000000     
  -6.3610163455062839E-003  0.26372767233107608        0.0000000000000000     
  -1.2574267324719139E-002  0.23009019664008265        0.0000000000000000     
  -1.2635389571493223E-002  0.23852515603875615        0.0000000000000000     
  -1.2687361243998932E-002  0.24695138008674269        0.0000000000000000     
  -1.2730182342236272E-002  0.25536886878404214        0.0000000000000000     
  -1.2763852866205233E-002  0.26377762213065459        0.0000000000000000     
  -1.8921111819331350E-002  0.23012395676894692        0.0000000000000000     
  -1.9012670245789523E-002  0.23856419405253904        0.0000000000000000     
  -1.9091089345121368E-002  0.24700042565168512        0.0000000000000000     
  -1.9156369117326877E-002  0.25543265156638528        0.0000000000000000     
  -1.9208509562406061E-002  0.26386087179663942        0.0000000000000000     
  -2.5307763535573555E-002  0.23017122094936704        0.0000000000000000     
  -2.5429674845906716E-002  0.23861884727184582        0.0000000000000000     
  -2.5534849099106971E-002  0.24706908944261602        0.0000000000000000     
  -2.5623286295174325E-002  0.25552194746167750        0.0000000000000000     
  -2.5694986434108769E-002  0.26397742132903040        0.0000000000000000     
  -3.0921315855025888E-013  0.26371102239790384        0.0000000000000000     
  -2.9418524907787180E-013  0.27203187031182607        0.0000000000000000     
  -2.8008216405861486E-013  0.28022057345787194        0.0000000000000000     
  -2.6690536716542090E-013  0.28827713183604148        0.0000000000000000     
  -2.5465220210296735E-013  0.29620154544633459        0.0000000000000000     
  -6.3610163455062839E-003  0.26372767233107608        0.0000000000000000     
  -6.3766547361820388E-003  0.27205364358401507        0.0000000000000000     
  -6.3957599555607555E-003  0.28024898406040788        0.0000000000000000     
  -6.4183320036424359E-003  0.28831369376025445        0.0000000000000000     
  -6.4443708804270781E-003  0.29624777268355496        0.0000000000000000     
  -1.2763852866205233E-002  0.26377762213065459        0.0000000000000000     
  -1.2795918798178534E-002  0.27211896340064756        0.0000000000000000     
  -1.2833926120428872E-002  0.28033421586808854        0.0000000000000000     
  -1.2877874832956252E-002  0.28842337953297753        0.0000000000000000     
  -1.2927764935760673E-002  0.29638645439531452        0.0000000000000000     
  -1.9208509562406061E-002  0.26386087179663942        0.0000000000000000     
  -1.9257792186283658E-002  0.27222782976172355        0.0000000000000000     
  -1.9314498494884421E-002  0.28047626888091404        0.0000000000000000     
  -1.9378628488208347E-002  0.28860618915421055        0.0000000000000000     
  -1.9450182166255436E-002  0.29661759058161336        0.0000000000000000     
  -2.5694986434108769E-002  0.26397742132903040        0.0000000000000000     
  -2.5762274900497432E-002  0.27238024266724314        0.0000000000000000     
  -2.5837477078927418E-002  0.28067514309888425        0.0000000000000000     
  -2.5920592969398731E-002  0.28886212262395367        0.0000000000000000     
  -2.6011622571911371E-002  0.29694118124245139        0.0000000000000000     
  -1.3945948037962473E-002   5.5671424470879811E-002   0.0000000000000000     
  -1.4792439998043198E-002   6.1383777975025998E-002   0.0000000000000000     
  -1.5583553978396955E-002   6.7231201833178211E-002   0.0000000000000000     
  -1.6319289979023748E-002   7.3213696045336493E-002   0.0000000000000000     
  -1.6999647999923567E-002   7.9331260611500781E-002   0.0000000000000000     
  -1.7462611200580243E-002   5.5848211987997158E-002   0.0000000000000000     
  -1.8562228289998078E-002   6.1645056894745739E-002   0.0000000000000000     
  -1.9580084222642465E-002   6.7539940065198603E-002   0.0000000000000000     
  -2.0516178998513421E-002   7.3532861499355756E-002   0.0000000000000000     
  -2.1370512617610929E-002   7.9623821197217184E-002   0.0000000000000000     
  -2.1132714248194195E-002   5.6144672639472974E-002   0.0000000000000000     
  -2.2441875013130858E-002   6.1957751218587834E-002   0.0000000000000000     
  -2.3657508407756347E-002   6.7858446816947943E-002   0.0000000000000000     
  -2.4779614432070642E-002   7.3846759434553280E-002   0.0000000000000000     
  -2.5808193086073752E-002   7.9922689071403832E-002   0.0000000000000000     
  -2.4956257180804325E-002   5.6560806425307260E-002   0.0000000000000000     
  -2.6431380167441555E-002   6.2321860946552288E-002   0.0000000000000000     
  -2.7815826533738586E-002   6.8186722088426216E-002   0.0000000000000000     
  -2.9109596279695414E-002   7.4155389850929024E-002   0.0000000000000000     
  -3.0312689405312045E-002   8.0227864234060711E-002   0.0000000000000000     
  -2.8933239998410638E-002   5.7096613345500008E-002   0.0000000000000000     
  -3.0530743752930158E-002   6.2737386078639101E-002   0.0000000000000000     
  -3.2055038600589197E-002   6.8524765879633423E-002   0.0000000000000000     
  -3.3506124541387738E-002   7.4458752748483001E-002   0.0000000000000000     
  -3.4884001575325799E-002   8.0539346685187835E-002   0.0000000000000000     
  -1.6999647999923567E-002   7.9331260611500781E-002   0.0000000000000000     
  -1.7647287055332615E-002   8.5608394549875969E-002   0.0000000000000000     
  -1.8284866159487059E-002   9.2069596878666921E-002   0.0000000000000000     
  -1.8912385312386915E-002   9.8714867597873596E-002   0.0000000000000000     
  -1.9529844514032165E-002  0.10554420670749604        0.0000000000000000     
  -2.1370512617610929E-002   7.9623821197217184E-002   0.0000000000000000     
  -2.2177307456100737E-002   8.5861009588039244E-002   0.0000000000000000     
  -2.2970785890148570E-002   9.2292617101078250E-002   0.0000000000000000     
  -2.3750947919754448E-002   9.8918643736334216E-002   0.0000000000000000     
  -2.4517793544918350E-002  0.10573908949380714        0.0000000000000000     
  -2.5808193086073752E-002   7.9922689071403832E-002   0.0000000000000000     
  -2.6780935787152182E-002   8.6140978576225019E-002   0.0000000000000000     
  -2.7735533952692435E-002   9.2556370797742232E-002   0.0000000000000000     
  -2.8671987582694507E-002   9.9168865735955486E-002   0.0000000000000000     
  -2.9590296677158404E-002  0.10597846339086477        0.0000000000000000     
  -3.0312689405312045E-002   8.0227864234060711E-002   0.0000000000000000     
  -3.1458172048486957E-002   8.6448301514433307E-002   0.0000000000000000     
  -3.2579110347118627E-002   9.2860857968658894E-002   0.0000000000000000     
  -3.3675504301207089E-002   9.9465533596737432E-002   0.0000000000000000     
  -3.4747353910752322E-002  0.10626232839866889        0.0000000000000000     
  -3.4884001575325799E-002   8.0539346685187835E-002   0.0000000000000000     
  -3.6209016240105044E-002   8.6782978402664149E-002   0.0000000000000000     
  -3.7501515073427194E-002   9.3206078613828208E-002   0.0000000000000000     
  -3.8761498075292201E-002   9.9808647318679986E-002   0.0000000000000000     
  -3.9988965245700107E-002  0.10659068451721954        0.0000000000000000     
  -1.9529844514032165E-002  0.10554420670749604        0.0000000000000000     
  -2.0123128669219767E-002  0.11252407165601622        0.0000000000000000     
  -2.0678122682746672E-002  0.11962091989191612        0.0000000000000000     
  -2.1194826554612863E-002  0.12683475141519576        0.0000000000000000     
  -2.1673240284818356E-002  0.13416556622585510        0.0000000000000000     
  -2.4517793544918350E-002  0.10573908949380714        0.0000000000000000     
  -2.5255137065991688E-002  0.11271449155444145        0.0000000000000000     
  -2.5946792783325848E-002  0.11980538709918159        0.0000000000000000     
  -2.6592760696920847E-002  0.12701177612802750        0.0000000000000000     
  -2.7193040806776675E-002  0.13433365864097924        0.0000000000000000     
  -2.9590296677158404E-002  0.10597846339086477        0.0000000000000000     
  -3.0472829901084991E-002  0.11294395535186183        0.0000000000000000     
  -3.1301955919475141E-002  0.12002413320833841        0.0000000000000000     
  -3.2077674732328844E-002  0.12721899696029454        0.0000000000000000     
  -3.2799986339646113E-002  0.13452854660773023        0.0000000000000000     
  -3.4747353910752322E-002  0.10626232839866889        0.0000000000000000     
  -3.5776207174499683E-002  0.11321246304827731        0.0000000000000000     
  -3.6743612091194519E-002  0.12027715821938664        0.0000000000000000     
  -3.7649568660836859E-002  0.12745641391199691        0.0000000000000000     
  -3.8494076883426667E-002  0.13475023012610804        0.0000000000000000     
  -3.9988965245700107E-002  0.10659068451721954        0.0000000000000000     
  -4.1165268886235749E-002  0.11352001464368791        0.0000000000000000     
  -4.2271761298484006E-002  0.12056446213232624        0.0000000000000000     
  -4.3308442482444871E-002  0.12772402698313451        0.0000000000000000     
  -4.4275312438118337E-002  0.13499870919611273        0.0000000000000000     
  -2.1673240284818356E-002  0.13416556622585510        0.0000000000000000     
  -2.2121305964574782E-002  0.14161447521196632        0.0000000000000000     
  -2.2546965685093796E-002  0.14918258926160155        0.0000000000000000     
  -2.2950219446375392E-002  0.15686990837476075        0.0000000000000000     
  -2.3331067248419570E-002  0.16467643255144399        0.0000000000000000     
  -2.7193040806776675E-002  0.13433365864097924        0.0000000000000000     
  -2.7756161094766005E-002  0.14177199991176587        0.0000000000000000     
  -2.8290649542761524E-002  0.14932776521411648        0.0000000000000000     
  -2.8796506150763217E-002  0.15700095454803106        0.0000000000000000     
  -2.9273730918771102E-002  0.16479156791350966        0.0000000000000000     
  -3.2799986339646113E-002  0.13452854660773023        0.0000000000000000     
  -3.3478572106540365E-002  0.14195388484188382        0.0000000000000000     
  -3.4123113398125030E-002  0.14949611435399376        0.0000000000000000     
  -3.4733610214400121E-002  0.15715523514406005        0.0000000000000000     
  -3.5310062555365618E-002  0.16493124721208263        0.0000000000000000     
  -3.8494076883426667E-002  0.13475023012610804        0.0000000000000000     
  -3.9288538999897864E-002  0.14216013000232022        0.0000000000000000     
  -4.0044357251184333E-002  0.14968763668123339        0.0000000000000000     
  -4.0761531637286082E-002  0.15733275016284765        0.0000000000000000     
  -4.1440062158203110E-002  0.16509547044716294        0.0000000000000000     
  -4.4275312438118337E-002  0.13499870919611273        0.0000000000000000     
  -4.5186061774838492E-002  0.14239073539307495        0.0000000000000000     
  -4.6054381101939428E-002  0.14990233219583537        0.0000000000000000     
  -4.6880270419421124E-002  0.15753349960439392        0.0000000000000000     
  -4.7663729727283596E-002  0.16528423761875058        0.0000000000000000     
  -2.3331067248419570E-002  0.16467643255144399        0.0000000000000000     
  -2.3685032935682603E-002  0.17258647773959501        0.0000000000000000     
  -2.4007640352620752E-002  0.18058435988715765        0.0000000000000000     
  -2.4298889499234026E-002  0.18867007899413185        0.0000000000000000     
  -2.4558780375522421E-002  0.19684363506051761        0.0000000000000000     
  -2.9273730918771102E-002  0.16479156791350966        0.0000000000000000     
  -2.9717719088070610E-002  0.17268593993566125        0.0000000000000000     
  -3.0123865899947193E-002  0.18067040523959504        0.0000000000000000     
  -3.0492171354400840E-002  0.18874496382531100        0.0000000000000000     
  -3.0822635451431567E-002  0.19690961569280907        0.0000000000000000     
  -3.5310062555365618E-002  0.16493124721208263        0.0000000000000000     
  -3.5847291819009336E-002  0.17281110854549825        0.0000000000000000     
  -3.6340119403319097E-002  0.18078177713174365        0.0000000000000000     
  -3.6788545308294875E-002  0.18884325297081878        0.0000000000000000     
  -3.7192569533936688E-002  0.19699553606272371        0.0000000000000000     
  -4.1440062158203110E-002  0.16509547044716294        0.0000000000000000     
  -4.2073751128498781E-002  0.17296198356910594        0.0000000000000000     
  -4.2656400862736442E-002  0.18091847556360338        0.0000000000000000     
  -4.3188011360916129E-002  0.18896494643065520        0.0000000000000000     
  -4.3668582623037799E-002  0.19710139617026143        0.0000000000000000     
  -4.7663729727283596E-002  0.16528423761875058        0.0000000000000000     
  -4.8397097016538937E-002  0.17313856500648439        0.0000000000000000     
  -4.9072710278199268E-002  0.18108050053517427        0.0000000000000000     
  -4.9690569512264589E-002  0.18911004420482025        0.0000000000000000     
  -5.0250674718734900E-002  0.19722719601542232        0.0000000000000000     
  -2.4558780375522421E-002  0.19684363506051761        0.0000000000000000     
  -2.4788750628870090E-002  0.20508971508813942        0.0000000000000000     
  -2.4990237906661168E-002  0.21339300607882158        0.0000000000000000     
  -2.5163242208895660E-002  0.22175350803256411        0.0000000000000000     
  -2.5307763535573555E-002  0.23017122094936704        0.0000000000000000     
  -3.0822635451431567E-002  0.19690961569280907        0.0000000000000000     
  -3.1115772823815193E-002  0.20514934528957207        0.0000000000000000     
  -3.1372098104327582E-002  0.21344913706308272        0.0000000000000000     
  -3.1591611292968710E-002  0.22180899101334106        0.0000000000000000     
  -3.1774312389738602E-002  0.23022890714034699        0.0000000000000000     
  -3.7192569533936688E-002  0.19699553606272371        0.0000000000000000     
  -3.7551954496179228E-002  0.20522495092884899        0.0000000000000000     
  -3.7866462610957170E-002  0.21351782209058534        0.0000000000000000     
  -3.8136093878270542E-002  0.22187414954793264        0.0000000000000000     
  -3.8360848298119310E-002  0.23029393330089104        0.0000000000000000     
  -4.3668582623037799E-002  0.19710139617026143        0.0000000000000000     
  -4.4097295645962188E-002  0.20531653200597014        0.0000000000000000     
  -4.4473331426549960E-002  0.21359906116132929        0.0000000000000000     
  -4.4796689964801122E-002  0.22194898363633891        0.0000000000000000     
  -4.5067371260715687E-002  0.23036629943099907        0.0000000000000000     
  -5.0250674718734900E-002  0.19722719601542232        0.0000000000000000     
  -5.0751796273164063E-002  0.20542408852093544        0.0000000000000000     
  -5.1192704551105910E-002  0.21369285427531462        0.0000000000000000     
  -5.1573399552560475E-002  0.22203349327855984        0.0000000000000000     
  -5.1893881277527733E-002  0.23044600553067107        0.0000000000000000     
  -2.5307763535573555E-002  0.23017122094936704        0.0000000000000000     
  -2.5429674845906716E-002  0.23861884727184582        0.0000000000000000     
  -2.5534849099106971E-002  0.24706908944261602        0.0000000000000000     
  -2.5623286295174325E-002  0.25552194746167750        0.0000000000000000     
  -2.5694986434108769E-002  0.26397742132903040        0.0000000000000000     
  -3.1774312389738602E-002  0.23022890714034699        0.0000000000000000     
  -3.1928096617655416E-002  0.23868463111348620        0.0000000000000000     
  -3.2060859199737328E-002  0.24715190860214425        0.0000000000000000     
  -3.2172600135984344E-002  0.25563073960632099        0.0000000000000000     
  -3.2263319426396472E-002  0.26412112412601657        0.0000000000000000     
  -3.8360848298119310E-002  0.23029393330089104        0.0000000000000000     
  -3.8549628806846238E-002  0.23875706099426999        0.0000000000000000     
  -3.8711338340794037E-002  0.24724342027287888        0.0000000000000000     
  -3.8845976899962706E-002  0.25575301113671783        0.0000000000000000     
  -3.8953544484352273E-002  0.26428583358578683        0.0000000000000000     
  -4.5067371260715687E-002  0.23036629943099907        0.0000000000000000     
  -4.5294271413479172E-002  0.23883613691419694        0.0000000000000000     
  -4.5486286522277077E-002  0.24734362445481997        0.0000000000000000     
  -4.5643416587109416E-002  0.25588876205286798        0.0000000000000000     
  -4.5765661607976182E-002  0.26447154970834114        0.0000000000000000     
  -5.1893881277527733E-002  0.23044600553067107        0.0000000000000000     
  -5.2162024437554216E-002  0.23892185887326731        0.0000000000000000     
  -5.2385703744186447E-002  0.24745252114796745        0.0000000000000000     
  -5.2564919197424453E-002  0.25603799235477148        0.0000000000000000     
  -5.2699670797268193E-002  0.26467827249367948        0.0000000000000000     
  -2.5694986434108769E-002  0.26397742132903040        0.0000000000000000     
  -2.5762274900497432E-002  0.27238024266724314        0.0000000000000000     
  -2.5837477078927418E-002  0.28067514309888425        0.0000000000000000     
  -2.5920592969398731E-002  0.28886212262395367        0.0000000000000000     
  -2.6011622571911371E-002  0.29694118124245139        0.0000000000000000     
  -3.2263319426396472E-002  0.26412112412601657        0.0000000000000000     
  -3.2347774065842980E-002  0.27256988028307061        0.0000000000000000     
  -3.2440721049193176E-002  0.28092382619932255        0.0000000000000000     
  -3.2542160376447068E-002  0.28918296187477260        0.0000000000000000     
  -3.2652092047604629E-002  0.29734728730942062        0.0000000000000000     
  -3.8953544484352273E-002  0.26428583358578683        0.0000000000000000     
  -3.9052696807343461E-002  0.27279042077507021        0.0000000000000000     
  -3.9162089582317046E-002  0.28121530585955240        0.0000000000000000     
  -3.9281722809273022E-002  0.28956048883923324        0.0000000000000000     
  -3.9411596488211381E-002  0.29782596971411296        0.0000000000000000     
  -4.5765661607976182E-002  0.26447154970834114        0.0000000000000000     
  -4.5877043124998892E-002  0.27304186414324205        0.0000000000000000     
  -4.6001582678299013E-002  0.28154958207957365        0.0000000000000000     
  -4.6139280267876608E-002  0.28999470351733569        0.0000000000000000     
  -4.6290135893731627E-002  0.29837722845652831        0.0000000000000000     
  -5.2699670797268193E-002  0.26467827249367948        0.0000000000000000     
  -5.2820813018809219E-002  0.27332421038758614        0.0000000000000000     
  -5.2959200337139092E-002  0.28192665485938628        0.0000000000000000     
  -5.3114832752257798E-002  0.29048560590907985        0.0000000000000000     
  -5.3287710264165344E-002  0.29900106353666689        0.0000000000000000     
  -2.8933239998410638E-002   5.7096613345500008E-002   0.0000000000000000     
  -3.0530743752930158E-002   6.2737386078639101E-002   0.0000000000000000     
  -3.2055038600589197E-002   6.8524765879633423E-002   0.0000000000000000     
  -3.3506124541387738E-002   7.4458752748483001E-002   0.0000000000000000     
  -3.4884001575325799E-002   8.0539346685187835E-002   0.0000000000000000     
  -3.3022961243233000E-002   5.7696854053217797E-002   0.0000000000000000     
  -3.4743406400458379E-002   6.3210016918595735E-002   0.0000000000000000     
  -3.6407738335894071E-002   6.8914638132078015E-002   0.0000000000000000     
  -3.8015957049540083E-002   7.4810717693664680E-002   0.0000000000000000     
  -3.9568062541396401E-002   8.0898255603355687E-002   0.0000000000000000     
  -3.7184719457491272E-002   5.8306289201627171E-002   0.0000000000000000     
  -3.9072808740887900E-002   6.3745443770169663E-002   0.0000000000000000     
  -4.0906519467239104E-002   6.9398398787268417E-002   0.0000000000000000     
  -4.2685851636544883E-002   7.5265154252923488E-002   0.0000000000000000     
  -4.4410805248805245E-002   8.1345710167134877E-002   0.0000000000000000     
  -4.1418514641185462E-002   5.8924918790728163E-002   0.0000000000000000     
  -4.3518950774218759E-002   6.4343666633360899E-002   0.0000000000000000     
  -4.5551381994624322E-002   6.9976047845204642E-002   0.0000000000000000     
  -4.7515808302402179E-002   7.5822062426259468E-002   0.0000000000000000     
  -4.9412229697552310E-002   8.1881710376525307E-002   0.0000000000000000     
  -4.5724346794315571E-002   5.9552742820520727E-002   0.0000000000000000     
  -4.8081832500450901E-002   6.5004685508169430E-002   0.0000000000000000     
  -5.0342325918049692E-002   7.0647585305886704E-002   0.0000000000000000     
  -5.2505827047111937E-002   7.6481442213672590E-002   0.0000000000000000     
  -5.4572335887637623E-002   8.2506256231527048E-002   0.0000000000000000     
  -3.4884001575325799E-002   8.0539346685187835E-002   0.0000000000000000     
  -3.6209016240105044E-002   8.6782978402664149E-002   0.0000000000000000     
  -3.7501515073427194E-002   9.3206078613828208E-002   0.0000000000000000     
  -3.8761498075292201E-002   9.9808647318679986E-002   0.0000000000000000     
  -3.9988965245700107E-002  0.10659068451721954        0.0000000000000000     
  -3.9568062541396401E-002   8.0898255603355687E-002   0.0000000000000000     
  -4.1072079701695324E-002   8.7164724469698363E-002   0.0000000000000000     
  -4.2536033420669146E-002   9.3597596901239963E-002   0.0000000000000000     
  -4.3959923698317853E-002  0.10019687289798047        0.0000000000000000     
  -4.5343750534641444E-002  0.10696255245991992        0.0000000000000000     
  -4.4410805248805245E-002   8.1345710167134877E-002   0.0000000000000000     
  -4.6085973772946653E-002   8.7613254944316904E-002   0.0000000000000000     
  -4.7715950677895594E-002   9.4040976998883974E-002   0.0000000000000000     
  -4.9300735963652059E-002  0.10062887633083610        0.0000000000000000     
  -5.0840329630216070E-002  0.10737695294017324        0.0000000000000000     
  -4.9412229697552310E-002   8.1881710376525307E-002   0.0000000000000000     
  -5.1250698453859003E-002   8.8128569826519731E-002   0.0000000000000000     
  -5.3041266845106502E-002   9.4536218906760255E-002   0.0000000000000000     
  -5.4783934871294813E-002  0.10110465761724684        0.0000000000000000     
  -5.6478702532423937E-002  0.10783388595797952        0.0000000000000000     
  -5.4572335887637623E-002   8.2506256231527048E-002   0.0000000000000000     
  -5.6566253744432408E-002   8.8710669116306859E-002   0.0000000000000000     
  -5.8511981922301906E-002   9.5083322624868766E-002   0.0000000000000000     
  -6.0409520421246130E-002  0.10162421675721271        0.0000000000000000     
  -6.2258869241265065E-002  0.10833335151333877        0.0000000000000000     
  -3.9988965245700107E-002  0.10659068451721954        0.0000000000000000     
  -4.1165268886235749E-002  0.11352001464368791        0.0000000000000000     
  -4.2271761298484006E-002  0.12056446213232624        0.0000000000000000     
  -4.3308442482444871E-002  0.12772402698313451        0.0000000000000000     
  -4.4275312438118337E-002  0.13499870919611273        0.0000000000000000     
  -4.5343750534641444E-002  0.10696255245991992        0.0000000000000000     
  -4.6668376585755615E-002  0.11386931865120403        0.0000000000000000     
  -4.7914664507775991E-002  0.12089185453597864        0.0000000000000000     
  -4.9082614300702612E-002  0.12803016011424370        0.0000000000000000     
  -5.0172225964535473E-002  0.13528423538599921        0.0000000000000000     
  -5.0840329630216070E-002  0.10737695294017324        0.0000000000000000     
  -5.2313891822521656E-002  0.11426308358393608        0.0000000000000000     
  -5.3700582685502915E-002  0.12126514501916524        0.0000000000000000     
  -5.5000402219159819E-002  0.12838313724586070        0.0000000000000000     
  -5.6213350423492403E-002  0.13561706026402251        0.0000000000000000     
  -5.6478702532423937E-002  0.10783388595797952        0.0000000000000000     
  -5.8101814596533886E-002  0.11470130944188402        0.0000000000000000     
  -5.9629515831664752E-002  0.12168433358188604        0.0000000000000000     
  -6.1061806237816492E-002  0.12878295837798559        0.0000000000000000     
  -6.2398685814989134E-002  0.13599718383018261        0.0000000000000000     
  -6.2258869241265065E-002  0.10833335151333877        0.0000000000000000     
  -6.4032144907792327E-002  0.11518399622504788        0.0000000000000000     
  -6.5701463946261515E-002  0.12214942022414105        0.0000000000000000     
  -6.7266826356672624E-002  0.12922962351061829        0.0000000000000000     
  -6.8728232139025652E-002  0.13642460608447954        0.0000000000000000     
  -4.4275312438118337E-002  0.13499870919611273        0.0000000000000000     
  -4.5186061774838492E-002  0.14239073539307495        0.0000000000000000     
  -4.6054381101939428E-002  0.14990233219583537        0.0000000000000000     
  -4.6880270419421124E-002  0.15753349960439392        0.0000000000000000     
  -4.7663729727283596E-002  0.16528423761875058        0.0000000000000000     
  -5.0172225964535473E-002  0.13528423538599921        0.0000000000000000     
  -5.1199758924392810E-002  0.14265691974053943        0.0000000000000000     
  -5.2181472605392881E-002  0.15015105256715860        0.0000000000000000     
  -5.3117367007535700E-002  0.15776663386585674        0.0000000000000000     
  -5.4007442130821259E-002  0.16550366363663377        0.0000000000000000     
  -5.6213350423492403E-002  0.13561706026402251        0.0000000000000000     
  -5.7358248941591319E-002  0.14296990177110486        0.0000000000000000     
  -5.8453919416547290E-002  0.15044464946456199        0.0000000000000000     
  -5.9500361848360286E-002  0.15804130334439390        0.0000000000000000     
  -6.0497576237030323E-002  0.16575986341060056        0.0000000000000000     
  -6.2398685814989134E-002  0.13599718383018261        0.0000000000000000     
  -6.3661531826434040E-002  0.14332968148477127        0.0000000000000000     
  -6.4871721535402604E-002  0.15078312288804552        0.0000000000000000     
  -6.6029254941894863E-002  0.15835750804000551        0.0000000000000000     
  -6.7134132045910788E-002  0.16605283694065107        0.0000000000000000     
  -6.8728232139025652E-002  0.13642460608447954        0.0000000000000000     
  -7.0109607578920957E-002  0.14373625888153863        0.0000000000000000     
  -7.1434878961958881E-002  0.15116647283760926        0.0000000000000000     
  -7.2704046288139451E-002  0.15871524795269149        0.0000000000000000     
  -7.3917109557462640E-002  0.16638258422678523        0.0000000000000000     
  -4.7663729727283596E-002  0.16528423761875058        0.0000000000000000     
  -4.8397097016538937E-002  0.17313856500648439        0.0000000000000000     
  -4.9072710278199268E-002  0.18108050053517427        0.0000000000000000     
  -4.9690569512264589E-002  0.18911004420482025        0.0000000000000000     
  -5.0250674718734900E-002  0.19722719601542232        0.0000000000000000     
  -5.4007442130821259E-002  0.16550366363663377        0.0000000000000000     
  -5.4842576527211230E-002  0.17334406396091592        0.0000000000000000     
  -5.5613648748667290E-002  0.18126975692012950        0.0000000000000000     
  -5.6320658795189479E-002  0.18928074251427435        0.0000000000000000     
  -5.6963606666777737E-002  0.19737702074335056        0.0000000000000000     
  -6.0497576237030323E-002  0.16575986341060056        0.0000000000000000     
  -6.1435436704597099E-002  0.17358169153568301        0.0000000000000000     
  -6.2303817373100319E-002  0.18148814959214207        0.0000000000000000     
  -6.3102718242539949E-002  0.18947923757997792        0.0000000000000000     
  -6.3832139312916050E-002  0.19755495549919033        0.0000000000000000     
  -6.7134132045910788E-002  0.16605283694065107        0.0000000000000000     
  -6.8175677548696551E-002  0.17385144773078554        0.0000000000000000     
  -6.9143216151498293E-002  0.18173567855121217        0.0000000000000000     
  -7.0036747854316087E-002  0.18970552940193083        0.0000000000000000     
  -7.0856272657149860E-002  0.19776100028294172        0.0000000000000000     
  -7.3917109557462640E-002  0.16638258422678523        0.0000000000000000     
  -7.5063299059509550E-002  0.17415333254622362        0.0000000000000000     
  -7.6131845083861269E-002  0.18201234379733963        0.0000000000000000     
  -7.7122747630517796E-002  0.18995961798013333        0.0000000000000000     
  -7.8036006699479146E-002  0.19799515509460464        0.0000000000000000     
  -5.0250674718734900E-002  0.19722719601542232        0.0000000000000000     
  -5.0751796273164063E-002  0.20542408852093544        0.0000000000000000     
  -5.1192704551105910E-002  0.21369285427531462        0.0000000000000000     
  -5.1573399552560475E-002  0.22203349327855984        0.0000000000000000     
  -5.1893881277527733E-002  0.23044600553067107        0.0000000000000000     
  -5.6963606666777737E-002  0.19737702074335056        0.0000000000000000     
  -5.7541255400466555E-002  0.20555376892091023        0.0000000000000000     
  -5.8052368033290419E-002  0.21380616436050545        0.0000000000000000     
  -5.8496944565249301E-002  0.22213420706213613        0.0000000000000000     
  -5.8874984996343215E-002  0.23053789702580241        0.0000000000000000     
  -6.3832139312916050E-002  0.19755495549919033        0.0000000000000000     
  -6.4491472050551404E-002  0.20571172165305962        0.0000000000000000     
  -6.5080107921768812E-002  0.21394595434486569        0.0000000000000000     
  -6.5598046926568315E-002  0.22225765357460864        0.0000000000000000     
  -6.6045289064949914E-002  0.23064681934228831        0.0000000000000000     
  -7.0856272657149860E-002  0.19776100028294172        0.0000000000000000     
  -7.1602446223418562E-002  0.20589794671738360        0.0000000000000000     
  -7.2275924216541124E-002  0.21411222422839543        0.0000000000000000     
  -7.2876706636517546E-002  0.22240383281597717        0.0000000000000000     
  -7.3404793483347816E-002  0.23077277248012884        0.0000000000000000     
  -7.8036006699479146E-002  0.19799515509460464        0.0000000000000000     
  -7.8874177919068061E-002  0.20611244411388224        0.0000000000000000     
  -7.9639816917607326E-002  0.21430497401109466        0.0000000000000000     
  -8.0332923695096953E-002  0.22257274478624189        0.0000000000000000     
  -8.0953498251536943E-002  0.23091575643932394        0.0000000000000000     
  -5.1893881277527733E-002  0.23044600553067107        0.0000000000000000     
  -5.2162024437554216E-002  0.23892185887326731        0.0000000000000000     
  -5.2385703744186447E-002  0.24745252114796745        0.0000000000000000     
  -5.2564919197424453E-002  0.25603799235477148        0.0000000000000000     
  -5.2699670797268193E-002  0.26467827249367948        0.0000000000000000     
  -5.8874984996343215E-002  0.23053789702580241        0.0000000000000000     
  -5.9192033052721131E-002  0.23901569760178681        0.0000000000000000     
  -5.9453632460532015E-002  0.24756607214037196        0.0000000000000000     
  -5.9659783219775872E-002  0.25618902064155796        0.0000000000000000     
  -5.9810485330452710E-002  0.26488454310534459        0.0000000000000000     
  -6.6045289064949914E-002  0.23064681934228831        0.0000000000000000     
  -6.6423442432629654E-002  0.23911912383006134        0.0000000000000000     
  -6.6734115125323595E-002  0.24768023922008414        0.0000000000000000     
  -6.6977307143031753E-002  0.25633016551235671        0.0000000000000000     
  -6.7153018485754126E-002  0.26506890270687905        0.0000000000000000     
  -7.3404793483347816E-002  0.23077277248012884        0.0000000000000000     
  -7.3856252577279763E-002  0.23923213755809097        0.0000000000000000     
  -7.4227151738561176E-002  0.24779502238710399        0.0000000000000000     
  -7.4517490967192096E-002  0.25646142696716795        0.0000000000000000     
  -7.4727270263172454E-002  0.26523135129828290        0.0000000000000000     
  -8.0953498251536943E-002  0.23091575643932394        0.0000000000000000     
  -8.1490463486671494E-002  0.23935473878587557        0.0000000000000000     
  -8.1932742300244776E-002  0.24791042164143143        0.0000000000000000     
  -8.2280334692256860E-002  0.25658280500599168        0.0000000000000000     
  -8.2533240662707688E-002  0.26537188887955609        0.0000000000000000     
  -5.2699670797268193E-002  0.26467827249367948        0.0000000000000000     
  -5.2820813018809219E-002  0.27332421038758614        0.0000000000000000     
  -5.2959200337139092E-002  0.28192665485938628        0.0000000000000000     
  -5.3114832752257798E-002  0.29048560590907985        0.0000000000000000     
  -5.3287710264165344E-002  0.29900106353666689        0.0000000000000000     
  -5.9810485330452710E-002  0.26488454310534459        0.0000000000000000     
  -5.9942785327411971E-002  0.27360878926347554        0.0000000000000000     
  -6.0093729745503116E-002  0.28231790884769425        0.0000000000000000     
  -6.0263318584726167E-002  0.29101190185800080        0.0000000000000000     
  -6.0451551845081102E-002  0.29969076829439517        0.0000000000000000     
  -6.7153018485754126E-002  0.26506890270687905        0.0000000000000000     
  -6.7301738889444573E-002  0.27386693052628319        0.0000000000000000     
  -6.7463958090056925E-002  0.28269472869320145        0.0000000000000000     
  -6.7639676087591249E-002  0.29155229720763370        0.0000000000000000     
  -6.7828892882047465E-002  0.30043963606957985        0.0000000000000000     
  -7.4727270263172454E-002  0.26523135129828290        0.0000000000000000     
  -7.4897673704907033E-002  0.27409863417600927        0.0000000000000000     
  -7.5069885370800560E-002  0.28305711439590775        0.0000000000000000     
  -7.5243905260853020E-002  0.29210679195797840        0.0000000000000000     
  -7.5419733375064413E-002  0.30124766686222104        0.0000000000000000     
  -8.2533240662707688E-002  0.26537188887955609        0.0000000000000000     
  -8.2730589773799351E-002  0.27430390021265372        0.0000000000000000     
  -8.2911511587733966E-002  0.28340506595581333        0.0000000000000000     
  -8.3076006104511491E-002  0.29267538610903493        0.0000000000000000     
  -8.3224073324131953E-002  0.30211486067231852        0.0000000000000000     
  -4.5724346794315571E-002   5.9552742820520727E-002   0.0000000000000000     
  -4.8081832500450901E-002   6.5004685508169430E-002   0.0000000000000000     
  -5.0342325918049692E-002   7.0647585305886704E-002   0.0000000000000000     
  -5.2505827047111937E-002   7.6481442213672590E-002   0.0000000000000000     
  -5.4572335887637623E-002   8.2506256231527048E-002   0.0000000000000000     
  -5.0226612417986129E-002   6.0238278840896491E-002   0.0000000000000000     
  -5.2817198029161003E-002   6.5722166146036556E-002   0.0000000000000000     
  -5.5290722891995020E-002   7.1374292694361685E-002   0.0000000000000000     
  -5.7647187006488167E-002   7.7194658485871842E-002   0.0000000000000000     
  -5.9886590372640443E-002   8.3183263520567055E-002   0.0000000000000000     
  -5.5049708013301675E-002   6.1030044401747051E-002   0.0000000000000000     
  -5.7780791469925673E-002   6.6489774298403650E-002   0.0000000000000000     
  -6.0407944570940064E-002   7.2117451535676724E-002   0.0000000000000000     
  -6.2931167316344849E-002   7.7913076113566279E-002   0.0000000000000000     
  -6.5350459706140021E-002   8.3876648032072301E-002   0.0000000000000000     
  -6.0193633580262210E-002   6.1928039503072400E-002   0.0000000000000000     
  -6.2972612822744897E-002   6.7307509965270657E-002   0.0000000000000000     
  -6.5693990954884832E-002   7.2877061829831793E-002   0.0000000000000000     
  -6.8357767976681985E-002   7.8636695096755874E-002   0.0000000000000000     
  -7.0963943888136372E-002   8.4586409766042800E-002   0.0000000000000000     
  -6.5658389118867733E-002   6.2932264144872546E-002   0.0000000000000000     
  -6.8392662087618711E-002   6.8175373146637630E-002   0.0000000000000000     
  -7.1148862043829322E-002   7.3653123576826990E-002   0.0000000000000000     
  -7.3926988987499595E-002   7.9365515435440626E-002   0.0000000000000000     
  -7.6727042918629515E-002   8.5312548722478537E-002   0.0000000000000000     
  -5.4572335887637623E-002   8.2506256231527048E-002   0.0000000000000000     
  -5.6566253744432408E-002   8.8710669116306859E-002   0.0000000000000000     
  -5.8511981922301906E-002   9.5083322624868766E-002   0.0000000000000000     
  -6.0409520421246130E-002  0.10162421675721271        0.0000000000000000     
  -6.2258869241265065E-002  0.10833335151333877        0.0000000000000000     
  -5.9886590372640443E-002   8.3183263520567055E-002   0.0000000000000000     
  -6.2042248746639800E-002   8.9343712021787924E-002   0.0000000000000000     
  -6.4147477884674148E-002   9.5679608212875009E-002   0.0000000000000000     
  -6.6202277786743507E-002  0.10219095209382838        0.0000000000000000     
  -6.8206648452847879E-002  0.10887774366464796        0.0000000000000000     
  -6.5350459706140021E-002   8.3876648032072301E-002   0.0000000000000000     
  -6.7688292562454108E-002   9.0011857751072483E-002   0.0000000000000000     
  -6.9967136707415584E-002   9.6322395730444529E-002   0.0000000000000000     
  -7.2186992141024489E-002  0.10280826197018839        0.0000000000000000     
  -7.4347858863280783E-002  0.10946945647030409        0.0000000000000000     
  -7.0963943888136372E-002   8.4586409766042800E-002   0.0000000000000000     
  -7.3504385191875368E-002   9.0715106304160617E-002   0.0000000000000000     
  -7.5970958390526241E-002   9.7011685177577259E-002   0.0000000000000000     
  -7.8363663484089061E-002  0.10347614638629281        0.0000000000000000     
  -8.0682500472563784E-002  0.11010848993030720        0.0000000000000000     
  -7.6727042918629515E-002   8.5312548722478537E-002   0.0000000000000000     
  -7.9490526634903538E-002   9.1453457681052258E-002   0.0000000000000000     
  -8.2158942934006107E-002   9.7747476554273252E-002   0.0000000000000000     
  -8.4732291815937236E-002  0.10419460534214159        0.0000000000000000     
  -8.7210573280696896E-002  0.11079484404465723        0.0000000000000000     
  -6.2258869241265065E-002  0.10833335151333877        0.0000000000000000     
  -6.4032144907792327E-002  0.11518399622504788        0.0000000000000000     
  -6.5701463946261515E-002  0.12214942022414105        0.0000000000000000     
  -6.7266826356672624E-002  0.12922962351061829        0.0000000000000000     
  -6.8728232139025652E-002  0.13642460608447954        0.0000000000000000     
  -6.8206648452847879E-002  0.10887774366464796        0.0000000000000000     
  -7.0129470628537457E-002  0.11570933892003693        0.0000000000000000     
  -7.1939625059362466E-002  0.12265509385469837        0.0000000000000000     
  -7.3637111745322878E-002  0.12971500846863232        0.0000000000000000     
  -7.5221930686418734E-002  0.13688908276183867        0.0000000000000000     
  -7.4347858863280783E-002  0.10946945647030409        0.0000000000000000     
  -7.6418379631009808E-002  0.11627553251346043        0.0000000000000000     
  -7.8367197201036867E-002  0.12319604338232606        0.0000000000000000     
  -8.0194311573361959E-002  0.13023098907690109        0.0000000000000000     
  -8.1899722747985099E-002  0.13738036959718544        0.0000000000000000     
  -8.0682500472563784E-002  0.11010848993030720        0.0000000000000000     
  -8.2898871915209352E-002  0.11688257700531833        0.0000000000000000     
  -8.4984180371284718E-002  0.12377226880702419        0.0000000000000000     
  -8.6938425840789868E-002  0.13077756533542467        0.0000000000000000     
  -8.8761608323724789E-002  0.13789846659051988        0.0000000000000000     
  -8.7210573280696896E-002  0.11079484404465723        0.0000000000000000     
  -8.9570947481136157E-002  0.11753047239561074        0.0000000000000000     
  -9.1790574570106045E-002  0.12438377012879268        0.0000000000000000     
  -9.3869454547606590E-002  0.13135473724420310        0.0000000000000000     
  -9.5807587413637776E-002  0.13844337374184193        0.0000000000000000     
  -6.8728232139025652E-002  0.13642460608447954        0.0000000000000000     
  -7.0109607578920957E-002  0.14373625888153863        0.0000000000000000     
  -7.1434878961958881E-002  0.15116647283760926        0.0000000000000000     
  -7.2704046288139451E-002  0.15871524795269149        0.0000000000000000     
  -7.3917109557462640E-002  0.16638258422678523        0.0000000000000000     
  -7.5221930686418734E-002  0.13688908276183867        0.0000000000000000     
  -7.6720935706376198E-002  0.14417850717941383        0.0000000000000000     
  -7.8160980628921586E-002  0.15158447216645396        0.0000000000000000     
  -7.9542065454054817E-002  0.15910697772295915        0.0000000000000000     
  -8.0864190181775944E-002  0.16674602384892931        0.0000000000000000     
  -8.1899722747985099E-002  0.13738036959718544        0.0000000000000000     
  -8.3513975716123956E-002  0.14464529959640371        0.0000000000000000     
  -8.5067615468996147E-002  0.15202689372778055        0.0000000000000000     
  -8.6560642006601768E-002  0.15952515199131578        0.0000000000000000     
  -8.7993055328940764E-002  0.16714007438700959        0.0000000000000000     
  -8.8761608323724789E-002  0.13789846659051988        0.0000000000000000     
  -9.0488727608164163E-002  0.14513663613250838        0.0000000000000000     
  -9.2154783482182673E-002  0.15249373752158893        0.0000000000000000     
  -9.3759775945780333E-002  0.15996977075776142        0.0000000000000000     
  -9.5303704998957087E-002  0.16756473584102602        0.0000000000000000     
  -9.5807587413637776E-002  0.13844337374184193        0.0000000000000000     
  -9.7645191382496860E-002  0.14565251678772778        0.0000000000000000     
  -9.9422484668481068E-002  0.15298500354787917        0.0000000000000000     
 -0.10113946727159043       0.16044083402229611        0.0000000000000000     
 -0.10279613919182490       0.16802000821097857        0.0000000000000000     
  -7.3917109557462640E-002  0.16638258422678523        0.0000000000000000     
  -7.5063299059509550E-002  0.17415333254622362        0.0000000000000000     
  -7.6131845083861269E-002  0.18201234379733963        0.0000000000000000     
  -7.7122747630517796E-002  0.18995961798013333        0.0000000000000000     
  -7.8036006699479146E-002  0.19799515509460464        0.0000000000000000     
  -8.0864190181775944E-002  0.16674602384892931        0.0000000000000000     
  -8.2116193643334154E-002  0.17448861626552228        0.0000000000000000     
  -8.3286914669978646E-002  0.18232176069389577        0.0000000000000000     
  -8.4376353261709378E-002  0.19024545713404981        0.0000000000000000     
  -8.5384509418526405E-002  0.19825970558598438        0.0000000000000000     
  -8.7993055328940764E-002  0.16714007438700959        0.0000000000000000     
  -8.9352253706468363E-002  0.17485856917220660        0.0000000000000000     
  -9.0625635409639790E-002  0.18266754460425172        0.0000000000000000     
  -9.1813200438455034E-002  0.19056700068314492        0.0000000000000000     
  -9.2914948792914134E-002  0.19855693740888619        0.0000000000000000     
  -9.5303704998957087E-002  0.16756473584102602        0.0000000000000000     
  -9.6771479248912176E-002  0.17526319126627665        0.0000000000000000     
  -9.8148007302844745E-002  0.18304969552840752        0.0000000000000000     
  -9.9433289160754779E-002  0.19092424862741869        0.0000000000000000     
 -0.10062732482264235       0.19888685056331004        0.0000000000000000     
 -0.10279613919182490       0.16802000821097857        0.0000000000000000     
 -0.10437387027066558       0.17570248254773232        0.0000000000000000     
 -0.10585403034959349       0.18346821346636319        0.0000000000000000     
 -0.10723661942860864       0.19131720096687102        0.0000000000000000     
 -0.10852163750771102       0.19924944504925596        0.0000000000000000     
  -7.8036006699479146E-002  0.19799515509460464        0.0000000000000000     
  -7.8874177919068061E-002  0.20611244411388224        0.0000000000000000     
  -7.9639816917607326E-002  0.21430497401109466        0.0000000000000000     
  -8.0332923695096953E-002  0.22257274478624189        0.0000000000000000     
  -8.0953498251536943E-002  0.23091575643932394        0.0000000000000000     
  -8.5384509418526405E-002  0.19825970558598438        0.0000000000000000     
  -8.6316231655446732E-002  0.20635596621026309        0.0000000000000000     
  -8.7176368487487457E-002  0.21452569916744951        0.0000000000000000     
  -8.7964919914648540E-002  0.22276890445754366        0.0000000000000000     
  -8.8681885936929966E-002  0.23108558208054550        0.0000000000000000     
  -9.2914948792914134E-002  0.19855693740888619        0.0000000000000000     
  -9.3938171950501484E-002  0.20662926537423384        0.0000000000000000     
  -9.4890161388701516E-002  0.21477589517194623        0.0000000000000000     
  -9.5770917107514245E-002  0.22299682680202337        0.0000000000000000     
  -9.6580439106939628E-002  0.23129206026446528        0.0000000000000000     
 -0.10062732482264235       0.19888685056331004        0.0000000000000000     
 -0.10173999880423230       0.20693234160579452        0.0000000000000000     
 -0.10278119562124952       0.21505556202458484        0.0000000000000000     
 -0.10375091527369407       0.22325651181968112        0.0000000000000000     
 -0.10464915776156587       0.23153519099108330        0.0000000000000000     
 -0.10852163750771102       0.19924944504925596        0.0000000000000000     
 -0.10972171221663912       0.20726519490494499        0.0000000000000000     
 -0.11084947118513146       0.21536469972536532        0.0000000000000000     
 -0.11190491441318801       0.22354795951051684        0.0000000000000000     
 -0.11288804190080876       0.23181497426039965        0.0000000000000000     
  -8.0953498251536943E-002  0.23091575643932394        0.0000000000000000     
  -8.1490463486671494E-002  0.23935473878587557        0.0000000000000000     
  -8.1932742300244776E-002  0.24791042164143143        0.0000000000000000     
  -8.2280334692256860E-002  0.25658280500599168        0.0000000000000000     
  -8.2533240662707688E-002  0.26537188887955609        0.0000000000000000     
  -8.8681885936929966E-002  0.23108558208054550        0.0000000000000000     
  -8.9312561091100168E-002  0.23950191927357695        0.0000000000000000     
  -8.9842239913927507E-002  0.24804410327375989        0.0000000000000000     
  -9.0270922405412027E-002  0.25671213408109445        0.0000000000000000     
  -9.0598608565553657E-002  0.26550601169558052        0.0000000000000000     
  -9.6580439106939628E-002  0.23129206026446528        0.0000000000000000     
  -9.7309031320861203E-002  0.23968867078135675        0.0000000000000000     
  -9.7946997683162493E-002  0.24821373357478266        0.0000000000000000     
  -9.8494338193843525E-002  0.25686724864474297        0.0000000000000000     
  -9.8951052852904245E-002  0.26564921599123786        0.0000000000000000     
 -0.10464915776156587       0.23153519099108330        0.0000000000000000     
 -0.10547987417595457       0.23991499330921501        0.0000000000000000     
 -0.10624701560794975       0.24841931254449964        0.0000000000000000     
 -0.10695058205755135       0.25704814869693737        0.0000000000000000     
 -0.10759057352475940       0.26580150176652811        0.0000000000000000     
 -0.11288804190080876       0.23181497426039965        0.0000000000000000     
 -0.11382508965638032       0.24018088685715167        0.0000000000000000     
 -0.11474229368828923       0.24866084018291096        0.0000000000000000     
 -0.11563965399653553       0.25725483423767748        0.0000000000000000     
 -0.11651717058111918       0.26596286902145128        0.0000000000000000     
  -8.2533240662707688E-002  0.26537188887955609        0.0000000000000000     
  -8.2730589773799351E-002  0.27430390021265372        0.0000000000000000     
  -8.2911511587733966E-002  0.28340506595581333        0.0000000000000000     
  -8.3076006104511491E-002  0.29267538610903493        0.0000000000000000     
  -8.3224073324131953E-002  0.30211486067231852        0.0000000000000000     
  -9.0598608565553657E-002  0.26550601169558052        0.0000000000000000     
  -9.0855714466610255E-002  0.27448833191248173        0.0000000000000000     
  -9.1072656180839581E-002  0.28372169052706175        0.0000000000000000     
  -9.1249433708241637E-002  0.29320608753932059        0.0000000000000000     
  -9.1386047048816449E-002  0.30294152294925814        0.0000000000000000     
  -9.8951052852904245E-002  0.26564921599123786        0.0000000000000000     
  -9.9328275153828444E-002  0.27465753255175862        0.0000000000000000     
  -9.9637138590099830E-002  0.28399009526379682        0.0000000000000000     
  -9.9877643161718446E-002  0.29364690412735239        0.0000000000000000     
 -0.10004978886868426       0.30362795914242552        0.0000000000000000     
 -0.10759057352475940       0.26580150176652811        0.0000000000000000     
 -0.10814827183545388       0.27481150213048428        0.0000000000000000     
 -0.10860495881551470       0.28421028016601846        0.0000000000000000     
 -0.10896063446494188       0.29399783587313066        0.0000000000000000     
 -0.10921529878373538       0.30417416925182078        0.0000000000000000     
 -0.11651717058111918       0.26596286902145128        0.0000000000000000     
 -0.11731570451148662       0.27495024064865881        0.0000000000000000     
 -0.11797611685708420       0.28438224523372679        0.0000000000000000     
 -0.11849840761791194       0.29425888277665513        0.0000000000000000     
 -0.11888257679396984       0.30458015327744381        0.0000000000000000     
 </DataArray>
 <DataArray  type="Float64" Name="stress" NumberOfComponents="3" format="ascii">
   5076622735.8035097       -507104863.14136243       -368774571.88163173     
   5226953947.0532246       -146333544.46676683       -128295509.85635249     
   5341982682.1278429        96762853.624172449        41197073.569521926     
   5421708941.0273724        222184331.13145804        139703178.39598387     
   5466132723.7517920        229930888.05507064        167222804.62304616     
   5322085624.1629314       -229505274.49504209       -14703350.927064002     
   5269110556.5692930       -37441731.385051489        124486786.51512155     
   5195027909.1004629        84263212.140985250        217206520.88442290     
   5099837681.7564631        135609556.08310366        263455852.18084323     
   4983539874.5372696        116597300.44125843        263234780.40437040     
   5337145380.1880102       -21026625.549024105        289658324.65578377     
   5150909963.8267756        23342921.019080877        344120249.86477751     
   4957761863.8902826        44670189.002974272        376627847.52741396     
   4757701080.3785200        42955178.402632475        387181117.64368135     
   4550727613.2914896        18197889.218078613        375780060.21358192     
   5121802003.8787470        118331083.69669104        544310454.86690521     
   4872352168.8256998        36020412.745649815        530604880.19261849     
   4630184546.4973021       -22016215.789891481        519461053.49848002     
   4395299136.8935518       -55778801.909933567        510878974.78449720     
   4167695940.0144477       -65267345.614484549        504858644.05066913     
   4676055495.2351370        188567853.24210262        749253039.70630801     
   4433437171.5660419        590743.79464721680        683940677.49863112     
   4212295956.9215107       -115796002.23759675        645706138.79763353     
   4012631851.3015413       -160592384.85462403        634549423.60330617     
   3834444854.7061396       -133798404.05642748        650470531.91565120     
   5466132723.7517920        229930888.05507064        167222804.62304616     
   5251894515.8798971        124235000.71535087        108035495.47128059     
   5049325478.4131403        57436348.059409857        66836571.407347113     
   4858425611.3515072        29534930.087229252        43626032.431237422     
   4679194914.6950264        40530746.798875093        38403878.542956010     
   4983539874.5372696        116597300.44125843        263234780.40437040     
   4825882574.3159027        63828840.083227873        230046033.23548785     
   4675257014.3111200        34499513.780500412        210178654.48340249     
   4531663194.5229168        28609321.533040047        203632644.14811876     
   4395101114.9513006        46158263.340856314        210408002.22962585     
   4550727613.2914896        18197889.218078613        375780060.21358192     
   4436316887.3748474        14356555.838003159        363179539.80759776     
   4324300471.4862394        18496255.884719610        359233371.14738870     
   4214678365.6256700        30616989.358227491        363941554.23295599     
   4107450569.7931380        50718756.258522511        377304089.06428617     
   4167695940.0144477       -65267345.614484549        504858644.05066913     
   4083197455.0567307       -24181852.020347834        507436015.18762714     
   3996455849.9385056        9426574.3720924854        514000721.39932340     
   3907471124.6597686        35557933.562818050        524552762.68576062     
   3816243279.2205172        54212225.551833153        539092139.04693615     
   3834444854.7061396       -133798404.05642748        650470531.91565120     
   3766524277.3615570       -51786383.491811275        662815459.37556469     
   3691723149.6679192        7290469.2426168919        674480705.23918903     
   3610041471.6252117        43432154.146816015        685466269.50652945     
   3521479243.2334499        56638671.220833302        695772152.17758083     
   4679194914.6950264        40530746.798875093        38403878.542956010     
   4408624651.7899227        39411383.908403158        19640001.357319642     
   4136464354.9231014        32991907.812189579        8147232.8074252764     
   3862714024.0945477        21272318.510218620        3925572.8932690709     
   3587373659.3042698        4252616.0024788380        6975021.6148471814     
   4395101114.9513006        46158263.340856314        210408002.22962585     
   4140868149.2185774        37518158.164597273        188754840.59726441     
   3885611499.6632614        25465773.579699516        174133277.91233891     
   3629331166.2853651        10001109.586199522        166543314.17483976     
   3372027149.0848899       -8875833.8158974648        165984949.38475990     
   4107450569.7931380        50718756.258522511        377304089.06428617     
   3868870587.8376069        34352614.777882338        353422384.81420338     
   3629833272.1986370        16462027.685775042        336332769.82324153     
   3390338622.8762274       -2953005.0177922249        326035244.09138417     
   3150386639.8703842       -23892483.332811236        322529807.61865830     
   3816243279.2205172        54212225.551833153        539092139.04693615     
   3592631967.6470189        29914753.748296261        513642634.00812978     
   3369129672.5292306        5980670.1304357052        494745708.54013234     
   3145736393.8671379       -17590025.301763058        482401362.64294302     
   2922452131.6607494       -40797332.548277020        476609596.31656480     
   3521479243.2334499        56638671.220833302        695772152.17758083     
   3312152288.6468167        24204575.075821042        669415588.17904747     
   3103500700.6550288       -5978299.0863716602        649372094.06301844     
   2895524479.2580905       -33909951.265728593        635641669.82948613     
   2688223624.4559984       -59590381.462264657        628224315.47845304     
   3587373659.3042698        4252616.0024788380        6975021.6148471814     
   3479214725.2974958        29711205.646088839        17350292.450109165     
   3367584635.9664693        43599277.542178750        26725546.825144231     
   3252483391.3111939        45916831.690790057        35100784.739912666     
   3133910991.3316736        36663868.091897130        42476006.194433697     
   3372027149.0848899       -8875833.8158974648        165984949.38475990     
   3260845714.6587553        11325211.061356068        171343482.42175454     
   3147550302.5917268        24479663.802307725        176590311.15787977     
   3032140912.8837962        30587524.406913757        181725435.59314135     
   2914617545.5349636        29648792.875179052        186748855.72752967     
   3150386639.8703842       -23892483.332811236        322529807.61865830     
   3038720739.7659626       -8187572.7995891571        324454976.82130128     
   2926298039.7040091        4994671.2085105181        327156753.88244134     
   2813118539.6845055        15654248.691449523        330635138.80209446     
   2699182239.7074599        23791159.649243116        334890131.58025491     
   2922452131.6607494       -40797332.548277020        476609596.31656480     
   2812839800.6191373       -28827145.936725855        476684775.64874554     
   2703827847.3033366       -14855700.239142895        478424874.99882263     
   2595416271.7133379        1117004.5444521904        481829894.36677003     
   2487605073.8491464        19090968.414067507        486899833.75262147     
   2688223624.4559984       -59590381.462264657        628224315.47845304     
   2583202897.2182651       -50593508.350083113        628032878.90410268     
   2480139725.3896966       -35071450.540696621        630394674.50700915     
   2379034108.9702754       -13024208.034139514        635309702.28718412     
   2279886047.9600248        15548219.169636130        642777962.24461854     
   3133910991.3316736        36663868.091897130        42476006.194433697     
   2936878029.8125019        4341728.8815370798        22249009.051691700     
   2743625449.6727920       -15379139.063916087        7023202.0694244597     
   2554153250.9125733       -22498735.744408488       -3201414.7523424113     
   2368461433.5318198       -17017061.160029888       -8424841.4136396553     
   2914617545.5349636        29648792.875179052        186748855.72752967     
   2733497977.2432547        9892552.8306187391        171080537.83477879     
   2554664706.4407840       -2242695.5831235647        159752278.61056173     
   2378117733.1275611       -6756952.3660515547        152764078.05488232     
   2203857057.3035660       -3650217.5182088614        150115936.16773930     
   2699182239.7074599        23791159.649243116        334890131.58025491     
   2532087117.5233469        16034134.634508967        322037395.06557256     
   2365784208.9382386        10917821.616454363        312863585.72747612     
   2200273513.9521604        8442220.5951623917        307368703.56595397     
   2035555032.5650995        8607331.5705882311        305552748.58102787     
   2487605073.8491464        19090968.414067507        486899833.75262147     
   2332645450.6527672        22766474.293161154        475119580.74406743     
   2176983957.1651936        24102412.534922361        466357123.42014778     
   2020620593.3864028        23098783.139295816        460612461.78086978     
   1863555359.3164041        19755586.106310129        457885595.82622457     
   2279886047.9600248        15548219.169636130        642777962.24461854     
   2135172976.6315379        30089571.806651592        630327094.87025845     
   1988263951.1216216        37311077.172212362        620232891.68859911     
   1839158971.4302645        37212735.266306758        612495352.69962132     
   1687858037.5574660        29794546.088945985        607114477.90332377     
   2368461433.5318198       -17017061.160029888       -8424841.4136396553     
   2235627510.4156742        3023933.8951227665       -10360138.107836988     
   2098157350.2220757        7610805.3587881327       -11456438.223169150     
   1956050952.9510093       -3256446.7691293955       -11713741.759661760     
   1809308318.6024904       -29577822.488532543       -11132048.717278952     
   2203857057.3035660       -3650217.5182088614        150115936.16773930     
   2070954133.7856848        10793890.680893540        142217056.64237800     
   1935059449.6968513        15265463.643502116        134717692.58051687     
   1796173005.0370312        9764501.3694761992        127617843.98218089     
   1654294799.8062479       -5708996.1410715580        120917510.84734635     
   2035555032.5650995        8607331.5705882311        305552748.58102787     
   1901327448.3159285        17077854.814803958        293608842.14873737     
   1765752580.0022755        21057431.177412391        281624970.06461406     
   1628830427.6241536        20546060.658452272        269601132.32865506     
   1490560991.1815591        15543743.257928669        257537328.94085231     
   1863555359.3164041        19755586.106310129        457885595.82622457     
   1726747454.0063672        21875826.296724558        443815218.41125077     
   1590236741.1383429        24986707.960514903        429265394.22909313     
   1454023220.7123456        29088231.097715735        414236123.27974975     
   1318106892.7283721        34180395.708329380        398727405.56323415     
   1687858037.5574660        29794546.088945985        607114477.90332377     
   1547214150.8570116        25187805.126707077        592836185.42990732     
   1408511933.1050568        27053293.992811263        577638965.07396007     
   1271751384.3016329        35391012.687334418        561522816.83549404     
   1136932504.4467068        50200961.210206807        544487740.71448326     
   1809308318.6024904       -29577822.488532543       -11132048.717278952     
   1775308328.0679610       -15911292.874372721       -6992368.1277476251     
   1750009483.7467318        26759057.450809002       -41305453.186103202     
   1733411785.6388297        98433228.487076819       -114071303.89233159     
   1725515233.7442479        199111220.23440093       -225289920.24644944     
   1654294799.8062479       -5708996.1410715580        120917510.84734635     
   1529873958.9506669       -13565245.060466290        135900265.05776879     
   1410014135.3331814       -6218103.1861908436        124748079.71529564     
   1294715328.9538503        16332429.481934488        87460954.819960162     
   1183977539.8126550        54086352.943823576        24038890.371747002     
   1490560991.1815591        15543743.257928669        257537328.94085231     
   1310913088.8477621       -3277147.5422796011        278533006.30110925     
   1131686074.7769134       -20695077.465991259        285711570.20348424     
   952879948.96902144       -36710046.513175607        279073020.64800328     
   774494711.42407990       -51322054.683875084        258617357.63464868     
   1318106892.7283721        34180395.708329380        398727405.56323415     
   1118425717.7592714        14952999.680262804        420905855.60226923     
   915025302.07792294       -16671865.388629079        441585018.27845025     
   707905645.68435323       -60694199.498257667        460764893.59176558     
   497066748.57855535       -117114002.64867195        478445481.54222554     
   1136932504.4467068        50200961.210206807        544487740.71448326     
   952411845.68516266        41125196.607079923        563018812.96125960     
   760031817.23622239        5851533.0459433496        592368423.94018078     
   559792419.09985769       -55620029.473268837        632536573.65125763     
   351693651.27607316       -143289490.95053607        683523262.09447813     
   1725515233.7442479        199111220.23440093       -225289920.24644944     
   1456111630.6492915        185077352.43070006       -97080049.548297763     
   1154099357.6986516        62347918.441375077        60180269.061497286     
   819478414.89234805       -169077081.73348290        246491035.58294082     
   452248802.23035312       -509197648.09399050        461852250.01605338     
   1183977539.8126550        54086352.943823576        24038890.371747002     
   977483458.47121239        12245264.514788091        155575030.82320991     
   732888937.32188129       -156597289.94056430        312869714.08694023     
   450193976.36464220       -452441310.42228776        495922940.16300076     
   129398575.59948516       -875286796.93036032        704734709.05131090     
   774494711.42407990       -51322054.683875084        258617357.63464868     
   621504708.69517267       -123791996.68049201        387072702.89513123     
   424922496.20612848       -341569304.54423511        537994685.86854506     
   184748073.95693818       -704653978.27511787        711383306.55490220     
  -99018558.052355647       -1213046017.8730485        907238564.95420980     
   497066748.57855535       -117114002.64867195        478445481.54222554     
   388175381.32114273       -223034431.15521911        597412966.66746819     
   230200034.35138434       -492568125.36959833        735555184.40630209     
   23140707.669261217       -925715085.29186034        892872134.75871348     
  -233002598.72522327       -1522475310.9220049        1069363817.7247043     
   351693651.27607316       -143289490.95053607        683523262.09447813     
   277495476.34915447       -285482038.90929377        786595822.14023304     
   148721551.75765866       -609593752.41666424        905551209.70021331     
  -34628122.498431265       -1115624631.4726763        1040389424.7744070     
  -272553546.41910219       -1803574676.0772913        1191110467.3628504     
   4676055495.2351370        188567853.24210262        749253039.70630801     
   4433437171.5660419        590743.79464721680        683940677.49863112     
   4212295956.9215107       -115796002.23759675        645706138.79763353     
   4012631851.3015413       -160592384.85462403        634549423.60330617     
   3834444854.7061396       -133798404.05642748        650470531.91565120     
   4108948833.0879111        36089180.182691336        769563681.09465671     
   3961418714.3605223       -20446451.269201040        754008106.36629736     
   3821118135.8661342       -52883615.277773380        754186832.39513814     
   3688047097.6047382       -61222311.843029022        770099859.18118751     
   3562205599.5763397       -45462540.964967966        801747186.72444606     
   3652365037.9515338       -83232632.773466825        837768102.93696296     
   3567513059.1673927       -18049805.729325771        855347152.09774518     
   3475643051.8246665        23739592.786225319        877316979.26627004     
   3376755015.9233665        42135562.773191214        903677584.44252968     
   3270848951.4634957        37138104.231578350        934428967.62653196     
   3306304109.8260350       -169397585.62636232        953866305.23320997     
   3251720205.9866452        7780680.4142620564        987957814.69297826     
   3175870704.7971106        114073621.95439923        1015096579.4110150     
   3078755606.2574234        149481238.99404383        1035282599.3873266     
   2960374910.3675966        114003531.53320813        1048515874.6219043     
   3070766048.7113914       -222405678.37599826        1117858287.9834151     
   3014040154.8182812        57045007.161559582        1151840094.1519940     
   2921801094.7834549        218118472.22673893        1167525632.8293862     
   2794048868.6069093        260814716.81952155        1164914904.0155745     
   2630783476.2886510        185133740.93992412        1144007907.7105677     
   3834444854.7061396       -133798404.05642748        650470531.91565120     
   3766524277.3615570       -51786383.491811275        662815459.37556469     
   3691723149.6679192        7290469.2426168919        674480705.23918903     
   3610041471.6252117        43432154.146816015        685466269.50652945     
   3521479243.2334499        56638671.220833302        695772152.17758083     
   3562205599.5763397       -45462540.964967966        801747186.72444606     
   3481121296.3598185       -9181215.2528364658        802792083.20768082     
   3397485076.9040422        18593722.995121241        804943955.58243680     
   3311296941.2090111        37862273.778894901        808202803.84871387     
   3222556889.2747288        48624437.098493099        812568628.00651312     
   3270848951.4634957        37138104.231578350        934428967.62653196     
   3181705658.0544815        29220155.795054436        929223906.26119721     
   3094339082.5160251        27224600.260383129        926912478.27518928     
   3008749224.8481236        31151437.627564788        927494683.66851151     
   2924936085.0507793        41000667.896592259        930970522.44116557     
   2960374910.3675966        114003531.53320813        1048515874.6219043     
   2868277362.4455490        63417729.651870370        1042110928.5361084     
   2782285166.5038643        33183101.038408637        1040386273.3174504     
   2702398322.5425448        23299645.692828894        1043341908.9659296     
   2628616830.5615859        33767363.615120888        1050977835.4815558     
   2630783476.2886510        185133740.93992412        1144007907.7105677     
   2540836409.5330200        93411506.317602754        1141453150.0324197     
   2461323328.8675613        36469225.329183936        1145365340.7092187     
   2392244234.2922797        14306897.974686980        1155744479.7409661     
   2333599125.8071594        26924524.254069686        1172590567.1276605     
   3521479243.2334499        56638671.220833302        695772152.17758083     
   3312152288.6468167        24204575.075821042        669415588.17904747     
   3103500700.6550288       -5978299.0863716602        649372094.06301844     
   2895524479.2580905       -33909951.265728593        635641669.82948613     
   2688223624.4559984       -59590381.462264657        628224315.47845304     
   3222556889.2747288        48624437.098493099        812568628.00651312     
   3032481237.4857812        25668236.145537376        787271829.69506824     
   2842770017.7715840        3926808.7750853300        768283449.37810719     
   2653423230.1321464       -16599845.012840986        755603487.05561662     
   2464440874.5674572       -35911725.218267083        749231942.72760558     
   2924936085.0507793        41000667.896592259        930970522.44116557     
   2754098444.9508805        27518374.803100109        906370732.87670648     
   2583314302.4056349        14214406.891797423        888074709.41869807     
   2412583657.4150562        1088764.1627026796        876082452.06714296     
   2241906509.9791303       -11858553.384211779        870393960.82204783     
   2628616830.5615859        33767363.615120888        1050977835.4815558     
   2477003911.0420961        29754991.048488021        1026712297.7239619     
   2325133554.5571742        24884495.263749599        1008745874.1847969     
   2173005761.1068163        19155876.260889769        997078564.86407042     
   2020620530.6910233        12569134.039912581        991710369.76176834     
   2333599125.8071594        26924524.254069686        1172590567.1276605     
   2201197635.7594461        32378084.881726265        1148296524.2368300     
   2068227774.2262042        35937073.890954614        1130296943.6764066     
   1934689541.2074320        37601491.281748533        1118591825.4463925     
   1800582936.7031271        37371337.054100394        1113181169.5467825     
   2688223624.4559984       -59590381.462264657        628224315.47845304     
   2583202897.2182651       -50593508.350083113        628032878.90410268     
   2480139725.3896966       -35071450.540696621        630394674.50700915     
   2379034108.9702754       -13024208.034139514        635309702.28718412     
   2279886047.9600248        15548219.169636130        642777962.24461854     
   2464440874.5674572       -35911725.218267083        749231942.72760558     
   2366377410.5234203       -25789602.847899199        751229693.67453706     
   2269372592.5054712       -12138660.390575171        755766280.45669162     
   2173426420.5135951        5041102.1536651850        762841703.07407892     
   2078538894.5478034        25749684.784859538        772455961.52669299     
   2241906509.9791303       -11858553.384211779        870393960.82204783     
   2150759176.7229786       -623521.47739434242        873532171.67666733     
   2059771580.1098304        11143965.906114936        879194822.02448177     
   1968943720.1396878        23443908.766301632        887381911.86549377     
   1878275596.8125525        36276307.103180647        898093441.19969940     
   2020620530.6910233        12569134.039912581        991710369.76176834     
   1936348195.8169370        24904735.761433959        994940312.91049922     
   1851336688.2027845        34776428.349386811        1000680299.2103831     
   1765586007.8485639        42184211.803776801        1008930328.6614299     
   1679096154.7542629        47128086.124586999        1019690401.2636369     
   1800582936.7031271        37371337.054100394        1113181169.5467825     
   1723144467.8052993        50795168.868579924        1115454117.3760238     
   1644067916.7843277        58758726.939237177        1120222712.0143905     
   1563353283.6402102        61262011.266076565        1127486953.4618843     
   1481000568.3729429        58305021.849084079        1137246841.7185020     
   2279886047.9600248        15548219.169636130        642777962.24461854     
   2135172976.6315379        30089571.806651592        630327094.87025845     
   1988263951.1216216        37311077.172212362        620232891.68859911     
   1839158971.4302645        37212735.266306758        612495352.69962132     
   1687858037.5574660        29794546.088945985        607114477.90332377     
   2078538894.5478034        25749684.784859538        772455961.52669299     
   1938558384.7581279        32792145.267291069        758761571.19101977     
   1797428090.2599947        36001990.054850221        748081462.18973267     
   1655148011.0534034        35379219.147555292        740415634.52281332     
   1511718147.1383519        30923832.545399725        735764088.19028699     
   1878275596.8125525        36276307.103180647        898093441.19969940     
   1744906554.6808112        36383547.266755283        884376058.95451534     
   1611433897.3135946        36145403.312076092        874330575.18540573     
   1477857624.7108953        35561875.239123225        867956989.89236939     
   1344177736.8727186        34632963.047910929        865255303.07540941     
   1679096154.7542629        47128086.124586999        1019690401.2636369     
   1554217486.3995833        40863777.805047870        1007170558.1607498     
   1430281372.2824101        37741316.943856597        998980230.67563415     
   1307287812.4027410        37760703.541003942        995119418.80828762     
   1185236806.7605565        40921937.596456826        995588122.55870342     
   1481000568.3729429        58305021.849084079        1137246841.7185020     
   1366491179.9144559        46232836.882170439        1127145068.8097208     
   1253970515.1664467        40789730.950195193        1122030428.6604042     
   1143438574.1289194        41975704.053149104        1121902921.2705562     
   1034895356.8018698        49790756.191038728        1126762546.6401629     
   1687858037.5574660        29794546.088945985        607114477.90332377     
   1547214150.8570116        25187805.126707077        592836185.42990732     
   1408511933.1050568        27053293.992811263        577638965.07396007     
   1271751384.3016329        35391012.687334418        561522816.83549404     
   1136932504.4467068        50200961.210206807        544487740.71448326     
   1511718147.1383519        30923832.545399725        735764088.19028699     
   1370832338.7124300        26556139.244625092        726837443.70842493     
   1230650914.9870427        24536394.945604920        718588468.62917423     
   1091173875.9621766        24864599.648335099        711017162.95252597     
   952401221.63783514        27540753.352816701        704123526.67847610     
   1344177736.8727186        34632963.047910929        865255303.07540941     
   1207611713.2502975        31872829.367297888        860236808.29578555     
   1070512790.0804116        27336363.861806810        857492580.20390737     
   932880967.36306715        21023566.531453133        857022618.79976642     
   794716245.09825790        12934437.376224816        858826924.08336675     
   1185236806.7605565        40921937.596456826        995588122.55870342     
   1057552274.4705859        41137875.494696796        993034279.19199872     
   928097558.38517058        35453200.741432428        994351299.79817557     
   796872658.50430608        23867913.336692303        999539184.37721634     
   663877574.82799065        6382013.2804276943        1008597932.9291364     
   1034895356.8018698        49790756.191038728        1126762546.6401629     
   920654022.37330747        54351277.626802415        1125229856.3970587     
   803405219.90131354        48886905.584471524        1129164627.4119651     
   683148949.38587260        33397640.063984424        1138566859.6848865     
   559885210.82700288        7883481.0654010475        1153436553.2158031     
   1136932504.4467068        50200961.210206807        544487740.71448326     
   952411845.68516266        41125196.607079923        563018812.96125960     
   760031817.23622239        5851533.0459433496        592368423.94018078     
   559792419.09985769       -55620029.473268837        632536573.65125763     
   351693651.27607316       -143289490.95053607        683523262.09447813     
   952401221.63783514        27540753.352816701        704123526.67847610     
   792974524.92740345        11701999.896898150        721930653.32607031     
   624721227.39914513       -33558756.285131663        749782978.70840287     
   447641329.05305278       -108241515.19325423        787680502.82546890     
   261734829.88912120       -212346276.82752684        835623225.67727327     
   794716245.09825790        12934437.376224816        858826924.08336675     
   658173967.58918667       -10330167.787434191        874781668.81295860     
   511837858.13185316       -66240879.445276111        900008272.27987409     
   355707916.72628123       -154797697.59725586        934506734.48411500     
   189784143.37245363       -276000622.24341565        978277055.42566562     
   663877574.82799065        6382013.2804276943        1008597932.9291364     
   548010173.67050493       -24971306.445899367        1021571859.4219131     
   421381709.43435585       -92194836.434466362        1043044304.6545999     
   283992182.11953545       -195288576.68525660        1073015268.6271870     
   135841591.72605997       -334252527.19823056        1111484751.3396952     
   559885210.82700288        7883481.0654010475        1153436553.2158031     
   462483143.17136383       -32221416.078522354        1162301225.1529422     
   353352781.30663300       -111420627.25275752        1178891075.8325777     
   232494125.23283994       -229714152.45719734        1203206105.2546980     
   99907174.949949831       -387101991.69196051        1235246313.4193223     
   351693651.27607316       -143289490.95053607        683523262.09447813     
   277495476.34915447       -285482038.90929377        786595822.14023304     
   148721551.75765866       -609593752.41666424        905551209.70021331     
  -34628122.498431265       -1115624631.4726763        1040389424.7744070     
  -272553546.41910219       -1803574676.0772913        1191110467.3628504     
   261734829.88912120       -212346276.82752684        835623225.67727327     
   223146410.59528399       -352546975.76338136        885013740.25159156     
   140445233.04501054       -639790202.22069550        945453889.56260252     
   13631297.238290250       -1074075956.1994922        1016943673.6103154     
  -157295396.82486027       -1655404237.6997204        1099483092.3947289     
   189784143.37245363       -276000622.24341565        978277055.42566562     
   172996357.49017256       -418352208.82285452        986192347.83806670     
   122558804.75960475       -672869684.89657986        1000324082.2096310     
   38471485.180750191       -1039553050.4645900        1020672258.5403543     
  -79265601.246392787       -1518402305.5268950        1047236876.8302768     
   135841591.72605997       -334252527.19823056        1111484751.3396952     
   127045317.03383017       -482897738.08768368        1090131644.8996804     
   95062266.901460081       -708832200.44426620        1070161787.6412863     
   39892441.328955829       -1012055914.2679757        1051575179.5645505     
  -38464159.683682919       -1392568879.5587902        1034371820.6694567     
   99907174.949949831       -387101991.69196051        1235246313.4193223     
   85293289.226251960       -546183563.55789697        1196831631.4363878     
   57955619.470567644       -747677748.86379361        1154967005.8575852     
   17894165.682906210       -991584547.60962558        1109652436.6828854     
  -34891072.136748493       -1277903959.7954180        1060887923.9122895     
   3070766048.7113914       -222405678.37599826        1117858287.9834151     
   3014040154.8182812        57045007.161559582        1151840094.1519940     
   2921801094.7834549        218118472.22673893        1167525632.8293862     
   2794048868.6069093        260814716.81952155        1164914904.0155745     
   2630783476.2886510        185133740.93992412        1144007907.7105677     
   2906732705.3868613       -41843265.624653578        1335794458.2151761     
   2769946962.2700472        82534624.016529560        1305986552.6812861     
   2614491841.0651703        144681253.36417770        1268676445.0579801     
   2440367341.7722359        144596622.41829991        1223864135.3452692     
   2247573464.3912435        82280731.178888798        1171549623.5431428     
   2635327189.8642402        106507495.46726525        1493499377.2889986     
   2449321784.3859630        85064645.270737767        1419552846.1152313     
   2261490788.8732829        57536494.959541082        1348898178.2538433     
   2071834203.3262010        23923044.533669710        1281535373.7048233     
   1880352027.7447181       -15775706.006875157        1217464432.4681749     
   2256549502.1435356        222646604.89975852        1590973045.2048738     
   2052164621.1660376        64635070.924197912        1492538974.4538362     
   1862797938.2077932       -43315802.987178922        1408190832.4169538     
   1688449453.2688065       -101206016.83437002        1337928619.0942311     
   1529119166.3490725       -109035570.61737841        1281752334.4856675     
   1770399642.2247407        306574062.67282426        1628215461.9628119     
   1578475472.6102633        21245900.976901710        1524944937.6970968     
   1418413289.0687003       -157875640.47597837        1446554407.5473282     
   1290213091.6000488       -230790561.68581998        1393043871.5135000     
   1193874880.2043095       -197498862.65261710        1364413329.5956159     
   2630783476.2886510        185133740.93992412        1144007907.7105677     
   2540836409.5330200        93411506.317602754        1141453150.0324197     
   2461323328.8675613        36469225.329183936        1145365340.7092187     
   2392244234.2922797        14306897.974686980        1155744479.7409661     
   2333599125.8071594        26924524.254069686        1172590567.1276605     
   2247573464.3912435        82280731.178888798        1171549623.5431428     
   2187767202.0140219        40010328.075456619        1183352596.1149936     
   2133541880.5610120        16343061.386057615        1200461893.3493972     
   2084897500.0322223        11278931.110728621        1222877515.2463422     
   2041834060.4276450        24817937.249440312        1250599461.8058391     
   1880352027.7447181       -15775706.006875157        1217464432.4681749     
   1847370502.0533311       -9589097.8992030621        1237963249.2630801     
   1815116872.1201990       -976170.59734404087        1262607767.0281332     
   1783591137.9453294        10063075.898726583        1291397985.7633295     
   1752793299.5287223        23528641.588993311        1324333905.4686756     
   1529119166.3490725       -109035570.61737841        1281752334.4856675     
   1519646309.6509457       -55386771.606373250        1305285109.4766760     
   1506048303.5451229       -15488470.621023118        1331802961.7454307     
   1488325148.0316036        10659332.338671148        1361305891.2919323     
   1466476843.1103866        23056637.272714913        1393793898.1161783     
   1193874880.2043095       -197498862.65261710        1364413329.5956159     
   1204594624.8068731       -97382693.046041191        1385318176.7557795     
   1206336174.8357797       -27193838.684989870        1408047477.5012894     
   1199099530.2910378        13067700.430570304        1432601231.8321445     
   1182884691.1726446        23401924.300624669        1458979439.7483480     
   2333599125.8071594        26924524.254069686        1172590567.1276605     
   2201197635.7594461        32378084.881726265        1148296524.2368300     
   2068227774.2262042        35937073.890954614        1130296943.6764066     
   1934689541.2074320        37601491.281748533        1118591825.4463925     
   1800582936.7031271        37371337.054100394        1113181169.5467825     
   2041834060.4276450        24817937.249440312        1250599461.8058391     
   1923629425.2832503        24071907.777530789        1226728923.8565474     
   1805288238.0396903        22870704.641730905        1208915255.8331487     
   1686810498.6969602        21214327.842038393        1197158457.7356422     
   1568196207.2550654        19102777.378454924        1191458529.5640242     
   1752793299.5287223        23528641.588993311        1324333905.4686756     
   1648106683.8461735        16379371.385079682        1301390661.7450149     
   1543715335.4508193        10214325.471817255        1284266695.5427294     
   1439619254.3426573        5033503.8491890430        1272962006.8618200     
   1335818440.5216904        836906.51721572876        1267476595.7022874     
   1466476843.1103866        23056637.272714913        1393793898.1161783     
   1374629411.4482064        9300475.7043471932        1372281737.9022386     
   1283509066.4595861       -2032063.6188186407        1356351262.8051529     
   1193115808.1445174       -10940980.696809828        1346002472.8249328     
   1103449636.5030046       -17426275.529616833        1341235367.9615648     
   1182884691.1726446        23401924.300624669        1458979439.7483480     
   1103197608.0893602        2835220.7353725433        1439402152.3282101     
   1024669431.0659916       -13868462.630157113        1425168957.6204195     
   947300160.10253990       -26709125.795962691        1416279855.6249709     
   871089795.19900656       -35686768.762046278        1412734846.3418639     
   1800582936.7031271        37371337.054100394        1113181169.5467825     
   1723144467.8052993        50795168.868579924        1115454117.3760238     
   1644067916.7843277        58758726.939237177        1120222712.0143905     
   1563353283.6402102        61262011.266076565        1127486953.4618843     
   1481000568.3729429        58305021.849084079        1137246841.7185020     
   1568196207.2550654        19102777.378454924        1191458529.5640242     
   1497204608.9743614        29784853.501606464        1192584696.5444880     
   1425365047.6093400        37640386.010361016        1196807060.8116150     
   1352677523.1600041        42669374.904738307        1204125622.3653972     
   1279142035.6263475        44871820.184710205        1214540381.2058420     
   1335818440.5216904        836906.51721572876        1267476595.7022874     
   1272989571.3653543        9291984.5012136698        1268377787.3792696     
   1210102858.1635296        17554249.000243902        1272975726.8204508     
   1147158300.9162223        25623700.014330447        1281270414.0258272     
   1084155899.6234202        33500337.543436825        1293261848.9953992     
   1103449636.5030046       -17426275.529616833        1341235367.9615648     
   1050499354.9782821       -10683438.132595956        1342833389.8803709     
   998281348.44690204       -1499684.0911080837        1348728710.0409069     
   946795616.90885711        10124986.594839334        1358921328.4431796     
   896042160.36415744        24190573.925259471        1373411245.0871775     
   871089795.19900656       -35686768.762046278        1412734846.3418639     
   829733959.81314087       -30141414.399836361        1415951504.0477889     
   789900518.45944393       -19521413.263729960        1424066010.4729836     
   751589471.13792133       -3826765.3537097871        1437078365.6174467     
   714800817.84856415        16942529.330189645        1454988569.4811747     
   1481000568.3729429        58305021.849084079        1137246841.7185020     
   1366491179.9144559        46232836.882170439        1127145068.8097208     
   1253970515.1664467        40789730.950195193        1122030428.6604042     
   1143438574.1289194        41975704.053149104        1121902921.2705562     
   1034895356.8018698        49790756.191038728        1126762546.6401629     
   1279142035.6263475        44871820.184710205        1214540381.2058420     
   1179535929.2019286        39502576.146582901        1208566123.7863379     
   1080942288.9491549        37508219.347270370        1207521964.1884804     
   983361114.86804283        38888749.786830902        1211407902.4122658     
   886792406.95858645        43644167.465249389        1220223938.4576776     
   1084155899.6234202        33500337.543436825        1293261848.9953992     
   999290118.26785111        34785147.344510198        1290276139.9365530     
   914460545.54510987        36190652.588333666        1292163493.7615221     
   829667181.45520186        37716853.274936855        1298923910.4703019     
   744910025.99811900        39363749.404294759        1310557390.0629051     
   896042160.36415744        24190573.925259471        1373411245.0871775     
   825753747.11223197        32080550.475981683        1372275117.2603507     
   754525284.95431125        36837030.673383772        1375955017.3795202     
   682356773.89038920        38460014.517451227        1384450945.4446781     
   609248213.92046571        36949502.008176118        1397762901.4558229     
   714800817.84856415        16942529.330189645        1454988569.4811747     
   658926815.73506641        31388785.540985972        1454563055.7577453     
   601136507.17674327        39447353.602366418        1458896535.0424757     
   541429892.17360449        41118233.514358237        1467989007.3353758     
   479806970.72564071        36401425.276932582        1481840472.6364436     
   1034895356.8018698        49790756.191038728        1126762546.6401629     
   920654022.37330747        54351277.626802415        1125229856.3970587     
   803405219.90131354        48886905.584471524        1129164627.4119651     
   683148949.38587260        33397640.063984424        1138566859.6848865     
   559885210.82700288        7883481.0654010475        1153436553.2158031     
   886792406.95858645        43644167.465249389        1220223938.4576776     
   785942005.37487221        44610513.172944248        1217657802.0150375     
   682427776.82715297        36697435.667300582        1220754347.0553560     
   576249721.31541228        19904934.948247522        1229513573.5786495     
   467407838.83966845       -5766988.9841518700        1243935481.5849123     
   744910025.99811900        39363749.404294759        1310557390.0629051     
   658008329.33056998        36903251.005327731        1307358722.0133760     
   568786446.77844191        26708799.657751977        1310017955.6717727     
   477244378.34172177        8780395.3615418375        1318535091.0380995     
   383382124.02041423       -16881961.883287370        1332910128.1123590     
   609248213.92046571        36949502.008176118        1397762901.4558229     
   536852994.24040729        31229491.123952180        1394332616.3920717     
   462481229.75517935        18920997.555840865        1396955453.2612081     
   386132920.46479172        24021.303860843182        1405631412.0632429     
   307808066.36924070       -25461437.632001996        1420360492.7981577     
   479806970.72564071        36401425.276932582        1481840472.6364436     
   422476000.10437614        27589233.528819457        1478579485.1511343     
   363512125.75737065        13334029.361572564        1481566839.8236725     
   302915347.68463087       -6364187.2247927338        1490802536.6540613     
   240685665.88615543       -31505416.230276853        1506286575.6423059     
   559885210.82700288        7883481.0654010475        1153436553.2158031     
   462483143.17136383       -32221416.078522354        1162301225.1529422     
   353352781.30663300       -111420627.25275752        1178891075.8325777     
   232494125.23283994       -229714152.45719734        1203206105.2546980     
   99907174.949949831       -387101991.69196051        1235246313.4193223     
   467407838.83966845       -5766988.9841518700        1243935481.5849123     
   389776771.37878001       -41272932.474106893        1242435468.1402586     
   302151994.13773072       -110091241.89793418        1247357440.6443152     
   204533507.11651781       -212221917.25563586        1258701399.0970783     
   96921310.315142199       -347664958.54722458        1276467343.4985433     
   383382124.02041423       -16881961.883287370        1332910128.1123590     
   321798648.77203590       -48905974.113922819        1323069111.1196597     
   251956048.17240667       -108460404.18206403        1318346887.2818706     
   173854322.22153673       -195545252.08767211        1318743456.5990047     
   87493470.919420764       -310160517.83076286        1324258819.0710635     
   307808066.36924070       -25461437.632001996        1420360492.7981577     
   258548775.35112846       -55120540.997982785        1404202154.0911376     
   202764943.41067454       -106528114.10510296        1391859415.7452507     
   140456570.54789782       -179684156.95329905        1383332277.7604985     
   71623656.762795895       -274588669.54257882        1378620740.1368749     
   240685665.88615543       -31505416.230276853        1506286575.6423059     
   200027151.11604786       -59916633.126321331        1485834597.0547001     
   154578679.85252932       -104294371.66706917        1467895026.0344470     
   104340252.09559526       -164638631.85253254        1452467862.5815403     
   49311867.845265731       -240949413.68265295        1439553106.6959763     
   99907174.949949831       -387101991.69196051        1235246313.4193223     
   85293289.226251960       -546183563.55789697        1196831631.4363878     
   57955619.470567644       -747677748.86379361        1154967005.8575852     
   17894165.682906210       -991584547.60962558        1109652436.6828854     
  -34891072.136748493       -1277903959.7954180        1060887923.9122895     
   96921310.315142199       -347664958.54722458        1276467343.4985433     
   79948152.865476042       -488453582.22697306        1222122889.7179713     
   51515544.189156801       -667440376.66223443        1165192105.5472670     
   11623484.286181748       -884625341.85301542        1105674990.9864461     
  -39728026.843450963       -1140008477.7993190        1043571546.0354711     
   87493470.919420764       -310160517.83076286        1324258819.0710635     
   70628508.045949847       -431915953.43368095        1255459648.4323924     
   43568426.751163006       -587655117.10766172        1184937760.6093504     
   6313227.0350439548       -777378008.85273886        1112693155.6019375     
  -41137091.102397919       -1001084628.6688933        1038725833.4101479     
   71623656.762795895       -274588669.54257882        1378620740.1368749     
   57334354.767685130       -376570677.17800033        1296841907.5796623     
   34114267.156582087       -508321970.20006603        1214203971.0438380     
   1963393.9294835329       -669842548.60877776        1130706930.5294030     
  -39118264.913611770       -861132412.40414786        1046350786.0363346     
   49311867.845265731       -240949413.68265295        1439553106.6959763     
   40065693.030672237       -322417753.45995080        1346269667.1597736     
   23153065.405424178       -429440935.93943334        1252990736.8507164     
  -1426015.0304971635       -562018961.12116015        1159716315.7688007     
  -33671548.277076572       -720151829.00507772        1066446403.9140129     
   1770399642.2247407        306574062.67282426        1628215461.9628119     
   1578475472.6102633        21245900.976901710        1524944937.6970968     
   1418413289.0687003       -157875640.47597837        1446554407.5473282     
   1290213091.6000488       -230790561.68581998        1393043871.5135000     
   1193874880.2043095       -197498862.65261710        1364413329.5956159     
   1211940737.6122777        195172849.38696054        1518120233.1584859     
   1099404111.1925268       -9401321.9332091808        1470745159.9478428     
   1010763974.3576808       -134320527.97035921        1440921897.2997220     
   946020327.10773897       -179584768.72449738        1428650445.2141166     
   905173169.44270349       -145194044.19561362        1433930803.6910300     
   730721162.61330950        106943434.98514022        1434570669.9019082     
   676634412.09278476       -23158046.147925019        1433797968.5103307     
   638478654.66915894       -100156216.95799491        1443248894.1278446     
   616253890.34243143       -124051077.44507262        1462923446.7544546     
   609960119.11260200       -94842627.609155595        1492821626.3901589     
   326740917.22783607        41885819.467370041        1377566772.1930788     
   310166375.31104124       -20024271.667238846        1414103363.3845541     
   301557330.00313693       -55382707.438878477        1453535398.0317032     
   300913781.30412340       -64189487.847550392        1495862876.1345198     
   308235729.21400160       -46444612.893248811        1541085797.6930044     
   1.4558602492052266        2.8336507590925324        1347108540.0319989     
  0.84729485332652699        1.5088448347886996        1411661344.5705225     
  0.35961407844238946       0.58698764713340768        1471781409.0112901     
  -7.1828989642644080E-003   6.8076451069727290E-002   1527468733.3543053     
 -0.25309690241051352       -4.7891498459270349E-002   1578723317.5995657     
   1193874880.2043095       -197498862.65261710        1364413329.5956159     
   1204594624.8068731       -97382693.046041191        1385318176.7557795     
   1206336174.8357797       -27193838.684989870        1408047477.5012894     
   1199099530.2910378        13067700.430570304        1432601231.8321445     
   1182884691.1726446        23401924.300624669        1458979439.7483480     
   905173169.44270349       -145194044.19561362        1433930803.6910300     
   913142760.39642549       -70127982.210496128        1443399633.7506111     
   914378705.41618347       -17507406.671925306        1454709301.4845369     
   908881004.50198293        12667682.420117676        1467859806.8928049     
   896649657.65381849        20397285.065614402        1482851149.9754164     
   609960119.11260200       -94842627.609155595        1492821626.3901589     
   615226368.10033131       -44812629.740647495        1493473079.4287970     
   616003519.79379034       -9746289.5197060704        1495981754.2307777     
   612291574.19298053        10356393.053670973        1500347650.7961006     
   604090531.29790246        15495417.979487181        1506570769.1247630     
   308235729.21400160       -46444612.893248811        1541085797.6930044     
   310845447.91858941       -21436635.636495247        1535538513.7903416     
   311210617.96860230       -3910487.2283255905        1531864835.7400169     
   309331239.36403435        6133832.3312427551        1530064763.5420322     
   305207312.10489047        8696323.0422228277        1530138297.1963842     
 -0.25309690241051352       -4.7891498459270349E-002   1578723317.5995657     
 -0.14879654285261498       0.10197209377260287        1569595936.8352401     
  -5.9379973465751051E-002  0.20222166432224678        1562358546.0122509     
   1.5146057485127831E-002  0.25283645369663565        1557011145.1305974     
   7.4788984529204433E-002  0.25384159060440736        1553553734.1902866     
   1182884691.1726446        23401924.300624669        1458979439.7483480     
   1103197608.0893602        2835220.7353725433        1439402152.3282101     
   1024669431.0659916       -13868462.630157113        1425168957.6204195     
   947300160.10253990       -26709125.795962691        1416279855.6249709     
   871089795.19900656       -35686768.762046278        1412734846.3418639     
   896649657.65381849        20397285.065614402        1482851149.9754164     
   833188224.22303700        3863421.0466895700        1462674694.1280367     
   770595970.33743441       -9773177.8216425180        1448704759.2518551     
   708872895.99702096       -20512511.539340824        1440941345.3468769     
   648019001.20178020       -28354580.106464088        1439384452.4131010     
   604090531.29790246        15495417.979487181        1506570769.1247630     
   559318828.25921738        3733617.7287567556        1485457130.5829489     
   515126578.25097829       -6096672.4204871655        1471412441.2711887     
   471513781.27318978       -13995452.468229264        1464436701.1894925     
   428480437.32584435       -19962722.414493054        1464529910.3378522     
   305207312.10489047        8696323.0422228277        1530138297.1963842     
   281589420.19790137        2445810.7815788239        1507749461.6929443     
   258261254.80662376       -2838946.4266932160        1493292003.6784174     
   235222815.93105572       -7157948.5826002508        1486765923.1528080     
   212474103.57119915       -10511195.686135679        1488171220.1161191     
   7.4788984529204433E-002  0.25384159060440736        1553553734.1902866     
   3.9085859091416805E-002  0.20514437218552131        1529551687.4580238     
   4.3599739203596805E-003  0.15970462132240359        1514343446.4735384     
  -2.9384782153317510E-002  0.11753599467327608        1507929011.2368295     
  -6.2157879576019877E-002   7.8604842415283871E-002   1510308381.7478957     
   871089795.19900656       -35686768.762046278        1412734846.3418639     
   829733959.81314087       -30141414.399836361        1415951504.0477889     
   789900518.45944393       -19521413.263729960        1424066010.4729836     
   751589471.13792133       -3826765.3537097871        1437078365.6174467     
   714800817.84856415        16942529.330189645        1454988569.4811747     
   648019001.20178020       -28354580.106464088        1439384452.4131010     
   618633618.82035398       -23706116.094277561        1445201160.2511337     
   590390031.96307945       -15251667.001585573        1455535034.8387058     
   563288240.62995410       -2991232.8283982873        1470386076.1758127     
   537328244.82098603        13075186.425316602        1489754284.2624545     
   428480437.32584435       -19962722.414493054        1464529910.3378522     
   409977845.17819923       -16537447.583530813        1472502636.7153034     
   392236450.04668850       -10574849.365452096        1484611847.8725646     
   375256251.93130654       -2074927.7602774501        1500857543.8096309     
   359037250.83206409        8962317.2320270836        1521239724.5265031     
   212474103.57119915       -10511195.686135679        1488171220.1161191     
   203766638.88667393       -8635408.8676010221        1497855933.4403014     
   195439772.71027088       -5490960.3553251028        1511296449.5745602     
   187493505.04197606       -1077850.1493581831        1528492768.5188994     
   179927835.88179877        4603921.7503378838        1549444890.2733121     
  -6.2157879576019877E-002   7.8604842415283871E-002   1510308381.7478957     
  -5.4218214167373963E-002   5.3522044854700523E-002   1521261050.4261262     
  -4.6172864066960841E-002   2.8791529600007852E-002   1535588839.9447010     
  -3.8042394326273744E-002   4.3440525901713729E-003   1553291750.3036215     
  -2.9805187621996659E-002  -1.9746246762251021E-002   1574369781.5028892     
   714800817.84856415        16942529.330189645        1454988569.4811747     
   658926815.73506641        31388785.540985972        1454563055.7577453     
   601136507.17674327        39447353.602366418        1458896535.0424757     
   541429892.17360449        41118233.514358237        1467989007.3353758     
   479806970.72564071        36401425.276932582        1481840472.6364436     
   537328244.82098603        13075186.425316602        1489754284.2624545     
   493215115.82752872        23247590.355308950        1487343650.2391236     
   447664757.00111192        28629228.175440714        1490207122.2878380     
   400677168.34173691        29220099.885707855        1498344700.4086013     
   352252349.84940189        25020205.486111358        1511756384.6014194     
   359037250.83206409        8962317.2320270836        1521239724.5265031     
   328156746.56973928        15302394.364548087        1517402892.9171109     
   296318089.08632088        18448627.426753715        1519355280.4436481     
   263521278.38180706        18401016.418642171        1527096887.1061187     
   229766314.45619774        15159561.340213858        1540627712.9045212     
   179927835.88179877        4603921.7503378838        1549444890.2733121     
   163751707.96169996        7553197.5687097684        1544740783.7917023     
   147096503.43237159        8905551.3563159332        1546341009.5099084     
   129962222.29381251        8660983.1131520756        1554245567.4279265     
   112348864.54602385        6819492.8392254226        1568454457.5457568     
  -2.9805187621996659E-002  -1.9746246762251021E-002   1574369781.5028892     
   3.4163148500608378E-003  -3.2188537549667932E-002   1569357322.8629034     
   3.9271196185074353E-002  -3.5852204904507724E-002   1571164309.4866142     
   7.7758953122606903E-002  -3.0740314140341132E-002   1579790741.3740237     
  0.11887652034908774       -1.6861695190289828E-002   1595236618.5251257     
   479806970.72564071        36401425.276932582        1481840472.6364436     
   422476000.10437614        27589233.528819457        1478579485.1511343     
   363512125.75737065        13334029.361572564        1481566839.8236725     
   302915347.68463087       -6364187.2247927338        1490802536.6540613     
   240685665.88615543       -31505416.230276853        1506286575.6423059     
   352252349.84940189        25020205.486111358        1511756384.6014194     
   311375436.17050695        19047455.962259158        1508354992.8142648     
   269273844.69711703        8992447.1234219670        1510706969.8501060     
   225947575.42923626       -5144821.0303830653        1518812315.7089362     
   181396628.36686981       -23364348.499141984        1532671030.3907566     
   229766314.45619774        15159561.340213858        1540627712.9045212     
   203929248.19149360        11601991.182153948        1537562180.4019887     
   177275730.06354371        5322914.8132754937        1539755043.3875868     
   149805760.07235184       -3677667.7664070278        1547206301.8613126     
   121519338.21791974       -15399756.556893118        1559915955.8231704     
   112348864.54602385        6819492.8392254226        1568454457.5457568     
   100137436.16733447        5252839.1885058433        1566201047.9143019     
   87517781.856649950        2325432.4311328866        1568711060.4361117     
   74489901.613970548       -1962727.4328867085        1575984495.1111934     
   61053795.439297348       -7611640.4035526216        1588021351.9395318     
  0.11887652034908774       -1.6861695190289828E-002   1595236618.5251257     
   9.8029460007351590E-002  -1.8689354093630178E-002   1594271595.3512034     
   7.6434554656253234E-002  -2.3011217473625323E-002   1597575020.9956832     
   5.4092353307178473E-002  -2.9823373624151404E-002   1605146895.4585714     
   3.1009261092961694E-002  -3.9105165991817570E-002   1616987218.7398617     
   240685665.88615543       -31505416.230276853        1506286575.6423059     
   200027151.11604786       -59916633.126321331        1485834597.0547001     
   154578679.85252932       -104294371.66706917        1467895026.0344470     
   104340252.09559526       -164638631.85253254        1452467862.5815403     
   49311867.845265731       -240949413.68265295        1439553106.6959763     
   181396628.36686981       -23364348.499141984        1532671030.3907566     
   149665219.41773164       -45044018.033465259        1507267793.7973075     
   114341343.09856379       -78698578.801225066        1484665720.1076388     
   75424999.409384191       -124328030.80235520        1464864809.3217320     
   32916188.350162007       -181932374.03696069        1447865061.4396067     
   121519338.21791974       -15399756.556893118        1559915955.8231704     
   99540050.336678609       -30100374.155423574        1530958531.8678272     
   75165784.208798081       -52784252.576086029        1505091026.1526804     
   48396539.834271066       -83451391.818901375        1482313438.6777277     
   19232317.213108048       -122101791.88384020        1462625769.4429810     
   61053795.439297348       -7611640.4035526216        1588021351.9395318     
   49651643.872883558       -15085701.492204495        1556906811.2662480     
   37052003.183216885       -26551392.991699167        1529170944.1695821     
   23254873.370281339       -42008714.902090751        1504813750.6495337     
   8260254.4341003783       -61457667.223299161        1483835230.7061141     
   3.1009261092961694E-002  -3.9105165991817570E-002   1616987218.7398617     
   2.6348703438874518E-002  -4.3807357009328182E-002   1585112631.9925835     
   2.1815287671549704E-002  -4.8085047848240539E-002   1556905474.1583414     
   1.7409265421205744E-002  -5.1939828354026017E-002   1532365745.2371511     
   1.3130796816163505E-002  -5.5366654484577560E-002   1511493445.2290020     
   49311867.845265731       -240949413.68265295        1439553106.6959763     
   40065693.030672237       -322417753.45995080        1346269667.1597736     
   23153065.405424178       -429440935.93943334        1252990736.8507164     
  -1426015.0304971635       -562018961.12116015        1159716315.7688007     
  -33671548.277076572       -720151829.00507772        1066446403.9140129     
   32916188.350162007       -181932374.03696069        1447865061.4396067     
   29121919.137322322       -242091520.30141678        1347338208.6961229     
   19577810.316206545       -321416798.59345692        1246083114.0700483     
   4283861.8868008256       -419908208.91313374        1144099777.5613708     
  -16759926.150875926       -537565751.26037657        1041388199.1700808     
   19232317.213108048       -122101791.88384020        1462625769.4429810     
   18796379.002759703       -161579817.01522982        1357091552.2283442     
   14527214.386511505       -213835263.49961549        1250096342.0213606     
   6424823.3643667549       -278868131.33699656        1141640138.8220344     
  -5510794.0636844337       -356678420.52739149        1031722942.6303736     
   8260254.4341003783       -61457667.223299161        1483835230.7061141     
   9089072.6269797720       -80882643.601403102        1375529697.7564256     
   8001277.6163415536       -106696330.65790066        1265030420.7046537     
   4996869.4021818042       -138898728.39279985        1152337399.5507977     
   75847.984500892460       -177489836.80610830        1037450634.2948536     
   1.3130796816163505E-002  -5.5366654484577560E-002   1511493445.2290020     
   9.9760858914381030E-003  -5.9963481066962698E-002   1402652645.2803855     
   5.6775554953396173E-003  -6.8372345331201054E-002   1290885350.1199272     
   2.5080670141463396E-004  -8.0539855920023232E-002   1176191559.7476535     
  -6.3160099860804439E-003  -9.6512450046478473E-002   1058571274.1635573     
   1.4558602492052266        2.8336507590925324        1347108540.0319989     
  0.84729485332652699        1.5088448347886996        1411661344.5705225     
  0.35961407844238946       0.58698764713340768        1471781409.0112901     
  -7.1828989642644080E-003   6.8076451069727290E-002   1527468733.3543053     
 -0.25309690241051352       -4.7891498459270349E-002   1578723317.5995657     
  -326740915.33055025       -41885816.831202686        1377566771.6990476     
  -310166374.15096009        20024273.171813861        1414103363.0194228     
  -301557329.47864813        55382708.150569603        1453535397.8143241     
  -300913781.31361490        64189488.105065018        1495862876.0837569     
  -308235729.65586275        46444613.035287470        1541085797.8277235     
  -730721161.96143246       -106943435.44939601        1434570669.5240891     
  -676634411.64429808        23158046.086262971        1433797968.2267835     
  -638478654.46260393        100156217.17044851        1443248893.9762945     
  -616253890.41635287        124051077.80316007        1462923446.7726233     
  -609960119.50554585        94842627.984391242        1492821626.6157699     
  -1211940738.4367905       -195172853.02093366        1518120233.5071115     
  -1099404111.6327209        9401320.2521824837        1470745160.1926043     
  -1010763974.5922563        134320527.64661592        1440921897.4971998     
  -946020327.31539655        179584769.16236603        1428650445.4209006     
  -905173169.80214632        145194044.79941982        1433930803.9637032     
  -1770399644.7566192       -306574069.54581094        1628215463.6481164     
  -1578475474.1162271       -21245904.330419719        1524944938.9168851     
  -1418413289.8676026        157875639.57907593        1446554408.3770421     
  -1290213092.0107477        230790562.18267822        1393043872.0285890     
  -1193874880.5456641        197498863.48037326        1364413329.8715260     
 -0.25309690241051352       -4.7891498459270349E-002   1578723317.5995657     
 -0.14879654285261498       0.10197209377260287        1569595936.8352401     
  -5.9379973465751051E-002  0.20222166432224678        1562358546.0122509     
   1.5146057485127831E-002  0.25283645369663565        1557011145.1305974     
   7.4788984529204433E-002  0.25384159060440736        1553553734.1902866     
  -308235729.65586275        46444613.035287470        1541085797.8277235     
  -310845448.18437380        21436635.967610046        1535538513.8902109     
  -311210618.07947028        3910487.6779824346        1531864835.8055546     
  -309331239.34115064       -6133831.8335918337        1530064763.5737543     
  -305207311.96941197       -8696322.5671018213        1530138297.1948094     
  -609960119.50554585        94842627.984391242        1492821626.6157699     
  -615226368.34824705        44812630.194756687        1493473079.5947568     
  -616003519.90922856        9746290.0108528435        1495981754.3381190     
  -612291574.18849432       -10356392.567330897        1500347650.8458529     
  -604090531.18603885       -15495417.539777994        1506570769.1179609     
  -905173169.80214632        145194044.79941982        1433930803.9637032     
  -913142760.64041305        70127982.783418417        1443399633.9488766     
  -914378705.54866076        17507407.200812697        1454709301.6099415     
  -908881004.52688503       -12667681.948382378        1467859806.9468992     
  -896649657.57509100       -20397284.664180934        1482851149.9597466     
  -1193874880.5456641        197498863.48037326        1364413329.8715260     
  -1204594625.0608730        97382693.733591914        1385318176.9525709     
  -1206336174.9977615        27193839.247878671        1408047477.6210263     
  -1199099530.3563259       -13067699.976752281        1432601231.8768899     
  -1182884691.1365664       -23401923.940307498        1458979439.7201667     
   7.4788984529204433E-002  0.25384159060440736        1553553734.1902866     
   3.9085859091416805E-002  0.20514437218552131        1529551687.4580238     
   4.3599739203596805E-003  0.15970462132240359        1514343446.4735384     
  -2.9384782153317510E-002  0.11753599467327608        1507929011.2368295     
  -6.2157879576019877E-002   7.8604842415283871E-002   1510308381.7478957     
  -305207311.96941197       -8696322.5671018213        1530138297.1948094     
  -281589420.13462228       -2445810.4100450277        1507749461.6920757     
  -258261254.81126526        2838946.7089037150        1493292003.6790805     
  -235222815.99934721        7157948.7897244245        1486765923.1558199     
  -212474103.69886440        10511195.832424268        1488171220.1222992     
  -604090531.18603885       -15495417.539777994        1506570769.1179609     
  -559318828.21800768       -3733617.3981242776        1485457130.5802765     
  -515126578.27382839        6096672.6640214324        1471412441.2742863     
  -471513781.35349733        13995452.646673173        1464436701.1999958     
  -428480437.45702285        19962722.549803108        1464529910.3573983     
  -896649657.57509100       -20397284.664180934        1482851149.9597466     
  -833188224.21107626       -3863420.7591151595        1462674694.1226249     
  -770595970.38332891        9773178.0250596106        1448704759.2591579     
  -708872896.09184778        20512511.688346922        1440941345.3693504     
  -648019001.33663154        28354580.230749369        1439384452.4531975     
  -1182884691.1365664       -23401923.940307498        1458979439.7201667     
  -1103197608.1138258       -2835220.4930103421        1439402152.3191214     
  -1024669431.1397676        13868462.792012990        1425168957.6336942     
  -947300160.21438551        26709125.914784431        1416279855.6638844     
  -871089795.33769119        35686768.875260413        1412734846.4096928     
  -6.2157879576019877E-002   7.8604842415283871E-002   1510308381.7478957     
  -5.4218214167373963E-002   5.3522044854700523E-002   1521261050.4261262     
  -4.6172864066960841E-002   2.8791529600007852E-002   1535588839.9447010     
  -3.8042394326273744E-002   4.3440525901713729E-003   1553291750.3036215     
  -2.9805187621996659E-002  -1.9746246762251021E-002   1574369781.5028892     
  -212474103.69886440        10511195.832424268        1488171220.1222992     
  -203766638.99232382        8635408.9820133299        1497855933.4460447     
  -195439772.79517838        5490960.4336196482        1511296449.5803699     
  -187493505.10742143        1077850.1872639060        1528492768.5252681     
  -179927835.92905727       -4603921.7570680603        1549444890.2807443     
  -428480437.45702285        19962722.549803108        1464529910.3573983     
  -409977845.27979958        16537447.705681950        1472502636.7322574     
  -392236450.12145710        10574849.465292022        1484611847.8879254     
  -375256251.98200113        2074927.8286134750        1500857543.8243964     
  -359037250.86142629       -8962317.2043382823        1521239724.5416751     
  -648019001.33663154        28354580.230749369        1439384452.4531975     
  -618633618.91663909        23706116.224550515        1445201160.2847638     
  -590390032.02501893        15251667.123772979        1455535034.8673697     
  -563288240.66177511        2991232.9284097850        1470386076.2010047     
  -537328244.82690430       -13075186.361531198        1489754284.2856808     
  -871089795.33769119        35686768.875260413        1412734846.4096928     
  -829733959.90284300        30141414.538609862        1415951504.1035609     
  -789900518.50586379        19521413.409065813        1424066010.5186951     
  -751589471.14675033        3826765.4866332710        1437078365.6550963     
  -714800817.82549715       -16942529.228665203        1454988569.5127597     
  -2.9805187621996659E-002  -1.9746246762251021E-002   1574369781.5028892     
   3.4163148500608378E-003  -3.2188537549667932E-002   1569357322.8629034     
   3.9271196185074353E-002  -3.5852204904507724E-002   1571164309.4866142     
   7.7758953122606903E-002  -3.0740314140341132E-002   1579790741.3740237     
  0.11887652034908774       -1.6861695190289828E-002   1595236618.5251257     
  -179927835.92905727       -4603921.7570680603        1549444890.2807443     
  -163751707.94453174       -7553197.6014448330        1544740783.8060751     
  -147096503.34636527       -8905551.4003506750        1546341009.5299277     
  -129962222.13456167       -8660983.1538000554        1554245567.4523032     
  -112348864.30911686       -6819492.8617784381        1568454457.5732026     
  -359037250.86142629       -8962317.2043382823        1521239724.5416751     
  -328156746.54037994       -15302394.365077808        1517402892.9451611     
  -296318088.99468505       -18448627.443654954        1519355280.4819980     
  -263521278.22434840       -18401016.440093160        1527096887.1521795     
  -229766314.22936600       -15159561.354381911        1540627712.9557073     
  -537328244.82690430       -13075186.361531198        1489754284.2856808     
  -493215115.78412122       -23247590.323065400        1487343650.2801623     
  -447664756.90568495       -28629228.165756226        1490207122.3428197     
  -400677168.19159913       -29220099.889615387        1498344700.4736450     
  -352252349.64186704       -25020205.494652629        1511756384.6726465     
  -714800817.82549715       -16942529.228665203        1454988569.5127597     
  -658926815.67575979       -31388785.475422233        1454563055.8110769     
  -601136507.07936704       -39447353.566658795        1458896535.1123917     
  -541429892.03632307       -41118233.502392054        1467989007.4167056     
  -479806970.54662287       -36401425.282606423        1481840472.7240148     
  0.11887652034908774       -1.6861695190289828E-002   1595236618.5251257     
   9.8029460007351590E-002  -1.8689354093630178E-002   1594271595.3512034     
   7.6434554656253234E-002  -2.3011217473625323E-002   1597575020.9956832     
   5.4092353307178473E-002  -2.9823373624151404E-002   1605146895.4585714     
   3.1009261092961694E-002  -3.9105165991817570E-002   1616987218.7398617     
  -112348864.30911686       -6819492.8617784381        1568454457.5732026     
  -100137435.97388048       -5252839.2231646702        1566201047.9377306     
  -87517781.707015440       -2325432.4791215658        1568711060.4561262     
  -74489901.508524865        1962727.3703407533        1575984495.1283774     
  -61053795.378411941        7611640.3252088577        1588021351.9545007     
  -229766314.22936600       -15159561.354381911        1540627712.9557073     
  -203929248.00816798       -11601991.216364905        1537562180.4464614     
  -177275729.92296654       -5322914.8650030643        1539755043.4265311     
  -149805759.97376925        3677667.6996765509        1547206301.8959253     
  -121519338.16057022        15399756.477698416        1559915955.8546400     
  -352252349.64186704       -25020205.494652629        1511756384.6726465     
  -311375436.00482202       -19047455.998252630        1508354992.8773890     
  -269273844.57140666       -8992447.1806208789        1510706969.9069057     
  -225947575.34161755        5144820.9582579285        1518812315.7612052     
  -181396628.31545827        23364348.418370724        1532671030.4402869     
  -479806970.54662287       -36401425.282606423        1481840472.7240148     
  -422475999.96385872       -27589233.568885103        1478579485.2305117     
  -363512125.65234220       -13334029.425990626        1481566839.8972509     
  -302915347.61208659        6364187.1460355818        1490802536.7242265     
  -240685665.84308246        31505416.147222176        1506286575.7114403     
   3.1009261092961694E-002  -3.9105165991817570E-002   1616987218.7398617     
   2.6348703438874518E-002  -4.3807357009328182E-002   1585112631.9925835     
   2.1815287671549704E-002  -4.8085047848240539E-002   1556905474.1583414     
   1.7409265421205744E-002  -5.1939828354026017E-002   1532365745.2371511     
   1.3130796816163505E-002  -5.5366654484577560E-002   1511493445.2290020     
  -61053795.378411941        7611640.3252088577        1588021351.9545007     
  -49651643.820191287        15085701.408138733        1556906811.2804303     
  -37052003.138877265        26551392.901378106        1529170944.1829939     
  -23254873.334491037        42008714.804859415        1504813750.6622047     
  -8260254.4070164375        61457667.118634552        1483835230.7180448     
  -121519338.16057022        15399756.477698416        1559915955.8546400     
  -99540050.286329746        30100374.074241929        1530958531.8972261     
  -75165784.166054100        52784252.490902632        1505091026.1800430     
  -48396539.799751028        83451391.727657408        1482313438.7030880     
  -19232317.187411413        122101791.78453146        1462625769.4663770     
  -181396628.31545827        23364348.418370724        1532671030.4402869     
  -149665219.37208244        45044017.954445861        1507267793.8429697     
  -114341343.05972165        78698578.720466614        1484665720.1494808     
  -75424999.378375292        124328030.71644281        1464864809.3598201     
  -32916188.328046344        181932373.94235805        1447865061.4739792     
  -240685665.84308246        31505416.147222176        1506286575.7114403     
  -200027151.07744890        59916633.048752338        1485834597.1176651     
  -154578679.81986913        104294371.59010664        1467895026.0913131     
  -104340252.07036316        164638631.77121246        1452467862.6323805     
  -49311867.828914702        240949413.59212798        1439553106.7408686     
   1.3130796816163505E-002  -5.5366654484577560E-002   1511493445.2290020     
   9.9760858914381030E-003  -5.9963481066962698E-002   1402652645.2803855     
   5.6775554953396173E-003  -6.8372345331201054E-002   1290885350.1199272     
   2.5080670141463396E-004  -8.0539855920023232E-002   1176191559.7476535     
  -6.3160099860804439E-003  -9.6512450046478473E-002   1058571274.1635573     
  -8260254.4070164375        61457667.118634552        1483835230.7180448     
  -9089072.6062691994        80882643.486747950        1375529697.7651999     
  -8001277.6039668769        106696330.52671513        1265030420.7103972     
  -4996869.4000901282        138898728.23859394        1152337399.5536406     
  -75847.994658336043        177489836.62232563        1037450634.2949452     
  -19232317.187411413        122101791.78453146        1462625769.4663770     
  -18796378.983107977        161579816.90527803        1357091552.2457714     
  -14527214.374551997        213835263.37353289        1250096342.0330901     
  -6424823.3617289662        278868131.18933815        1141640138.8283484     
   5510794.0553441197        356678420.35265386        1031722942.6315061     
  -32916188.328046344        181932373.94235805        1447865061.4739792     
  -29121919.120541602        242091520.19561800        1347338208.7221093     
  -19577810.306082368        321416798.47206080        1246083114.0880380     
  -4283861.8846752048        419908208.77166355        1144099777.5717657     
   16759926.143703222        537565751.09450233        1041388199.1733141     
  -49311867.828914702        240949413.59212798        1439553106.7408686     
  -40065693.018557906        322417753.35780972        1346269667.1942024     
  -23153065.398561805        429440935.82229078        1252990736.8752224     
   1426015.0310997665        562018960.98565865        1159716315.7839220     
   33671548.270407349        720151828.84784102        1066446403.9202950     
  -1770399644.7566192       -306574069.54581094        1628215463.6481164     
  -1578475474.1162271       -21245904.330419719        1524944938.9168851     
  -1418413289.8676026        157875639.57907593        1446554408.3770421     
  -1290213092.0107477        230790562.18267822        1393043872.0285890     
  -1193874880.5456641        197498863.48037326        1364413329.8715260     
  -2256549505.0878148       -222646609.67690820        1590973048.4533522     
  -2052164623.1142051       -64635073.114894152        1492538976.7804739     
  -1862797939.3945620        43315802.600559473        1408190833.9386919     
  -1688449453.9288886        101206017.46944952        1337928619.9280059     
  -1529119166.7171853        109035571.49177355        1281752334.7484162     
  -2635327193.6613584       -106507498.28071153        1493499381.6961548     
  -2449321787.0982213       -85064646.395178318        1419552849.2423928     
  -2261490790.6512532       -57536494.896877170        1348898180.2594364     
  -2071834204.3204532       -23923043.785804749        1281535374.7472844     
  -1880352028.1058226        15775706.938035607        1217464432.7059362     
  -2906732710.4772463        41843264.642781138        1335794463.3765154     
  -2769946966.0682759       -82534624.171278358        1305986556.3026400     
  -2614491843.6376743       -144681252.91323447        1268676447.3392770     
  -2440367343.1854453       -144596621.58309305        1223864136.4864256     
  -2247573464.7115793       -82280730.180834770        1171549623.7440841     
  -3070766055.5354810        222405679.09357285        1117858293.4944401     
  -3014040160.0243731       -57045006.443187714        1151840097.9612188     
  -2921801098.3538280       -218118471.44851041        1167525635.1782150     
  -2794048870.5238576       -260814715.92239630        1164914905.1454296     
  -2630783476.5344539       -185133739.86484396        1144007907.8628638     
  -1193874880.5456641        197498863.48037326        1364413329.8715260     
  -1204594625.0608730        97382693.733591914        1385318176.9525709     
  -1206336174.9977615        27193839.247878671        1408047477.6210263     
  -1199099530.3563259       -13067699.976752281        1432601231.8768899     
  -1182884691.1365664       -23401923.940307498        1458979439.7201667     
  -1529119166.7171853        109035571.49177355        1281752334.7484162     
  -1519646309.9424334        55386772.312352777        1305285109.6768579     
  -1506048303.7515042        15488471.186861277        1331802961.8792400     
  -1488325148.1443989       -10659331.884714186        1361305891.3555558     
  -1466476843.1211174       -23056636.902363837        1393793898.1058102     
  -1880352028.1058226        15775706.938035607        1217464432.7059362     
  -1847370502.3653154        9589098.6287268400        1237963249.4592705     
  -1815116872.3707762        976171.16618525982        1262607767.1730707     
  -1783591138.1222105       -10063075.449594259        1291397985.8473372     
  -1752793299.6196113       -23528641.218603134        1324333905.4820671     
  -2247573464.7115793       -82280730.180834770        1171549623.7440841     
  -2187767202.3295197       -40010327.317297339        1183352596.2998071     
  -2133541880.8555789       -16343060.814149976        1200461893.5025251     
  -2084897500.2897537       -11278930.671397328        1222877515.3522344     
  -2041834060.6320457       -24817936.889027953        1250599461.8489354     
  -2630783476.5344539       -185133739.86484396        1144007907.8628638     
  -2540836409.8350511       -93411505.525724530        1141453150.1984689     
  -2461323329.2059107       -36469224.754144073        1145365340.8675978     
  -2392244234.6470370       -14306897.550117373        1155744479.8702474     
  -2333599126.1584234       -26924523.913628936        1172590567.2064180     
  -1182884691.1365664       -23401923.940307498        1458979439.7201667     
  -1103197608.1138258       -2835220.4930103421        1439402152.3191214     
  -1024669431.1397676        13868462.792012990        1425168957.6336942     
  -947300160.21438551        26709125.914784431        1416279855.6638844     
  -871089795.33769119        35686768.875260413        1412734846.4096928     
  -1466476843.1211174       -23056636.902363837        1393793898.1058102     
  -1374629411.5029333       -9300475.4391063452        1372281737.9110918     
  -1283509066.5520616        2032063.7997738719        1356351262.8397198     
  -1193115808.2684996        10940980.814294279        1346002472.8916965     
  -1103449636.6522467        17426275.604441702        1341235368.0670221     
  -1752793299.6196113       -23528641.218603134        1324333905.4820671     
  -1648106683.9553168       -16379371.104175210        1301390661.7719357     
  -1543715335.5769684       -10214325.276232481        1284266695.5928831     
  -1439619254.4845607       -5033503.7347598672        1272962006.9449110     
  -1335818440.6780970       -836906.47977185249        1267476595.8280232     
  -2041834060.6320457       -24817936.889027953        1250599461.8489354     
  -1923629425.4709816       -24071907.488236666        1226728923.9016554     
  -1805288238.2144966       -22870704.436040163        1208915255.8931849     
  -1686810498.8625810       -21214327.732408524        1197158457.8235288     
  -1568196207.4152410       -19102777.377370238        1191458529.6926832     
  -2333599126.1584234       -26924523.913628936        1172590567.2064180     
  -2201197636.0499253       -32378084.591275454        1148296524.3002498     
  -2068227774.4646358       -35937073.679611206        1130296943.7406244     
  -1934689541.4025519       -37601491.178635716        1118591825.5275433     
  -1800582936.8636773       -37371337.088356376        1113181169.6610065     
  -871089795.33769119        35686768.875260413        1412734846.4096928     
  -829733959.90284300        30141414.538609862        1415951504.1035609     
  -789900518.50586379        19521413.409065813        1424066010.5186951     
  -751589471.14675033        3826765.4866332710        1437078365.6550963     
  -714800817.82549715       -16942529.228665203        1454988569.5127597     
  -1103449636.6522467        17426275.604441702        1341235368.0670221     
  -1050499355.0870471        10683438.194684863        1342833389.9710755     
  -998281348.51469231        1499684.1421135068        1348728710.1171594     
  -946795616.93517971       -10124986.553263366        1358921328.5052729     
  -896042160.34851849       -24190573.891484439        1373411245.1354141     
  -1335818440.6780970       -836906.47977185249        1267476595.8280232     
  -1272989571.4946363       -9291984.5162389874        1268377787.4947777     
  -1210102858.2590027       -17554249.045466602        1272975726.9243281     
  -1147158300.9711976       -25623700.067453086        1281270414.1166763     
  -1084155899.6312203       -33500337.582201123        1293261849.0718207     
  -1568196207.4152410       -19102777.377370238        1191458529.6926832     
  -1497204609.1256194       -29784853.594186068        1192584696.6746612     
  -1425365047.7388062       -37640386.153703034        1196807060.9402018     
  -1352677523.2548056       -42669375.055924952        1204125622.4893074     
  -1279142035.6736081       -44871820.300830185        1214540381.3219728     
  -1800582936.8636773       -37371337.088356376        1113181169.6610065     
  -1723144467.9799917       -50795169.039156556        1115454117.5107327     
  -1644067916.9540982       -58758727.182591140        1120222712.1647830     
  -1563353283.7859890       -61262011.518647373        1127486953.6231623     
  -1481000568.4756787       -58305022.047357559        1137246841.8858707     
  -714800817.82549715       -16942529.228665203        1454988569.5127597     
  -658926815.67575979       -31388785.475422233        1454563055.8110769     
  -601136507.07936704       -39447353.566658795        1458896535.1123917     
  -541429892.03632307       -41118233.502392054        1467989007.4167056     
  -479806970.54662287       -36401425.282606423        1481840472.7240148     
  -896042160.34851849       -24190573.891484439        1373411245.1354141     
  -825753747.06474340       -32080550.452322692        1372275117.3262839     
  -754525284.87500024       -36837030.659928471        1375955017.4589732     
  -682356773.77929187       -38460014.514312804        1384450945.5334821     
  -609248213.77761304       -36949502.015475214        1397762901.5498042     
  -1084155899.6312203       -33500337.582201123        1293261849.0718207     
  -999290118.24535489       -34785147.366721451        1290276140.0244408     
  -914460545.49420083       -36190652.600281656        1292163493.8577032     
  -829667181.37776053       -37716853.282890141        1298923910.5716047     
  -744910025.89604139       -39363749.414562106        1310557390.1661487     
  -1279142035.6736081       -44871820.300830185        1214540381.3219728     
  -1179535929.2175810       -39502576.218586504        1208566123.9055471     
  -1080942288.9369557       -37508219.387684524        1207521964.3085814     
  -983361114.83173704       -38888749.808129907        1211407902.5310831     
  -886792406.90190792       -43644167.479887158        1220223938.5730391     
  -1481000568.4756787       -58305022.047357559        1137246841.8858707     
  -1366491179.9814396       -46232837.007964373        1127145068.9695992     
  -1253970515.2032802       -40789731.022173226        1122030428.8116100     
  -1143438574.1412067       -41975704.089996278        1121902921.4119034     
  -1034895356.7952186       -49790756.211445451        1126762546.7704792     
  -479806970.54662287       -36401425.282606423        1481840472.7240148     
  -422475999.96385872       -27589233.568885103        1478579485.2305117     
  -363512125.65234220       -13334029.425990626        1481566839.8972509     
  -302915347.61208659        6364187.1460355818        1490802536.7242265     
  -240685665.84308246        31505416.147222176        1506286575.7114403     
  -609248213.77761304       -36949502.015475214        1397762901.5498042     
  -536852994.12726891       -31229491.156984568        1394332616.4792004     
  -462481229.66969252       -18920997.607714877        1396955453.3438628     
  -386132920.40488178       -24021.367668792605        1405631412.1437833     
  -307808066.33282763        25461437.563193053        1420360492.8789659     
  -744910025.89604139       -39363749.414562106        1310557390.1661487     
  -658008329.24948871       -36903251.032741934        1307358722.1100173     
  -568786446.71720576       -26708799.698493004        1310017955.7641702     
  -477244378.29919165       -8780395.4118071795        1318535091.1286116     
  -383382123.99545074        16881961.827307180        1332910128.2033365     
  -886792406.90190792       -43644167.479887158        1220223938.5730391     
  -785942005.33050406       -44610513.196137130        1217657802.1229565     
  -682427776.79488194       -36697435.698324203        1220754347.1581793     
  -576249721.29502881       -19904934.986407280        1229513573.6787133     
  -467407838.83096409        5766988.9395442605        1243935481.6845565     
  -1034895356.7952186       -49790756.211445451        1126762546.7704792     
  -920654022.37032104       -54351277.647159487        1125229856.5180156     
  -803405219.90271401       -48886905.607183844        1129164627.5258856     
  -683148949.39238620       -33397640.091472238        1138566859.7940888     
  -559885210.83935094       -7883481.1000606716        1153436553.3226202     
  -240685665.84308246        31505416.147222176        1506286575.7114403     
  -200027151.07744890        59916633.048752338        1485834597.1176651     
  -154578679.81986913        104294371.59010664        1467895026.0913131     
  -104340252.07036316        164638631.77121246        1452467862.6323805     
  -49311867.828914702        240949413.59212798        1439553106.7408686     
  -307808066.33282763        25461437.563193053        1420360492.8789659     
  -258548775.31937969        55120540.931333363        1404202154.1628339     
  -202764943.38468483        106528114.03697228        1391859415.8083899     
  -140456570.52874225        179684156.88010508        1383332277.8156273     
  -71623656.751562059        274588669.46069044        1378620740.1845345     
  -383382123.99545074        16881961.827307180        1332910128.2033365     
  -321798648.75059485        48905974.057125732        1323069111.1990499     
  -251956048.15517583        108460404.12214866        1318346887.3507047     
  -173854322.20920098        195545252.02236050        1318743456.6582990     
  -87493470.912671313        310160517.75776106        1324258819.1218331     
  -467407838.83096409        5766988.9395442605        1243935481.6845565     
  -389776771.37109262        41272932.426124975        1242435468.2263052     
  -302151994.13135207        110091241.84561619        1247357440.7182603     
  -204533507.11174351        212221917.19799083        1258701399.1604161     
  -96921310.312267646        347664958.48326212        1276467343.5527623     
  -559885210.83935094       -7883481.1000606716        1153436553.3226202     
  -462483143.18086672        32221416.038361341        1162301225.2446074     
  -353352781.31320655        111420627.20737854        1178891075.9110520     
  -232494125.23635766        229714152.40701756        1203206105.3219576     
  -99907174.950337052        387101991.63723469        1235246313.4773271     
  -49311867.828914702        240949413.59212798        1439553106.7408686     
  -40065693.018557906        322417753.35780972        1346269667.1942024     
  -23153065.398561805        429440935.82229078        1252990736.8752224     
   1426015.0310997665        562018960.98565865        1159716315.7839220     
   33671548.270407349        720151828.84784102        1066446403.9202950     
  -71623656.751562059        274588669.46069044        1378620740.1845345     
  -57334354.758949578        376570677.08631313        1296841907.6159775     
  -34114267.151089728        508321970.09609735        1214203971.0691841     
  -1963393.9279761910        669842548.49005842        1130706930.5441518     
   39118264.910388529        861132412.26819551        1046350786.0408778     
  -87493470.912671313        310160517.75776106        1324258819.1218331     
  -70628508.040426999        431915953.35253727        1255459648.4712510     
  -43568426.747335762        587655117.01679516        1184937760.6365082     
  -6313227.0333907604        777378008.75056326        1112693155.6175978     
   41137091.101413071        1001084628.5538630        1038725833.4145597     
  -96921310.312267646        347664958.48326212        1276467343.5527623     
  -79948152.863004863        488453582.15641475        1222122889.7600131     
  -51515544.187303215        667440376.58436656        1165192105.5771923     
  -11623484.285135210        884625341.76719248        1105674991.0043044     
   39728026.843471885        1140008477.7048342        1043571546.0413247     
  -99907174.950337052        387101991.63723469        1235246313.4773271     
  -85293289.226684034        546183563.49796176        1196831631.4822767     
  -57955619.470979780        747677748.79884863        1154967005.8912430     
  -17894165.683231413        991584547.53988528        1109652436.7042158     
   34891072.136578679        1277903959.7211330        1060887923.9211951     
  -3070766055.5354810        222405679.09357285        1117858293.4944401     
  -3014040160.0243731       -57045006.443187714        1151840097.9612188     
  -2921801098.3538280       -218118471.44851041        1167525635.1782150     
  -2794048870.5238576       -260814715.92239630        1164914905.1454296     
  -2630783476.5344539       -185133739.86484396        1144007907.8628638     
  -3306304118.9298840        169397586.20311737        953866310.24154127     
  -3251720212.9602447       -7780680.0187308788        987957818.17937589     
  -3175870709.5819240       -114073621.54497290        1015096581.5701059     
  -3078755608.7949209       -149481238.37560236        1035282600.4137378     
  -2960374910.5992293       -114003530.51060832        1048515874.7102662     
  -3652365048.8814840        83232633.345498085        837768107.28967476     
  -3567513067.5885191        18049805.898000002        855347155.15601611     
  -3475643057.6376171       -23739592.689715147        877316981.17794538     
  -3376755019.0287781       -42135562.417640090        903677585.35545135     
  -3270848951.7620029       -37138103.285772204        934428967.68853593     
  -4108948845.3902879       -36089179.479278564        769563684.63881302     
  -3961418723.9091959        20446451.307006359        754008108.89113796     
  -3821118142.5209088        52883615.117265224        754186834.00172079     
  -3688047101.2254348        61222311.951478958        770099859.97056556     
  -3562205600.0227680        45462541.809664965        801747186.79766977     
  -4676055508.4562941       -188567852.27121878        749253042.28898191     
  -4433437181.9222689       -590743.79169297218        683940679.38474154     
  -4212295964.2317948        115796001.87596512        645706140.04144442     
  -4012631855.3848867        160592384.73176026        634549424.25908899     
  -3834444855.3815331        133798404.77570534        650470532.03767037     
  -2630783476.5344539       -185133739.86484396        1144007907.8628638     
  -2540836409.8350511       -93411505.525724530        1141453150.1984689     
  -2461323329.2059107       -36469224.754144073        1145365340.8675978     
  -2392244234.6470370       -14306897.550117373        1155744479.8702474     
  -2333599126.1584234       -26924523.913628936        1172590567.2064180     
  -2960374910.5992293       -114003530.51060832        1048515874.7102662     
  -2868277362.7536740       -63417728.839460611        1042110928.6311375     
  -2782285166.8808331       -33183100.410696626        1040386273.4081374     
  -2702398322.9807220       -23299645.224366426        1043341909.0412668     
  -2628616831.0533328       -33767363.280434847        1050977835.5305259     
  -3270848951.7620029       -37138103.285772204        934428967.68853593     
  -3181705658.4199820       -29220154.977492809        929223906.30846834     
  -3094339082.9531379       -27224599.586477041        926912478.30713701     
  -3008749225.3614750       -31151437.112736106        927494683.68454385     
  -2924936085.6449933       -41000667.556262970        930970522.44068813     
  -3562205600.0227680        45462541.809664965        801747186.79766977     
  -3481121296.8339739        9181216.0601665974        802792083.23046279     
  -3397485077.4228153       -18593722.281464577        804943955.56460130     
  -3311296941.7892923       -37862273.215216398        808202803.80008423     
  -3222556889.9334164       -48624436.741116524        812568627.93691397     
  -3834444855.3815331        133798404.77570534        650470532.03767037     
  -3766524277.9956527        51786384.273520231        662815459.39711857     
  -3691723150.2898712       -7290468.4956626892        674480705.18052697     
  -3610041472.2641845       -43432153.531831264        685466269.38788140     
  -3521479243.9185991       -56638670.835004568        695772152.01919472     
  -2333599126.1584234       -26924523.913628936        1172590567.2064180     
  -2201197636.0499253       -32378084.591275454        1148296524.3002498     
  -2068227774.4646358       -35937073.679611206        1130296943.7406244     
  -1934689541.4025519       -37601491.178635716        1118591825.5275433     
  -1800582936.8636773       -37371337.088356376        1113181169.6610065     
  -2628616831.0533328       -33767363.280434847        1050977835.5305259     
  -2477003911.4480138       -29754990.796168804        1026712297.7622699     
  -2325133554.8785710       -24884495.098138809        1008745874.2230425     
  -2173005761.3449936       -19155876.186328292        997078564.91284132     
  -2020620530.8472896       -12569134.060773253        991710369.83167076     
  -2924936085.6449933       -41000667.556262970        930970522.44068813     
  -2754098445.4500484       -27518374.582229495        906370732.87890410     
  -2583314302.8036366       -14214406.769978881        888074709.42863202     
  -2412583657.7057643       -1088764.1195163727        876082452.08987057     
  -2241906510.1564274        11858553.369145513        870393960.86262047     
  -3222556889.9334164       -48624436.741116524        812568627.93691397     
  -3032481238.0560303       -25668235.949477553        787271829.65015793     
  -2842770018.2398434       -3926808.6951694489        768283449.35739589     
  -2653423230.4848619        16599845.021789074        755603487.05863011     
  -2464440874.7910795        35911725.201413512        749231942.75385845     
  -3521479243.9185991       -56638670.835004568        695772152.01919472     
  -3312152289.2659645       -24204574.897917986        669415588.07602608     
  -3103500701.1871924        5978299.1262896061        649372094.00933123     
  -2895524479.6822867        33909951.237615585        635641669.81911945     
  -2688223624.7512541        59590381.436024785        628224315.50538278     
  -1800582936.8636773       -37371337.088356376        1113181169.6610065     
  -1723144467.9799917       -50795169.039156556        1115454117.5107327     
  -1644067916.9540982       -58758727.182591140        1120222712.1647830     
  -1563353283.7859890       -61262011.518647373        1127486953.6231623     
  -1481000568.4756787       -58305022.047357559        1137246841.8858707     
  -2020620530.8472896       -12569134.060773253        991710369.83167076     
  -1936348195.9895704       -24904735.888173938        994940313.01165330     
  -1851336688.3779259       -34776428.535824776        1000680299.3388584     
  -1765586008.0123510       -42184212.003708780        1008930328.8132879     
  -1679096154.8928623       -47128086.291876197        1019690401.4349375     
  -2241906510.1564274        11858553.369145513        870393960.86262047     
  -2150759176.9163995        623521.38763022423        873532171.75319815     
  -2059771580.3107278       -11143966.041751266        879194822.13389301     
  -1968943720.3394201       -23443908.918995738        887381912.00470734     
  -1878275597.0024681       -36276307.244114876        898093441.36563981     
  -2464440874.7910795        35911725.201413512        749231942.75385845     
  -2366377410.7604742        25789602.788248897        751229693.73536634     
  -2269372592.7525086        12138660.299621940        755766280.54988861     
  -2173426420.7671938       -5041102.2645008564        762841703.19742250     
  -2078538894.8045173       -25749684.904086590        772455961.67796791     
  -2688223624.7512541        59590381.436024785        628224315.50538278     
  -2583202897.5217962        50593508.313710093        628032878.95815814     
  -2480139725.7032661        35071450.488310814        630394674.58684146     
  -2379034109.2956634        13024207.959810853        635309702.39143145     
  -2279886048.2989926       -15548219.271786213        642777962.37193465     
  -1481000568.4756787       -58305022.047357559        1137246841.8858707     
  -1366491179.9814396       -46232837.007964373        1127145068.9695992     
  -1253970515.2032802       -40789731.022173226        1122030428.8116100     
  -1143438574.1412067       -41975704.089996278        1121902921.4119034     
  -1034895356.7952186       -49790756.211445451        1126762546.7704792     
  -1679096154.8928623       -47128086.291876197        1019690401.4349375     
  -1554217486.5087945       -40863777.921975613        1007170558.3154054     
  -1430281372.3652489       -37741317.020468652        998980230.81502616     
  -1307287812.4622152       -37760703.587337971        995119418.93380785     
  -1185236806.7996957       -40921937.622593760        995588122.67174304     
  -1878275597.0024681       -36276307.244114876        898093441.36563981     
  -1744906554.8403754       -36383547.377282798        884376059.09767461     
  -1611433897.4432275       -36145403.393599391        874330575.30974388     
  -1477857624.8110118       -35561875.293032587        867956990.00184894     
  -1344177736.9437444       -34632963.075606823        865255303.17398381     
  -2078538894.8045173       -25749684.904086590        772455961.67796791     
  -1938558384.9761746       -32792145.373844743        758761571.31641304     
  -1797428090.4372096       -36001990.141518354        748081462.29576540     
  -1655148011.1876016       -35379219.207053721        740415634.61603200     
  -1511718147.2273595       -30923832.570486605        735764088.27720225     
  -2279886048.2989926       -15548219.271786213        642777962.37193465     
  -2135172976.9161880       -30089571.911670923        630327094.97162604     
  -1988263951.3471882       -37311077.264234662        620232891.77309430     
  -1839158971.5919724       -37212735.329413652        612495352.77635026     
  -1687858037.6505566       -29794546.107254267        607114477.98139215     
  -1034895356.7952186       -49790756.211445451        1126762546.7704792     
  -920654022.37032104       -54351277.647159487        1125229856.5180156     
  -803405219.90271401       -48886905.607183844        1129164627.5258856     
  -683148949.39238620       -33397640.091472238        1138566859.7940888     
  -559885210.83935094       -7883481.1000606716        1153436553.3226202     
  -1185236806.7996957       -40921937.622593760        995588122.67174304     
  -1057552274.5059551       -41137875.512591720        993034279.29877675     
  -928097558.41837704       -35453200.756490290        994351299.90019131     
  -796872658.53696346       -23867913.354263306        999539184.47598445     
  -663877574.86173332       -6382013.3059698045        1008597933.0261648     
  -1344177736.9437444       -34632963.075606823        865255303.17398381     
  -1207611713.3124390       -31872829.379272223        860236808.39014852     
  -1070512790.1361876       -27336363.866446793        857492580.29474723     
  -932880967.41498101       -21023566.537106276        857022618.88777888     
  -794716245.14882541       -12934437.391268522        858826924.16924620     
  -1511718147.2273595       -30923832.570486605        735764088.27720225     
  -1370832338.7897830       -26556139.247207463        726837443.79213619     
  -1230650915.0561376       -24536394.937042236        718588468.70955384     
  -1091173876.0264177       -24864599.639968395        711017163.02945602     
  -952401221.70063055       -27540753.355992794        704123526.75184488     
  -1687858037.6505566       -29794546.107254267        607114477.98139215     
  -1547214150.9379871       -25187805.116410732        592836185.50473464     
  -1408511933.1782289       -27053293.968280077        577638965.14461243     
  -1271751384.3712790       -35391012.662847936        561522816.90102375     
  -1136932504.5171485       -50200961.200130939        544487740.77397668     
  -559885210.83935094       -7883481.1000606716        1153436553.3226202     
  -462483143.18086672        32221416.038361341        1162301225.2446074     
  -353352781.31320655        111420627.20737854        1178891075.9110520     
  -232494125.23635766        229714152.40701756        1203206105.3219576     
  -99907174.950337052        387101991.63723469        1235246313.4773271     
  -663877574.86173332       -6382013.3059698045        1008597933.0261648     
  -548010173.69731939        24971306.413098156        1021571859.5055255     
  -421381709.45378524        92194836.395899534        1043044304.7263811     
  -283992182.13112938        195288576.64243469        1073015268.6887196     
  -135841591.72934186        334252527.15275329        1111484751.3925595     
  -794716245.14882541       -12934437.391268522        858826924.16924620     
  -658173967.62982738        10330167.763025105        874781668.88757896     
  -511837858.16176170        66240879.414202094        900008272.34443879     
  -355707916.74463058        154797697.56227982        934506734.53981900     
  -189784143.37842304        276000622.20725566        978277055.47371757     
  -952401221.70063055       -27540753.355992794        704123526.75184488     
  -792974524.97838902       -11701999.911870748        721930653.39075959     
  -624721227.43713999        33558756.262276977        749782978.76522565     
  -447641329.07686871        108241515.16649377        787680502.87524784     
  -261734829.89759547        212346276.80072728        835623225.72081673     
  -1136932504.5171485       -50200961.200130939        544487740.77397668     
  -952411845.74300766       -41125196.611580372        563018813.01506782     
  -760031817.27991533       -5851533.0598638952        592368423.98874831     
  -559792419.12785912        55620029.455059588        632536573.69500661     
  -351693651.28685063        143289490.93317410        683523262.13384414     
  -99907174.950337052        387101991.63723469        1235246313.4773271     
  -85293289.226684034        546183563.49796176        1196831631.4822767     
  -57955619.470979780        747677748.79884863        1154967005.8912430     
  -17894165.683231413        991584547.53988528        1109652436.7042158     
   34891072.136578679        1277903959.7211330        1060887923.9211951     
  -135841591.72934186        334252527.15275329        1111484751.3925595     
  -127045317.03697100        482897738.03810030        1090131644.9406886     
  -95062266.904251337        708832200.39126849        1070161787.6704504     
  -39892441.331184864        1012055914.2122872        1051575179.5818270     
   38464159.682239532        1392568879.5011296        1034371820.6748492     
  -189784143.37842304        276000622.20725566        978277055.47371757     
  -172996357.49557471        418352208.78375721        986192347.87470853     
  -122558804.76407954        672869684.85574973        1000324082.2349489     
  -38471485.183933854        1039553050.4232441        1020672258.5544336     
   79265601.244862437        1518402305.4862280        1047236876.8331490     
  -261734829.89759547        212346276.80072728        835623225.72081673     
  -223146410.60249522        352546975.73493230        885013740.28435123     
  -140445233.05046543        639790202.19223619        945453889.58475196     
  -13631297.241477489        1074075956.1727591        1016943673.6220074     
   157295396.82446146        1655404237.6764126        1099483092.3961322     
  -351693651.28685063        143289490.93317410        683523262.13384414     
  -277495476.35775203        285482038.89159322        786595822.16960692     
  -148721551.76341432        609593752.40078712        905551209.71984506     
   34628122.496182621        1115624631.4608369        1040389424.7845649     
   272553546.42100978        1803574676.0716820        1191110467.3637524     
  -4676055508.4562941       -188567852.27121878        749253042.28898191     
  -4433437181.9222689       -590743.79169297218        683940679.38474154     
  -4212295964.2317948        115796001.87596512        645706140.04144442     
  -4012631855.3848867        160592384.73176026        634549424.25908899     
  -3834444855.3815331        133798404.77570534        650470532.03767037     
  -5121802018.0986967       -118331087.45233774        544310454.68639445     
  -4872352179.6275520       -36020415.263402462        530604880.24261761     
  -4630184553.9060955        22016214.426595926        519461053.64119953     
  -4395299140.9343138        55778801.617650032        510878974.88213831     
  -4167695940.7122173        65267346.309768200        504858643.96544242     
  -5337145392.7435503        21026617.865808249        289658322.61684811     
  -5150909972.9598131       -23342925.423204422        344120248.74305296     
  -4957761869.8318758       -44670190.898222923        376627846.99303722     
  -4757701083.3597450       -42955178.559259415        387181117.36680204     
  -4550727613.5434208       -18197888.406314373        375780059.86434364     
  -5322085632.3908491        229505263.68322229       -14703353.919661518     
  -5269110561.9190464        37441725.728908062        124486784.88604991     
  -5195027912.0091438       -84263214.098488331        217206520.09695768     
  -5099837682.6611891       -135609555.79898596        263455851.71307179     
  -4983539873.8751488       -116597299.37254667        263234779.73437223     
  -5076622737.0406227        507104849.99989057       -368774574.92313719     
  -5226953946.5052471        146333538.19293046       -128295511.32839422     
  -5341982680.4379129       -96762855.174191236        41197072.952967681     
  -5421708938.8386354       -222184330.10149360        139703177.92094177     
  -5466132721.7074080       -229930886.58895779        167222803.57553667     
  -3834444855.3815331        133798404.77570534        650470532.03767037     
  -3766524277.9956527        51786384.273520231        662815459.39711857     
  -3691723150.2898712       -7290468.4956626892        674480705.18052697     
  -3610041472.2641845       -43432153.531831264        685466269.38788140     
  -3521479243.9185991       -56638670.835004568        695772152.01919472     
  -4167695940.7122173        65267346.309768200        504858643.96544242     
  -4083197455.7580843        24181852.647582531        507436015.12108058     
  -3996455850.6524768       -9426573.8430123329        514000721.32680643     
  -3907471125.3953714       -35557933.161967993        524552762.58261555     
  -3816243279.9867940       -54212225.309325933        539092138.88851309     
  -4550727613.5434208       -18197888.406314373        375780059.86434364     
  -4436316887.8035240       -14356555.263267279        363179539.61968786     
  -4324300472.0805712       -18496255.510018349        359233371.05124909     
  -4214678366.3745356       -30616989.146507502        363941554.15902597     
  -4107450570.6854339       -50718756.172772408        377304088.94302613     
  -4983539873.8751488       -116597299.37254667        263234779.73437223     
  -4825882574.1319733       -63828839.459018230        230046032.89293885     
  -4675257014.5741510       -34499513.496648550        210178654.35385221     
  -4531663195.2016697       -28609321.485426903        203632644.11711600     
  -4395101116.0145359       -46158263.425363541        210408002.18272355     
  -5466132721.7074080       -229930886.58895779        167222803.57553667     
  -5251894514.7434263       -124234999.93966079        108035494.94083054     
  -5049325478.1332254       -57436347.802955389        66836571.234614447     
  -4858425611.8767757       -29534930.178751469        43626032.456871644     
  -4679194915.9740829       -40530747.067084789        38403878.607609421     
  -3521479243.9185991       -56638670.835004568        695772152.01919472     
  -3312152289.2659645       -24204574.897917986        669415588.07602608     
  -3103500701.1871924        5978299.1262896061        649372094.00933123     
  -2895524479.6822867        33909951.237615585        635641669.81911945     
  -2688223624.7512541        59590381.436024785        628224315.50538278     
  -3816243279.9867940       -54212225.309325933        539092138.88851309     
  -3592631968.3419738       -29914753.626570940        513642633.90754020     
  -3369129673.1392536       -5980670.0841629505        494745708.48738247     
  -3145736394.3786359        17590025.317913651        482401362.62804866     
  -2922452132.0601225        40797332.579637647        476609596.32953197     
  -4107450570.6854339       -50718756.172772408        377304088.94302613     
  -3868870588.6646023       -34352614.729214907        353422384.74463850     
  -3629833272.9541073       -16462027.653456211        336332769.79141623     
  -3390338623.5539441        2953005.0545313358        326035244.08334565     
  -3150386640.4641218        23892483.394711256        322529807.62043828     
  -4395101116.0145359       -46158263.425363541        210408002.18272355     
  -4140868150.2338600       -37518158.205851793        188754840.58731604     
  -3885611500.6317515       -25465773.581575155        174133277.92141590     
  -3629331167.2082138       -10001109.552530050        166543314.18501145     
  -3372027149.9632568        8875833.8812408447        165984949.37810275     
  -4679194915.9740829       -40530747.067084789        38403878.607609421     
  -4408624653.0497303       -39411384.056455851        19640001.435576271     
  -4136464356.1721945       -32991907.868563890        8147232.8773879018     
  -3862714025.3414512       -21272318.503298998        3925572.9330396615     
  -3587373660.5575247       -4252615.9607691765        6975021.6025313921     
  -2688223624.7512541        59590381.436024785        628224315.50538278     
  -2583202897.5217962        50593508.313710093        628032878.95815814     
  -2480139725.7032661        35071450.488310814        630394674.58684146     
  -2379034109.2956634        13024207.959810853        635309702.39143145     
  -2279886048.2989926       -15548219.271786213        642777962.37193465     
  -2922452132.0601225        40797332.579637647        476609596.32953197     
  -2812839801.0127344        28827145.966696501        476684775.65992826     
  -2703827847.6946650        14855700.256023645        478424875.01835042     
  -2595416272.1059208       -1117004.5524057150        481829894.40480882     
  -2487605074.2465081       -19090968.458592415        486899833.81928927     
  -3150386640.4641218        23892483.394711256        322529807.62043828     
  -3038720740.3070173        8187572.8786979914        324454976.79032159     
  -2926298040.1976418       -4994671.1297377348        327156753.84035927     
  -2813118540.1359820       -15654248.630566716        330635138.77054083     
  -2699182240.1220512       -23791159.623816967        334890131.58088320     
  -3372027149.9632568        8875833.8812408447        165984949.37810275     
  -3260845715.4046683       -11325210.950343490        171343482.34934565     
  -3147550303.2121954       -24479663.668971658        176590311.05286521     
  -3032140913.3858433       -30587524.274672747        181725435.48865128     
  -2914617545.9256072       -29648792.767430544        186748855.65671390     
  -3587373660.5575247       -4252615.9607691765        6975021.6025313921     
  -3479214726.3056564       -29711205.520346165        17350292.336999644     
  -3367584636.7383170       -43599277.361651182        26725546.655861694     
  -3252483391.8554888       -45916831.484677792        35100784.559124589     
  -3133910991.6571908       -36663867.889472127        42476006.046777450     
  -2279886048.2989926       -15548219.271786213        642777962.37193465     
  -2135172976.9161880       -30089571.911670923        630327094.97162604     
  -1988263951.3471882       -37311077.264234662        620232891.77309430     
  -1839158971.5919724       -37212735.329413652        612495352.77635026     
  -1687858037.6505566       -29794546.107254267        607114477.98139215     
  -2487605074.2465081       -19090968.458592415        486899833.81928927     
  -2332645450.9796391       -22766474.350218892        475119580.80282414     
  -2176983957.4170675       -24102412.589509845        466357123.47656417     
  -2020620593.5588105       -23098783.176503420        460612461.84051132     
  -1863555359.4048595       -19755586.111190796        457885595.89466369     
  -2699182240.1220512       -23791159.623816967        334890131.58088320     
  -2532087117.8613262       -16034134.634220958        322037395.07599759     
  -2365784209.1954193       -10917821.627327442        312863585.74973619     
  -2200273514.1243396       -8442220.6032042503        307368703.60210258     
  -2035555032.6480746       -8607331.5617946386        305552748.63310164     
  -2914617545.9256072       -29648792.767430544        186748855.65671390     
  -2733497977.5612469       -9892552.7636514902        171080537.79114673     
  -2554664706.6822314        2242695.6223205328        159752278.59261045     
  -2378117733.2885404        6756952.3905286789        152764078.06113577     
  -2203857057.3801970        3650217.5409330130        150115936.19671050     
  -3133910991.6571908       -36663867.889472127        42476006.046777450     
  -2936878030.0794363       -4341728.7386556864        22249008.948244963     
  -2743625449.8775039        15379139.159443736        7023202.0051899441     
  -2554153251.0514598        22498735.804574370       -3201414.7823936935     
  -2368461433.6012368        17017061.196958542       -8424841.4145030677     
  -1687858037.6505566       -29794546.107254267        607114477.98139215     
  -1547214150.9379871       -25187805.116410732        592836185.50473464     
  -1408511933.1782289       -27053293.968280077        577638965.14461243     
  -1271751384.3712790       -35391012.662847936        561522816.90102375     
  -1136932504.5171485       -50200961.200130939        544487740.77397668     
  -1863555359.4048595       -19755586.111190796        457885595.89466369     
  -1726747454.0893874       -21875826.289274931        443815218.47324157     
  -1590236741.2180760       -24986707.947874844        429265394.28419185     
  -1454023220.7909293       -29088231.087029338        414236123.32751644     
  -1318106892.8079352       -34180395.706702113        398727405.60321212     
  -2035555032.6480746       -8607331.5617946386        305552748.63310164     
  -1901327448.3987365       -17077854.809498787        293608842.19367838     
  -1765752580.0848937       -21057431.175534129        281624970.10245305     
  -1628830427.7065771       -20546060.659996629        269601132.35944343     
  -1490560991.2637670       -15543743.262800157        257537328.96464932     
  -2203857057.3801970        3650217.5409330130        150115936.19671050     
  -2070954133.8660150       -10793890.677087188        142217056.66603345     
  -1935059449.7786915       -15265463.651320934        134717692.59939504     
  -1796173005.1182301       -9764501.3817487955        127617843.99681655     
  -1654294799.8846314        5708996.1316087246        120917510.85827671     
  -2368461433.6012368        17017061.196958542       -8424841.4145030677     
  -2235627510.4912467       -3023933.8921018839       -10360138.109682947     
  -2098157350.2994714       -7610805.3751988411       -11456438.224975398     
  -1956050953.0258999        3256446.7476781607       -11713741.760367606     
  -1809308318.6705501        29577822.476494551       -11132048.715898003     
  -1136932504.5171485       -50200961.200130939        544487740.77397668     
  -952411845.74300766       -41125196.611580372        563018813.01506782     
  -760031817.27991533       -5851533.0598638952        592368423.98874831     
  -559792419.12785912        55620029.455059588        632536573.69500661     
  -351693651.28685063        143289490.93317410        683523262.13384414     
  -1318106892.8079352       -34180395.706702113        398727405.60321212     
  -1118425717.8231514       -14952999.685016632        420905855.63989490     
  -915025302.12552738        16671865.379482746        441585018.31377023     
  -707905645.71505904        60694199.486794174        460764893.62482965     
  -497066748.59174132        117114002.63692904        478445481.57307714     
  -1490560991.2637670       -15543743.262800157        257537328.96464932     
  -1310913088.9123263        3277147.5388326645        278533006.32479286     
  -1131686074.8241434        20695077.462913334        285711570.22672909     
  -952879948.99923551        36710046.509428799        279073020.67046028     
  -774494711.43759251        51322054.678395808        258617357.65598932     
  -1654294799.8846314        5708996.1316087246        120917510.85827671     
  -1529873959.0105190        13565245.059965849        135900265.06975505     
  -1410014135.3757691        6218103.1904252172        124748079.72763112     
  -1294715328.9804130       -16332429.477086723        87460954.831911027     
  -1183977539.8244159       -54086352.942455769        24038890.382588331     
  -1809308318.6705501        29577822.476494551       -11132048.715898003     
  -1775308328.1177323        15911292.878399491       -6992368.1252163164     
  -1750009483.7803850       -26759057.437920094       -41305453.183536664     
  -1733411785.6585488       -98433228.472604752       -114071303.89084512     
  -1725515233.7521801       -199111220.22553629       -225289920.24713862     
  -351693651.28685063        143289490.93317410        683523262.13384414     
  -277495476.35775203        285482038.89159322        786595822.16960692     
  -148721551.76341432        609593752.40078712        905551209.71984506     
   34628122.496182621        1115624631.4608369        1040389424.7845649     
   272553546.42100978        1803574676.0716820        1191110467.3637524     
  -497066748.59174132        117114002.63692904        478445481.57307714     
  -388175381.33217436        223034431.14100838        597412966.69002771     
  -230200034.35922283        492568125.35637200        735555184.42077577     
  -23140707.672897696        925715085.28297317        892872134.76532567     
   233002598.72679436        1522475310.9208109        1069363817.7236743     
  -774494711.43759251        51322054.678395808        258617357.65598932     
  -621504708.70661557        123791996.67047110        387072702.91027617     
  -424922496.21413755        341569304.53422511        537994685.87768841     
  -184748073.96015835        704653978.26965547        711383306.55821788     
   99018558.055319250        1213046017.8767488        907238564.95188606     
  -1183977539.8244159       -54086352.942455769        24038890.382588331     
  -977483458.48109770       -12245264.520085156        155575030.83035561     
  -732888937.32815957        156597289.93434593        312869714.09056938     
  -450193976.36559081        452441310.42089951        495922940.16325188     
  -129398575.59339124        875286796.93952262        704734709.04836643     
  -1725515233.7521801       -199111220.22553629       -225289920.24713862     
  -1456111630.6556296       -185077352.43070954       -97080049.549737632     
  -1154099357.7012882       -62347918.443258524        60180269.059436120     
  -819478414.88920522        169077081.73667061        246491035.58039126     
  -452248802.21936703        509197648.10911691        461852250.01312238     
 </DataArray>
 <DataArray  type="Float64" Name="VM" NumberOfComponents="1" format="ascii">
   5386243391.8416777     
   5306290510.5390005     
   5294745332.3341017     
   5319607680.8094311     
   5362698277.4262848     
   5440529693.8430424     
   5292324956.2689238     
   5167127010.6911745     
   5054045366.4357147     
   4947330084.4399233     
   5371172211.0523787     
   5173725669.3847466     
   4978501739.6741047     
   4783609983.3151026     
   4588057464.4984226     
   5150690365.8187981     
   4940671372.1602926     
   4727637057.6439228     
   4511088812.9188919     
   4290758729.8247752     
   4764812633.8760748     
   4588689467.4531565     
   4415362072.1213179     
   4240207697.7057309     
   4062418946.5618124     
   5362698277.4262848     
   5194263781.0607929     
   5022188097.5546474     
   4844315035.6354132     
   4659536575.7224407     
   4947330084.4399233     
   4810815916.9768658     
   4672306654.4186897     
   4531174323.9196768     
   4387366948.8035746     
   4588057464.4984226     
   4473602747.1377792     
   4359710902.7976379     
   4246500998.2024283     
   4134304405.5936437     
   4290758729.8247752     
   4188591580.0069876     
   4089824636.4990935     
   3994511254.2792573     
   3902771539.9864082     
   4062418946.5618124     
   3962627238.5488830     
   3868685983.1059890     
   3779826176.0416083     
   3695520093.0005341     
   4659536575.7224407     
   4389183496.7168541     
   4120091638.1886096     
   3852127917.2432332     
   3585269597.4448180     
   4387366948.8035746     
   4135181261.4189625     
   3884667595.1360078     
   3635802170.7091866     
   3388691257.3228402     
   4134304405.5936437     
   3900148209.0954957     
   3668182842.0438681     
   3438504518.8481960     
   3211363234.2240915     
   3902771539.9864082     
   3686721160.2239628     
   3473505551.1529994     
   3263347005.0686378     
   3056646734.1788802     
   3695520093.0005341     
   3497873796.3227239     
   3303839939.2332659     
   3113762994.5178704     
   2928188332.6655202     
   3585269597.4448180     
   3464585010.3904176     
   3346318228.2575350     
   3230341936.8543377     
   3116609323.4349556     
   3388691257.3228402     
   3268698370.3245192     
   3150265639.9201255     
   3033338232.0274868     
   2917890505.3287911     
   3211363234.2240915     
   3094282406.9336233     
   2978208168.0403514     
   2863180487.0863571     
   2749252317.9097033     
   3056646734.1788802     
   2945449034.9902391     
   2835091543.2721558     
   2725760062.9401965     
   2617683522.3052588     
   2928188332.6655202     
   2826564363.2488017     
   2726077309.7534347     
   2627130223.3150039     
   2530249888.2696710     
   3116609323.4349556     
   2934962578.9186482     
   2751374147.4838200     
   2565482603.4236941     
   2377060438.7407246     
   2917890505.3287911     
   2744608065.3382397     
   2570721396.5801411     
   2396157137.5635047     
   2220956594.2691031     
   2749252317.9097033     
   2585004195.3378630     
   2421750561.4610524     
   2259673908.4896593     
   2099077208.2414370     
   2617683522.3052588     
   2462897246.3614273     
   2310808605.2984290     
   2161772138.5820956     
   2016281450.7528098     
   2530249888.2696710     
   2384860440.6656275     
   2243761998.4944239     
   2107344785.5483549     
   1976164839.7013493     
   2377060438.7407246     
   2234189140.8479304     
   2094456319.2806778     
   1957786338.1968262     
   1824378964.7844319     
   2220956594.2691031     
   2080214160.4639854     
   1941544513.6917734     
   1804896954.9675777     
   1670338700.1502948     
   2099077208.2414370     
   1959970811.3363986     
   1821834582.7913222     
   1684665831.9836738     
   1548489976.2101712     
   2016281450.7528098     
   1880233267.0739980     
   1744290338.0601730     
   1608573711.5790122     
   1473251946.1283782     
   1976164839.7013493     
   1846591279.5969403     
   1716838134.7441227     
   1587299328.8462651     
   1458581931.5296021     
   1824378964.7844319     
   1783358337.3328810     
   1738257477.3125088     
   1697886034.9914820     
   1680995330.3554382     
   1670338700.1502948     
   1554624748.1119177     
   1429556711.0863645     
   1295514160.6040430     
   1158630539.0462649     
   1548489976.2101712     
   1398406889.5042870     
   1244771181.0226064     
   1085335590.7142878     
   918081414.83351326     
   1473251946.1283782     
   1328857056.5661161     
   1199081489.4350181     
   1088435949.8976123     
   1002863278.3649832     
   1458581931.5296021     
   1349289454.6529267     
   1275122073.1365204     
   1244148046.6684594     
   1263418559.4249728     
   1680995330.3554382     
   1383219082.3986182     
   1129044681.1797647     
   1010425872.0182378     
   1154996862.7346714     
   1158630539.0462649     
   1008099739.7217190     
   984926241.42931807     
   1161414136.3364017     
   1544695718.7214954     
   918081414.83351326     
   963330525.92957163     
   1144851101.7471185     
   1476160957.2662220     
   1957145035.5035033     
   1002863278.3649832     
   1165207156.5748489     
   1425527586.9820776     
   1808471056.0990078     
   2334116000.4199038     
   1263418559.4249728     
   1447039277.4682107     
   1715940369.5677700     
   2110548721.1534996     
   2663048781.0102973     
   4764812633.8760748     
   4588689467.4531565     
   4415362072.1213179     
   4240207697.7057309     
   4062418946.5618124     
   4302692078.7853127     
   4180889608.1998653     
   4063521669.7973485     
   3950998824.9115095     
   3844700007.6133494     
   3969415597.0952921     
   3871269093.2401905     
   3782486363.1702399     
   3702953942.4819150     
   3632881977.0822897     
   3774917896.7227068     
   3671052461.0973530     
   3581640357.0508084     
   3500899127.8058887     
   3426000560.2296972     
   3729724611.0041075     
   3591094965.7410145     
   3469372684.5642738     
   3349191623.8131890     
   3224052061.1944971     
   4062418946.5618124     
   3962627238.5488830     
   3868685983.1059890     
   3779826176.0416083     
   3695520093.0005341     
   3844700007.6133494     
   3752822415.8903761     
   3663861759.5109367     
   3577753914.0823193     
   3494473572.8572149     
   3632881977.0822897     
   3552675890.2101088     
   3474037077.9542112     
   3397139180.3951254     
   3322217055.5701733     
   3426000560.2296972     
   3362606542.5703335     
   3301075250.4701123     
   3241330230.1289892     
   3183656458.9250584     
   3224052061.1944971     
   3183705057.6893716     
   3147263139.5593839     
   3113847696.5000892     
   3083583090.8315868     
   3695520093.0005341     
   3497873796.3227239     
   3303839939.2332659     
   3113762994.5178704     
   2928188332.6655202     
   3494473572.8572149     
   3313329695.4926901     
   3137032380.3368435     
   2966106319.1303258     
   2801304394.6992345     
   3322217055.5701733     
   3158251242.1316714     
   3000504061.3670764     
   2849648354.3180957     
   2706589760.9191990     
   3183656458.9250584     
   3037292368.6242094     
   2898570376.1959615     
   2768247125.7925940     
   2647288468.2946062     
   3083583090.8315868     
   2954793314.4104452     
   2835003542.7962890     
   2724964824.9021330     
   2625589892.8924336     
   2928188332.6655202     
   2826564363.2488017     
   2726077309.7534347     
   2627130223.3150039     
   2530249888.2696710     
   2801304394.6992345     
   2711913207.3558764     
   2625127514.2204452     
   2541384218.3611398     
   2461204968.8234482     
   2706589760.9191990     
   2629882475.4043651     
   2557103777.9419742     
   2488668162.9966249     
   2425038921.9643397     
   2647288468.2946062     
   2582936123.8542523     
   2523560429.0466013     
   2469496877.7064385     
   2421106752.8110337     
   2625589892.8924336     
   2572351697.5317817     
   2524778275.1635470     
   2483089375.6967449     
   2447530086.7593913     
   2530249888.2696710     
   2384860440.6656275     
   2243761998.4944239     
   2107344785.5483549     
   1976164839.7013493     
   2461204968.8234482     
   2328663095.7469897     
   2201411028.6199479     
   2080109304.5737498     
   1965590573.1815598     
   2425038921.9643397     
   2308440988.6170430     
   2198440727.3280873     
   2095905633.9264336     
   2001864278.8768573     
   2421106752.8110337     
   2323128977.2673612     
   2233166588.5362730     
   2152173589.8225727     
   2081236612.1547115     
   2447530086.7593913     
   2370153344.1097174     
   2302132399.2429776     
   2244374208.4626546     
   2197894630.3386478     
   1976164839.7013493     
   1846591279.5969403     
   1716838134.7441227     
   1587299328.8462651     
   1458581931.5296021     
   1965590573.1815598     
   1851583247.8323195     
   1741842740.9170854     
   1637309772.8788669     
   1539144748.0340619     
   2001864278.8768573     
   1908107445.6627381     
   1823008929.9509315     
   1747729873.8471856     
   1683512120.2357626     
   2081236612.1547115     
   2008719722.4085145     
   1948312475.0689323     
   1900997571.5191276     
   1867711610.4689867     
   2197894630.3386478     
   2144515296.5426962     
   2105614435.0678549     
   2081825114.7983825     
   2073732721.6884077     
   1458581931.5296021     
   1349289454.6529267     
   1275122073.1365204     
   1244148046.6684594     
   1263418559.4249728     
   1539144748.0340619     
   1477571572.1452904     
   1448755056.9318030     
   1456665398.9168859     
   1504650459.4012904     
   1683512120.2357626     
   1654033746.8657284     
   1652366517.3015759     
   1680910981.0213032     
   1742312514.3710675     
   1867711610.4689867     
   1856192457.2798004     
   1867815814.0207422     
   1904818867.2012508     
   1970222866.2504482     
   2073732721.6884077     
   2069459628.2926826     
   2084705264.2525513     
   2122108408.2116518     
   2185407061.9529638     
   1263418559.4249728     
   1447039277.4682107     
   1715940369.5677700     
   2110548721.1534996     
   2663048781.0102973     
   1504650459.4012904     
   1613226966.1122148     
   1789011185.6164083     
   2066637202.4266474     
   2476147567.6880765     
   1742312514.3710675     
   1787469093.2738461     
   1884724167.1296210     
   2060936517.1541317     
   2341278871.4436693     
   1970222866.2504482     
   1968715734.6594620     
   2003647143.0830498     
   2093717515.9247677     
   2257640089.6349840     
   2185407061.9529638     
   2156245599.4076977     
   2146522618.3138425     
   2166861621.1276631     
   2228478862.2375097     
   3729724611.0041075     
   3591094965.7410145     
   3469372684.5642738     
   3349191623.8131890     
   3224052061.1944971     
   3731690444.2799454     
   3545081696.4108138     
   3362566291.1428986     
   3180717267.5791774     
   2998501320.6271644     
   3656122579.3710904     
   3441431876.0279932     
   3232044502.9308443     
   3028283909.8059816     
   2830599836.5890551     
   3497536243.2092876     
   3281148166.3760405     
   3082464155.0852494     
   2898645274.4778728     
   2728642465.0875673     
   3261717447.9016690     
   3071623554.6334414     
   2922039158.6899643     
   2799535103.0283847     
   2699074501.2423048     
   3224052061.1944971     
   3183705057.6893716     
   3147263139.5593839     
   3113847696.5000892     
   3083583090.8315868     
   2998501320.6271644     
   2983515204.1261578     
   2973335789.6463046     
   2968113481.0746408     
   2968337108.9472737     
   2830599836.5890551     
   2833415493.5048962     
   2842350646.2372060     
   2857704756.0517812     
   2879787836.2902627     
   2728642465.0875673     
   2740049005.9567242     
   2759138480.9353666     
   2785466209.4964819     
   2818733440.1355824     
   2699074501.2423048     
   2708349611.8782120     
   2727010172.2603512     
   2753067351.7426672     
   2785308794.6397605     
   3083583090.8315868     
   2954793314.4104452     
   2835003542.7962890     
   2724964824.9021330     
   2625589892.8924336     
   2968337108.9472737     
   2858183995.1820426     
   2757304619.5167198     
   2666375868.8671918     
   2586187858.7087235     
   2879787836.2902627     
   2787540481.7006402     
   2704702607.3709979     
   2631839550.0710192     
   2569588374.2830892     
   2818733440.1355824     
   2743424741.9535823     
   2677512664.6543212     
   2621424586.8003569     
   2575630161.6476669     
   2785308794.6397605     
   2725722080.5904417     
   2675382223.2018452     
   2634566077.7860675     
   2603577652.9733996     
   2625589892.8924336     
   2572351697.5317817     
   2524778275.1635470     
   2483089375.6967449     
   2447530086.7593913     
   2586187858.7087235     
   2542575374.2983265     
   2505288895.4037423     
   2474589823.8226643     
   2450743848.0752273     
   2569588374.2830892     
   2536751234.3477788     
   2510939313.3501978     
   2492427716.6581054     
   2481486515.9653182     
   2575630161.6476669     
   2554308226.2053237     
   2540722811.7667384     
   2535140961.2318292     
   2537829053.9932342     
   2603577652.9733996     
   2594057109.9147272     
   2592997473.1282930     
   2600646115.9842472     
   2617268029.1934304     
   2447530086.7593913     
   2370153344.1097174     
   2302132399.2429776     
   2244374208.4626546     
   2197894630.3386478     
   2450743848.0752273     
   2393358932.6783695     
   2345980980.3309174     
   2309284965.2714925     
   2283953075.2693725     
   2481486515.9653182     
   2441202131.0838661     
   2411122645.7013373     
   2391670490.1029296     
   2383233101.8918452     
   2537829053.9932342     
   2511140133.5209265     
   2494519499.0126128     
   2488163931.3334775     
   2492240080.6942334     
   2617268029.1934304     
   2600336120.8451705     
   2593134252.1130323     
   2595679019.7366314     
   2607993039.5530357     
   2197894630.3386478     
   2144515296.5426962     
   2105614435.0678549     
   2081825114.7983825     
   2073732721.6884077     
   2283953075.2693725     
   2243369168.4469948     
   2216468937.4082727     
   2203656193.0975256     
   2205294839.4412189     
   2383233101.8918452     
   2353213685.3536339     
   2336125191.7031984     
   2332220670.6424923     
   2341727423.2782507     
   2492240080.6942334     
   2470811831.7926469     
   2461696549.3324380     
   2465053418.7242675     
   2481028640.4872923     
   2607993039.5530357     
   2593488621.3695021     
   2590867168.1791854     
   2600231264.8321137     
   2621679390.5777230     
   2073732721.6884077     
   2069459628.2926826     
   2084705264.2525513     
   2122108408.2116518     
   2185407061.9529638     
   2205294839.4412189     
   2191039546.4950604     
   2191890040.9401941     
   2209811355.5204558     
   2247680458.6467776     
   2341727423.2782507     
   2318020633.9545770     
   2305794507.3063817     
   2306450209.9985933     
   2322062861.8071938     
   2481028640.4872923     
   2449385261.7156353     
   2426083248.3646193     
   2412068995.0786424     
   2408730239.2908478     
   2621679390.5777230     
   2584317930.7027278     
   2552457833.7133665     
   2526689509.8437357     
   2507849554.2802057     
   2185407061.9529638     
   2156245599.4076977     
   2146522618.3138425     
   2166861621.1276631     
   2228478862.2375097     
   2247680458.6467776     
   2182838208.2770929     
   2134369225.4150219     
   2111996942.8657646     
   2126742126.6453559     
   2322062861.8071938     
   2224990369.1696167     
   2141278226.4224210     
   2079308145.7339544     
   2049276715.1928408     
   2408730239.2908478     
   2282998015.7047720     
   2167895267.3043385     
   2070145537.8493912     
   1998485218.0652430     
   2507849554.2802057     
   2357074968.7664618     
   2214690907.5256710     
   2085639397.8522928     
   1976721427.0526221     
   3261717447.9016690     
   3071623554.6334414     
   2922039158.6899643     
   2799535103.0283847     
   2699074501.2423048     
   2860842881.4860878     
   2776398316.7181096     
   2721069625.9258423     
   2687047129.0884833     
   2672137380.3828993     
   2577057140.5111670     
   2577085523.8395000     
   2594327654.3504114     
   2625269418.4494591     
   2669165771.5487771     
   2405805244.2671051     
   2470198367.4590163     
   2539488253.3571682     
   2612814981.6298461     
   2690040624.8804784     
   2333260434.6453547     
   2445069171.8771405     
   2549200178.0428653     
   2645653453.1425347     
   2734428997.1761451     
   2699074501.2423048     
   2708349611.8782120     
   2727010172.2603512     
   2753067351.7426672     
   2785308794.6397605     
   2672137380.3828993     
   2674507805.5867095     
   2683456871.5617008     
   2697878605.9928398     
   2717103243.9139762     
   2669165771.5487771     
   2664482517.1440253     
   2664478054.3628039     
   2668669390.2106233     
   2676765079.3160334     
   2690040624.8804784     
   2679063919.4401031     
   2671687472.5019794     
   2667793207.0322256     
   2667309988.2947583     
   2734428997.1761451     
   2718619909.9523063     
   2706084381.3326559     
   2696822411.3171935     
   2690833999.9059305     
   2785308794.6397605     
   2725722080.5904417     
   2675382223.2018452     
   2634566077.7860675     
   2603577652.9733996     
   2717103243.9139762     
   2666317754.6219883     
   2626343708.3498230     
   2597382950.4826822     
   2579649146.7556863     
   2676765079.3160334     
   2632586535.9475985     
   2600710832.8341246     
   2581248675.1002011     
   2574313735.0195127     
   2667309988.2947583     
   2626506270.0903573     
   2599462088.5805006     
   2586210249.1734114     
   2586783684.0272722     
   2690833999.9059305     
   2649261235.4800096     
   2622919789.4011292     
   2611809661.6692891     
   2615930852.2844868     
   2603577652.9733996     
   2594057109.9147272     
   2592997473.1282930     
   2600646115.9842472     
   2617268029.1934304     
   2579649146.7556863     
   2581424822.7357483     
   2591050780.7229457     
   2608657347.1458755     
   2634382359.9934864     
   2574313735.0195127     
   2584555542.6872034     
   2601985034.1787105     
   2626655723.5359049     
   2658623922.8795705     
   2586783684.0272722     
   2602704788.0381665     
   2625138259.7753749     
   2654096361.5400238     
   2689592023.4350991     
   2615930852.2844868     
   2634901430.9136505     
   2659717890.3199749     
   2690380230.5034623     
   2726888451.4641161     
   2617268029.1934304     
   2600336120.8451705     
   2593134252.1130323     
   2595679019.7366314     
   2607993039.5530357     
   2634382359.9934864     
   2620860343.4155369     
   2617357230.6516924     
   2623889994.7052732     
   2640476548.2068305     
   2658623922.8795705     
   2647722426.5286531     
   2647262643.6348033     
   2657255672.6861358     
   2677711796.3532119     
   2689592023.4350991     
   2680355776.9407487     
   2682148069.6966949     
   2694972623.7658648     
   2718832611.0217896     
   2726888451.4641161     
   2718206618.4288230     
   2721336411.0696874     
   2736277829.3867130     
   2763030873.3798890     
   2607993039.5530357     
   2593488621.3695021     
   2590867168.1791854     
   2600231264.8321137     
   2621679390.5777230     
   2640476548.2068305     
   2629979260.5577679     
   2629995148.8537283     
   2640570731.2834930     
   2661753239.0893378     
   2677711796.3532119     
   2670514582.4233184     
   2672648157.7631226     
   2684128955.2411919     
   2704974831.3031654     
   2718832611.0217896     
   2714495581.1451125     
   2718459936.5252085     
   2730728874.7891936     
   2751306174.3817077     
   2763030873.3798890     
   2761359404.2121744     
   2767081105.2674389     
   2780195976.5456948     
   2800704018.0469303     
   2621679390.5777230     
   2584317930.7027278     
   2552457833.7133665     
   2526689509.8437357     
   2507849554.2802057     
   2661753239.0893378     
   2616627365.7061300     
   2577006560.2623515     
   2543228373.5827813     
   2515772464.4493527     
   2704974831.3031654     
   2654300760.2381058     
   2609272050.4367652     
   2570039787.6154757     
   2536818766.5492477     
   2751306174.3817077     
   2697279805.8244834     
   2649179672.8770227     
   2607043478.9317265     
   2570924718.5178404     
   2800704018.0469303     
   2745495614.3303828     
   2696639383.8243608     
   2654135326.5288920     
   2617983442.4439573     
   2507849554.2802057     
   2357074968.7664618     
   2214690907.5256710     
   2085639397.8522928     
   1976721427.0526221     
   2515772464.4493527     
   2347864413.8645597     
   2183610328.7220631     
   2026088099.5665894     
   1879818186.3873067     
   2536818766.5492477     
   2356817960.7255874     
   2176526035.5887308     
   1997405069.3900886     
   1821713746.5167990     
   2570924718.5178404     
   2384031377.6728644     
   2193902397.6253304     
   2000913874.0758810     
   1805665408.0878739     
   2617983442.4439573     
   2429465646.9965138     
   2235879013.1540527     
   2037223540.9166207     
   1833499230.2842047     
   2333260434.6453547     
   2445069171.8771405     
   2549200178.0428653     
   2645653453.1425347     
   2734428997.1761451     
   2405805243.3104129     
   2470198366.7882318     
   2539488252.9736781     
   2612814981.5650239     
   2690040625.1770492     
   2577057139.6623387     
   2577085523.2378159     
   2594327654.0770087     
   2625269418.5578804     
   2669165772.0803037     
   2860842881.8404374     
   2776398316.9436173     
   2721069626.2563763     
   2687047129.6047053     
   2672137381.0884690     
   3261717450.4615355     
   3071623556.3803949     
   2922039160.0654516     
   2799535104.1589661     
   2699074502.0678501     
   2734428997.1761451     
   2718619909.9523063     
   2706084381.3326559     
   2696822411.3171935     
   2690833999.9059305     
   2690040625.1770492     
   2679063919.6655874     
   2671687472.6545544     
   2667793207.1118865     
   2667309988.3024011     
   2669165772.0803037     
   2664482517.5424852     
   2664478054.6290760     
   2668669390.3474207     
   2676765079.3266973     
   2672137381.0884690     
   2674507806.1070437     
   2683456871.9047794     
   2697878606.1667113     
   2717103243.9258595     
   2699074502.0678501     
   2708349612.4753489     
   2727010172.6484013     
   2753067351.9374766     
   2785308794.6537886     
   2690833999.9059305     
   2649261235.4800096     
   2622919789.4011292     
   2611809661.6692891     
   2615930852.2844868     
   2667309988.3024011     
   2626506270.1016769     
   2599462088.5964346     
   2586210249.1949043     
   2586783684.0552859     
   2676765079.3266973     
   2632586535.9690027     
   2600710832.8686242     
   2581248675.1502309     
   2574313735.0875249     
   2717103243.9258595     
   2666317754.6538677     
   2626343708.4060588     
   2597382950.5678492     
   2579649146.8743982     
   2785308794.6537886     
   2725722080.6347265     
   2675382223.2833414     
   2634566077.9121733     
   2603577653.1516562     
   2615930852.2844868     
   2634901430.9136505     
   2659717890.3199749     
   2690380230.5034623     
   2726888451.4641161     
   2586783684.0552859     
   2602704788.0613871     
   2625138259.7948976     
   2654096361.5570178     
   2689592023.4508519     
   2574313735.0875249     
   2584555542.7430921     
   2601985034.2243576     
   2626655723.5734134     
   2658623922.9113064     
   2579649146.8743982     
   2581424822.8325543     
   2591050780.8001876     
   2608657347.2062759     
   2634382360.0402708     
   2603577653.1516562     
   2594057110.0590758     
   2592997473.2411532     
   2600646116.0686221     
   2617268029.2530875     
   2726888451.4641161     
   2718206618.4288230     
   2721336411.0696874     
   2736277829.3867130     
   2763030873.3798890     
   2689592023.4508519     
   2680355776.9636664     
   2682148069.7256851     
   2694972623.7997670     
   2718832611.0593872     
   2658623922.9113064     
   2647722426.5732956     
   2647262643.6900687     
   2657255672.7495627     
   2677711796.4222126     
   2634382360.0402708     
   2620860343.4801774     
   2617357230.7305274     
   2623889994.7943554     
   2640476548.3019786     
   2617268029.2530875     
   2600336120.9275126     
   2593134252.2127995     
   2595679019.8481307     
   2607993039.6701794     
   2763030873.3798890     
   2761359404.2121744     
   2767081105.2674389     
   2780195976.5456948     
   2800704018.0469303     
   2718832611.0593872     
   2714495581.1781445     
   2718459936.5543723     
   2730728874.8151336     
   2751306174.4051056     
   2677711796.4222126     
   2670514582.4853759     
   2672648157.8196344     
   2684128955.2935243     
   2704974831.3526406     
   2640476548.3019786     
   2629979260.6454911     
   2629995148.9362187     
   2640570731.3628769     
   2661753239.1677079     
   2607993039.6701794     
   2593488621.4802842     
   2590867168.2867579     
   2600231264.9394779     
   2621679390.6878629     
   2800704018.0469303     
   2745495614.3303828     
   2696639383.8243608     
   2654135326.5288920     
   2617983442.4439573     
   2751306174.4051056     
   2697279805.8466811     
   2649179672.8978686     
   2607043478.9510603     
   2570924718.5354176     
   2704974831.3526406     
   2654300760.2843599     
   2609272050.4795017     
   2570039787.6543241     
   2536818766.5837455     
   2661753239.1677079     
   2616627365.7784147     
   2577006560.3280954     
   2543228373.6414442     
   2515772464.5001488     
   2621679390.6878629     
   2584317930.8030963     
   2552457833.8033562     
   2526689509.9225702     
   2507849554.3468184     
   2617983442.4439573     
   2429465646.9965138     
   2235879013.1540527     
   2037223540.9166207     
   1833499230.2842047     
   2570924718.5354176     
   2384031377.6835136     
   2193902397.6283002     
   2000913874.0698180     
   1805665408.0704627     
   2536818766.5837455     
   2356817960.7468848     
   2176526035.5954661     
   1997405069.3798695     
   1821713746.4855661     
   2515772464.5001488     
   2347864413.8966584     
   2183610328.7336116     
   2026088099.5545049     
   1879818186.3469467     
   2507849554.3468184     
   2357074968.8095808     
   2214690907.5432010     
   2085639397.8409691     
   1976721427.0079463     
   3261717450.4615355     
   3071623556.3803949     
   2922039160.0654516     
   2799535104.1589661     
   2699074502.0678501     
   3497536248.2112513     
   3281148170.1084394     
   3082464157.7740927     
   2898645276.2355685     
   2728642465.9514256     
   3656122586.5216088     
   3441431881.4222417     
   3232044506.6909990     
   3028283912.0556788     
   2830599837.4512024     
   3731690453.4227853     
   3545081703.2797437     
   3362566295.8258185     
   3180717270.2310247     
   2998501321.4450784     
   3729724622.1194105     
   3591094974.0246587     
   3469372690.1089826     
   3349191626.8210616     
   3224052061.9270234     
   2699074502.0678501     
   2708349612.4753489     
   2727010172.6484013     
   2753067351.9374766     
   2785308794.6537886     
   2728642465.9514256     
   2740049006.6174555     
   2759138481.3999667     
   2785466209.7693577     
   2818733440.2190509     
   2830599837.4512024     
   2833415494.2062840     
   2842350646.7722416     
   2857704756.4143348     
   2879787836.4733801     
   2998501321.4450784     
   2983515204.8431063     
   2973335790.2443814     
   2968113481.5385647     
   2968337109.2624373     
   3224052061.9270234     
   3183705058.3973398     
   3147263140.2131367     
   3113847697.0769119     
   3083583091.3115773     
   2785308794.6537886     
   2725722080.6347265     
   2675382223.2833414     
   2634566077.9121733     
   2603577653.1516562     
   2818733440.2190509     
   2743424742.0597486     
   2677512664.7947268     
   2621424586.9871135     
   2575630161.8933921     
   2879787836.4733801     
   2787540481.8839445     
   2704702607.5692792     
   2631839550.3001504     
   2569588374.5601549     
   2968337109.2624373     
   2858183995.4605956     
   2757304619.7750425     
   2666375869.1234922     
   2586187858.9833989     
   3083583091.3115773     
   2954793314.8041916     
   2835003543.1199427     
   2724964825.1744375     
   2625589893.1354189     
   2603577653.1516562     
   2594057110.0590758     
   2592997473.2411532     
   2600646116.0686221     
   2617268029.2530875     
   2575630161.8933921     
   2554308226.4063635     
   2540722811.9248791     
   2535140961.3490567     
   2537829054.0717411     
   2569588374.5601549     
   2536751234.5819659     
   2510939313.5432830     
   2492427716.8115535     
   2481486516.0802135     
   2586187858.9833989     
   2542575374.5435081     
   2505288895.6220880     
   2474589824.0158358     
   2450743848.2439404     
   2625589893.1354189     
   2572351697.7685566     
   2524778275.3987360     
   2483089375.9331441     
   2447530086.9983730     
   2617268029.2530875     
   2600336120.9275126     
   2593134252.2127995     
   2595679019.8481307     
   2607993039.6701794     
   2537829054.0717411     
   2511140133.6172943     
   2494519499.1225224     
   2488163931.4524860     
   2492240080.8177142     
   2481486516.0802135     
   2441202131.2099452     
   2411122645.8349605     
   2391670490.2404757     
   2383233102.0296707     
   2450743848.2439404     
   2393358932.8499904     
   2345980980.5021844     
   2309284965.4391499     
   2283953075.4302444     
   2447530086.9983730     
   2370153344.3419685     
   2302132399.4654737     
   2244374208.6720695     
   2197894630.5316715     
   2607993039.6701794     
   2593488621.4802842     
   2590867168.2867579     
   2600231264.9394779     
   2621679390.6878629     
   2492240080.8177142     
   2470811831.9131141     
   2461696549.4529462     
   2465053418.8476644     
   2481028640.6163988     
   2383233102.0296707     
   2353213685.4892654     
   2336125191.8395848     
   2332220670.7824302     
   2341727423.4244409     
   2283953075.4302444     
   2243369168.6040196     
   2216468937.5642362     
   2203656193.2551322     
   2205294839.6031365     
   2197894630.5316715     
   2144515296.7279971     
   2105614435.2478416     
   2081825114.9755695     
   2073732721.8654096     
   2621679390.6878629     
   2584317930.8030963     
   2552457833.8033562     
   2526689509.9225702     
   2507849554.3468184     
   2481028640.6163988     
   2449385261.8302174     
   2426083248.4647079     
   2412068995.1640797     
   2408730239.3611536     
   2341727423.4244409     
   2318020634.0821757     
   2305794507.4160700     
   2306450210.0908489     
   2322062861.8822236     
   2205294839.6031365     
   2191039546.6348276     
   2191890041.0591626     
   2209811355.6198115     
   2247680458.7275324     
   2073732721.8654096     
   2069459628.4442174     
   2084705264.3807003     
   2122108408.3184524     
   2185407062.0404286     
   2507849554.3468184     
   2357074968.8095808     
   2214690907.5432010     
   2085639397.8409691     
   1976721427.0079463     
   2408730239.3611536     
   2282998015.7494435     
   2167895267.3209996     
   2070145537.8348427     
   1998485218.0157599     
   2322062861.8822236     
   2224990369.2176437     
   2141278226.4410417     
   2079308145.7204261     
   2049276715.1447320     
   2247680458.7275324     
   2182838208.3302598     
   2134369225.4384081     
   2111996942.8574035     
   2126742126.6042030     
   2185407062.0404286     
   2156245599.4678149     
   2146522618.3447571     
   2166861621.1283078     
   2228478862.2082577     
   3729724622.1194105     
   3591094974.0246587     
   3469372690.1089826     
   3349191626.8210616     
   3224052061.9270234     
   3774917908.9757357     
   3671052470.2561183     
   3581640363.2215939     
   3500899131.1393542     
   3426000560.9149051     
   3969415610.2979827     
   3871269103.1258497     
   3782486369.8673172     
   3702953946.1225419     
   3632881977.8134756     
   4302692092.7137938     
   4180889618.6547732     
   4063521676.9154320     
   3950998828.8331647     
   3844700008.4767280     
   4764812648.2456703     
   4588689478.3031244     
   4415362079.5549593     
   4240207701.8788714     
   4062418947.6321864     
   3224052061.9270234     
   3183705058.3973398     
   3147263140.2131367     
   3113847697.0769119     
   3083583091.3115773     
   3426000560.9149051     
   3362606543.2497759     
   3301075251.1299086     
   3241330230.7574048     
   3183656459.5115824     
   3632881977.8134756     
   3552675890.9324040     
   3474037078.6622534     
   3397139181.0838275     
   3322217056.2348771     
   3844700008.4767280     
   3752822416.7218184     
   3663861760.3061843     
   3577753914.8382406     
   3494473573.5713248     
   4062418947.6321864     
   3962627239.5482850     
   3868685984.0232091     
   3779826176.8702717     
   3695520093.7366204     
   3083583091.3115773     
   2954793314.8041916     
   2835003543.1199427     
   2724964825.1744375     
   2625589893.1354189     
   3183656459.5115824     
   3037292369.0925231     
   2898570376.5573273     
   2768247126.0601811     
   2647288468.4842067     
   3322217056.2348771     
   3158251242.6610579     
   3000504061.7694807     
   2849648354.6033869     
   2706589761.0992818     
   3494473573.5713248     
   3313329696.0685830     
   3137032380.7817783     
   2966106319.4532013     
   2801304394.9108343     
   3695520093.7366204     
   3497873796.9307046     
   3303839939.7208056     
   3113762994.8949194     
   2928188332.9443383     
   2625589893.1354189     
   2572351697.7685566     
   2524778275.3987360     
   2483089375.9331441     
   2447530086.9983730     
   2647288468.4842067     
   2582936124.0534463     
   2523560429.2608981     
   2469496877.9402122     
   2421106753.0674915     
   2706589761.0992818     
   2629882475.6021047     
   2557103778.1621785     
   2488668163.2436581     
   2425038922.2419081     
   2801304394.9108343     
   2711913207.5878119     
   2625127514.4753346     
   2541384218.6416669     
   2461204969.1322422     
   2928188332.9443383     
   2826564363.5476761     
   2726077310.0716109     
   2627130223.6520762     
   2530249888.6256928     
   2447530086.9983730     
   2370153344.3419685     
   2302132399.4654737     
   2244374208.6720695     
   2197894630.5316715     
   2421106753.0674915     
   2323128977.5035567     
   2233166588.7524557     
   2152173590.0190320     
   2081236612.3319097     
   2425038922.2419081     
   2308440988.8609018     
   2198440727.5418534     
   2095905634.1140993     
   2001864279.0429337     
   2461204969.1322422     
   2328663096.0066948     
   2201411028.8373246     
   2080109304.7562749     
   1965590573.3376651     
   2530249888.6256928     
   2384860440.9533687     
   2243761998.7232580     
   2107344785.7285354     
   1976164839.8445663     
   2197894630.5316715     
   2144515296.7279971     
   2105614435.2478416     
   2081825114.9755695     
   2073732721.8654096     
   2081236612.3319097     
   2008719722.5807903     
   1948312475.2373319     
   1900997571.6849461     
   1867711610.6336617     
   2001864279.0429337     
   1908107445.8255842     
   1823008930.1101589     
   1747729874.0026169     
   1683512120.3874357     
   1965590573.3376651     
   1851583247.9866972     
   1741842741.0678008     
   1637309773.0240757     
   1539144748.1721249     
   1976164839.8445663     
   1846591279.7404768     
   1716838134.8845677     
   1587299328.9800982     
   1458581931.6535044     
   2073732721.8654096     
   2069459628.4442174     
   2084705264.3807003     
   2122108408.3184524     
   2185407062.0404286     
   1867711610.6336617     
   1856192457.4206643     
   1867815814.1396050     
   1904818867.2999780     
   1970222866.3311386     
   1683512120.3874357     
   1654033746.9954133     
   1652366517.4108825     
   1680910981.1120157     
   1742312514.4454341     
   1539144748.1721249     
   1477571572.2633722     
   1448755057.0313933     
   1456665398.9997418     
   1504650459.4697964     
   1458581931.6535044     
   1349289454.7587824     
   1275122073.2260656     
   1244148046.7435009     
   1263418559.4880908     
   2185407062.0404286     
   2156245599.4678149     
   2146522618.3447571     
   2166861621.1283078     
   2228478862.2082577     
   1970222866.3311386     
   1968715734.7144101     
   2003647143.1104000     
   2093717515.9239314     
   2257640089.6077414     
   1742312514.4454341     
   1787469093.3246074     
   1884724167.1551192     
   2060936517.1546712     
   2341278871.4222822     
   1504650459.4697964     
   1613226966.1597314     
   1789011185.6416337     
   2066637202.4307747     
   2476147567.6752119     
   1263418559.4880908     
   1447039277.5134203     
   1715940369.5940435     
   2110548721.1629176     
   2663048781.0075450     
   4764812648.2456703     
   4588689478.3031244     
   4415362079.5549593     
   4240207701.8788714     
   4062418947.6321864     
   5150690377.9574118     
   4940671381.5663986     
   4727637064.2903471     
   4511088816.7680864     
   4290758730.8260026     
   5371172219.3757372     
   5173725676.0605965     
   4978501744.5163412     
   4783609986.1230812     
   4588057465.0613518     
   5440529696.3453312     
   5292324958.6434946     
   5167127012.5404243     
   5054045367.3990717     
   4947330084.1868906     
   5386243386.2603607     
   5306290506.8354006     
   5294745329.8765478     
   5319607679.0688143     
   5362698275.9726381     
   4062418947.6321864     
   3962627239.5482850     
   3868685984.0232091     
   3779826176.8702717     
   3695520093.7366204     
   4290758730.8260026     
   4188591580.9778790     
   4089824637.4258823     
   3994511255.1474118     
   3902771540.7799220     
   4588057465.0613518     
   4473602747.7995577     
   4359710903.5463552     
   4246500999.0275140     
   4134304406.4830155     
   4947330084.1868906     
   4810815917.0492401     
   4672306654.8033533     
   4531174324.6156893     
   4387366949.8149042     
   5362698275.9726381     
   5194263780.2658014     
   5022188097.3939123     
   4844315036.1159658     
   4659536576.8705912     
   3695520093.7366204     
   3497873796.9307046     
   3303839939.7208056     
   3113762994.8949194     
   2928188332.9443383     
   3902771540.7799220     
   3686721160.9146404     
   3473505551.7439880     
   3263347005.5643458     
   3056646734.5848608     
   4134304406.4830155     
   3900148209.9170151     
   3668182842.7968364     
   3438504519.5325675     
   3211363234.8401237     
   4387366949.8149042     
   4135181262.4093919     
   3884667596.1018543     
   3635802171.6472335     
   3388691258.2297421     
   4659536576.8705912     
   4389183497.9046125     
   4120091639.4102330     
   3852127918.4936728     
   3585269598.7188106     
   2928188332.9443383     
   2826564363.5476761     
   2726077310.0716109     
   2627130223.6520762     
   2530249888.6256928     
   3056646734.5848608     
   2945449035.3880749     
   2835091543.6644149     
   2725760063.3303146     
   2617683522.6977959     
   3211363234.8401237     
   3094282407.4949870     
   2978208168.5496659     
   2863180487.5473509     
   2749252318.3274412     
   3388691258.2297421     
   3268698371.1109490     
   3150265640.5855632     
   3033338232.5727859     
   2917890505.7561336     
   3585269598.7188106     
   3464585011.4588718     
   3346318229.1136894     
   3230341937.4934344     
   3116609323.8537207     
   2530249888.6256928     
   2384860440.9533687     
   2243761998.7232580     
   2107344785.7285354     
   1976164839.8445663     
   2617683522.6977959     
   2462897246.6770134     
   2310808605.5434165     
   2161772138.7634573     
   2016281450.8785503     
   2749252318.3274412     
   2585004195.6719108     
   2421750561.7150760     
   2259673908.6678567     
   2099077208.3486989     
   2917890505.7561336     
   2744608065.6793194     
   2570721396.8363495     
   2396157137.7369103     
   2220956594.3623934     
   3116609323.8537207     
   2934962579.2544823     
   2751374147.7361989     
   2565482603.5931668     
   2377060438.8288097     
   1976164839.8445663     
   1846591279.7404768     
   1716838134.8845677     
   1587299328.9800982     
   1458581931.6535044     
   2016281450.8785503     
   1880233267.1969895     
   1744290338.1785529     
   1608573711.6908741     
   1473251946.2317891     
   2099077208.3486989     
   1959970811.4390919     
   1821834582.8893561     
   1684665832.0769165     
   1548489976.2984688     
   2220956594.3623934     
   2080214160.5504761     
   1941544513.7731135     
   1804896955.0452285     
   1670338700.2257144     
   2377060438.8288097     
   2234189140.9250331     
   2094456319.3499391     
   1957786338.2609737     
   1824378964.8462913     
   1458581931.6535044     
   1349289454.7587824     
   1275122073.2260656     
   1244148046.7435009     
   1263418559.4880908     
   1473251946.2317891     
   1328857056.6533270     
   1199081489.5070810     
   1088435949.9560628     
   1002863278.4121631     
   1548489976.2984688     
   1398406889.5774155     
   1244771181.0804939     
   1085335590.7568772     
   918081414.86070716     
   1670338700.2257144     
   1554624748.1739709     
   1429556711.1337988     
   1295514160.6352034     
   1158630539.0593183     
   1824378964.8462913     
   1783358337.3846600     
   1738257477.3522372     
   1697886035.0172911     
   1680995330.3668873     
   1263418559.4880908     
   1447039277.5134203     
   1715940369.5940435     
   2110548721.1629176     
   2663048781.0075450     
   1002863278.4121631     
   1165207156.6091921     
   1425527587.0014641     
   1808471056.1051729     
   2334116000.4174132     
   918081414.86070716     
   963330525.95142508     
   1144851101.7593317     
   1476160957.2692378     
   1957145035.5017030     
   1158630539.0593183     
   1008099739.7320487     
   984926241.43464518     
   1161414136.3364658     
   1544695718.7208040     
   1680995330.3668873     
   1383219082.4051659     
   1129044681.1811986     
   1010425872.0153862     
   1154996862.7340622     
 </DataArray>
 <DataArray  type="Float64" Name="strain" NumberOfComponents="3" format="ascii">
   8.7145903245765322E-002  -3.3834861398040261E-002  -1.5980231448204041E-002
   8.7847566839887592E-002  -2.8573662143045575E-002  -5.5594720937752751E-003
   8.8549230434009862E-002  -2.5097199183569674E-002   1.7852065213459500E-003
   8.9250894028132244E-002  -2.3405472519612558E-002   6.0538043971593014E-003
   8.9952557622254514E-002  -2.3498482151174449E-002   7.2463215336653342E-003
   8.9848953441857393E-002  -3.0435516029065357E-002  -6.3714520683944009E-004
   8.8005717933080152E-002  -2.6969581639263995E-002   5.3944274156552674E-003
   8.6162482424302800E-002  -2.4570752676485896E-002   9.4122825716583258E-003
   8.4319246915525531E-002  -2.3239029140730588E-002   1.1416420261169874E-002
   8.2476011406748206E-002  -2.2974411031998709E-002   1.1406840484189384E-002
   8.9057556130878623E-002  -2.7036170660090453E-002   1.2551860735083964E-002
   8.5731784792017512E-002  -2.5365501135482527E-002   1.4911877494140358E-002
   8.2406013453156512E-002  -2.4044306169401841E-002   1.6320540059521271E-002
   7.9080242114295513E-002  -2.3072585761848730E-002   1.6777848431226192E-002
   7.5754470775434429E-002  -2.2450339912822803E-002   1.6283802609255216E-002
   8.4771711312828985E-002  -2.3636825291115549E-002   2.3586786377565894E-002
   8.1025767416700090E-002  -2.3761420631701002E-002   2.2992878141680134E-002
   7.7279823520571153E-002  -2.3517859662318036E-002   2.2509978984934134E-002
   7.3533879624442189E-002  -2.2906142382966649E-002   2.2138088907328213E-002
   6.9787935728313211E-002  -2.1926268793646980E-002   2.1877207908862328E-002
   7.6991418987708449E-002  -2.0237479922140644E-002   3.2467631720606682E-002
   7.3887665807127467E-002  -2.2157340127919423E-002   2.9637429358274014E-002
   7.0783912626546486E-002  -2.2991413155234161E-002   2.7980599347897456E-002
   6.7680159445965477E-002  -2.2739699004084773E-002   2.7497141689476604E-002
   6.4576406265384467E-002  -2.1402197674471157E-002   2.8187056383011555E-002
   8.9952557622254514E-002  -2.3498482151174449E-002   7.2463215336653342E-003
   8.6910400261088205E-002  -2.4188889234143640E-002   4.6815381370888254E-003
   8.3868242899921952E-002  -2.4289354924408868E-002   2.8962514276517082E-003
   8.0826085538755643E-002  -2.3799879221970383E-002   1.8904614053536217E-003
   7.7783928177589390E-002  -2.2720462126827212E-002   1.6641680701947603E-003
   8.2476011406748206E-002  -2.2974411031998709E-002   1.1406840484189384E-002
   8.0112232038182241E-002  -2.3065598870192383E-002   9.9686614402044738E-003
   7.7748452669616164E-002  -2.2801293175213927E-002   9.1077416942807743E-003
   7.5384673301050087E-002  -2.2181493947063917E-002   8.8240812464184804E-003
   7.3020893932484066E-002  -2.1206201185742235E-002   9.1176800966171201E-003
   7.5754470775434429E-002  -2.2450339912822803E-002   1.6283802609255216E-002
   7.3866832010390765E-002  -2.1942308506240848E-002   1.5737780058329237E-002
   7.1979193245347073E-002  -2.1313231426019208E-002   1.5566779416386844E-002
   7.0091554480303367E-002  -2.0563108672157895E-002   1.5770800683428093E-002
   6.8203915715259689E-002  -1.9691940244656980E-002   1.6349843859452401E-002
   6.9787935728313211E-002  -2.1926268793646980E-002   2.1877207908862328E-002
   6.8174200177713917E-002  -2.0819018142289453E-002   2.1988893991463844E-002
   6.6560464627114638E-002  -1.9825169676824322E-002   2.2273364593970682E-002
   6.4946729076515386E-002  -1.8944723397251874E-002   2.2730619716382960E-002
   6.3332993525916120E-002  -1.8177679303572031E-002   2.3360659358700568E-002
   6.4576406265384467E-002  -2.1402197674471157E-002   2.8187056383011555E-002
   6.3034336540151670E-002  -1.9695727778337974E-002   2.8722003239607802E-002
   6.1492266814918900E-002  -1.8337107927629312E-002   2.9227497227031524E-002
   5.9950197089686116E-002  -1.7326338122345793E-002   2.9703538345282943E-002
   5.8408127364453333E-002  -1.6663418362486693E-002   3.0150126594361837E-002
   7.7783928177589390E-002  -2.2720462126827212E-002   1.6641680701947603E-003
   7.3280020610290042E-002  -2.1386266860476233E-002   8.5106672548385109E-004
   6.8776113042990750E-002  -2.0132456644412350E-002   3.5304675498842863E-004
   6.4272205475691374E-002  -1.8959031478635764E-002   1.7010815870832641E-004
   5.9768297908392110E-002  -1.7865991363146705E-002   3.0225093664337788E-004
   7.3020893932484066E-002  -2.1206201185742235E-002   9.1176800966171201E-003
   6.8826878362819977E-002  -2.0079038110016267E-002   8.1793764258814572E-003
   6.4632862793155860E-002  -1.9003627938654649E-002   7.5457753762013524E-003
   6.0438847223491757E-002  -1.7979970671656832E-002   7.2168769475763894E-003
   5.6244831653827654E-002  -1.7008066309022740E-002   7.1926811400062629E-003
   6.8203915715259689E-002  -1.9691940244656980E-002   1.6349843859452401E-002
   6.4309413390070708E-002  -1.8771809359556663E-002   1.5314970008615481E-002
   6.0414911064881741E-002  -1.7874799232896935E-002   1.4574420025673801E-002
   5.6520408739692753E-002  -1.7000909864677675E-002   1.4128193910626648E-002
   5.2625906414503792E-002  -1.6150141254898776E-002   1.3976291663475193E-002
   6.3332993525916120E-002  -1.8177679303572031E-002   2.3360659358700568E-002
   5.9727625692042166E-002  -1.7464580609096822E-002   2.2257847473685623E-002
   5.6122257858168337E-002  -1.6745970527138894E-002   2.1438980703405736E-002
   5.2516890024294445E-002  -1.6021849057698406E-002   2.0904059047860864E-002
   4.8911522190420546E-002  -1.5292216200775033E-002   2.0653082507051140E-002
   5.8408127364453333E-002  -1.6663418362486693E-002   3.0150126594361837E-002
   5.5081515268734504E-002  -1.6157351858637065E-002   2.9008008821092057E-002
   5.1754903173015676E-002  -1.5617141821381339E-002   2.8139457409397467E-002
   4.8428291077296820E-002  -1.5042788250719263E-002   2.7544472359277733E-002
   4.5101678981577964E-002  -1.4434291146651068E-002   2.7223053670732966E-002
   5.9768297908392110E-002  -1.7865991363146705E-002   3.0225093664337788E-004
   5.7838356060061158E-002  -1.6900886865719333E-002   7.5184600617139719E-004
   5.5908414211730262E-002  -1.6111268554129365E-002   1.1581070290895834E-003
   5.3978472363399282E-002  -1.5497136428376135E-002   1.5210340053962157E-003
   5.2048530515068414E-002  -1.5058490488460086E-002   1.8406269350921267E-003
   5.6244831653827654E-002  -1.7008066309022740E-002   7.1926811400062629E-003
   5.4290802522339143E-002  -1.6115475055604511E-002   7.4248842382760305E-003
   5.2336773390850577E-002  -1.5329757116253506E-002   7.6522468168414570E-003
   5.0382744259362039E-002  -1.4650912490970419E-002   7.8747688757027923E-003
   4.8428715127873501E-002  -1.4078941179755167E-002   8.0924504148596199E-003
   5.2625906414503792E-002  -1.6150141254898776E-002   1.3976291663475193E-002
   5.0686283526763992E-002  -1.5330063245489634E-002   1.4059715662256389E-002
   4.8746660639024261E-002  -1.4548245678378202E-002   1.4176792668239124E-002
   4.6807037751284510E-002  -1.3804688553565037E-002   1.4327522681424093E-002
   4.4867414863544786E-002  -1.3099391871049915E-002   1.4511905701811045E-002
   4.8911522190420546E-002  -1.5292216200775033E-002   2.0653082507051140E-002
   4.7024799073335920E-002  -1.4544651435374450E-002   2.0656340278112306E-002
   4.5138075956251328E-002  -1.3766734240502398E-002   2.0731744583282315E-002
   4.3251352839166708E-002  -1.2958464616159154E-002   2.0879295422560035E-002
   4.1364629722082102E-002  -1.2119842562344607E-002   2.1098992795946930E-002
   4.5101678981577964E-002  -1.4434291146651068E-002   2.7223053670732966E-002
   4.3306349162054836E-002  -1.3759239625259378E-002   2.7214758085844448E-002
   4.1511019342531763E-002  -1.2985222802626761E-002   2.7317102561970397E-002
   3.9715689523008621E-002  -1.2112240678753702E-002   2.7530087099111311E-002
   3.7920359703485562E-002  -1.1140293253639522E-002   2.7853711697266803E-002
   5.2048530515068414E-002  -1.5058490488460086E-002   1.8406269350921267E-003
   4.8926258519134014E-002  -1.4612028001036892E-002   9.6412372557330706E-004
   4.5803986523199447E-002  -1.3974446232762561E-002   3.0433875634172658E-004
   4.2681714527264936E-002  -1.3145745183636343E-002  -1.3872797260150449E-004
   3.9559442531330480E-002  -1.2125924853659598E-002  -3.6507646125771842E-004
   4.8428715127873501E-002  -1.4078941179755167E-002   8.0924504148596199E-003
   4.5508836856567814E-002  -1.3502614005705960E-002   7.4134899728404147E-003
   4.2588958585262016E-002  -1.2810701791922646E-002   6.9225987397910083E-003
   3.9669080313956273E-002  -1.2003204538405331E-002   6.6197767157115672E-003
   3.6749202042650475E-002  -1.1080122245154644E-002   6.5050239006020361E-003
   4.4867414863544786E-002  -1.3099391871049915E-002   1.4511905701811045E-002
   4.2121281285549900E-002  -1.2393200010374916E-002   1.3954953786174812E-002
   3.9375147707555042E-002  -1.1646957351083620E-002   1.3557422048190632E-002
   3.6629014129560197E-002  -1.0860663893174763E-002   1.3319310487858005E-002
   3.3882880551565381E-002  -1.0034319636649025E-002   1.3240619105177875E-002
   4.1364629722082102E-002  -1.2119842562344607E-002   2.1098992795946930E-002
   3.8763591806080314E-002  -1.1283786015044484E-002   2.0588515165576256E-002
   3.6162553890078615E-002  -1.0483212910243928E-002   2.0208808681539736E-002
   3.3561515974076903E-002  -9.7181232479437510E-003   1.9959873343837690E-002
   3.0960478058075183E-002  -8.9885170281435167E-003   1.9841709152469730E-002
   3.7920359703485562E-002  -1.1140293253639522E-002   2.7853711697266803E-002
   3.5435768418159042E-002  -1.0174372019713496E-002   2.7314174111044531E-002
   3.2951177132832632E-002  -9.3194684694045682E-003   2.6876758639839293E-002
   3.0466585847506208E-002  -8.5755826027128779E-003   2.6541465283650256E-002
   2.7981994562179702E-002  -7.9427144196382304E-003   2.6308294042477365E-002
   3.9559442531330480E-002  -1.2125924853659598E-002  -3.6507646125771842E-004
   3.7245338837452291E-002  -1.1127738653826325E-002  -4.4893931800626952E-004
   3.4931235143573991E-002  -1.0363939995130578E-002  -4.9644565633732984E-004
   3.2617131449695802E-002  -9.8345288775738698E-003  -5.0759547625200963E-004
   3.0303027755817502E-002  -9.5395053011546604E-003  -4.8238877774875455E-004
   3.6749202042650475E-002  -1.1080122245154644E-002   6.5050239006020361E-003
   3.4461932776356952E-002  -1.0174872490913534E-002   6.1627391211697136E-003
   3.2174663510063345E-002  -9.4208728544258880E-003   5.8377666784890647E-003
   2.9887394243769808E-002  -8.8181233356938865E-003   5.5301065725611720E-003
   2.7600124977476159E-002  -8.3666239347157667E-003   5.2397588033850084E-003
   3.3882880551565381E-002  -1.0034319636649025E-002   1.3240619105177875E-002
   3.1603401531191455E-002  -9.2220063279995768E-003   1.2723049826445287E-002
   2.9323922510817529E-002  -8.4778057137211704E-003   1.2203748702799944E-002
   2.7044443490443631E-002  -7.8017177938132301E-003   1.1682715734241719E-002
   2.4764964470069678E-002  -7.1937425682756517E-003   1.1159950920770267E-002
   3.0960478058075183E-002  -8.9885170281435167E-003   1.9841709152469730E-002
   2.8669745101955829E-002  -8.2691401650864249E-003   1.9231992797820868E-002
   2.6379012145836475E-002  -7.5347385730164668E-003   1.8601500416594037E-002
   2.4088279189717180E-002  -6.7853122519331323E-003   1.7950232008789157E-002
   2.1797546233597885E-002  -6.0208612018363694E-003   1.7278187574406814E-002
   2.7981994562179702E-002  -7.9427144196382304E-003   2.6308294042477365E-002
   2.5660963488649990E-002  -7.3162740021732731E-003   2.5689568035295984E-002
   2.3339932415120224E-002  -6.5916714323117631E-003   2.5031021819871602E-002
   2.1018901341590540E-002  -5.7689067100525904E-003   2.4332655396204744E-002
   1.8697870268060746E-002  -4.8479798353967540E-003   2.3594468764294274E-002
   3.0303027755817502E-002  -9.5395053011546604E-003  -4.8238877774875455E-004
   2.9668028598837881E-002  -9.1417298549126835E-003  -3.0300261886906377E-004
   2.9033029441858149E-002  -8.3040631278868404E-003  -1.7899029713978054E-003
   2.8398030284878445E-002  -7.0265051200762013E-003  -4.9430898353343689E-003
   2.7763031127898796E-002  -5.3090558314812242E-003  -9.7625632106794757E-003
   2.7600124977476159E-002  -8.3666239347157667E-003   5.2397588033850084E-003
   2.5565725541146778E-002  -7.8754572124277722E-003   5.8890114858366482E-003
   2.3531326104817313E-002  -7.1537057297690887E-003   5.4057501209961445E-003
   2.1496926668487834E-002  -6.2013694867370101E-003   3.7899747088649405E-003
   1.9462527232158466E-002  -5.0184484833328824E-003   1.0416852494423701E-003
   2.4764964470069678E-002  -7.1937425682756517E-003   1.1159950920770267E-002
   2.1864937218507435E-002  -6.6091845699434715E-003   1.2069763606381401E-002
   1.8964909966945179E-002  -6.0033483316510872E-003   1.2380834708817651E-002
   1.6064882715382901E-002  -5.3762338533980339E-003   1.2093164228080142E-002
   1.3164855463820707E-002  -4.7278411351849847E-003   1.1206752164168110E-002
   2.1797546233597885E-002  -6.0208612018363694E-003   1.7278187574406814E-002
   1.8565663630919875E-002  -5.3429119274586434E-003   1.8239253742764999E-002
   1.5333781028241861E-002  -4.8529909335334326E-003   1.9135350792066179E-002
   1.2101898425563843E-002  -4.5510982200593943E-003   1.9966478722309843E-002
   8.8700158228859488E-003  -4.4372337870373091E-003   2.0732637533496440E-002
   1.8697870268060746E-002  -4.8479798353967540E-003   2.3594468764294274E-002
   1.5667904778383979E-002  -4.0766392849744815E-003   2.4397481894987916E-002
   1.2637939288707323E-002  -3.7026335354153894E-003   2.5669298370741167E-002
   9.6079737990306391E-003  -3.7259625867204355E-003   2.7409918191554500E-002
   6.5780083093538999E-003  -4.1466264388893004E-003   2.9619341357427387E-002
   2.7763031127898796E-002  -5.3090558314812242E-003  -9.7625632106794757E-003
   2.3343140415334696E-002  -4.1959356127347913E-003  -4.2068021470929029E-003
   1.8923249702770650E-002  -4.7313648144703402E-003   2.6078116593315492E-003
   1.4503358990206550E-002  -6.9153434366864552E-003   1.0681278208594103E-002
   1.0083468277642504E-002  -1.0747871479384941E-002   2.0013597500695646E-002
   1.9462527232158466E-002  -5.0184484833328824E-003   1.0416852494423701E-003
   1.6230164651946266E-002  -4.6833295504429273E-003   6.7415846690057624E-003
   1.2997802071734177E-002  -6.2743995189521451E-003   1.3557687610434077E-002
   9.7654394915221432E-003  -9.7916583888613407E-003   2.1489994073730034E-002
   6.5330769113098874E-003  -1.5235106160170098E-002   3.0538504058890137E-002
   1.3164855463820707E-002  -4.7278411351849847E-003   1.1206752164168110E-002
   1.0977371794988672E-002  -5.1707234881507302E-003   1.6773150458789021E-002
   8.7898881261566503E-003  -7.8174342234345606E-003   2.3313103054303619E-002
   6.6024044573245594E-003  -1.2667973341036656E-002   3.0826609950712430E-002
   4.4149207884926489E-003  -1.9722340840955699E-002   3.9313671148015761E-002
   8.8700158228859488E-003  -4.4372337870373091E-003   2.0732637533496440E-002
   7.5847618444618084E-003  -5.6581174258593658E-003   2.5887895222256957E-002
   6.2995078660377304E-003  -9.3604689279168929E-003   3.1874057990939758E-002
   5.0142538876136560E-003  -1.5544288293210647E-002   3.8691125839544253E-002
   3.7289999091896370E-003  -2.4209575521740634E-002   4.6339098768070519E-002
   6.5780083093538999E-003  -4.1466264388893004E-003   2.9619341357427387E-002
   6.0523348003657107E-003  -6.1455113635673353E-003   3.4085818959410097E-002
   5.5266612913776325E-003  -1.0903503632399364E-002   3.9240552420342578E-002
   5.0009877823895266E-003  -1.8420603245385782E-002   4.5083541740224303E-002
   4.4753142734014206E-003  -2.8696810202526013E-002   5.1614786919056854E-002
   7.6991418987708449E-002  -2.0237479922140644E-002   3.2467631720606682E-002
   7.3887665807127467E-002  -2.2157340127919423E-002   2.9637429358274014E-002
   7.0783912626546486E-002  -2.2991413155234161E-002   2.7980599347897456E-002
   6.7680159445965477E-002  -2.2739699004084773E-002   2.7497141689476604E-002
   6.4576406265384467E-002  -2.1402197674471157E-002   2.8187056383011555E-002
   6.8302034650551735E-002  -1.9943257829061367E-002   3.3347759514101794E-002
   6.6125877495688046E-002  -2.0147867759622629E-002   3.2673684609206222E-002
   6.3949720340824440E-002  -1.9986984267293562E-002   3.2681429403789319E-002
   6.1773563185960792E-002  -1.9460607352074180E-002   3.3370993897851461E-002
   5.9597406031097172E-002  -1.8568737013964498E-002   3.4742378091392662E-002
   6.1288913796392896E-002  -1.9649035735982118E-002   3.6303284460601729E-002
   5.9548800014769837E-002  -1.8138395391325723E-002   3.7065043257568958E-002
   5.7808686233146653E-002  -1.6982555379352914E-002   3.8017069101538369E-002
   5.6068572451523489E-002  -1.6181515700063646E-002   3.9159361992509620E-002
   5.4328458669900367E-002  -1.5735276353457839E-002   4.0491921930483052E-002
   5.5952056425232398E-002  -1.9354813642902882E-002   4.1334206560105766E-002
   5.4156433364372779E-002  -1.6128923023028860E-002   4.2811505303362390E-002
   5.2360810303513181E-002  -1.3978126491412234E-002   4.3987518441143986E-002
   5.0565187242653506E-002  -1.2902424048053054E-002   4.4862245973450822E-002
   4.8769564181793901E-002  -1.2901815692951180E-002   4.5435687900282518E-002
   5.2291462537069844E-002  -1.9060591549823591E-002   4.8440525812614654E-002
   4.9948777544496892E-002  -1.4119450654732080E-002   4.9913070746586408E-002
   4.7606092551923884E-002  -1.0973697603471624E-002   5.0592777422606733E-002
   4.5263407559350877E-002  -9.6233323960425200E-003   5.0479645840674894E-002
   4.2920722566777897E-002  -1.0068355032444520E-002   4.9573676000791267E-002
   6.4576406265384467E-002  -2.1402197674471157E-002   2.8187056383011555E-002
   6.3034336540151670E-002  -1.9695727778337974E-002   2.8722003239607802E-002
   6.1492266814918900E-002  -1.8337107927629312E-002   2.9227497227031524E-002
   5.9950197089686116E-002  -1.7326338122345793E-002   2.9703538345282943E-002
   5.8408127364453333E-002  -1.6663418362486693E-002   3.0150126594361837E-002
   5.9597406031097172E-002  -1.8568737013964498E-002   3.4742378091392662E-002
   5.8064594348927828E-002  -1.7558626736013036E-002   3.4787656938999503E-002
   5.6531782666758429E-002  -1.6677530001268190E-002   3.4880904741905597E-002
   5.4998970984589036E-002  -1.5925446809730136E-002   3.5022121500110935E-002
   5.3466159302419686E-002  -1.5302377161398761E-002   3.5211307213615567E-002
   5.4328458669900367E-002  -1.5735276353457839E-002   4.0491921930483052E-002
   5.2882326855266087E-002  -1.5421525693688168E-002   4.0266369271318547E-002
   5.1436195040631842E-002  -1.5017952074907075E-002   4.0166207391924870E-002
   4.9990063225997569E-002  -1.4524555497114537E-002   4.0191436292302166E-002
   4.8543931411363359E-002  -1.3941335960310691E-002   4.0342055972450511E-002
   4.8769564181793901E-002  -1.2901815692951180E-002   4.5435687900282518E-002
   4.7487534059166461E-002  -1.3284424651363237E-002   4.5158140236564698E-002
   4.6205503936539029E-002  -1.3358374148545845E-002   4.5083405177089517E-002
   4.4923473813911603E-002  -1.3123664184498909E-002   4.5211482721856953E-002
   4.3641443691284157E-002  -1.2580294759222579E-002   4.5542372870867417E-002
   4.2920722566777897E-002  -1.0068355032444520E-002   4.9573676000791267E-002
   4.1880215960628991E-002  -1.1147323609038390E-002   4.9462969834738191E-002
   4.0839709354480100E-002  -1.1698796222184740E-002   4.9632498097399474E-002
   3.9799202748331229E-002  -1.1722772871883284E-002   5.0082260788775201E-002
   3.8758696142182303E-002  -1.1219253558134634E-002   5.0812257908865288E-002
   5.8408127364453333E-002  -1.6663418362486693E-002   3.0150126594361837E-002
   5.5081515268734504E-002  -1.6157351858637065E-002   2.9008008821092057E-002
   5.1754903173015676E-002  -1.5617141821381339E-002   2.8139457409397467E-002
   4.8428291077296820E-002  -1.5042788250719263E-002   2.7544472359277733E-002
   4.5101678981577964E-002  -1.4434291146651068E-002   2.7223053670732966E-002
   5.3466159302419686E-002  -1.5302377161398761E-002   3.5211307213615567E-002
   5.0413012777368663E-002  -1.4734602251669948E-002   3.4115112620119625E-002
   4.7359866252317639E-002  -1.4148403275939830E-002   3.3292282806384646E-002
   4.4306719727266644E-002  -1.3543780234208082E-002   3.2742817772410053E-002
   4.1253573202215621E-002  -1.2920733126475070E-002   3.2466717518196242E-002
   4.8543931411363359E-002  -1.3941335960310691E-002   4.0342055972450511E-002
   4.5764048875165844E-002  -1.3311852644702735E-002   3.9276065091323947E-002
   4.2984166338968260E-002  -1.2679664730498218E-002   3.8483237408143585E-002
   4.0204283802770753E-002  -1.2044772217696903E-002   3.7963572922909528E-002
   3.7424401266573232E-002  -1.1407175106299183E-002   3.7717071635622074E-002
   4.3641443691284157E-002  -1.2580294759222579E-002   4.5542372870867417E-002
   4.1134623562125827E-002  -1.1889103037735681E-002   4.4490866234705016E-002
   3.8627803432967490E-002  -1.1210926185056713E-002   4.3712321214674534E-002
   3.6120983303809154E-002  -1.0545764201185918E-002   4.3206737810776386E-002
   3.3614163174650824E-002  -9.8936170861232409E-003   4.2974116023009962E-002
   3.8758696142182303E-002  -1.1219253558134634E-002   5.0812257908865288E-002
   3.6524736838248806E-002  -1.0466353430768460E-002   4.9759516050262631E-002
   3.4290777534315295E-002  -9.7421876396151103E-003   4.8979534225977617E-002
   3.2056818230381791E-002  -9.0467561846746848E-003   4.8472312436010342E-002
   2.9822858926448287E-002  -8.3800590659472984E-003   4.8237850680360572E-002
   4.5101678981577964E-002  -1.4434291146651068E-002   2.7223053670732966E-002
   4.3306349162054836E-002  -1.3759239625259378E-002   2.7214758085844448E-002
   4.1511019342531763E-002  -1.2985222802626761E-002   2.7317102561970397E-002
   3.9715689523008621E-002  -1.2112240678753702E-002   2.7530087099111311E-002
   3.7920359703485562E-002  -1.1140293253639522E-002   2.7853711697266803E-002
   4.1253573202215621E-002  -1.2920733126475070E-002   3.2466717518196242E-002
   3.9568571522963170E-002  -1.2261713766748755E-002   3.2553286725896607E-002
   3.7883569843710732E-002  -1.1549173969036944E-002   3.2749872153123305E-002
   3.6198568164458260E-002  -1.0783113733340222E-002   3.3056473799876751E-002
   3.4513566485205760E-002  -9.9635330596580252E-003   3.3473091666156696E-002
   3.7424401266573232E-002  -1.1407175106299183E-002   3.7717071635622074E-002
   3.5849103886103281E-002  -1.0764187908238132E-002   3.7853060772655586E-002
   3.4273806505633268E-002  -1.0113125135447237E-002   3.8098442287727546E-002
   3.2698509125163283E-002  -9.4539867879267422E-003   3.8453216180838065E-002
   3.1123211744693305E-002  -8.7867728656764177E-003   3.8917382451986976E-002
   3.3614163174650824E-002  -9.8936170861232409E-003   4.2974116023009962E-002
   3.2147946251475115E-002  -9.2666620497274532E-003   4.3114080226121634E-002
   3.0681729328299476E-002  -8.6770763018574754E-003   4.3362812965783266E-002
   2.9215512405123850E-002  -8.1248598425132067E-003   4.3720314241995295E-002
   2.7749295481948117E-002  -7.6100126716948657E-003   4.4186584054757602E-002
   2.9822858926448287E-002  -8.3800590659472984E-003   4.8237850680360572E-002
   2.8465098619078755E-002  -7.7691361912168300E-003   4.8336345086294363E-002
   2.7107338311709278E-002  -7.2410274682676856E-003   4.8542984187290250E-002
   2.5749578004339788E-002  -6.7957328970997752E-003   4.8857767983348316E-002
   2.4391817696970297E-002  -6.4332524777133138E-003   4.9280696474468422E-002
   3.7920359703485562E-002  -1.1140293253639522E-002   2.7853711697266803E-002
   3.5435768418159042E-002  -1.0174372019713496E-002   2.7314174111044531E-002
   3.2951177132832632E-002  -9.3194684694045682E-003   2.6876758639839293E-002
   3.0466585847506208E-002  -8.5755826027128779E-003   2.6541465283650256E-002
   2.7981994562179702E-002  -7.9427144196382304E-003   2.6308294042477365E-002
   3.4513566485205760E-002  -9.9635330596580252E-003   3.3473091666156696E-002
   3.2145345686299009E-002  -9.1462561693357869E-003   3.2879668084944191E-002
   2.9777124887392328E-002  -8.3871072837191363E-003   3.2416863361555082E-002
   2.7408904088485612E-002  -7.6860864028077611E-003   3.2084677495988576E-002
   2.5040683289578869E-002  -7.0431935266017653E-003   3.1883110488245769E-002
   3.1123211744693305E-002  -8.7867728656764177E-003   3.8917382451986976E-002
   2.8899858175013074E-002  -8.1181403189581336E-003   3.8322962554695666E-002
   2.6676504605332864E-002  -7.4547460980333713E-003   3.7887658258034251E-002
   2.4453151035652636E-002  -6.7965902029024222E-003   3.7611469562002675E-002
   2.2229797465972423E-002  -6.1436726335650782E-003   3.7494396466601077E-002
   2.7749295481948117E-002  -7.6100126716948657E-003   4.4186584054757602E-002
   2.5699305884301148E-002  -7.0900244685804525E-003   4.3644057520299158E-002
   2.3649316286654218E-002  -6.5223849123477728E-003   4.3289143329277482E-002
   2.1599326689007329E-002  -5.9070940029969723E-003   4.3121841481692465E-002
   1.9549337091360322E-002  -5.2441517405285021E-003   4.3142151977543813E-002
   2.4391817696970297E-002  -6.4332524777133138E-003   4.9280696474468422E-002
   2.2543688814163410E-002  -6.0619086182027715E-003   4.8842952981754562E-002
   2.0695559931356466E-002  -5.5900237266623132E-003   4.8621318575284178E-002
   1.8847431048549579E-002  -5.0175978030921123E-003   4.8615793255057438E-002
   1.6999302165742636E-002  -4.3446308474920370E-003   4.8826377021073730E-002
   2.7981994562179702E-002  -7.9427144196382304E-003   2.6308294042477365E-002
   2.5660963488649990E-002  -7.3162740021732731E-003   2.5689568035295984E-002
   2.3339932415120224E-002  -6.5916714323117631E-003   2.5031021819871602E-002
   2.1018901341590540E-002  -5.7689067100525904E-003   2.4332655396204744E-002
   1.8697870268060746E-002  -4.8479798353967540E-003   2.3594468764294274E-002
   2.5040683289578869E-002  -7.0431935266017653E-003   3.1883110488245769E-002
   2.2714424948984041E-002  -6.4115593728183984E-003   3.1496289227365082E-002
   2.0388166608389352E-002  -5.7443146591751315E-003   3.1138833640597552E-002
   1.8061908267794601E-002  -5.0414593856719647E-003   3.0810743727942791E-002
   1.5735649927199835E-002  -4.3029935523088980E-003   3.0512019489400632E-002
   2.2229797465972423E-002  -6.1436726335650782E-003   3.7494396466601077E-002
   1.9967497740668472E-002  -5.5068447434631906E-003   3.7276928359484041E-002
   1.7705198015364493E-002  -4.8969578860386109E-003   3.7158011808835989E-002
   1.5442898290060521E-002  -4.3140120612911170E-003   3.7137646814656547E-002
   1.3180598564756507E-002  -3.7580072692208755E-003   3.7215833376945895E-002
   1.9549337091360322E-002  -5.2441517405285021E-003   4.3142151977543813E-002
   1.7420181863702949E-002  -4.6021301141079829E-003   4.3031485431653277E-002
   1.5291026636045681E-002  -4.0496011129019793E-003   4.3088556324587607E-002
   1.3161871408388306E-002  -3.5865647369099918E-003   4.3313364656346040E-002
   1.1032716180731039E-002  -3.2130209861328252E-003   4.3705910426929243E-002
   1.6999302165742636E-002  -4.3446308474920370E-003   4.8826377021073730E-002
   1.5072477318087779E-002  -3.6974154847531637E-003   4.8759960443872541E-002
   1.3145652470432867E-002  -3.2022443397653755E-003   4.8930467187851823E-002
   1.1218827622777955E-002  -2.8591174125296229E-003   4.9337897253011742E-002
   9.2920027751230427E-003  -2.6680347030449969E-003   4.9982250639351467E-002
   1.8697870268060746E-002  -4.8479798353967540E-003   2.3594468764294274E-002
   1.5667904778383979E-002  -4.0766392849744815E-003   2.4397481894987916E-002
   1.2637939288707323E-002  -3.7026335354153894E-003   2.5669298370741167E-002
   9.6079737990306391E-003  -3.7259625867204355E-003   2.7409918191554500E-002
   6.5780083093538999E-003  -4.1466264388893004E-003   2.9619341357427387E-002
   1.5735649927199835E-002  -4.3029935523088980E-003   3.0512019489400632E-002
   1.3157732082638901E-002  -3.7698392930220481E-003   3.1283661644129712E-002
   1.0579814238078078E-002  -3.6829187417479203E-003   3.2490595744030792E-002
   8.0018963935171508E-003  -4.0422318984861677E-003   3.4132821789103651E-002
   5.4239785489563208E-003  -4.8477787632377201E-003   3.6210339779348510E-002
   1.3180598564756507E-002  -3.7580072692208755E-003   3.7215833376945895E-002
   1.1021216965423616E-002  -3.4630393010698368E-003   3.7907205648561537E-002
   8.8618353660906007E-003  -3.6632039480805345E-003   3.9000358465461210E-002
   6.7024537667576337E-003  -4.3585012102523371E-003   4.0495291827644983E-002
   4.5430721674246388E-003  -5.5489310875858622E-003   4.2392005735112176E-002
   1.1032716180731039E-002  -3.2130209861328252E-003   4.3705910426929243E-002
   9.2583594267379131E-003  -3.1562393091175145E-003   4.4268113908282905E-002
   7.4840026727449292E-003  -3.6434891544128850E-003   4.5198586535032663E-002
   5.7096459187518742E-003  -4.6747705220186210E-003   4.6497328307178107E-002
   3.9352891647588192E-003  -6.2500834119341431E-003   4.8164339224720125E-002
   9.2920027751230427E-003  -2.6680347030449969E-003   4.9982250639351467E-002
   7.8691594665820097E-003  -2.8494393171655252E-003   5.0366386423294163E-002
   6.4463161580410044E-003  -3.6237743607457906E-003   5.1085279952745033E-002
   5.0234728494999853E-003  -4.9910398337841555E-003   5.2138931227703578E-002
   3.6006295409589661E-003  -6.9512357362824240E-003   5.3527340248170630E-002
   6.5780083093538999E-003  -4.1466264388893004E-003   2.9619341357427387E-002
   6.0523348003657107E-003  -6.1455113635673353E-003   3.4085818959410097E-002
   5.5266612913776325E-003  -1.0903503632399364E-002   3.9240552420342578E-002
   5.0009877823895266E-003  -1.8420603245385782E-002   4.5083541740224303E-002
   4.4753142734014206E-003  -2.8696810202526013E-002   5.1614786919056854E-002
   5.4239785489563208E-003  -4.8477787632377201E-003   3.6210339779348510E-002
   5.4818417220716398E-003  -6.9915149823661094E-003   3.8350595410902300E-002
   5.5397048951869865E-003  -1.1365396202236644E-002   4.0969668547712779E-002
   5.5975680683022985E-003  -1.7969422422849657E-002   4.4067559189780336E-002
   5.6554312414175967E-003  -2.6803593644204371E-002   4.7644267337104917E-002
   4.5430721674246388E-003  -5.5489310875858622E-003   4.2392005735112176E-002
   4.9750336689504820E-003  -7.8375186011651055E-003   4.2735001739649559E-002
   5.4069951704763114E-003  -1.1827288772074354E-002   4.3347376895750675E-002
   5.8389566720021199E-003  -1.7518241600313584E-002   4.4229131203415352E-002
   6.2709181735279285E-003  -2.4910377085882951E-002   4.5380264662645331E-002
   3.9352891647588192E-003  -6.2500834119341431E-003   4.8164339224720125E-002
   4.5319106410022549E-003  -8.6835222199638795E-003   4.7239037945652818E-002
   5.1285321172456662E-003  -1.2289181341911738E-002   4.6373677464455740E-002
   5.7251535934891417E-003  -1.7067060777777705E-002   4.5568257781130522E-002
   6.3217750697325686E-003  -2.3017160527561420E-002   4.4822778895676457E-002
   3.6006295409589661E-003  -6.9512357362824240E-003   5.3527340248170630E-002
   4.1524726382270172E-003  -9.5295258387628756E-003   5.1862704028910134E-002
   4.7043157354950960E-003  -1.2751073911749400E-002   5.0048570253828695E-002
   5.2561588327632303E-003  -1.6615879955241622E-002   4.8084938922925036E-002
   5.8080019300312813E-003  -2.1123943969239889E-002   4.5971810036199212E-002
   5.2291462537069844E-002  -1.9060591549823591E-002   4.8440525812614654E-002
   4.9948777544496892E-002  -1.4119450654732080E-002   4.9913070746586408E-002
   4.7606092551923884E-002  -1.0973697603471624E-002   5.0592777422606733E-002
   4.5263407559350877E-002  -9.6233323960425200E-003   5.0479645840674894E-002
   4.2920722566777897E-002  -1.0068355032444520E-002   4.9573676000791267E-002
   4.8654761417904285E-002  -1.5231051287345199E-002   5.7884426522657628E-002
   4.5753109584418139E-002  -1.2474157744408076E-002   5.6592750616189069E-002
   4.2851457750931951E-002  -1.0661104982589556E-002   5.4975979285845800E-002
   3.9949805917445770E-002  -9.7918930018895158E-003   5.3034112531628333E-002
   3.7048154083959617E-002  -9.8665218023080703E-003   5.0767150353536183E-002
   4.3389582353734343E-002  -1.1401511024866778E-002   6.4718306349189944E-002
   4.0396706513412359E-002  -1.0828864834084184E-002   6.1513956664993361E-002
   3.7403830673090346E-002  -1.0348512361707397E-002   5.8452254390999873E-002
   3.4410954832768334E-002  -9.9604536077365097E-003   5.5533199527209004E-002
   3.1418078992446342E-002  -9.6646885721715092E-003   5.2756792073620912E-002
   3.6495925344560143E-002  -7.5719707623883720E-003   6.8942165292211199E-002
   3.3879568331479641E-002  -9.1835719237602226E-003   6.4676688892999573E-002
   3.1263211318399119E-002  -1.0035919740825284E-002   6.1021602738068004E-002
   2.8646854305318624E-002  -1.0129014213583531E-002   5.7976906827416685E-002
   2.6030497292238101E-002  -9.4628553420350037E-003   5.5542601161045591E-002
   2.7973790390381559E-002  -3.7424304999099656E-003   7.0556003351721852E-002
   2.6201695038619882E-002  -7.5382790134362887E-003   6.6080947300207526E-002
   2.4429599686858233E-002  -9.7233271199431426E-003   6.2684024327050891E-002
   2.2657504335096577E-002  -1.0297574819430576E-002   6.0365234432251669E-002
   2.0885408983334908E-002  -9.2610221118984981E-003   5.9124577615810026E-002
   4.2920722566777897E-002  -1.0068355032444520E-002   4.9573676000791267E-002
   4.1880215960628991E-002  -1.1147323609038390E-002   4.9462969834738191E-002
   4.0839709354480100E-002  -1.1698796222184740E-002   4.9632498097399474E-002
   3.9799202748331229E-002  -1.1722772871883284E-002   5.0082260788775201E-002
   3.8758696142182303E-002  -1.1219253558134634E-002   5.0812257908865288E-002
   3.7048154083959617E-002  -9.8665218023080703E-003   5.0767150353536183E-002
   3.6262735059856416E-002  -1.0271997208812500E-002   5.1278612498316389E-002
   3.5477316035753242E-002  -1.0395325046370765E-002   5.2020015378473880E-002
   3.4691897011650062E-002  -1.0236505314982301E-002   5.2991358994008163E-002
   3.3906477987546882E-002  -9.7955380146475535E-003   5.4192643344919689E-002
   3.1418078992446342E-002  -9.6646885721715092E-003   5.2756792073620912E-002
   3.0837453857051535E-002  -9.3966708085867073E-003   5.3645074134733475E-002
   3.0256828721656703E-002  -9.0918538705567278E-003   5.4713003237885770E-002
   2.9676203586261857E-002  -8.7502377580812047E-003   5.5960579383077608E-002
   2.9095578450867070E-002  -8.3718224711603895E-003   5.7387802570309274E-002
   2.6030497292238101E-002  -9.4628553420350037E-003   5.5542601161045591E-002
   2.5604372352214293E-002  -8.5213444083609494E-003   5.6562354743989296E-002
   2.5178247412190498E-002  -7.7883826947426661E-003   5.7711461675635331E-002
   2.4752122472166703E-002  -7.2639702011801652E-003   5.8989921955983737E-002
   2.4325997532142866E-002  -6.9481069276733504E-003   6.0397735585034390E-002
   2.0885408983334908E-002  -9.2610221118984981E-003   5.9124577615810026E-002
   2.0563490545344759E-002  -7.6460180081350526E-003   6.0030454326083782E-002
   2.0241572107354611E-002  -6.4849115189287293E-003   6.1015390691722543E-002
   1.9919653669364448E-002  -5.7777026442790182E-003   6.2079386712726267E-002
   1.9597735231374286E-002  -5.5243913841861447E-003   6.3222442389095079E-002
   3.8758696142182303E-002  -1.1219253558134634E-002   5.0812257908865288E-002
   3.6524736838248806E-002  -1.0466353430768460E-002   4.9759516050262631E-002
   3.4290777534315295E-002  -9.7421876396151103E-003   4.8979534225977617E-002
   3.2056818230381791E-002  -9.0467561846746848E-003   4.8472312436010342E-002
   2.9822858926448287E-002  -8.3800590659472984E-003   4.8237850680360572E-002
   3.3906477987546882E-002  -9.7955380146475535E-003   5.4192643344919689E-002
   3.1940130882499848E-002  -9.2169486634574027E-003   5.3158253367117048E-002
   2.9973783777452849E-002  -8.6452627795029352E-003   5.2386327752769773E-002
   2.8007436672405812E-002  -8.0804803627841613E-003   5.1876866501877825E-002
   2.6041089567358816E-002  -7.5226014133010777E-003   5.1629869614441048E-002
   2.9095578450867070E-002  -8.3718224711603895E-003   5.7387802570309274E-002
   2.7386547873844161E-002  -7.9675438961462064E-003   5.6393595342283984E-002
   2.5677517296821235E-002  -7.5483379193904757E-003   5.5651556806851611E-002
   2.3968486719798343E-002  -7.1142045408934696E-003   5.5161686964012205E-002
   2.2259456142775427E-002  -6.6651437606548569E-003   5.4923985813765785E-002
   2.4325997532142866E-002  -6.9481069276733504E-003   6.0397735585034390E-002
   2.2863987812281706E-002  -6.7181391288352460E-003   5.9465541975763675E-002
   2.1401978092420528E-002  -6.4514130592782416E-003   5.8775221388223289E-002
   1.9939968372559340E-002  -6.1479287190027510E-003   5.8326773822413754E-002
   1.8477958652698159E-002  -5.8076861080086362E-003   5.8120199278334471E-002
   1.9597735231374286E-002  -5.5243913841861447E-003   6.3222442389095079E-002
   1.8372450697812473E-002  -5.4687343615239248E-003   6.2374093267555775E-002
   1.7147166164250646E-002  -5.3544881991659105E-003   6.1757321496884843E-002
   1.5921881630688813E-002  -5.1816528971120775E-003   6.1372127077082075E-002
   1.4696597097127007E-002  -4.9502284553624709E-003   6.1218510008147431E-002
   2.9822858926448287E-002  -8.3800590659472984E-003   4.8237850680360572E-002
   2.8465098619078755E-002  -7.7691361912168300E-003   4.8336345086294363E-002
   2.7107338311709278E-002  -7.2410274682676856E-003   4.8542984187290250E-002
   2.5749578004339788E-002  -6.7957328970997752E-003   4.8857767983348316E-002
   2.4391817696970297E-002  -6.4332524777133138E-003   4.9280696474468422E-002
   2.6041089567358816E-002  -7.5226014133010777E-003   5.1629869614441048E-002
   2.4804485882064659E-002  -6.9896088198450335E-003   5.1678670183594483E-002
   2.3567882196770529E-002  -6.4994854712073502E-003   5.1861639301836654E-002
   2.2331278511476378E-002  -6.0522313673877157E-003   5.2178776969167215E-002
   2.1094674826182241E-002  -5.6478465083865670E-003   5.2630083185586485E-002
   2.2259456142775427E-002  -6.6651437606548569E-003   5.4923985813765785E-002
   2.1170032933583167E-002  -6.2100814484732092E-003   5.4963037453101687E-002
   2.0080609724390942E-002  -5.7579434741469177E-003   5.5162281495552870E-002
   1.8991186515198721E-002  -5.3087298376756041E-003   5.5521717941119174E-002
   1.7901763306006485E-002  -4.8624405390598202E-003   5.6041346789800633E-002
   1.8477958652698159E-002  -5.8076861080086362E-003   5.8120199278334471E-002
   1.7561739773634347E-002  -5.4305540771013433E-003   5.8189446894816067E-002
   1.6645520894570574E-002  -5.0164014770863116E-003   5.8444910768439301E-002
   1.5729302015506756E-002  -4.5652283079636296E-003   5.8886590899204450E-002
   1.4813083136442994E-002  -4.0770345697331289E-003   5.9514487287111027E-002
   1.4696597097127007E-002  -4.9502284553624709E-003   6.1218510008147431E-002
   1.3979606402218195E-002  -4.6510267057296439E-003   6.1357898508737518E-002
   1.3262615707309383E-002  -4.2748594800260525E-003   6.1709527120495961E-002
   1.2545625012400571E-002  -3.8217267782514365E-003   6.2273395843422688E-002
   1.1828634317491787E-002  -3.2916286004063267E-003   6.3049504677517576E-002
   2.4391817696970297E-002  -6.4332524777133138E-003   4.9280696474468422E-002
   2.2543688814163410E-002  -6.0619086182027715E-003   4.8842952981754562E-002
   2.0695559931356466E-002  -5.5900237266623132E-003   4.8621318575284178E-002
   1.8847431048549579E-002  -5.0175978030921123E-003   4.8615793255057438E-002
   1.6999302165742636E-002  -4.3446308474920370E-003   4.8826377021073730E-002
   2.1094674826182241E-002  -5.6478465083865670E-003   5.2630083185586485E-002
   1.9461419272632563E-002  -5.2393033768999286E-003   5.2371198697407972E-002
   1.7828163719082898E-002  -4.7795744556246023E-003   5.2325951781500818E-002
   1.6194908165533227E-002  -4.2686597445596997E-003   5.2494342437864855E-002
   1.4561652611983528E-002  -3.7065592437054429E-003   5.2876370666499362E-002
   1.7901763306006485E-002  -4.8624405390598202E-003   5.6041346789800633E-002
   1.6480909567741633E-002  -4.4166981355974189E-003   5.5911966063917296E-002
   1.5060055829476830E-002  -3.9691251845866554E-003   5.5993751396332628E-002
   1.3639202091212013E-002  -3.5197216860270615E-003   5.6286702787046415E-002
   1.2218348352947175E-002  -3.0684876399190153E-003   5.6790820236059220E-002
   1.4813083136442994E-002  -4.0770345697331289E-003   5.9514487287111027E-002
   1.3602159699490624E-002  -3.5940928942947981E-003   5.9465255081281865E-002
   1.2391236262538269E-002  -3.1586759135484935E-003   5.9624717419779205E-002
   1.1180312825585896E-002  -2.7707836274944251E-003   5.9992874302602715E-002
   9.9693893886335476E-003  -2.4304160361327265E-003   6.0569725729752326E-002
   1.1828634317491787E-002  -3.2916286004063267E-003   6.3049504677517576E-002
   1.0825169667879511E-002  -2.7714876529922328E-003   6.3031065749502291E-002
   9.8217050182672211E-003  -2.3482266425109422E-003   6.3218849851840619E-002
   8.8182403686549518E-003  -2.0218455689620524E-003   6.3612856984532951E-002
   7.8147757190426825E-003  -1.7923444323459936E-003   6.4213087147579229E-002
   1.6999302165742636E-002  -4.3446308474920370E-003   4.8826377021073730E-002
   1.5072477318087779E-002  -3.6974154847531637E-003   4.8759960443872541E-002
   1.3145652470432867E-002  -3.2022443397653755E-003   4.8930467187851823E-002
   1.1218827622777955E-002  -2.8591174125296229E-003   4.9337897253011742E-002
   9.2920027751230427E-003  -2.6680347030449969E-003   4.9982250639351467E-002
   1.4561652611983528E-002  -3.7065592437054429E-003   5.2876370666499362E-002
   1.2875980857049815E-002  -3.1862014739919564E-003   5.2765171420651624E-002
   1.1190309102116047E-002  -2.8005149563474219E-003   5.2899355039065427E-002
   9.5046373471823001E-003  -2.5494996907729356E-003   5.3278921521741476E-002
   7.8189655922485668E-003  -2.4331556772675400E-003   5.3903870868679538E-002
   1.2218348352947175E-002  -3.0684876399190153E-003   5.6790820236059220E-002
   1.0782289233816196E-002  -2.6749874632307213E-003   5.6652211287246290E-002
   9.3462301146852722E-003  -2.3987855729296764E-003   5.6767444745776816E-002
   7.9101709955543206E-003  -2.2398819690162448E-003   5.7136520611650983E-002
   6.4741118764233413E-003  -2.1982766514901941E-003   5.7759438884868897E-002
   9.9693893886335476E-003  -2.4304160361327265E-003   6.0569725729752326E-002
   8.7914024483870274E-003  -2.1637734524695001E-003   6.0421080043656442E-002
   7.6134155081404517E-003  -1.9970561895118824E-003   6.0534736307985684E-002
   6.4354285678938916E-003  -1.9302642472596113E-003   6.0910694522740526E-002
   5.2574416276473558E-003  -1.9633976257129038E-003   6.1548954687920168E-002
   7.8147757190426825E-003  -1.7923444323459936E-003   6.4213087147579229E-002
   6.9033205007621723E-003  -1.6525594417082234E-003   6.4071777689882481E-002
   5.9918652824816482E-003  -1.5953268060939774E-003   6.4201229725692477E-002
   5.0804100642011449E-003  -1.6206465255030333E-003   6.4601443255009328E-002
   4.1689548459206416E-003  -1.7285185999353914E-003   6.5272418277833255E-002
   9.2920027751230427E-003  -2.6680347030449969E-003   4.9982250639351467E-002
   7.8691594665820097E-003  -2.8494393171655252E-003   5.0366386423294163E-002
   6.4463161580410044E-003  -3.6237743607457906E-003   5.1085279952745033E-002
   5.0234728494999853E-003  -4.9910398337841555E-003   5.2138931227703578E-002
   3.6006295409589661E-003  -6.9512357362824240E-003   5.3527340248170630E-002
   7.8189655922485668E-003  -2.4331556772675400E-003   5.3903870868679538E-002
   6.7026441853502011E-003  -2.6367660647956814E-003   5.3838870286077867E-002
   5.5863227784518493E-003  -3.3456140023208902E-003   5.4052155761253662E-002
   4.4700013715534767E-003  -4.5596994898431872E-003   5.4543727294206729E-002
   3.3536799646551596E-003  -6.2790225273627875E-003   5.5313584884936873E-002
   6.4741118764233413E-003  -2.1982766514901941E-003   5.7759438884868897E-002
   5.6078406834368794E-003  -2.4240928124255601E-003   5.7332994815185251E-002
   4.7415694904504313E-003  -3.0674536438964339E-003   5.7128365115547725E-002
   3.8752982974639728E-003  -4.1283591459022190E-003   5.7145549785956873E-002
   3.0090271044774936E-003  -5.6068093184431511E-003   5.7384548826412751E-002
   5.2574416276473558E-003  -1.9633976257129038E-003   6.1548954687920168E-002
   4.5847489608420548E-003  -2.2114195600553554E-003   6.0848760010615961E-002
   3.9120562940367573E-003  -2.7892932854717556E-003   6.0313908015627526E-002
   3.2393636272314589E-003  -3.6970188019611397E-003   5.9944398702954933E-002
   2.5666709604261588E-003  -4.9345961095236257E-003   5.9740232072597918E-002
   4.1689548459206416E-003  -1.7285185999353914E-003   6.5272418277833255E-002
   3.6333690175657379E-003  -1.9987463076855949E-003   6.4386165872370338E-002
   3.0977831892108343E-003  -2.5111329270471328E-003   6.3608784461492707E-002
   2.5621973608559168E-003  -3.2656784580201853E-003   6.2940274045200084E-002
   2.0266115325010270E-003  -4.2623829006038783E-003   6.2380634623492304E-002
   3.6006295409589661E-003  -6.9512357362824240E-003   5.3527340248170630E-002
   4.1524726382270172E-003  -9.5295258387628756E-003   5.1862704028910134E-002
   4.7043157354950960E-003  -1.2751073911749400E-002   5.0048570253828695E-002
   5.2561588327632303E-003  -1.6615879955241622E-002   4.8084938922925036E-002
   5.8080019300312813E-003  -2.1123943969239889E-002   4.5971810036199212E-002
   3.3536799646551596E-003  -6.2790225273627875E-003   5.5313584884936873E-002
   3.7747371255594658E-003  -8.5406338014435979E-003   5.2958658554445426E-002
   4.1957942864637859E-003  -1.1381583998649691E-002   5.0491657907048237E-002
   4.6168514473681060E-003  -1.4801873118981165E-002   4.7912582942746001E-002
   5.0379086082724123E-003  -1.8801501162438061E-002   4.5221433661537080E-002
   3.0090271044774936E-003  -5.6068093184431511E-003   5.7384548826412751E-002
   3.3367215679342352E-003  -7.5517417641244311E-003   5.4403251432070338E-002
   3.6644160313910254E-003  -1.0012094085550177E-002   5.1347302959738522E-002
   3.9921104948477601E-003  -1.2987866282720868E-002   4.8216703409417291E-002
   4.3198049583045017E-003  -1.6479058355636234E-002   4.5011452781106409E-002
   2.5666709604261588E-003  -4.9345961095236257E-003   5.9740232072597918E-002
   2.8384259653514207E-003  -6.5628497268050978E-003   5.6196482661785369E-002
   3.1101809702766981E-003  -8.6426041724506769E-003   5.2615505411899653E-002
   3.3819359752019478E-003  -1.1173859446460380E-002   4.8997300322940793E-002
   3.6536909801272097E-003  -1.4156615548834406E-002   4.5341867394907837E-002
   2.0266115325010270E-003  -4.2623829006038783E-003   6.2380634623492304E-002
   2.2798503178109580E-003  -5.5739576894858756E-003   5.8338352243590186E-002
   2.5330891031209030E-003  -7.2731142593510101E-003   5.4296265263531041E-002
   2.7863278884308479E-003  -9.3598526102001839E-003   5.0254373683314701E-002
   3.0395666737407789E-003  -1.1834172742032578E-002   4.6212677502940558E-002
   2.7973790390381559E-002  -3.7424304999099656E-003   7.0556003351721852E-002
   2.6201695038619882E-002  -7.5382790134362887E-003   6.6080947300207526E-002
   2.4429599686858233E-002  -9.7233271199431426E-003   6.2684024327050891E-002
   2.2657504335096577E-002  -1.0297574819430576E-002   6.0365234432251669E-002
   2.0885408983334908E-002  -9.2610221118984981E-003   5.9124577615810026E-002
   1.9223148046603161E-002  -2.8068228649453797E-003   6.5785210103534386E-002
   1.8370408462874827E-002  -5.6537092548494539E-003   6.3732290264406521E-002
   1.7517668879146478E-002  -7.2924953379610580E-003   6.2439948882987956E-002
   1.6664929295418136E-002  -7.7231811142803170E-003   6.1908185959278383E-002
   1.5812189711689795E-002  -6.9457665838070781E-003   6.2137001493277971E-002
   1.1643968868629458E-002  -1.8712152299808771E-003   6.2164729029082683E-002
   1.1393030432286039E-002  -3.7691394962626745E-003   6.2131245302114335E-002
   1.1142091995942623E-002  -4.8616635559790428E-003   6.2540785412206604E-002
   1.0891153559599220E-002  -5.1487874091300338E-003   6.3393349359359696E-002
   1.0640215123255810E-002  -4.6305110557156026E-003   6.4688937143573558E-002
   5.2362528564604185E-003  -9.3560759501634672E-004   5.9694560128366748E-002
   5.2695609468535482E-003  -1.8845697376758536E-003   6.1277812413330676E-002
   5.3028690372466753E-003  -2.4308317739969929E-003   6.2986533914707141E-002
   5.3361771276398094E-003  -2.5743937039797906E-003   6.4820724632495857E-002
   5.3694852180329374E-003  -2.3152555276241549E-003   6.6780384566696854E-002
   1.0096083691291113E-011   3.9948211405516076E-011   5.8374703401386618E-002
   6.5773567148319501E-012   2.0910939646512361E-011   6.1171991598055975E-002
   3.0586297383727867E-012   7.9850570600115134E-012   6.3777194390489234E-002
  -4.6009723808637659E-013   1.1705220126501104E-012   6.6190311778686561E-002
  -3.9788242145455399E-012   4.6729287106472839E-013   6.8411343762647847E-002
   2.0885408983334908E-002  -9.2610221118984981E-003   5.9124577615810026E-002
   2.0563490545344759E-002  -7.6460180081350526E-003   6.0030454326083782E-002
   2.0241572107354611E-002  -6.4849115189287293E-003   6.1015390691722543E-002
   1.9919653669364448E-002  -5.7777026442790182E-003   6.2079386712726267E-002
   1.9597735231374286E-002  -5.5243913841861447E-003   6.3222442389095079E-002
   1.5812189711689795E-002  -6.9457665838070781E-003   6.2137001493277971E-002
   1.5569685917659573E-002  -5.7345135054903962E-003   6.2547317462526481E-002
   1.5327182123629352E-002  -4.8636836382796728E-003   6.3037403064329936E-002
   1.5084678329599126E-002  -4.3332769821746199E-003   6.3607258298688213E-002
   1.4842174535568901E-002  -4.1432935371755186E-003   6.4256883165601381E-002
   1.0640215123255810E-002  -4.6305110557156026E-003   6.4688937143573558E-002
   1.0477835950375426E-002  -3.8230090028457814E-003   6.4717166775247872E-002
   1.0315456777495038E-002  -3.2424557576307203E-003   6.4825876016667033E-002
   1.0153077604614653E-002  -2.8888513200703864E-003   6.5015064867831027E-002
   9.9906984317342726E-003  -2.7621956901647260E-003   6.5284733328739727E-002
   5.3694852180329374E-003  -2.3152555276241549E-003   6.6780384566696854E-002
   5.2879406434922999E-003  -1.9115045002012013E-003   6.6540002264248138E-002
   5.2063960689516658E-003  -1.6212278769817713E-003   6.6380809548734071E-002
   5.1248514944110257E-003  -1.4444256579661261E-003   6.6302806420154736E-002
   5.0433069198703943E-003  -1.3810978431540721E-003   6.6305992878509981E-002
  -3.9788242145455399E-012   4.6729287106472839E-013   6.8411343762647847E-002
  -2.9898028497399309E-012   2.4435176104731227E-012   6.8015823929527069E-002
  -2.0007745460404180E-012   3.6672609393662015E-012   6.7702203660530869E-002
  -1.0117479770643811E-012   4.1382106075182890E-012   6.7470482955659217E-002
  -2.2724877535296173E-014   3.8567482540941000E-012   6.7320661814912419E-002
   1.9597735231374286E-002  -5.5243913841861447E-003   6.3222442389095079E-002
   1.8372450697812473E-002  -5.4687343615239248E-003   6.2374093267555775E-002
   1.7147166164250646E-002  -5.3544881991659105E-003   6.1757321496884843E-002
   1.5921881630688813E-002  -5.1816528971120775E-003   6.1372127077082075E-002
   1.4696597097127007E-002  -4.9502284553624709E-003   6.1218510008147431E-002
   1.4842174535568901E-002  -4.1432935371755186E-003   6.4256883165601381E-002
   1.3867153298483835E-002  -4.1015507703370258E-003   6.3382570078881595E-002
   1.2892132061398786E-002  -4.0158661487145475E-003   6.2777206234247054E-002
   1.1917110824313721E-002  -3.8862396723074524E-003   6.2440791631698002E-002
   1.0942089587228657E-002  -3.7126713411166357E-003   6.2373326271234375E-002
   9.9906984317342726E-003  -2.7621956901647260E-003   6.5284733328739727E-002
   9.3033123823431721E-003  -2.7343671791501406E-003   6.4369808991927790E-002
   8.6159263329520751E-003  -2.6772440982630111E-003   6.3761205788418179E-002
   7.9285402835609763E-003  -2.5908264475031032E-003   6.3458923718211338E-002
   7.2411542341698706E-003  -2.4751142268707726E-003   6.3462962781306934E-002
   5.0433069198703943E-003  -1.3810978431540721E-003   6.6305992878509981E-002
   4.6809279493904617E-003  -1.3671835879631930E-003   6.5335810006694250E-002
   4.3185489789105292E-003  -1.3386220478113393E-003   6.4709320159398093E-002
   3.9561700084305967E-003  -1.2954132226986161E-003   6.4426523336621674E-002
   3.5937910379506641E-003  -1.2375571126249235E-003   6.4487419538365162E-002
  -2.2724877535296173E-014   3.8567482540941000E-012   6.7320661814912419E-002
  -3.7429087607065981E-013   3.2236435743016045E-012   6.6280573123181030E-002
  -7.2585687460602344E-013   2.6399438191049285E-012   6.5621549347186670E-002
  -1.0774263425883390E-012   2.1058571553211891E-012   6.5343590486929282E-002
  -1.4289888716767507E-012   1.6208701048014973E-012   6.5446696542408811E-002
   1.4696597097127007E-002  -4.9502284553624709E-003   6.1218510008147431E-002
   1.3979606402218195E-002  -4.6510267057296439E-003   6.1357898508737518E-002
   1.3262615707309383E-002  -4.2748594800260525E-003   6.1709527120495961E-002
   1.2545625012400571E-002  -3.8217267782514365E-003   6.2273395843422688E-002
   1.1828634317491787E-002  -3.2916286004063267E-003   6.3049504677517576E-002
   1.0942089587228657E-002  -3.7126713411166357E-003   6.2373326271234375E-002
   1.0429090894143955E-002  -3.4882700290063962E-003   6.2625383610882462E-002
   9.9160922010592539E-003  -3.2061446098418239E-003   6.3073184843010582E-002
   9.4030935079745595E-003  -2.8662950836230751E-003   6.3716729967618554E-002
   8.8900948148898512E-003  -2.4687214503496535E-003   6.4556018984706365E-002
   7.2411542341698706E-003  -2.4751142268707726E-003   6.3462962781306934E-002
   6.9156513242209748E-003  -2.3255133522831761E-003   6.3808447590996478E-002
   6.5901484142720686E-003  -2.1374297396576439E-003   6.4333180074477803E-002
   6.2646455043231623E-003  -1.9108633889944899E-003   6.5037160231750671E-002
   5.9391425943742665E-003  -1.6458143002932024E-003   6.5920388062815138E-002
   3.5937910379506641E-003  -1.2375571126249235E-003   6.4487419538365162E-002
   3.4392876924492369E-003  -1.1627566755600532E-003   6.4907090449079732E-002
   3.2847843469478071E-003  -1.0687148694734395E-003   6.5489512814897607E-002
   3.1302810014463920E-003  -9.5543169436585005E-004   6.6234686635818982E-002
   2.9757776559449570E-003  -8.2290715023669581E-004   6.7142611911843522E-002
  -1.4289888716767507E-012   1.6208701048014973E-012   6.5446696542408811E-002
  -1.1712471270630687E-012   1.1631251517485452E-012   6.5921312185132142E-002
  -9.1350538244938662E-013   7.1072314700160177E-013   6.6542183064270372E-002
  -6.5576016838875262E-013   2.6261284813422492E-013   6.7309309179823598E-002
  -3.9802189322202253E-013  -1.8007817459420039E-013   6.8222690531791863E-002
   1.1828634317491787E-002  -3.2916286004063267E-003   6.3049504677517576E-002
   1.0825169667879511E-002  -2.7714876529922328E-003   6.3031065749502291E-002
   9.8217050182672211E-003  -2.3482266425109422E-003   6.3218849851840619E-002
   8.8182403686549518E-003  -2.0218455689620524E-003   6.3612856984532951E-002
   7.8147757190426825E-003  -1.7923444323459936E-003   6.4213087147579229E-002
   8.8900948148898512E-003  -2.4687214503496535E-003   6.4556018984706365E-002
   8.1040139786822674E-003  -2.0786157398824945E-003   6.4451558177028689E-002
   7.3179331424746627E-003  -1.7611699820815480E-003   6.4575641965806313E-002
   6.5318523062670754E-003  -1.5163841769468868E-003   6.4928270351039388E-002
   5.7457714700594742E-003  -1.3442583244784867E-003   6.5509443332728179E-002
   5.9391425943742665E-003  -1.6458143002932024E-003   6.5920388062815138E-002
   5.3927671376729144E-003  -1.3857438267728950E-003   6.5754125359741469E-002
   4.8463916809715797E-003  -1.1741133216523758E-003   6.5838728819224757E-002
   4.3000162242702398E-003  -1.0109227849316657E-003   6.6174198441265139E-002
   3.7536407675688929E-003  -8.9617221661075774E-004   6.6760534225862589E-002
   2.9757776559449570E-003  -8.2290715023669581E-004   6.7142611911843522E-002
   2.6914291448514507E-003  -6.9287191366333711E-004   6.6938767297640436E-002
   2.4070806337579470E-003  -5.8705666122325917E-004   6.7008110412096034E-002
   2.1227321226644480E-003  -5.0546139291652789E-004   6.7350641255210147E-002
   1.8383836115709370E-003  -4.4808610874302879E-004   6.7966359826982792E-002
  -3.9802189322202253E-013  -1.8007817459420039E-013   6.8222690531791863E-002
   2.1788126858268697E-013  -5.5355720007810305E-013   6.8005483990725812E-002
   8.3378096094044452E-013  -7.9389272933383381E-013   6.8083786744419950E-002
   1.4496841227451540E-012  -9.0113333461872003E-013   6.8457598792874358E-002
   2.0655838151029116E-012  -8.7541085491693593E-013   6.9126920136088787E-002
   7.8147757190426825E-003  -1.7923444323459936E-003   6.4213087147579229E-002
   6.9033205007621723E-003  -1.6525594417082234E-003   6.4071777689882481E-002
   5.9918652824816482E-003  -1.5953268060939774E-003   6.4201229725692477E-002
   5.0804100642011449E-003  -1.6206465255030333E-003   6.4601443255009328E-002
   4.1689548459206416E-003  -1.7285185999353914E-003   6.5272418277833255E-002
   5.7457714700594742E-003  -1.3442583244784867E-003   6.5509443332728179E-002
   5.0943533230304872E-003  -1.2394195814815490E-003   6.5362049688618140E-002
   4.4429351760015071E-003  -1.1964951047618855E-003   6.5463968693504598E-002
   3.7915170289725200E-003  -1.2154848943192326E-003   6.5815200347387234E-002
   3.1400988819435399E-003  -1.2963889501533821E-003   6.6415744650266118E-002
   3.7536407675688929E-003  -8.9617221661075774E-004   6.6760534225862589E-002
   3.3408108472807903E-003  -8.2627972125490223E-004   6.6627694484086175E-002
   2.9279809269926842E-003  -7.9766340342979358E-004   6.6722718546795429E-002
   2.5151510067045659E-003  -8.1032326313520975E-004   6.7045606413990211E-002
   2.1023210864164615E-003  -8.6425930037115073E-004   6.7596358085670716E-002
   1.8383836115709370E-003  -4.4808610874302879E-004   6.7966359826982792E-002
   1.6426930735130452E-003  -4.1313986102824163E-004   6.7868712076286419E-002
   1.4470025354551682E-003  -3.9883170209770169E-004   6.7977479285564843E-002
   1.2513119973972761E-003  -4.0516163195129795E-004   6.8292661454818382E-002
   1.0556214593393856E-003  -4.3212965058903041E-004   6.8814258584046384E-002
   2.0655838151029116E-012  -8.7541085491693593E-013   6.9126920136088787E-002
   1.7272711039240107E-012  -8.0163653493059428E-013   6.9085102465218817E-002
   1.3889653316390138E-012  -7.6569306450835484E-013   6.9228250909812938E-002
   1.0506560899070649E-012  -7.6751799360508244E-013   6.9556365469871428E-002
   7.1234684817511607E-013  -8.0679907199510126E-013   7.0069446145394010E-002
   4.1689548459206416E-003  -1.7285185999353914E-003   6.5272418277833255E-002
   3.6333690175657379E-003  -1.9987463076855949E-003   6.4386165872370338E-002
   3.0977831892108343E-003  -2.5111329270471328E-003   6.3608784461492707E-002
   2.5621973608559168E-003  -3.2656784580201853E-003   6.2940274045200084E-002
   2.0266115325010270E-003  -4.2623829006038783E-003   6.2380634623492304E-002
   3.1400988819435399E-003  -1.2963889501533821E-003   6.6415744650266118E-002
   2.7196404137961872E-003  -1.4990597309797460E-003   6.5314937731216660E-002
   2.2991819456488552E-003  -1.8833496955132367E-003   6.4335514537997684E-002
   1.8787234775015128E-003  -2.4492588437528412E-003   6.3477475070608386E-002
   1.4582650093541705E-003  -3.1967871757001554E-003   6.2740819329049624E-002
   2.1023210864164615E-003  -8.6425930037115073E-004   6.7596358085670716E-002
   1.8095027097217616E-003  -9.9937315427378604E-004   6.6341536380939176E-002
   1.5166843330270650E-003  -1.2555664639787578E-003   6.5220611133282813E-002
   1.2238659563323581E-003  -1.6328392294863783E-003   6.4233582342701531E-002
   9.3104757963766854E-004  -2.1311914507962104E-003   6.3380450009195843E-002
   1.0556214593393856E-003  -4.3212965058903041E-004   6.8814258584046384E-002
   9.0295590534241518E-004  -4.9968657756782608E-004   6.7465961821537412E-002
   7.5029035134544387E-004  -6.2778323244440382E-004   6.6264074247348564E-002
   5.9762479734847603E-004  -8.1641961521958586E-004   6.5208595861479798E-002
   4.4495924335150212E-004  -1.0655957258921545E-003   6.4299526663931614E-002
   7.1234684817511607E-013  -8.0679907199510126E-013   7.0069446145394010E-002
   6.5818184236121624E-013  -8.6186613401650902E-013   6.8688214053011953E-002
   6.0401336710036446E-013  -9.1049390249509088E-013   6.7465903880194800E-002
   5.4985356545689257E-013  -9.5271013300646246E-013   6.6402515626943215E-002
   4.9567988602561286E-013  -9.8843155882377687E-013   6.5498049293256755E-002
   2.0266115325010270E-003  -4.2623829006038783E-003   6.2380634623492304E-002
   2.2798503178109580E-003  -5.5739576894858756E-003   5.8338352243590186E-002
   2.5330891031209030E-003  -7.2731142593510101E-003   5.4296265263531041E-002
   2.7863278884308479E-003  -9.3598526102001839E-003   5.0254373683314701E-002
   3.0395666737407789E-003  -1.1834172742032578E-002   4.6212677502940558E-002
   1.4582650093541705E-003  -3.1967871757001554E-003   6.2740819329049624E-002
   1.6958229204624559E-003  -4.1804682673768911E-003   5.8384655710165323E-002
   1.9333808315707274E-003  -5.4548356948053156E-003   5.3996934943035424E-002
   2.1709387426790162E-003  -7.0198894579862336E-003   4.9577657027659400E-002
   2.4084966537872843E-003  -8.8756295569185628E-003   4.5126821964036834E-002
   9.3104757963766854E-004  -2.1311914507962104E-003   6.3380450009195843E-002
   1.1211720684554775E-003  -2.7869788452676292E-003   5.8807300596561585E-002
   1.3112965572732692E-003  -3.6365571302594824E-003   5.4170841487592297E-002
   1.5014210460910955E-003  -4.6799263057717769E-003   4.9471072682288161E-002
   1.6915455349088837E-003  -5.9170863718047695E-003   4.4707994180649524E-002
   4.4495924335150212E-004  -1.0655957258921545E-003   6.4299526663931614E-002
   5.5589776179001179E-004  -1.3934894231582839E-003   5.9606286902778444E-002
   6.6683628022852926E-004  -1.8182785657133854E-003   5.4817984897201667E-002
   7.7777479866702939E-004  -2.3399631535575734E-003   4.9934620647201236E-002
   8.8871331710555640E-004  -2.9585431866909762E-003   4.4956194152776990E-002
   4.9567988602561286E-013  -9.8843155882377687E-013   6.5498049293256755E-002
   4.6608550352544853E-013  -1.0492717805732354E-012   6.0781614628816705E-002
   4.3648765157833225E-013  -1.1679268663300491E-012   5.5938365171863513E-002
   4.0687939129036010E-013  -1.3435849655074605E-012   5.0968300922398319E-002
   3.7729541713105164E-013  -1.5769607841775724E-012   4.5871421880420815E-002
   1.0096083691291113E-011   3.9948211405516076E-011   5.8374703401386618E-002
   6.5773567148319501E-012   2.0910939646512361E-011   6.1171991598055975E-002
   3.0586297383727867E-012   7.9850570600115134E-012   6.3777194390489234E-002
  -4.6009723808637659E-013   1.1705220126501104E-012   6.6190311778686561E-002
  -3.9788242145455399E-012   4.6729287106472839E-013   6.8411343762647847E-002
  -5.2362528380198239E-003   9.3560762946603981E-004   5.9694560106958727E-002
  -5.2695609350417380E-003   1.8845697569516984E-003   6.1277812397508319E-002
  -5.3028690320636503E-003   2.4308317832360676E-003   6.2986533905287384E-002
  -5.3361771290855731E-003   2.5743937083191580E-003   6.4820724630296131E-002
  -5.3694852261074837E-003   2.3152555322007717E-003   6.6780384572534685E-002
  -1.1643968855443563E-002   1.8712152189838960E-003   6.2164729012710529E-002
  -1.1393030424502950E-002   3.7691394929925404E-003   6.2131245289827289E-002
  -1.1142091993562309E-002   4.8616635584871615E-003   6.2540785405639426E-002
  -1.0891153562621683E-002   5.1487874154677662E-003   6.3393349360147011E-002
  -1.0640215131681055E-002   4.6305110639342506E-003   6.4688937153350029E-002
  -1.9223148042175172E-002   2.8068228085017244E-003   6.5785210118641496E-002
  -1.8370408461806261E-002   5.6537092290333130E-003   6.3732290275012857E-002
  -1.7517668881437354E-002   7.2924953337382137E-003   6.2439948891545326E-002
  -1.6664929301068439E-002   7.7231811226164161E-003   6.1908185968239021E-002
  -1.5812189720699539E-002   6.9457665956677295E-003   6.2137001505093804E-002
  -2.7973790398214599E-002   3.7424303980195806E-003   7.0556003424751712E-002
  -2.6201695046951690E-002   7.5382789650741411E-003   6.6080947353065023E-002
  -2.4429599695688760E-002   9.7233271089892798E-003   6.2684024363005159E-002
  -2.2657504344425854E-002   1.0297574829765042E-002   6.0365234454572189E-002
  -2.0885408993162935E-002   9.2610221274012083E-003   5.9124577627766128E-002
  -3.9788242145455399E-012   4.6729287106472839E-013   6.8411343762647847E-002
  -2.9898028497399309E-012   2.4435176104731227E-012   6.8015823929527069E-002
  -2.0007745460404180E-012   3.6672609393662015E-012   6.7702203660530869E-002
  -1.0117479770643811E-012   4.1382106075182890E-012   6.7470482955659217E-002
  -2.2724877535296173E-014   3.8567482540941000E-012   6.7320661814912419E-002
  -5.3694852261074837E-003   2.3152555322007717E-003   6.6780384572534685E-002
  -5.2879406495776136E-003   1.9115045070487030E-003   6.6540002268575801E-002
  -5.2063960730477504E-003   1.6212278850303921E-003   6.6380809551574035E-002
  -5.1248514965178855E-003   1.4444256661458894E-003   6.6302806421529359E-002
  -5.0433069199880241E-003   1.3810978503953630E-003   6.6305992878441744E-002
  -1.0640215131681055E-002   4.6305110639342506E-003   6.4688937153350029E-002
  -1.0477835956777901E-002   3.8230090116538468E-003   6.4717166782439467E-002
  -1.0315456781874739E-002   3.2424557663936898E-003   6.4825876021318493E-002
  -1.0153077606971586E-002   2.8888513281536236E-003   6.5015064869986955E-002
  -9.9906984320684254E-003   2.7621956969338946E-003   6.5284733328444977E-002
  -1.5812189720699539E-002   6.9457665956677295E-003   6.2137001505093804E-002
  -1.5569685924590643E-002   5.7345135162590391E-003   6.2547317471117983E-002
  -1.5327182128481743E-002   4.8636836477568487E-003   6.3037403069764131E-002
  -1.5084678332372838E-002   4.3332769901613857E-003   6.3607258301032296E-002
  -1.4842174536263946E-002   4.1432935434724399E-003   6.4256883164922354E-002
  -2.0885408993162935E-002   9.2610221274012083E-003   5.9124577627766128E-002
  -2.0563490553015845E-002   7.6460180208642314E-003   6.0030454334611405E-002
  -2.0241572112868752E-002   6.4849115291201187E-003   6.1015390696911143E-002
  -1.9919653672721672E-002   5.7777026521690922E-003   6.2079386714665230E-002
  -1.9597735232574569E-002   5.5243913900110408E-003   6.3222442387873889E-002
  -2.2724877535296173E-014   3.8567482540941000E-012   6.7320661814912419E-002
  -3.7429087607065981E-013   3.2236435743016045E-012   6.6280573123181030E-002
  -7.2585687460602344E-013   2.6399438191049285E-012   6.5621549347186670E-002
  -1.0774263425883390E-012   2.1058571553211891E-012   6.5343590486929282E-002
  -1.4289888716767507E-012   1.6208701048014973E-012   6.5446696542408811E-002
  -5.0433069199880241E-003   1.3810978503953630E-003   6.6305992878441744E-002
  -4.6809279501934791E-003   1.3671835938390275E-003   6.5335810006656614E-002
  -4.3185489803989393E-003   1.3386220525380549E-003   6.4709320159426820E-002
  -3.9561700106044090E-003   1.2954132264921432E-003   6.4426523336752195E-002
  -3.5937910408098614E-003   1.2375571157013932E-003   6.4487419538632962E-002
  -9.9906984320684254E-003   2.7621956969338946E-003   6.5284733328444977E-002
  -9.3033123833095067E-003   2.7343671844546336E-003   6.4369808991811980E-002
  -8.6159263345505811E-003   2.6772441024361660E-003   6.3761205788552405E-002
  -7.9285402857916555E-003   2.5908264508787068E-003   6.3458923718666488E-002
  -7.2411542370327299E-003   2.4751142297818329E-003   6.3462962782153923E-002
  -1.4842174536263946E-002   4.1432935434724399E-003   6.4256883164922354E-002
  -1.3867153299722363E-002   4.1015507750701286E-003   6.3382570078647074E-002
  -1.2892132063180779E-002   4.0158661523343048E-003   6.2777206234563510E-002
  -1.1917110826639196E-002   3.8862396752650206E-003   6.2440791632671855E-002
  -1.0942089590097607E-002   3.7126713438623143E-003   6.2373326272971888E-002
  -1.9597735232574569E-002   5.5243913900110408E-003   6.3222442387873889E-002
  -1.8372450699432046E-002   5.4687343656856235E-003   6.2374093267161923E-002
  -1.7147166166289526E-002   5.3544882022323881E-003   6.1757321497460077E-002
  -1.5921881633147013E-002   5.1816528996516675E-003   6.1372127078768324E-002
  -1.4696597100004490E-002   4.9502284579427958E-003   6.1218510011086691E-002
  -1.4289888716767507E-012   1.6208701048014973E-012   6.5446696542408811E-002
  -1.1712471270630687E-012   1.1631251517485452E-012   6.5921312185132142E-002
  -9.1350538244938662E-013   7.1072314700160177E-013   6.6542183064270372E-002
  -6.5576016838875262E-013   2.6261284813422492E-013   6.7309309179823598E-002
  -3.9802189322202253E-013  -1.8007817459420039E-013   6.8222690531791863E-002
  -3.5937910408098614E-003   1.2375571157013932E-003   6.4487419538632962E-002
  -3.4392876947821303E-003   1.1627566779951748E-003   6.4907090449328603E-002
  -3.2847843487544045E-003   1.0687148712028860E-003   6.5489512815149364E-002
  -3.1302810027266769E-003   9.5543169532483901E-004   6.6234686636094955E-002
  -2.9757776566989476E-003   8.2290715036081874E-004   6.7142611912165584E-002
  -7.2411542370327299E-003   2.4751142297818329E-003   6.3462962782153923E-002
  -6.9156513265250692E-003   2.3255133548270301E-003   6.3808447591731154E-002
  -6.5901484160174120E-003   2.1374297416954860E-003   6.4333180075143437E-002
  -6.2646455055097531E-003   1.9108633903868969E-003   6.5037160232390506E-002
  -5.9391425950020803E-003   1.6458143009014936E-003   6.5920388063472585E-002
  -1.0942089590097607E-002   3.7126713438623143E-003   6.2373326272971888E-002
  -1.0429090896400072E-002   3.4882700316590382E-003   6.2625383612339769E-002
  -9.9160922027025158E-003   3.2061446121879784E-003   6.3073184844252686E-002
  -9.4030935090049679E-003   2.8662950854490389E-003   6.3716729968710209E-002
  -8.8900948153074165E-003   2.4687214514423350E-003   6.4556018985712837E-002
  -1.4696597100004490E-002   4.9502284579427958E-003   6.1218510011086691E-002
  -1.3979606404407100E-002   4.6510267084910462E-003   6.1357898511154307E-002
  -1.3262615708809725E-002   4.2748594826804154E-003   6.1709527122476793E-002
  -1.2545625013212339E-002   3.8217267805109728E-003   6.2273395845054175E-002
  -1.1828634317614960E-002   3.2916286019830654E-003   6.3049504678886259E-002
  -3.9802189322202253E-013  -1.8007817459420039E-013   6.8222690531791863E-002
   2.1788126858268697E-013  -5.5355720007810305E-013   6.8005483990725812E-002
   8.3378096094044452E-013  -7.9389272933383381E-013   6.8083786744419950E-002
   1.4496841227451540E-012  -9.0113333461872003E-013   6.8457598792874358E-002
   2.0655838151029116E-012  -8.7541085491693593E-013   6.9126920136088787E-002
  -2.9757776566989476E-003   8.2290715036081874E-004   6.7142611912165584E-002
  -2.6914291444016386E-003   6.9287191303191165E-004   6.6938767298263258E-002
  -2.4070806321043348E-003   5.8705666005931523E-004   6.7008110412963534E-002
  -2.1227321198070276E-003   5.0546139144280744E-004   6.7350641256266469E-002
  -1.8383836075097221E-003   4.4808610718261033E-004   6.7966359828172118E-002
  -5.9391425950020803E-003   1.6458143009014936E-003   6.5920388063472585E-002
  -5.3927671371809434E-003   1.3857438266172695E-003   6.5754125360956983E-002
  -4.8463916793598091E-003   1.1741133209125093E-003   6.5838728820886580E-002
  -4.3000162215386739E-003   1.0109227837868558E-003   6.6174198443261112E-002
  -3.7536407637175240E-003   8.9617221524046498E-004   6.6760534228080648E-002
  -8.8900948153074165E-003   2.4687214514423350E-003   6.4556018985712837E-002
  -8.1040139781200261E-003   2.0786157402028493E-003   6.4451558178807031E-002
  -7.3179331409326358E-003   1.7611699817658213E-003   6.4575641968188852E-002
  -6.5318523037452419E-003   1.5163841761310724E-003   6.4928270353857953E-002
  -5.7457714665578551E-003   1.3442583232984584E-003   6.5509443335814682E-002
  -1.1828634317614960E-002   3.2916286019830654E-003   6.3049504678886259E-002
  -1.0825169667218887E-002   2.7714876537884292E-003   6.3031065751813331E-002
  -9.8217050168228244E-003   2.3482266426191889E-003   6.3218849854870307E-002
  -8.8182403664267568E-003   2.0218455684750808E-003   6.3612856988057243E-002
  -7.8147757160306822E-003   1.7923444313563408E-003   6.4213087151373971E-002
   2.0655838151029116E-012  -8.7541085491693593E-013   6.9126920136088787E-002
   1.7272711039240107E-012  -8.0163653493059428E-013   6.9085102465218817E-002
   1.3889653316390138E-012  -7.6569306450835484E-013   6.9228250909812938E-002
   1.0506560899070649E-012  -7.6751799360508244E-013   6.9556365469871428E-002
   7.1234684817511607E-013  -8.0679907199510126E-013   7.0069446145394010E-002
  -1.8383836075097221E-003   4.4808610718261033E-004   6.7966359828172118E-002
  -1.6426930701155182E-003   4.1313985948332466E-004   6.7868712077301663E-002
  -1.4470025327213160E-003   3.9883170054971773E-004   6.7977479286432135E-002
  -1.2513119953271182E-003   4.0516163038163688E-004   6.8292661455563022E-002
  -1.0556214579329100E-003   4.3212964897887396E-004   6.8814258584695032E-002
  -3.7536407637175240E-003   8.9617221524046498E-004   6.6760534228080648E-002
  -3.3408108440543087E-003   8.2627971976809156E-004   6.6627694486013328E-002
  -2.9279809243910934E-003   7.9766340186478157E-004   6.6722718548483009E-002
  -2.5151510047278702E-003   8.1032326153012216E-004   6.7045606415490094E-002
  -2.1023210850646627E-003   8.6425929876449148E-004   6.7596358087034403E-002
  -5.7457714665578551E-003   1.3442583232984584E-003   6.5509443335814682E-002
  -5.0943533200891048E-003   1.2394195800532332E-003   6.5362049691353521E-002
  -4.4429351736203406E-003   1.1964951031800189E-003   6.5463968695965907E-002
  -3.7915170271515825E-003   1.2154848926790533E-003   6.5815200349652228E-002
  -3.1400988806828249E-003   1.2963889485501368E-003   6.6415744652412428E-002
  -7.8147757160306822E-003   1.7923444313563408E-003   6.4213087151373971E-002
  -6.9033204982198865E-003   1.6525594403378752E-003   6.4071777693322174E-002
  -5.9918652804090838E-003   1.5953268044952007E-003   6.4201229728880871E-002
  -5.0804100625982881E-003   1.6206465238276929E-003   6.4601443258049812E-002
  -4.1689548447874855E-003   1.7285185983357820E-003   6.5272418280829081E-002
   7.1234684817511607E-013  -8.0679907199510126E-013   7.0069446145394010E-002
   6.5818184236121624E-013  -8.6186613401650902E-013   6.8688214053011953E-002
   6.0401336710036446E-013  -9.1049390249509088E-013   6.7465903880194800E-002
   5.4985356545689257E-013  -9.5271013300646246E-013   6.6402515626943215E-002
   4.9567988602561286E-013  -9.8843155882377687E-013   6.5498049293256755E-002
  -1.0556214579329100E-003   4.3212964897887396E-004   6.8814258584695032E-002
  -9.0295590404388185E-004   4.9968657590326870E-004   6.7465961822151976E-002
  -7.5029035015484503E-004   6.2778323071735476E-004   6.6264074247929738E-002
  -5.9762479626581429E-004   8.1641961342011210E-004   6.5208595862028873E-002
  -4.4495924237678008E-004   1.0655957240123248E-003   6.4299526664448603E-002
  -2.1023210850646627E-003   8.6425929876449148E-004   6.7596358087034403E-002
  -1.8095027084767054E-003   9.9937315266901416E-004   6.6341536382213129E-002
  -1.5166843318887482E-003   1.2555664623453144E-003   6.5220611134468531E-002
  -1.2238659553008044E-003   1.6328392277930454E-003   6.4233582343800485E-002
  -9.3104757871284756E-004   2.1311914490125816E-003   6.3380450010209671E-002
  -3.1400988806828249E-003   1.2963889485501368E-003   6.6415744652412428E-002
  -2.7196404126402698E-003   1.4990597294345098E-003   6.5314937733195355E-002
  -2.2991819445976939E-003   1.8833496939730521E-003   6.4335514539810831E-002
  -1.8787234765551353E-003   2.4492588421659231E-003   6.3477475072258871E-002
  -1.4582650085125629E-003   3.1967871740128662E-003   6.2740819330539099E-002
  -4.1689548447874855E-003   1.7285185983357820E-003   6.5272418280829081E-002
  -3.6333690165345767E-003   1.9987463061997834E-003   6.4386165875098822E-002
  -3.0977831882816852E-003   2.5111329256011228E-003   6.3608784463956902E-002
  -2.5621973600287815E-003   3.2656784565386898E-003   6.2940274047403155E-002
  -2.0266115317758848E-003   4.2623828990133728E-003   6.2380634625437636E-002
   4.9567988602561286E-013  -9.8843155882377687E-013   6.5498049293256755E-002
   4.6608550352544853E-013  -1.0492717805732354E-012   6.0781614628816705E-002
   4.3648765157833225E-013  -1.1679268663300491E-012   5.5938365171863513E-002
   4.0687939129036010E-013  -1.3435849655074605E-012   5.0968300922398319E-002
   3.7729541713105164E-013  -1.5769607841775724E-012   4.5871421880420815E-002
  -4.4495924237678008E-004   1.0655957240123248E-003   6.4299526664448603E-002
  -5.5589776087155984E-004   1.3934894211438120E-003   5.9606286903158667E-002
  -6.6683627936635695E-004   1.8182785634650867E-003   5.4817984897450545E-002
  -7.7777479786113844E-004   2.3399631509770161E-003   4.9934620647324429E-002
  -8.8871331635593381E-004   2.9585431836787190E-003   4.4956194152780959E-002
  -9.3104757871284756E-004   2.1311914490125816E-003   6.3380450010209671E-002
  -1.1211720675781897E-003   2.7869788433368403E-003   5.8807300597316758E-002
  -1.3112965564435310E-003   3.6365571280983083E-003   5.4170841488100571E-002
  -1.5014210453088402E-003   4.6799263032976136E-003   4.9471072682561769E-002
  -1.6915455341742006E-003   5.9170863689341768E-003   4.4707994180698596E-002
  -1.4582650085125629E-003   3.1967871740128662E-003   6.2740819330539099E-002
  -1.6958229196537833E-003   4.1804682655296743E-003   5.8384655711291401E-002
  -1.9333808307950104E-003   5.4548356927314259E-003   5.3996934943814981E-002
  -2.1709387419362380E-003   7.0198894556177689E-003   4.9577657028109845E-002
  -2.4084966530774580E-003   8.8756295541898567E-003   4.5126821964176944E-002
  -2.0266115317758848E-003   4.2623828990133728E-003   6.2380634625437636E-002
  -2.2798503170983475E-003   5.5739576877229524E-003   5.8338352245082103E-002
  -2.5330891024208171E-003   7.2731142573643215E-003   5.4296265264592969E-002
  -2.7863278877432972E-003   9.3598526079388122E-003   5.0254373683969955E-002
  -3.0395666730657495E-003   1.1834172739445314E-002   4.6212677503212785E-002
  -2.7973790398214599E-002   3.7424303980195806E-003   7.0556003424751712E-002
  -2.6201695046951690E-002   7.5382789650741411E-003   6.6080947353065023E-002
  -2.4429599695688760E-002   9.7233271089892798E-003   6.2684024363005159E-002
  -2.2657504344425854E-002   1.0297574829765042E-002   6.0365234454572189E-002
  -2.0885408993162935E-002   9.2610221274012083E-003   5.9124577627766128E-002
  -3.6495925369745705E-002   7.5719706974906043E-003   6.8942165432978597E-002
  -3.3879568352995618E-002   9.1835718969894564E-003   6.4676688993820536E-002
  -3.1263211336245496E-002   1.0035919740315466E-002   6.1021602804009978E-002
  -2.8646854319495391E-002   1.0129014227468602E-002   5.7976906863546923E-002
  -2.6030497302745290E-002   9.4628553584488184E-003   5.5542601172431372E-002
  -4.3389582402952417E-002   1.1401510996961600E-002   6.4718306540166706E-002
  -4.0396706552994460E-002   1.0828864828904800E-002   6.1513956800503686E-002
  -3.7403830703036496E-002   1.0348512371641645E-002   5.8452254477908909E-002
  -3.4410954853078532E-002   9.9604536251721876E-003   5.5533199572382327E-002
  -3.1418079003120554E-002   9.6646885894963730E-003   5.2756792083923906E-002
  -4.8654761497834674E-002   1.5231051296432582E-002   5.7884426746315665E-002
  -4.5753109646948203E-002   1.2474157760820073E-002   5.6592750773114403E-002
  -4.2851457796061740E-002   1.0661105002967800E-002   5.4975979384702001E-002
  -3.9949805945175290E-002   9.7918930228756765E-003   5.3034112581078444E-002
  -3.7048154094288813E-002   9.8665218205439831E-003   5.0767150362243649E-002
  -5.2291462654392551E-002   1.9060591595903620E-002   4.8440526051425736E-002
  -4.9948777634856945E-002   1.4119450692735402E-002   4.9913070911652813E-002
  -4.7606092615321255E-002   1.0973697634293969E-002   5.0592777524389315E-002
  -4.5263407595785649E-002   9.6233324205793509E-003   5.0479645889635286E-002
  -4.2920722576250014E-002   1.0068355051591538E-002   4.9573676007390766E-002
  -2.0885408993162935E-002   9.2610221274012083E-003   5.9124577627766128E-002
  -2.0563490553015845E-002   7.6460180208642314E-003   6.0030454334611405E-002
  -2.0241572112868752E-002   6.4849115291201187E-003   6.1015390696911143E-002
  -1.9919653672721672E-002   5.7777026521690922E-003   6.2079386714665230E-002
  -1.9597735232574569E-002   5.5243913900110408E-003   6.3222442387873889E-002
  -2.6030497302745290E-002   9.4628553584488184E-003   5.5542601172431372E-002
  -2.5604372360602319E-002   8.5213444215847117E-003   5.6562354752663843E-002
  -2.5178247418459379E-002   7.7883827052052101E-003   5.7711461681433734E-002
  -2.4752122476316411E-002   7.2639702093100916E-003   5.8989921958740754E-002
  -2.4325997534173471E-002   6.9481069338995227E-003   6.0397735584585110E-002
  -3.1418079003120554E-002   9.6646885894963730E-003   5.2756792083923906E-002
  -3.0837453865898892E-002   9.3966708223053586E-003   5.3645074143235050E-002
  -3.0256828728677198E-002   9.0918538812903016E-003   5.4713003244166392E-002
  -2.9676203591455536E-002   8.7502377664511466E-003   5.5960579386717946E-002
  -2.9095578454233842E-002   8.3718224777880046E-003   5.7387802570889573E-002
  -3.7048154094288813E-002   9.8665218205439831E-003   5.0767150362243649E-002
  -3.6262735068905511E-002   1.0271997223025978E-002   5.1278612506324969E-002
  -3.5477316043522229E-002   1.0395325057375393E-002   5.2020015385109419E-002
  -3.4691897018138906E-002   1.0236505323592146E-002   5.2991358998596819E-002
  -3.3906477992755625E-002   9.7955380216764310E-003   5.4192643346787195E-002
  -4.2920722576250014E-002   1.0068355051591538E-002   4.9573676007390766E-002
  -4.1880215969622228E-002   1.1147323623746513E-002   4.9462969841933657E-002
  -4.0839709362994456E-002   1.1698796233460484E-002   4.9632498104262568E-002
  -3.9799202756366697E-002   1.1722772880733229E-002   5.0082260794377387E-002
  -3.8758696149738911E-002   1.1219253565564968E-002   5.0812257912278114E-002
  -1.9597735232574569E-002   5.5243913900110408E-003   6.3222442387873889E-002
  -1.8372450699432046E-002   5.4687343656856235E-003   6.2374093267161923E-002
  -1.7147166166289526E-002   5.3544882022323881E-003   6.1757321497460077E-002
  -1.5921881633147013E-002   5.1816528996516675E-003   6.1372127078768324E-002
  -1.4696597100004490E-002   4.9502284579427958E-003   6.1218510011086691E-002
  -2.4325997534173471E-002   6.9481069338995227E-003   6.0397735584585110E-002
  -2.2863987814520023E-002   6.7181391335295604E-003   5.9465541976147313E-002
  -2.1401978094866561E-002   6.4514130627565391E-003   5.8775221389721188E-002
  -1.9939968375213134E-002   6.1479287215807366E-003   5.8326773825306849E-002
  -1.8477958655559658E-002   5.8076861100019306E-003   5.8120199282904295E-002
  -2.9095578454233842E-002   8.3718224777880046E-003   5.7387802570889573E-002
  -2.7386547877067735E-002   7.9675439013736638E-003   5.6393595343450550E-002
  -2.5677517299901646E-002   7.5483379232809678E-003   5.5651556809024935E-002
  -2.3968486722735546E-002   7.1142045435101386E-003   5.5161686967612811E-002
  -2.2259456145569425E-002   6.6651437620609544E-003   5.4923985819214344E-002
  -3.3906477992755625E-002   9.7955380216764310E-003   5.4192643346787195E-002
  -3.1940130887075174E-002   9.2169486692176283E-003   5.3158253369071734E-002
  -2.9973783781394744E-002   8.6452627838051466E-003   5.2386327755371345E-002
  -2.8007436675714311E-002   8.0804803654394297E-003   5.1876866505686244E-002
  -2.6041089570033833E-002   7.5226014141200337E-003   5.1629869620016269E-002
  -3.8758696149738911E-002   1.1219253565564968E-002   5.0812257912278114E-002
  -3.6524736844542383E-002   1.0466353437061704E-002   4.9759516053010822E-002
  -3.4290777539345875E-002   9.7421876443296584E-003   4.8979534228760391E-002
  -3.2056818234149353E-002   9.0467561873688318E-003   4.8472312439526877E-002
  -2.9822858928952839E-002   8.3800590661791130E-003   4.8237850685310280E-002
  -1.4696597100004490E-002   4.9502284579427958E-003   6.1218510011086691E-002
  -1.3979606404407100E-002   4.6510267084910462E-003   6.1357898511154307E-002
  -1.3262615708809725E-002   4.2748594826804154E-003   6.1709527122476793E-002
  -1.2545625013212339E-002   3.8217267805109728E-003   6.2273395845054175E-002
  -1.1828634317614960E-002   3.2916286019830654E-003   6.3049504678886259E-002
  -1.8477958655559658E-002   5.8076861100019306E-003   5.8120199282904295E-002
  -1.7561739775757541E-002   5.4305540786799833E-003   5.8189446898746611E-002
  -1.6645520895955439E-002   5.0164014782753535E-003   5.8444910771743575E-002
  -1.5729302016153347E-002   4.5652283087881766E-003   5.8886590901895158E-002
  -1.4813083136351220E-002   4.0770345702178523E-003   5.9514487289201279E-002
  -2.2259456145569425E-002   6.6651437620609544E-003   5.4923985819214344E-002
  -2.1170032935662744E-002   6.2100814488691980E-003   5.4963037458107031E-002
  -2.0080609725756045E-002   5.7579434738705693E-003   5.5162281500054214E-002
  -1.8991186515849360E-002   5.3087298370651029E-003   5.5521717945055976E-002
  -1.7901763305942668E-002   4.8624405384527503E-003   5.6041346793112234E-002
  -2.6041089570033833E-002   7.5226014141200337E-003   5.1629869620016269E-002
  -2.4804485884122728E-002   6.9896088190583294E-003   5.1678670189235318E-002
  -2.3567882198211588E-002   6.4994854694656462E-003   5.1861639307408745E-002
  -2.2331278512300469E-002   6.0522313653419459E-003   5.2178776974536656E-002
  -2.1094674826389319E-002   5.6478465066875372E-003   5.2630083190618820E-002
  -2.9822858928952839E-002   8.3800590661791130E-003   4.8237850685310280E-002
  -2.8465098621137414E-002   7.7691361892473498E-003   4.8336345092131749E-002
  -2.7107338313322016E-002   7.2410274650606399E-003   4.8542984193807259E-002
  -2.5749578005506583E-002   6.7957328936191566E-003   4.8857767990337031E-002
  -2.4391817697691193E-002   6.4332524749224351E-003   4.9280696481721065E-002
  -1.1828634317614960E-002   3.2916286019830654E-003   6.3049504678886259E-002
  -1.0825169667218887E-002   2.7714876537884292E-003   6.3031065751813331E-002
  -9.8217050168228244E-003   2.3482266426191889E-003   6.3218849854870307E-002
  -8.8182403664267568E-003   2.0218455684750808E-003   6.3612856988057243E-002
  -7.8147757160306822E-003   1.7923444313563408E-003   6.4213087151373971E-002
  -1.4813083136351220E-002   4.0770345702178523E-003   5.9514487289201279E-002
  -1.3602159698817444E-002   3.5940928944516726E-003   5.9465255084138968E-002
  -1.2391236261283696E-002   3.1586759133761938E-003   5.9624717423222173E-002
  -1.1180312823749967E-002   2.7707836269912460E-003   5.9992874306450894E-002
  -9.9693893862161757E-003   2.4304160352968118E-003   6.0569725733824853E-002
  -1.7901763305942668E-002   4.8624405384527503E-003   5.6041346793112234E-002
  -1.6480909567255640E-002   4.4166981351147494E-003   5.5911966067725763E-002
  -1.5060055828568605E-002   3.9691251841329767E-003   5.5993751400500474E-002
  -1.3639202089881558E-002   3.5197216855073002E-003   5.6286702791436202E-002
  -1.2218348351194546E-002   3.0684876392375049E-003   5.6790820240533113E-002
  -2.1094674826389319E-002   5.6478465066875372E-003   5.2630083190618820E-002
  -1.9461419272533420E-002   5.2393033757781315E-003   5.2371198702573715E-002
  -1.7828163718677507E-002   4.7795744548900371E-003   5.2325951786705190E-002
  -1.6194908164821636E-002   4.2686597440231878E-003   5.2494342443013597E-002
  -1.4561652610965696E-002   3.7065592431780869E-003   5.2876370671498363E-002
  -2.4391817697691193E-002   6.4332524749224351E-003   4.9280696481721065E-002
  -2.2543688814650839E-002   6.0619086164411251E-003   4.8842952988682631E-002
  -2.0695559931610472E-002   5.5900237256468477E-003   4.8621318581836437E-002
  -1.8847431048570132E-002   5.0175978025394294E-003   4.8615793261182483E-002
  -1.6999302165529750E-002   4.3446308471186690E-003   4.8826377026720769E-002
  -7.8147757160306822E-003   1.7923444313563408E-003   6.4213087151373971E-002
  -6.9033204982198865E-003   1.6525594403378752E-003   6.4071777693322174E-002
  -5.9918652804090838E-003   1.5953268044952007E-003   6.4201229728880871E-002
  -5.0804100625982881E-003   1.6206465238276929E-003   6.4601443258049812E-002
  -4.1689548447874855E-003   1.7285185983357820E-003   6.5272418280829081E-002
  -9.9693893862161757E-003   2.4304160352968118E-003   6.0569725733824853E-002
  -8.7914024463362252E-003   2.1637734513532680E-003   6.0421080047432019E-002
  -7.6134155064563006E-003   1.9970561882198812E-003   6.0534736311567389E-002
  -6.4354285665763527E-003   1.9302642458965957E-003   6.0910694526230616E-002
  -5.2574416266964255E-003   1.9633976243840223E-003   6.1548954691421853E-002
  -1.2218348351194546E-002   3.0684876392375049E-003   5.6790820240533113E-002
  -1.0782289232327769E-002   2.6749874623684111E-003   5.6652211291434079E-002
  -9.3462301134609634E-003   2.3987855719444784E-003   5.6767444749780710E-002
  -7.9101709945941581E-003   2.2398819679658385E-003   5.7136520615573172E-002
  -6.4741118757273824E-003   2.1982766504323736E-003   5.7759438888811243E-002
  -1.4561652610965696E-002   3.7065592431780869E-003   5.2876370671498363E-002
  -1.2875980856194381E-002   3.1862014733835681E-003   5.2765171425328120E-002
  -1.1190309101423077E-002   2.8005149556690062E-003   5.2899355043521105E-002
  -9.5046373466517765E-003   2.5494996900350224E-003   5.3278921526077577E-002
  -7.8189655918804567E-003   2.4331556764805584E-003   5.3903870872997445E-002
  -1.6999302165529750E-002   4.3446308471186690E-003   4.8826377026720769E-002
  -1.5072477317936220E-002   3.6974154843989471E-003   4.8759960449114015E-002
  -1.3145652470342647E-002   3.2022443393938393E-003   4.8930467192788374E-002
  -1.1218827622749075E-002   2.8591174121040605E-003   4.9337897257743846E-002
  -9.2920027751555445E-003   2.6680347025290763E-003   4.9982250643980208E-002
  -4.1689548447874855E-003   1.7285185983357820E-003   6.5272418280829081E-002
  -3.6333690165345767E-003   1.9987463061997834E-003   6.4386165875098822E-002
  -3.0977831882816852E-003   2.5111329256011228E-003   6.3608784463956902E-002
  -2.5621973600287815E-003   3.2656784565386898E-003   6.2940274047403155E-002
  -2.0266115317758848E-003   4.2623828990133728E-003   6.2380634625437636E-002
  -5.2574416266964255E-003   1.9633976243840223E-003   6.1548954691421853E-002
  -4.5847489599796613E-003   2.2114195587857877E-003   6.0848760013722802E-002
  -3.9120562932629423E-003   2.7892932842062956E-003   6.0313908018363560E-002
  -3.2393636265462301E-003   3.6970188006454630E-003   5.9944398705343849E-002
  -2.5666709598294868E-003   4.9345961081026513E-003   5.9740232074663169E-002
  -6.4741118757273824E-003   2.1982766504323736E-003   5.7759438888811243E-002
  -5.6078406827955434E-003   2.4240928113717364E-003   5.7332994818625499E-002
  -4.7415694898636741E-003   3.0674536428116905E-003   5.7128365118530533E-002
  -3.8752982969318191E-003   4.1283591447520140E-003   5.7145549788526290E-002
  -3.0090271039999936E-003   5.6068093171927069E-003   5.7384548828612769E-002
  -7.8189655918804567E-003   2.4331556764805584E-003   5.3903870872997445E-002
  -6.7026441849821691E-003   2.6367660639575463E-003   5.3838870289806565E-002
  -5.5863227780839483E-003   3.3456140014170299E-003   5.4052155764457946E-002
  -4.4700013711856798E-003   4.5596994888585651E-003   5.4543727296951366E-002
  -3.3536799642874381E-003   6.2790225262823740E-003   5.5313584887286368E-002
  -9.2920027751555445E-003   2.6680347025290763E-003   4.9982250643980208E-002
  -7.8691594665395853E-003   2.8494393165436893E-003   5.0366386427266319E-002
  -6.4463161579236677E-003   3.6237743600223415E-003   5.1085279956145591E-002
  -5.0234728493077155E-003   4.9910398329654146E-003   5.2138931230618163E-002
  -3.6006295406917910E-003   6.9512357353722631E-003   5.3527340250684174E-002
  -2.0266115317758848E-003   4.2623828990133728E-003   6.2380634625437636E-002
  -2.2798503170983475E-003   5.5739576877229524E-003   5.8338352245082103E-002
  -2.5330891024208171E-003   7.2731142573643215E-003   5.4296265264592969E-002
  -2.7863278877432972E-003   9.3598526079388122E-003   5.0254373683969955E-002
  -3.0395666730657495E-003   1.1834172739445314E-002   4.6212677503212785E-002
  -2.5666709598294868E-003   4.9345961081026513E-003   5.9740232074663169E-002
  -2.8384259647473917E-003   6.5628497252332996E-003   5.6196482663359026E-002
  -3.1101809696653156E-003   8.6426041706904044E-003   5.2615505412997976E-002
  -3.3819359745832283E-003   1.1173859444474188E-002   4.8997300323579907E-002
  -3.6536909795011688E-003   1.4156615546584650E-002   4.5341867395104707E-002
  -3.0090271039999936E-003   5.6068093171927069E-003   5.7384548828612769E-002
  -3.3367215674364702E-003   7.5517417627444239E-003   5.4403251433754213E-002
  -3.6644160308729051E-003   1.0012094084016598E-002   5.1347302960915359E-002
  -3.9921104943093288E-003   1.2987866281009675E-002   4.8216703410095901E-002
  -4.3198049577457646E-003   1.6479058353723985E-002   4.5011452781297590E-002
  -3.3536799642874381E-003   6.2790225262823740E-003   5.5313584887286368E-002
  -3.7747371251654884E-003   8.5406338002552706E-003   5.2958658556267232E-002
  -4.1957942860435526E-003   1.1381583997342626E-002   5.0491657908345006E-002
  -4.6168514469215492E-003   1.4801873117545550E-002   4.7912582943519855E-002
  -5.0379086077996394E-003   1.8801501160863210E-002   4.5221433661790739E-002
  -3.6006295406917910E-003   6.9512357353722631E-003   5.3527340250684174E-002
  -4.1524726379345428E-003   9.5295258377661174E-003   5.1862704030898654E-002
  -4.7043157351772391E-003   1.2751073910669042E-002   5.0048570255287195E-002
  -5.2561588324199493E-003   1.6615879954080912E-002   4.8084938923849352E-002
  -5.8080019296626872E-003   2.1123943968002656E-002   4.5971810036585126E-002
  -5.2291462654392551E-002   1.9060591595903620E-002   4.8440526051425736E-002
  -4.9948777634856945E-002   1.4119450692735402E-002   4.9913070911652813E-002
  -4.7606092615321255E-002   1.0973697634293969E-002   5.0592777524389315E-002
  -4.5263407595785649E-002   9.6233324205793509E-003   5.0479645889635286E-002
  -4.2920722576250014E-002   1.0068355051591538E-002   4.9573676007390766E-002
  -5.5952056579846990E-002   1.9354813698034712E-002   4.1334206777133453E-002
  -5.4156433482577093E-002   1.6128923064489042E-002   4.2811505454439625E-002
  -5.2360810385307203E-002   1.3978126522160073E-002   4.3987518534704589E-002
  -5.0565187288037342E-002   1.2902424071047899E-002   4.4862246017928639E-002
  -4.8769564190767452E-002   1.2901815711152675E-002   4.5435687904111538E-002
  -6.1288913981418891E-002   1.9649035800165721E-002   3.6303284649219239E-002
  -5.9548800155965323E-002   1.8138395436242599E-002   3.7065043390094032E-002
  -5.7808686330511713E-002   1.6982555410026169E-002   3.8017069184377632E-002
  -5.6068572505058104E-002   1.6181515721516555E-002   3.9159362032069558E-002
  -5.4328458679604522E-002   1.5735276370713813E-002   4.0491921933169889E-002
  -6.8302034859108407E-002   1.9943257902296799E-002   3.3347759667681900E-002
  -6.6125877655021634E-002   2.0147867807996087E-002   3.2673684718615981E-002
  -6.3949720450934805E-002   1.9986984297892297E-002   3.2681429473407901E-002
  -6.1773563246847976E-002   1.9460607371985159E-002   3.3370993932057842E-002
  -5.9597406042761127E-002   1.8568737030274923E-002   3.4742378094565693E-002
  -7.6991419212915468E-002   2.0237480004427821E-002   3.2467631832522548E-002
  -7.3887665979746026E-002   2.2157340179749796E-002   2.9637429440005469E-002
  -7.0783912746576416E-002   2.2991413185758397E-002   2.7980599401795925E-002
  -6.7680159513406918E-002   2.2739699022453770E-002   2.7497141717893858E-002
  -6.4576406280237419E-002   2.1402197689836089E-002   2.8187056388299048E-002
  -4.2920722576250014E-002   1.0068355051591538E-002   4.9573676007390766E-002
  -4.1880215969622228E-002   1.1147323623746513E-002   4.9462969841933657E-002
  -4.0839709362994456E-002   1.1698796233460484E-002   4.9632498104262568E-002
  -3.9799202756366697E-002   1.1722772880733229E-002   5.0082260794377387E-002
  -3.8758696149738911E-002   1.1219253565564968E-002   5.0812257912278114E-002
  -4.8769564190767452E-002   1.2901815711152675E-002   4.5435687904111538E-002
  -4.7487534068363930E-002   1.3284424666444028E-002   4.5158140240682626E-002
  -4.6205503945960402E-002   1.3358374160892555E-002   4.5083405181019290E-002
  -4.4923473823556867E-002   1.3123664194497502E-002   4.5211482725121564E-002
  -4.3641443701153367E-002   1.2580294767259415E-002   4.5542372872989456E-002
  -5.4328458679604522E-002   1.5735276370713813E-002   4.0491921933169889E-002
  -5.2882326865445563E-002   1.5421525709141695E-002   4.0266369273366964E-002
  -5.1436195051286576E-002   1.5017952088324404E-002   4.0166207393309269E-002
  -4.9990063237127569E-002   1.4524555508261774E-002   4.0191436292996902E-002
  -4.8543931422968575E-002   1.3941335968953916E-002   4.0342055972429819E-002
  -5.9597406042761127E-002   1.8568737030274923E-002   3.4742378094565693E-002
  -5.8064594360867063E-002   1.7558626751839314E-002   3.4787656939986721E-002
  -5.6531782678972936E-002   1.6677530015756337E-002   3.4880904741132722E-002
  -5.4998970997078789E-002   1.5925446822026186E-002   3.5022121498003649E-002
  -5.3466159315184690E-002   1.5302377170648473E-002   3.5211307210599604E-002
  -6.4576406280237419E-002   2.1402197689836089E-002   2.8187056388299048E-002
  -6.3034336554628478E-002   1.9695727794536932E-002   2.8722003240541805E-002
  -6.1492266829019537E-002   1.8337107943188310E-002   2.9227497224489501E-002
  -5.9950197103410582E-002   1.7326338135790400E-002   2.9703538340141528E-002
  -5.8408127377801627E-002   1.6663418372342920E-002   3.0150126587498438E-002
  -3.8758696149738911E-002   1.1219253565564968E-002   5.0812257912278114E-002
  -3.6524736844542383E-002   1.0466353437061704E-002   4.9759516053010822E-002
  -3.4290777539345875E-002   9.7421876443296584E-003   4.8979534228760391E-002
  -3.2056818234149353E-002   9.0467561873688318E-003   4.8472312439526877E-002
  -2.9822858928952839E-002   8.3800590661791130E-003   4.8237850685310280E-002
  -4.3641443701153367E-002   1.2580294767259415E-002   4.5542372872989456E-002
  -4.1134623570152719E-002   1.1889103043970589E-002   4.4490866236365029E-002
  -3.8627803439152161E-002   1.1210926189423875E-002   4.3712321216331840E-002
  -3.6120983308151583E-002   1.0545764203619495E-002   4.3206737812889792E-002
  -3.3614163177150963E-002   9.8936170865568940E-003   4.2974116026039066E-002
  -4.8543931422968575E-002   1.3941335968953916E-002   4.0342055972429819E-002
  -4.5764048884589660E-002   1.3311852650879752E-002   3.9276065091419177E-002
  -4.2984166346210717E-002   1.2679664734518536E-002   3.8483237408574053E-002
  -4.0204283807831823E-002   1.2044772219870215E-002   3.7963572923894393E-002
  -3.7424401269452852E-002   1.1407175106934564E-002   3.7717071637380223E-002
  -5.3466159315184690E-002   1.5302377170648473E-002   3.5211307210599604E-002
  -5.0413012787853116E-002   1.4734602257788859E-002   3.4115112618173508E-002
  -4.7359866260521542E-002   1.4148403279613059E-002   3.3292282805487156E-002
  -4.4306719733189975E-002   1.3543780236120795E-002   3.2742817772540636E-002
  -4.1253573205858395E-002   1.2920733127312289E-002   3.2466717519333867E-002
  -5.8408127377801627E-002   1.6663418372342920E-002   3.0150126587498438E-002
  -5.5081515279943150E-002   1.6157351864697855E-002   2.9008008816627795E-002
  -5.1754903182084658E-002   1.5617141824707456E-002   2.8139457407071022E-002
  -4.8428291084226187E-002   1.5042788252371691E-002   2.7544472358828509E-002
  -4.5101678986367688E-002   1.4434291147690015E-002   2.7223053671899922E-002
  -2.9822858928952839E-002   8.3800590661791130E-003   4.8237850685310280E-002
  -2.8465098621137414E-002   7.7691361892473498E-003   4.8336345092131749E-002
  -2.7107338313322016E-002   7.2410274650606399E-003   4.8542984193807259E-002
  -2.5749578005506583E-002   6.7957328936191566E-003   4.8857767990337031E-002
  -2.4391817697691193E-002   6.4332524749224351E-003   4.9280696481721065E-002
  -3.3614163177150963E-002   9.8936170865568940E-003   4.2974116026039066E-002
  -3.2147946253718640E-002   9.2666620484782858E-003   4.3114080230504975E-002
  -3.0681729330286310E-002   8.6770762996258854E-003   4.3362812971350528E-002
  -2.9215512406853977E-002   8.1248598399999428E-003   4.3720314248575809E-002
  -2.7749295483421657E-002   7.6100126695997083E-003   4.4186584062180623E-002
  -3.7424401269452852E-002   1.1407175106934564E-002   3.7717071637380223E-002
  -3.5849103888878138E-002   1.0764187907709166E-002   3.7853060775971920E-002
  -3.4273806508303375E-002   1.0113125134191117E-002   3.8098442292468698E-002
  -3.2698509127728689E-002   9.4539867863805034E-003   3.8453216186870649E-002
  -3.1123211747153892E-002   8.7867728642770926E-003   3.8917382459177724E-002
  -4.1253573205858395E-002   1.2920733127312289E-002   3.2466717519333867E-002
  -3.9568571526615817E-002   1.2261713766939852E-002   3.2553286728532541E-002
  -3.7883569847373261E-002   1.1549173968756245E-002   3.2749872157161838E-002
  -3.6198568168130725E-002   1.0783113732760955E-002   3.3056473805221642E-002
  -3.4513566488888189E-002   9.9635330589544768E-003   3.3473091672711945E-002
  -4.5101678986367688E-002   1.4434291147690015E-002   2.7223053671899922E-002
  -4.3306349166931823E-002   1.3759239626170816E-002   2.7214758088186852E-002
  -4.1511019347495987E-002   1.2985222803321511E-002   2.7317102565429796E-002
  -3.9715689528060108E-002   1.2112240679141829E-002   2.7530087103628698E-002
  -3.7920359708624285E-002   1.1140293253631861E-002   2.7853711702783834E-002
  -2.4391817697691193E-002   6.4332524749224351E-003   4.9280696481721065E-002
  -2.2543688814650839E-002   6.0619086164411251E-003   4.8842952988682631E-002
  -2.0695559931610472E-002   5.5900237256468477E-003   4.8621318581836437E-002
  -1.8847431048570132E-002   5.0175978025394294E-003   4.8615793261182483E-002
  -1.6999302165529750E-002   4.3446308471186690E-003   4.8826377026720769E-002
  -2.7749295483421657E-002   7.6100126695997083E-003   4.4186584062180623E-002
  -2.5699305885536698E-002   7.0900244671777135E-003   4.3644057527000901E-002
  -2.3649316287651809E-002   6.5223849114851018E-003   4.3289143335317803E-002
  -2.1599326689766895E-002   5.9070940025221091E-003   4.3121841487131676E-002
  -1.9549337091881960E-002   5.2441517402885829E-003   4.3142151982442201E-002
  -3.1123211747153892E-002   8.7867728642770926E-003   3.8917382459177724E-002
  -2.8899858177119844E-002   8.1181403179138301E-003   3.8322962560899232E-002
  -2.6676504607085795E-002   7.4547460973228147E-003   3.7887658263422233E-002
  -2.4453151037051698E-002   6.7965902025045148E-003   3.7611469566746790E-002
  -2.2229797467017705E-002   6.1436726334586078E-003   3.7494396470872632E-002
  -3.4513566488888189E-002   9.9635330589544768E-003   3.3473091672711945E-002
  -3.2145345689400355E-002   9.1462561686501270E-003   3.2879668090377900E-002
  -2.9777124889912569E-002   8.3871072831607427E-003   3.2416863366149837E-002
  -2.7408904090424759E-002   7.6860864024871130E-003   3.2084677500028053E-002
  -2.5040683290936894E-002   7.0431935266286883E-003   3.1883110492012097E-002
  -3.7920359708624285E-002   1.1140293253631861E-002   2.7853711702783834E-002
  -3.5435768422378111E-002   1.0174372019386424E-002   2.7314174115437129E-002
  -3.2951177136131965E-002   9.3194684689986984E-003   2.6876758643500753E-002
  -3.0466585849885805E-002   8.5755826024696349E-003   2.6541465286975180E-002
  -2.7981994563639673E-002   7.9427144197985466E-003   2.6308294045860325E-002
  -1.6999302165529750E-002   4.3446308471186690E-003   4.8826377026720769E-002
  -1.5072477317936220E-002   3.6974154843989471E-003   4.8759960449114015E-002
  -1.3145652470342647E-002   3.2022443393938393E-003   4.8930467192788374E-002
  -1.1218827622749075E-002   2.8591174121040605E-003   4.9337897257743846E-002
  -9.2920027751555445E-003   2.6680347025290763E-003   4.9982250643980208E-002
  -1.9549337091881960E-002   5.2441517402885829E-003   4.3142151982442201E-002
  -1.7420181864202959E-002   4.6021301139865800E-003   4.3031485436280326E-002
  -1.5291026636523833E-002   4.0496011128170473E-003   4.3088556329008293E-002
  -1.3161871408844741E-002   3.5865647367804288E-003   4.3313364660625991E-002
  -1.1032716181165705E-002   3.2130209858758363E-003   4.3705910431133810E-002
  -2.2229797467017705E-002   6.1436726334586078E-003   3.7494396470872632E-002
  -1.9967497741644288E-002   5.5068447435743240E-003   3.7276928363573103E-002
  -1.7705198016270893E-002   4.8969578862401580E-003   3.7158011812772382E-002
  -1.5442898290897487E-002   4.3140120614564674E-003   3.7137646818470420E-002
  -1.3180598565524081E-002   3.7580072692229849E-003   3.7215833380667335E-002
  -2.5040683290936894E-002   7.0431935266286883E-003   3.1883110492012097E-002
  -2.2714424950260347E-002   6.4115593731621234E-003   3.1496289230992569E-002
  -2.0388166609583747E-002   5.7443146596633174E-003   3.1138833644080665E-002
  -1.8061908268907120E-002   5.0414593861326153E-003   3.0810743731276430E-002
  -1.5735649928230545E-002   4.3029935525699392E-003   3.0512019492579943E-002
  -2.7981994563639673E-002   7.9427144197985466E-003   2.6308294045860325E-002
  -2.5660963490051064E-002   7.3162740027497564E-003   2.5689568038538502E-002
  -2.3339932416462414E-002   6.5916714330864767E-003   2.5031021822933208E-002
  -2.1018901342873743E-002   5.7689067108089298E-003   2.4332655399044362E-002
  -1.8697870269285155E-002   4.8479798359168935E-003   2.3594468766872323E-002
  -9.2920027751555445E-003   2.6680347025290763E-003   4.9982250643980208E-002
  -7.8691594665395853E-003   2.8494393165436893E-003   5.0366386427266319E-002
  -6.4463161579236677E-003   3.6237743600223415E-003   5.1085279956145591E-002
  -5.0234728493077155E-003   4.9910398329654146E-003   5.2138931230618163E-002
  -3.6006295406917910E-003   6.9512357353722631E-003   5.3527340250684174E-002
  -1.1032716181165705E-002   3.2130209858758363E-003   4.3705910431133810E-002
  -9.2583594270208153E-003   3.1562393087049001E-003   4.4268113911906104E-002
  -7.4840026728759182E-003   3.6434891538672520E-003   4.5198586538143182E-002
  -5.7096459187309968E-003   4.6747705213628921E-003   4.6497328309844516E-002
  -3.9352891645861310E-003   6.2500834111925974E-003   4.8164339227010911E-002
  -1.3180598565524081E-002   3.7580072692229849E-003   3.7215833380667335E-002
  -1.1021216965978915E-002   3.4630393008662219E-003   3.7907205651795089E-002
  -8.8618353664337048E-003   3.6632039477121764E-003   3.9000358468259014E-002
  -6.7024537668885758E-003   4.3585012097611502E-003   4.0495291830058823E-002
  -4.5430721673433289E-003   5.5489310870130426E-003   4.2392005737194427E-002
  -1.5735649928230545E-002   4.3029935525699392E-003   3.0512019492579943E-002
  -1.3157732083413797E-002   3.7698392930274327E-003   3.1283661646932914E-002
  -1.0579814238597052E-002   3.6829187415569828E-003   3.2490595746493114E-002
  -8.0018963937802806E-003   4.0422318981592400E-003   3.4132821791260738E-002
  -5.4239785489635615E-003   4.8477787628334323E-003   3.6210339781235390E-002
  -1.8697870269285155E-002   4.8479798359168935E-003   2.3594468766872323E-002
  -1.5667904779325559E-002   4.0766392851886990E-003   2.4397481897319606E-002
  -1.2637939289365935E-002   3.7026335354018447E-003   2.5669298372845761E-002
  -9.6079737994062830E-003   3.7259625865569551E-003   2.7409918193450289E-002
  -6.5780083094467146E-003   4.1466264386538221E-003   2.9619341359133244E-002
  -3.6006295406917910E-003   6.9512357353722631E-003   5.3527340250684174E-002
  -4.1524726379345428E-003   9.5295258377661174E-003   5.1862704030898654E-002
  -4.7043157351772391E-003   1.2751073910669042E-002   5.0048570255287195E-002
  -5.2561588324199493E-003   1.6615879954080912E-002   4.8084938923849352E-002
  -5.8080019296626872E-003   2.1123943968002656E-002   4.5971810036585126E-002
  -3.9352891645861310E-003   6.2500834111925974E-003   4.8164339227010911E-002
  -4.5319106408066856E-003   8.6835222191531947E-003   4.7239037947429841E-002
  -5.1285321170271986E-003   1.2289181341042399E-002   4.6373677465719521E-002
  -5.7251535932478503E-003   1.7067060776860710E-002   4.5568257781879173E-002
  -6.3217750694683217E-003   2.3017160526607627E-002   4.4822778895910131E-002
  -4.5430721673433289E-003   5.5489310870130426E-003   4.2392005737194427E-002
  -4.9750336688450317E-003   7.8375186005404940E-003   4.2735001741237372E-002
  -5.4069951703467414E-003   1.1827288771416228E-002   4.3347376896847784E-002
  -5.8389566718484512E-003   1.7518241599640404E-002   4.4229131204025454E-002
  -6.2709181733500985E-003   2.4910377085212820E-002   4.5380264662769787E-002
  -5.4239785489635615E-003   4.8477787628334323E-003   3.6210339781235390E-002
  -5.4818417220495828E-003   6.9915149819280153E-003   3.8350595412321886E-002
  -5.5397048951356057E-003   1.1365396201789599E-002   4.0969668548672587E-002
  -5.5975680682217536E-003   1.7969422422420039E-002   4.4067559190286987E-002
  -5.6554312413077054E-003   2.6803593643817902E-002   4.7644267337165730E-002
  -6.5780083094467146E-003   4.1466264386538221E-003   2.9619341359133244E-002
  -6.0523348004205002E-003   6.1455113633153147E-003   3.4085818960682968E-002
  -5.5266612913941748E-003   1.0903503632163525E-002   3.9240552421193287E-002
  -5.0009877823678078E-003   1.8420603245199701E-002   4.5083541740664479E-002
  -4.4753142733415796E-003   2.8696810202422984E-002   5.1614786919095934E-002
  -7.6991419212915468E-002   2.0237480004427821E-002   3.2467631832522548E-002
  -7.3887665979746026E-002   2.2157340179749796E-002   2.9637429440005469E-002
  -7.0783912746576416E-002   2.2991413185758397E-002   2.7980599401795925E-002
  -6.7680159513406918E-002   2.2739699022453770E-002   2.7497141717893858E-002
  -6.4576406280237419E-002   2.1402197689836089E-002   2.8187056388299048E-002
  -8.4771711531049926E-002   2.3636825299621189E-002   2.3586786369743762E-002
  -8.1025767584142205E-002   2.3761420643747727E-002   2.2992878143846762E-002
  -7.7279823637234582E-002   2.3517859676640412E-002   2.2509978991118645E-002
  -7.3533879690326820E-002   2.2906142398299072E-002   2.2138088911559328E-002
  -6.9787935743419141E-002   2.1926268808723892E-002   2.1877207905169171E-002
  -8.9057556301721547E-002   2.7036170594814557E-002   1.2551860646730084E-002
  -8.5731784922214199E-002   2.5365501107745658E-002   1.4911877445532296E-002
  -8.2406013542706824E-002   2.4044306167522331E-002   1.6320540036364947E-002
  -7.9080242163199449E-002   2.3072585774144398E-002   1.6777848419228088E-002
  -7.5754470783692102E-002   2.2450339927611862E-002   1.6283802594121558E-002
  -8.9848953524930275E-002   3.0435515890007953E-002  -6.3714533651866578E-004
  -8.8005717993961979E-002   2.6969581571743700E-002   5.3944273450621631E-003
  -8.6162482462993281E-002   2.4570752658404242E-002   9.4122825375348336E-003
  -8.4319246932024888E-002   2.3239029149989515E-002   1.1416420240899778E-002
  -8.2476011401056426E-002   2.2974411046499971E-002   1.1406840455156129E-002
  -8.7145903200676500E-002   3.3834861185201293E-002  -1.5980231580002613E-002
  -8.7847566799385435E-002   2.8573662035741743E-002  -5.5594721575637496E-003
  -8.8549230398094259E-002   2.5097199149286376E-002   1.7852064946285995E-003
  -8.9250893996803138E-002   2.3405472525834956E-002   6.0538043765741428E-003
  -8.9952557595512017E-002   2.3498482165387746E-002   7.2463214882732552E-003
  -6.4576406280237419E-002   2.1402197689836089E-002   2.8187056388299048E-002
  -6.3034336554628478E-002   1.9695727794536932E-002   2.8722003240541805E-002
  -6.1492266829019537E-002   1.8337107943188310E-002   2.9227497224489501E-002
  -5.9950197103410582E-002   1.7326338135790400E-002   2.9703538340141528E-002
  -5.8408127377801627E-002   1.6663418372342920E-002   3.0150126587498438E-002
  -6.9787935743419141E-002   2.1926268808723892E-002   2.1877207905169171E-002
  -6.8174200192539322E-002   2.0819018156250133E-002   2.1988893988580158E-002
  -6.6560464641659545E-002   1.9825169689212177E-002   2.2273364590828279E-002
  -6.4946729090779684E-002   1.8944723407610723E-002   2.2730619711913341E-002
  -6.3332993539899934E-002   1.8177679311445205E-002   2.3360659351835567E-002
  -7.5754470783692102E-002   2.2450339927611862E-002   1.6283802594121558E-002
  -7.3866832020409071E-002   2.1942308517963166E-002   1.5737780050186473E-002
  -7.1979193257126095E-002   2.1313231435235884E-002   1.5566779412220795E-002
  -7.0091554493843050E-002   2.0563108679430883E-002   1.5770800680224458E-002
  -6.8203915730560033E-002   1.9691940250547629E-002   1.6349843854197799E-002
  -8.2476011401056426E-002   2.2974411046499971E-002   1.1406840455156129E-002
  -8.0112232038237793E-002   2.3065598879676227E-002   9.9686614253606844E-003
  -7.7748452675419272E-002   2.2801293181259948E-002   9.1077416886669298E-003
  -7.5384673312600695E-002   2.2181493951251234E-002   8.8240812450750272E-003
  -7.3020893949782117E-002   2.1206201189649956E-002   9.1176800945846868E-003
  -8.9952557595512017E-002   2.3498482165387746E-002   7.2463214882732552E-003
  -8.6910400246025477E-002   2.4188889241389455E-002   4.6815381141026569E-003
  -8.3868242896538991E-002   2.4289354927283541E-002   2.8962514201666262E-003
  -8.0826085547052506E-002   2.3799879223071356E-002   1.8904614064644380E-003
  -7.7783928197565966E-002   2.2720462128752339E-002   1.6641680729964081E-003
  -5.8408127377801627E-002   1.6663418372342920E-002   3.0150126587498438E-002
  -5.5081515279943150E-002   1.6157351864697855E-002   2.9008008816627795E-002
  -5.1754903182084658E-002   1.5617141824707456E-002   2.8139457407071022E-002
  -4.8428291084226187E-002   1.5042788252371691E-002   2.7544472358828509E-002
  -4.5101678986367688E-002   1.4434291147690015E-002   2.7223053671899922E-002
  -6.3332993539899934E-002   1.8177679311445205E-002   2.3360659351835567E-002
  -5.9727625704233372E-002   1.7464580614600350E-002   2.2257847469326741E-002
  -5.6122257868566741E-002   1.6745970530960219E-002   2.1438980701119909E-002
  -5.2516890032900172E-002   1.6021849060525076E-002   2.0904059047215443E-002
  -4.8911522197233562E-002   1.5292216203294573E-002   2.0653082507613052E-002
  -6.8203915730560033E-002   1.9691940250547629E-002   1.6349843854197799E-002
  -6.4309413404097293E-002   1.8771809364502762E-002   1.5314970005601003E-002
  -6.0414911077634512E-002   1.7874799237212934E-002   1.4574420024294703E-002
  -5.6520408751171723E-002   1.7000909868678575E-002   1.4128193910278312E-002
  -5.2625906424708921E-002   1.6150141258899131E-002   1.3976291663552326E-002
  -7.3020893949782117E-002   2.1206201189649956E-002   9.1176800945846868E-003
  -6.8826878379535078E-002   2.0079038114405104E-002   8.1793764254503611E-003
  -6.4632862809287983E-002   1.9003627943465839E-002   7.5457753765946888E-003
  -6.0438847239040916E-002   1.7979970676832237E-002   7.2168769480171627E-003
  -5.6244831668793821E-002   1.7008066314503634E-002   7.1926811397177853E-003
  -7.7783928197565966E-002   2.2720462128752339E-002   1.6641680729964081E-003
  -7.3280020630546561E-002   2.1386266864307724E-002   8.5106672887497181E-004
  -6.8776113063527100E-002   2.0132456649718244E-002   3.5304675802014240E-004
  -6.4272205496507695E-002   1.8959031484985608E-002   1.7010816043171867E-004
  -5.9768297929488234E-002   1.7865991370108136E-002   3.0225093610969367E-004
  -4.5101678986367688E-002   1.4434291147690015E-002   2.7223053671899922E-002
  -4.3306349166931823E-002   1.3759239626170816E-002   2.7214758088186852E-002
  -4.1511019347495987E-002   1.2985222803321511E-002   2.7317102565429796E-002
  -3.9715689528060108E-002   1.2112240679141829E-002   2.7530087103628698E-002
  -3.7920359708624285E-002   1.1140293253631861E-002   2.7853711702783834E-002
  -4.8911522197233562E-002   1.5292216203294573E-002   2.0653082507613052E-002
  -4.7024799080045726E-002   1.4544651437841949E-002   2.0656340278596891E-002
  -4.5138075962857870E-002   1.3766734242740386E-002   2.0731744584128520E-002
  -4.3251352845669985E-002   1.2958464617989510E-002   2.0879295424208383E-002
  -4.1364629728482177E-002   1.2119842563589334E-002   2.1098992798835869E-002
  -5.2625906424708921E-002   1.6150141258899131E-002   1.3976291663552326E-002
  -5.0686283536177115E-002   1.5330063249513387E-002   1.4059715660913935E-002
  -4.8746660647645344E-002   1.4548245682159247E-002   1.4176792666415569E-002
  -4.6807037759113532E-002   1.3804688556837131E-002   1.4327522680056770E-002
  -4.4867414870581768E-002   1.3099391873546640E-002   1.4511905701838274E-002
  -5.6244831668793821E-002   1.7008066314503634E-002   7.1926811397177853E-003
  -5.4290802535326088E-002   1.6115475061184284E-002   7.4248842351383113E-003
  -5.2336773401858397E-002   1.5329757121578115E-002   7.6522468122908263E-003
  -5.0382744268390692E-002   1.4650912495684671E-002   7.8747688711748882E-003
  -4.8428715134922973E-002   1.4078941183504196E-002   8.0924504117909357E-003
  -5.9768297929488234E-002   1.7865991370108136E-002   3.0225093610969367E-004
  -5.7838356077492548E-002   1.6900886872855847E-002   7.5184600126998458E-004
  -5.5908414225497027E-002   1.6111268560997399E-002   1.1581070217540068E-003
  -5.3978472373501424E-002   1.5497136434532814E-002   1.5210339975620657E-003
  -5.2048530521505820E-002   1.5058490493461418E-002   1.8406269286936894E-003
  -3.7920359708624285E-002   1.1140293253631861E-002   2.7853711702783834E-002
  -3.5435768422378111E-002   1.0174372019386424E-002   2.7314174115437129E-002
  -3.2951177136131965E-002   9.3194684689986984E-003   2.6876758643500753E-002
  -3.0466585849885805E-002   8.5755826024696349E-003   2.6541465286975180E-002
  -2.7981994563639673E-002   7.9427144197985466E-003   2.6308294045860325E-002
  -4.1364629728482177E-002   1.2119842563589334E-002   2.1098992798835869E-002
  -3.8763591811242892E-002   1.1283786015727881E-002   2.0588515168122379E-002
  -3.6162553894003580E-002   1.0483212910593509E-002   2.0208808683984447E-002
  -3.3561515976764322E-002   9.7181232481856616E-003   1.9959873346422158E-002
  -3.0960478059525037E-002   8.9885170285044502E-003   1.9841709155435427E-002
  -4.4867414870581768E-002   1.3099391873546640E-002   1.4511905701838274E-002
  -4.2121281291184337E-002   1.2393200012069616E-002   1.3954953786626562E-002
  -3.9375147711787017E-002   1.1646957352188306E-002   1.3557422049155235E-002
  -3.6629014132389642E-002   1.0860663893901629E-002   1.3319310489424446E-002
  -3.3882880552992274E-002   1.0034319637210465E-002   1.3240619107434404E-002
  -4.8428715134922973E-002   1.4078941183504196E-002   8.0924504117909357E-003
  -4.5508836862202529E-002   1.3502614008412045E-002   7.4134899709496910E-003
  -4.2588958589482126E-002   1.2810701793783165E-002   6.9225987390131201E-003
  -3.9669080316761654E-002   1.2003204539618182E-002   6.6197767159825501E-003
  -3.6749202044041279E-002   1.1080122245916535E-002   6.5050239018574554E-003
  -5.2048530521505820E-002   1.5058490493461418E-002   1.8406269286936894E-003
  -4.8926258524297328E-002   1.4612028004752919E-002   9.6412372109061506E-004
  -4.5803986527088947E-002   1.3974446235378246E-002   3.0433875355823092E-004
  -4.2681714529880538E-002   1.3145745185333541E-002  -1.3872797390372671E-004
  -3.9559442532672073E-002   1.2125924854622161E-002  -3.6507646129513294E-004
  -2.7981994563639673E-002   7.9427144197985466E-003   2.6308294045860325E-002
  -2.5660963490051064E-002   7.3162740027497564E-003   2.5689568038538502E-002
  -2.3339932416462414E-002   6.5916714330864767E-003   2.5031021822933208E-002
  -2.1018901342873743E-002   5.7689067108089298E-003   2.4332655399044362E-002
  -1.8697870269285155E-002   4.8479798359168935E-003   2.3594468766872323E-002
  -3.0960478059525037E-002   8.9885170285044502E-003   1.9841709155435427E-002
  -2.8669745103376748E-002   8.2691401656256880E-003   1.9231992800507136E-002
  -2.6379012147228556E-002   7.5347385736257988E-003   1.8601500418981648E-002
  -2.4088279191080343E-002   6.7853122525041581E-003   1.7950232010859046E-002
  -2.1797546234932075E-002   6.0208612022613073E-003   1.7278187576139192E-002
  -3.3882880552992274E-002   1.0034319637210465E-002   1.3240619107434404E-002
  -3.1603401532598115E-002   9.2220063285020359E-003   1.2723049828392730E-002
  -2.9323922512203889E-002   8.4778057141655649E-003   1.2203748704439632E-002
  -2.7044443491809636E-002   7.8017177941996085E-003   1.1682715735575881E-002
  -2.4764964471415449E-002   7.1937425686054990E-003   1.1159950921801470E-002
  -3.6749202044041279E-002   1.1080122245916535E-002   6.5050239018574554E-003
  -3.4461932777714810E-002   1.0174872491378620E-002   6.1627391221947825E-003
  -3.2174663511388257E-002   9.4208728547047760E-003   5.8377666793071187E-003
  -2.9887394245061757E-002   8.8181233358953365E-003   5.5301065731953834E-003
  -2.7600124978735235E-002   8.3666239349499683E-003   5.2397588038586573E-003
  -3.9559442532672073E-002   1.2125924854622161E-002  -3.6507646129513294E-004
  -3.7245338838726938E-002   1.1127738654254538E-002  -4.4893931808626109E-004
  -3.4931235144781858E-002   1.0363939995244043E-002  -4.9644565641560057E-004
  -3.2617131450836723E-002   9.8345288775908007E-003  -5.0759547628259627E-004
  -3.0303027756891643E-002   9.5395053012943265E-003  -4.8238877768891353E-004
  -1.8697870269285155E-002   4.8479798359168935E-003   2.3594468766872323E-002
  -1.5667904779325559E-002   4.0766392851886990E-003   2.4397481897319606E-002
  -1.2637939289365935E-002   3.7026335354018447E-003   2.5669298372845761E-002
  -9.6079737994062830E-003   3.7259625865569551E-003   2.7409918193450289E-002
  -6.5780083094467146E-003   4.1466264386538221E-003   2.9619341359133244E-002
  -2.1797546234932075E-002   6.0208612022613073E-003   1.7278187576139192E-002
  -1.8565663631960772E-002   5.3429119276988124E-003   1.8239253744395445E-002
  -1.5333781028989538E-002   4.8529909336190169E-003   1.9135350793596712E-002
  -1.2101898426018290E-002   4.5510982200218653E-003   1.9966478723742617E-002
  -8.8700158230470005E-003   4.4372337869075240E-003   2.0732637534833342E-002
  -2.4764964471415449E-002   7.1937425686054990E-003   1.1159950921801470E-002
  -2.1864937219566269E-002   6.6091845702088425E-003   1.2069763607407691E-002
  -1.8964909967716957E-002   6.0033483318359393E-003   1.2380834709824928E-002
  -1.6064882715867736E-002   5.3762338534866574E-003   1.2093164229053280E-002
  -1.3164855464018521E-002   4.7278411351612259E-003   1.1206752165092870E-002
  -2.7600124978735235E-002   8.3666239349499683E-003   5.2397588038586573E-003
  -2.5565725542141812E-002   7.8754572127186923E-003   5.8890114863560522E-003
  -2.3531326105548277E-002   7.1537057300525980E-003   5.4057501215306822E-003
  -2.1496926668954783E-002   6.2013694869506204E-003   3.7899747093828109E-003
  -1.9462527232361321E-002   5.0184484834144838E-003   1.0416852499121609E-003
  -3.0303027756891643E-002   9.5395053012943265E-003  -4.8238877768891353E-004
  -2.9668028599687535E-002   9.1417298552286530E-003  -3.0300261875937373E-004
  -2.9033029442483482E-002   8.3040631282699229E-003  -1.7899029712865888E-003
  -2.8398030285279457E-002   7.0265051204159990E-003  -4.9430898352699551E-003
  -2.7763031128075322E-002   5.3090558316686298E-003  -9.7625632107093407E-003
  -6.5780083094467146E-003   4.1466264386538221E-003   2.9619341359133244E-002
  -6.0523348004205002E-003   6.1455113633153147E-003   3.4085818960682968E-002
  -5.5266612913941748E-003   1.0903503632163525E-002   3.9240552421193287E-002
  -5.0009877823678078E-003   1.8420603245199701E-002   4.5083541740664479E-002
  -4.4753142733415796E-003   2.8696810202422984E-002   5.1614786919095934E-002
  -8.8700158230470005E-003   4.4372337869075240E-003   2.0732637534833342E-002
  -7.5847618445746140E-003   5.6581174256776778E-003   2.5887895223234536E-002
  -6.2995078661022413E-003   9.3604689277356490E-003   3.1874057991566951E-002
  -5.0142538876298270E-003   1.5544288293080709E-002   3.8691125839830781E-002
  -3.7289999091574821E-003   2.4209575521712878E-002   4.6339098768025888E-002
  -1.3164855464018521E-002   4.7278411351612259E-003   1.1206752165092870E-002
  -1.0977371795129282E-002   5.1707234880409292E-003   1.6773150459445302E-002
  -8.7898881262400835E-003   7.8174342233077732E-003   2.3313103054699830E-002
  -6.6024044573509168E-003   1.2667973340961716E-002   3.0826609950856107E-002
  -4.4149207884617570E-003   1.9722340841002550E-002   3.9313671147915064E-002
  -1.9462527232361321E-002   5.0184484834144838E-003   1.0416852499121609E-003
  -1.6230164652084537E-002   4.6833295504040695E-003   6.7415846693154105E-003
  -1.2997802071807724E-002   6.2743995188798973E-003   1.3557687610591340E-002
  -9.7654394915310111E-003   9.7916583888429456E-003   2.1489994073740915E-002
  -6.5330769112541334E-003   1.5235106160292333E-002   3.0538504058762544E-002
  -2.7763031128075322E-002   5.3090558316686298E-003  -9.7625632107093407E-003
  -2.3343140415440278E-002   4.1959356127663217E-003  -4.2068021471552974E-003
  -1.8923249702805178E-002   4.7313648144521325E-003   2.6078116592422318E-003
  -1.4503358990170107E-002   6.9153434367238698E-003   1.0681278208483622E-002
  -1.0083468277535035E-002   1.0747871479582116E-002   2.0013597500568636E-002
 </DataArray>
 </PointData>
 </Piece>
 </UnstructuredGrid>
 </VTKFile>
