 <VTKFile type="UnstructuredGrid"  version="0.1"   >
 <UnstructuredGrid>
 <Piece  NumberOfPoints="           400 "  NumberOfCells="          256 ">
 <Points>
 <DataArray  type="Float64" NumberOfComponents="3"  format="ascii" >
   0.0000000000000000        0.0000000000000000        0.0000000000000000     
   6.2500000000000000E-002   0.0000000000000000        0.0000000000000000     
  0.12500000000000000        0.0000000000000000        0.0000000000000000     
  0.18750000000000000        0.0000000000000000        0.0000000000000000     
  0.25000000000000000        0.0000000000000000        0.0000000000000000     
   0.0000000000000000        6.2500000000000000E-002   0.0000000000000000     
   6.2500000000000000E-002   6.2500000000000000E-002   0.0000000000000000     
  0.12500000000000000        6.2500000000000000E-002   0.0000000000000000     
  0.18750000000000000        6.2500000000000000E-002   0.0000000000000000     
  0.25000000000000000        6.2500000000000000E-002   0.0000000000000000     
   0.0000000000000000       0.12500000000000000        0.0000000000000000     
   6.2500000000000000E-002  0.12500000000000000        0.0000000000000000     
  0.12500000000000000       0.12500000000000000        0.0000000000000000     
  0.18750000000000000       0.12500000000000000        0.0000000000000000     
  0.25000000000000000       0.12500000000000000        0.0000000000000000     
   0.0000000000000000       0.18750000000000000        0.0000000000000000     
   6.2500000000000000E-002  0.18750000000000000        0.0000000000000000     
  0.12500000000000000       0.18750000000000000        0.0000000000000000     
  0.18750000000000000       0.18750000000000000        0.0000000000000000     
  0.25000000000000000       0.18750000000000000        0.0000000000000000     
   0.0000000000000000       0.25000000000000000        0.0000000000000000     
   6.2500000000000000E-002  0.25000000000000000        0.0000000000000000     
  0.12500000000000000       0.25000000000000000        0.0000000000000000     
  0.18750000000000000       0.25000000000000000        0.0000000000000000     
  0.25000000000000000       0.25000000000000000        0.0000000000000000     
  0.25000000000000000        0.0000000000000000        0.0000000000000000     
  0.31250000000000000        0.0000000000000000        0.0000000000000000     
  0.37500000000000000        0.0000000000000000        0.0000000000000000     
  0.43750000000000000        0.0000000000000000        0.0000000000000000     
  0.50000000000000000        0.0000000000000000        0.0000000000000000     
  0.25000000000000000        6.2500000000000000E-002   0.0000000000000000     
  0.31250000000000000        6.2500000000000000E-002   0.0000000000000000     
  0.37500000000000000        6.2500000000000000E-002   0.0000000000000000     
  0.43750000000000000        6.2500000000000000E-002   0.0000000000000000     
  0.50000000000000000        6.2500000000000000E-002   0.0000000000000000     
  0.25000000000000000       0.12500000000000000        0.0000000000000000     
  0.31250000000000000       0.12500000000000000        0.0000000000000000     
  0.37500000000000000       0.12500000000000000        0.0000000000000000     
  0.43750000000000000       0.12500000000000000        0.0000000000000000     
  0.50000000000000000       0.12500000000000000        0.0000000000000000     
  0.25000000000000000       0.18750000000000000        0.0000000000000000     
  0.31250000000000000       0.18750000000000000        0.0000000000000000     
  0.37500000000000000       0.18750000000000000        0.0000000000000000     
  0.43750000000000000       0.18750000000000000        0.0000000000000000     
  0.50000000000000000       0.18750000000000000        0.0000000000000000     
  0.25000000000000000       0.25000000000000000        0.0000000000000000     
  0.31250000000000000       0.25000000000000000        0.0000000000000000     
  0.37500000000000000       0.25000000000000000        0.0000000000000000     
  0.43750000000000000       0.25000000000000000        0.0000000000000000     
  0.50000000000000000       0.25000000000000000        0.0000000000000000     
  0.50000000000000000        0.0000000000000000        0.0000000000000000     
  0.56250000000000000        0.0000000000000000        0.0000000000000000     
  0.62500000000000000        0.0000000000000000        0.0000000000000000     
  0.68750000000000000        0.0000000000000000        0.0000000000000000     
  0.75000000000000000        0.0000000000000000        0.0000000000000000     
  0.50000000000000000        6.2500000000000000E-002   0.0000000000000000     
  0.56250000000000000        6.2500000000000000E-002   0.0000000000000000     
  0.62500000000000000        6.2500000000000000E-002   0.0000000000000000     
  0.68750000000000000        6.2500000000000000E-002   0.0000000000000000     
  0.75000000000000000        6.2500000000000000E-002   0.0000000000000000     
  0.50000000000000000       0.12500000000000000        0.0000000000000000     
  0.56250000000000000       0.12500000000000000        0.0000000000000000     
  0.62500000000000000       0.12500000000000000        0.0000000000000000     
  0.68750000000000000       0.12500000000000000        0.0000000000000000     
  0.75000000000000000       0.12500000000000000        0.0000000000000000     
  0.50000000000000000       0.18750000000000000        0.0000000000000000     
  0.56250000000000000       0.18750000000000000        0.0000000000000000     
  0.62500000000000000       0.18750000000000000        0.0000000000000000     
  0.68750000000000000       0.18750000000000000        0.0000000000000000     
  0.75000000000000000       0.18750000000000000        0.0000000000000000     
  0.50000000000000000       0.25000000000000000        0.0000000000000000     
  0.56250000000000000       0.25000000000000000        0.0000000000000000     
  0.62500000000000000       0.25000000000000000        0.0000000000000000     
  0.68750000000000000       0.25000000000000000        0.0000000000000000     
  0.75000000000000000       0.25000000000000000        0.0000000000000000     
  0.75000000000000000        0.0000000000000000        0.0000000000000000     
  0.81250000000000000        0.0000000000000000        0.0000000000000000     
  0.87500000000000000        0.0000000000000000        0.0000000000000000     
  0.93750000000000000        0.0000000000000000        0.0000000000000000     
   1.0000000000000000        0.0000000000000000        0.0000000000000000     
  0.75000000000000000        6.2500000000000000E-002   0.0000000000000000     
  0.81250000000000000        6.2500000000000000E-002   0.0000000000000000     
  0.87500000000000000        6.2500000000000000E-002   0.0000000000000000     
  0.93750000000000000        6.2500000000000000E-002   0.0000000000000000     
   1.0000000000000000        6.2500000000000000E-002   0.0000000000000000     
  0.75000000000000000       0.12500000000000000        0.0000000000000000     
  0.81250000000000000       0.12500000000000000        0.0000000000000000     
  0.87500000000000000       0.12500000000000000        0.0000000000000000     
  0.93750000000000000       0.12500000000000000        0.0000000000000000     
   1.0000000000000000       0.12500000000000000        0.0000000000000000     
  0.75000000000000000       0.18750000000000000        0.0000000000000000     
  0.81250000000000000       0.18750000000000000        0.0000000000000000     
  0.87500000000000000       0.18750000000000000        0.0000000000000000     
  0.93750000000000000       0.18750000000000000        0.0000000000000000     
   1.0000000000000000       0.18750000000000000        0.0000000000000000     
  0.75000000000000000       0.25000000000000000        0.0000000000000000     
  0.81250000000000000       0.25000000000000000        0.0000000000000000     
  0.87500000000000000       0.25000000000000000        0.0000000000000000     
  0.93750000000000000       0.25000000000000000        0.0000000000000000     
   1.0000000000000000       0.25000000000000000        0.0000000000000000     
   0.0000000000000000       0.25000000000000000        0.0000000000000000     
   6.2500000000000000E-002  0.25000000000000000        0.0000000000000000     
  0.12500000000000000       0.25000000000000000        0.0000000000000000     
  0.18750000000000000       0.25000000000000000        0.0000000000000000     
  0.25000000000000000       0.25000000000000000        0.0000000000000000     
   0.0000000000000000       0.31250000000000000        0.0000000000000000     
   6.2500000000000000E-002  0.31250000000000000        0.0000000000000000     
  0.12500000000000000       0.31250000000000000        0.0000000000000000     
  0.18750000000000000       0.31250000000000000        0.0000000000000000     
  0.25000000000000000       0.31250000000000000        0.0000000000000000     
   0.0000000000000000       0.37500000000000000        0.0000000000000000     
   6.2500000000000000E-002  0.37500000000000000        0.0000000000000000     
  0.12500000000000000       0.37500000000000000        0.0000000000000000     
  0.18750000000000000       0.37500000000000000        0.0000000000000000     
  0.25000000000000000       0.37500000000000000        0.0000000000000000     
   0.0000000000000000       0.43750000000000000        0.0000000000000000     
   6.2500000000000000E-002  0.43750000000000000        0.0000000000000000     
  0.12500000000000000       0.43750000000000000        0.0000000000000000     
  0.18750000000000000       0.43750000000000000        0.0000000000000000     
  0.25000000000000000       0.43750000000000000        0.0000000000000000     
   0.0000000000000000       0.50000000000000000        0.0000000000000000     
   6.2500000000000000E-002  0.50000000000000000        0.0000000000000000     
  0.12500000000000000       0.50000000000000000        0.0000000000000000     
  0.18750000000000000       0.50000000000000000        0.0000000000000000     
  0.25000000000000000       0.50000000000000000        0.0000000000000000     
  0.25000000000000000       0.25000000000000000        0.0000000000000000     
  0.31250000000000000       0.25000000000000000        0.0000000000000000     
  0.37500000000000000       0.25000000000000000        0.0000000000000000     
  0.43750000000000000       0.25000000000000000        0.0000000000000000     
  0.50000000000000000       0.25000000000000000        0.0000000000000000     
  0.25000000000000000       0.31250000000000000        0.0000000000000000     
  0.31250000000000000       0.31250000000000000        0.0000000000000000     
  0.37500000000000000       0.31250000000000000        0.0000000000000000     
  0.43750000000000000       0.31250000000000000        0.0000000000000000     
  0.50000000000000000       0.31250000000000000        0.0000000000000000     
  0.25000000000000000       0.37500000000000000        0.0000000000000000     
  0.31250000000000000       0.37500000000000000        0.0000000000000000     
  0.37500000000000000       0.37500000000000000        0.0000000000000000     
  0.43750000000000000       0.37500000000000000        0.0000000000000000     
  0.50000000000000000       0.37500000000000000        0.0000000000000000     
  0.25000000000000000       0.43750000000000000        0.0000000000000000     
  0.31250000000000000       0.43750000000000000        0.0000000000000000     
  0.37500000000000000       0.43750000000000000        0.0000000000000000     
  0.43750000000000000       0.43750000000000000        0.0000000000000000     
  0.50000000000000000       0.43750000000000000        0.0000000000000000     
  0.25000000000000000       0.50000000000000000        0.0000000000000000     
  0.31250000000000000       0.50000000000000000        0.0000000000000000     
  0.37500000000000000       0.50000000000000000        0.0000000000000000     
  0.43750000000000000       0.50000000000000000        0.0000000000000000     
  0.50000000000000000       0.50000000000000000        0.0000000000000000     
  0.50000000000000000       0.25000000000000000        0.0000000000000000     
  0.56250000000000000       0.25000000000000000        0.0000000000000000     
  0.62500000000000000       0.25000000000000000        0.0000000000000000     
  0.68750000000000000       0.25000000000000000        0.0000000000000000     
  0.75000000000000000       0.25000000000000000        0.0000000000000000     
  0.50000000000000000       0.31250000000000000        0.0000000000000000     
  0.56250000000000000       0.31250000000000000        0.0000000000000000     
  0.62500000000000000       0.31250000000000000        0.0000000000000000     
  0.68750000000000000       0.31250000000000000        0.0000000000000000     
  0.75000000000000000       0.31250000000000000        0.0000000000000000     
  0.50000000000000000       0.37500000000000000        0.0000000000000000     
  0.56250000000000000       0.37500000000000000        0.0000000000000000     
  0.62500000000000000       0.37500000000000000        0.0000000000000000     
  0.68750000000000000       0.37500000000000000        0.0000000000000000     
  0.75000000000000000       0.37500000000000000        0.0000000000000000     
  0.50000000000000000       0.43750000000000000        0.0000000000000000     
  0.56250000000000000       0.43750000000000000        0.0000000000000000     
  0.62500000000000000       0.43750000000000000        0.0000000000000000     
  0.68750000000000000       0.43750000000000000        0.0000000000000000     
  0.75000000000000000       0.43750000000000000        0.0000000000000000     
  0.50000000000000000       0.50000000000000000        0.0000000000000000     
  0.56250000000000000       0.50000000000000000        0.0000000000000000     
  0.62500000000000000       0.50000000000000000        0.0000000000000000     
  0.68750000000000000       0.50000000000000000        0.0000000000000000     
  0.75000000000000000       0.50000000000000000        0.0000000000000000     
  0.75000000000000000       0.25000000000000000        0.0000000000000000     
  0.81250000000000000       0.25000000000000000        0.0000000000000000     
  0.87500000000000000       0.25000000000000000        0.0000000000000000     
  0.93750000000000000       0.25000000000000000        0.0000000000000000     
   1.0000000000000000       0.25000000000000000        0.0000000000000000     
  0.75000000000000000       0.31250000000000000        0.0000000000000000     
  0.81250000000000000       0.31250000000000000        0.0000000000000000     
  0.87500000000000000       0.31250000000000000        0.0000000000000000     
  0.93750000000000000       0.31250000000000000        0.0000000000000000     
   1.0000000000000000       0.31250000000000000        0.0000000000000000     
  0.75000000000000000       0.37500000000000000        0.0000000000000000     
  0.81250000000000000       0.37500000000000000        0.0000000000000000     
  0.87500000000000000       0.37500000000000000        0.0000000000000000     
  0.93750000000000000       0.37500000000000000        0.0000000000000000     
   1.0000000000000000       0.37500000000000000        0.0000000000000000     
  0.75000000000000000       0.43750000000000000        0.0000000000000000     
  0.81250000000000000       0.43750000000000000        0.0000000000000000     
  0.87500000000000000       0.43750000000000000        0.0000000000000000     
  0.93750000000000000       0.43750000000000000        0.0000000000000000     
   1.0000000000000000       0.43750000000000000        0.0000000000000000     
  0.75000000000000000       0.50000000000000000        0.0000000000000000     
  0.81250000000000000       0.50000000000000000        0.0000000000000000     
  0.87500000000000000       0.50000000000000000        0.0000000000000000     
  0.93750000000000000       0.50000000000000000        0.0000000000000000     
   1.0000000000000000       0.50000000000000000        0.0000000000000000     
   0.0000000000000000       0.50000000000000000        0.0000000000000000     
   6.2500000000000000E-002  0.50000000000000000        0.0000000000000000     
  0.12500000000000000       0.50000000000000000        0.0000000000000000     
  0.18750000000000000       0.50000000000000000        0.0000000000000000     
  0.25000000000000000       0.50000000000000000        0.0000000000000000     
   0.0000000000000000       0.56250000000000000        0.0000000000000000     
   6.2500000000000000E-002  0.56250000000000000        0.0000000000000000     
  0.12500000000000000       0.56250000000000000        0.0000000000000000     
  0.18750000000000000       0.56250000000000000        0.0000000000000000     
  0.25000000000000000       0.56250000000000000        0.0000000000000000     
   0.0000000000000000       0.62500000000000000        0.0000000000000000     
   6.2500000000000000E-002  0.62500000000000000        0.0000000000000000     
  0.12500000000000000       0.62500000000000000        0.0000000000000000     
  0.18750000000000000       0.62500000000000000        0.0000000000000000     
  0.25000000000000000       0.62500000000000000        0.0000000000000000     
   0.0000000000000000       0.68750000000000000        0.0000000000000000     
   6.2500000000000000E-002  0.68750000000000000        0.0000000000000000     
  0.12500000000000000       0.68750000000000000        0.0000000000000000     
  0.18750000000000000       0.68750000000000000        0.0000000000000000     
  0.25000000000000000       0.68750000000000000        0.0000000000000000     
   0.0000000000000000       0.75000000000000000        0.0000000000000000     
   6.2500000000000000E-002  0.75000000000000000        0.0000000000000000     
  0.12500000000000000       0.75000000000000000        0.0000000000000000     
  0.18750000000000000       0.75000000000000000        0.0000000000000000     
  0.25000000000000000       0.75000000000000000        0.0000000000000000     
  0.25000000000000000       0.50000000000000000        0.0000000000000000     
  0.31250000000000000       0.50000000000000000        0.0000000000000000     
  0.37500000000000000       0.50000000000000000        0.0000000000000000     
  0.43750000000000000       0.50000000000000000        0.0000000000000000     
  0.50000000000000000       0.50000000000000000        0.0000000000000000     
  0.25000000000000000       0.56250000000000000        0.0000000000000000     
  0.31250000000000000       0.56250000000000000        0.0000000000000000     
  0.37500000000000000       0.56250000000000000        0.0000000000000000     
  0.43750000000000000       0.56250000000000000        0.0000000000000000     
  0.50000000000000000       0.56250000000000000        0.0000000000000000     
  0.25000000000000000       0.62500000000000000        0.0000000000000000     
  0.31250000000000000       0.62500000000000000        0.0000000000000000     
  0.37500000000000000       0.62500000000000000        0.0000000000000000     
  0.43750000000000000       0.62500000000000000        0.0000000000000000     
  0.50000000000000000       0.62500000000000000        0.0000000000000000     
  0.25000000000000000       0.68750000000000000        0.0000000000000000     
  0.31250000000000000       0.68750000000000000        0.0000000000000000     
  0.37500000000000000       0.68750000000000000        0.0000000000000000     
  0.43750000000000000       0.68750000000000000        0.0000000000000000     
  0.50000000000000000       0.68750000000000000        0.0000000000000000     
  0.25000000000000000       0.75000000000000000        0.0000000000000000     
  0.31250000000000000       0.75000000000000000        0.0000000000000000     
  0.37500000000000000       0.75000000000000000        0.0000000000000000     
  0.43750000000000000       0.75000000000000000        0.0000000000000000     
  0.50000000000000000       0.75000000000000000        0.0000000000000000     
  0.50000000000000000       0.50000000000000000        0.0000000000000000     
  0.56250000000000000       0.50000000000000000        0.0000000000000000     
  0.62500000000000000       0.50000000000000000        0.0000000000000000     
  0.68750000000000000       0.50000000000000000        0.0000000000000000     
  0.75000000000000000       0.50000000000000000        0.0000000000000000     
  0.50000000000000000       0.56250000000000000        0.0000000000000000     
  0.56250000000000000       0.56250000000000000        0.0000000000000000     
  0.62500000000000000       0.56250000000000000        0.0000000000000000     
  0.68750000000000000       0.56250000000000000        0.0000000000000000     
  0.75000000000000000       0.56250000000000000        0.0000000000000000     
  0.50000000000000000       0.62500000000000000        0.0000000000000000     
  0.56250000000000000       0.62500000000000000        0.0000000000000000     
  0.62500000000000000       0.62500000000000000        0.0000000000000000     
  0.68750000000000000       0.62500000000000000        0.0000000000000000     
  0.75000000000000000       0.62500000000000000        0.0000000000000000     
  0.50000000000000000       0.68750000000000000        0.0000000000000000     
  0.56250000000000000       0.68750000000000000        0.0000000000000000     
  0.62500000000000000       0.68750000000000000        0.0000000000000000     
  0.68750000000000000       0.68750000000000000        0.0000000000000000     
  0.75000000000000000       0.68750000000000000        0.0000000000000000     
  0.50000000000000000       0.75000000000000000        0.0000000000000000     
  0.56250000000000000       0.75000000000000000        0.0000000000000000     
  0.62500000000000000       0.75000000000000000        0.0000000000000000     
  0.68750000000000000       0.75000000000000000        0.0000000000000000     
  0.75000000000000000       0.75000000000000000        0.0000000000000000     
  0.75000000000000000       0.50000000000000000        0.0000000000000000     
  0.81250000000000000       0.50000000000000000        0.0000000000000000     
  0.87500000000000000       0.50000000000000000        0.0000000000000000     
  0.93750000000000000       0.50000000000000000        0.0000000000000000     
   1.0000000000000000       0.50000000000000000        0.0000000000000000     
  0.75000000000000000       0.56250000000000000        0.0000000000000000     
  0.81250000000000000       0.56250000000000000        0.0000000000000000     
  0.87500000000000000       0.56250000000000000        0.0000000000000000     
  0.93750000000000000       0.56250000000000000        0.0000000000000000     
   1.0000000000000000       0.56250000000000000        0.0000000000000000     
  0.75000000000000000       0.62500000000000000        0.0000000000000000     
  0.81250000000000000       0.62500000000000000        0.0000000000000000     
  0.87500000000000000       0.62500000000000000        0.0000000000000000     
  0.93750000000000000       0.62500000000000000        0.0000000000000000     
   1.0000000000000000       0.62500000000000000        0.0000000000000000     
  0.75000000000000000       0.68750000000000000        0.0000000000000000     
  0.81250000000000000       0.68750000000000000        0.0000000000000000     
  0.87500000000000000       0.68750000000000000        0.0000000000000000     
  0.93750000000000000       0.68750000000000000        0.0000000000000000     
   1.0000000000000000       0.68750000000000000        0.0000000000000000     
  0.75000000000000000       0.75000000000000000        0.0000000000000000     
  0.81250000000000000       0.75000000000000000        0.0000000000000000     
  0.87500000000000000       0.75000000000000000        0.0000000000000000     
  0.93750000000000000       0.75000000000000000        0.0000000000000000     
   1.0000000000000000       0.75000000000000000        0.0000000000000000     
   0.0000000000000000       0.75000000000000000        0.0000000000000000     
   6.2500000000000000E-002  0.75000000000000000        0.0000000000000000     
  0.12500000000000000       0.75000000000000000        0.0000000000000000     
  0.18750000000000000       0.75000000000000000        0.0000000000000000     
  0.25000000000000000       0.75000000000000000        0.0000000000000000     
   0.0000000000000000       0.81250000000000000        0.0000000000000000     
   6.2500000000000000E-002  0.81250000000000000        0.0000000000000000     
  0.12500000000000000       0.81250000000000000        0.0000000000000000     
  0.18750000000000000       0.81250000000000000        0.0000000000000000     
  0.25000000000000000       0.81250000000000000        0.0000000000000000     
   0.0000000000000000       0.87500000000000000        0.0000000000000000     
   6.2500000000000000E-002  0.87500000000000000        0.0000000000000000     
  0.12500000000000000       0.87500000000000000        0.0000000000000000     
  0.18750000000000000       0.87500000000000000        0.0000000000000000     
  0.25000000000000000       0.87500000000000000        0.0000000000000000     
   0.0000000000000000       0.93750000000000000        0.0000000000000000     
   6.2500000000000000E-002  0.93750000000000000        0.0000000000000000     
  0.12500000000000000       0.93750000000000000        0.0000000000000000     
  0.18750000000000000       0.93750000000000000        0.0000000000000000     
  0.25000000000000000       0.93750000000000000        0.0000000000000000     
   0.0000000000000000        1.0000000000000000        0.0000000000000000     
   6.2500000000000000E-002   1.0000000000000000        0.0000000000000000     
  0.12500000000000000        1.0000000000000000        0.0000000000000000     
  0.18750000000000000        1.0000000000000000        0.0000000000000000     
  0.25000000000000000        1.0000000000000000        0.0000000000000000     
  0.25000000000000000       0.75000000000000000        0.0000000000000000     
  0.31250000000000000       0.75000000000000000        0.0000000000000000     
  0.37500000000000000       0.75000000000000000        0.0000000000000000     
  0.43750000000000000       0.75000000000000000        0.0000000000000000     
  0.50000000000000000       0.75000000000000000        0.0000000000000000     
  0.25000000000000000       0.81250000000000000        0.0000000000000000     
  0.31250000000000000       0.81250000000000000        0.0000000000000000     
  0.37500000000000000       0.81250000000000000        0.0000000000000000     
  0.43750000000000000       0.81250000000000000        0.0000000000000000     
  0.50000000000000000       0.81250000000000000        0.0000000000000000     
  0.25000000000000000       0.87500000000000000        0.0000000000000000     
  0.31250000000000000       0.87500000000000000        0.0000000000000000     
  0.37500000000000000       0.87500000000000000        0.0000000000000000     
  0.43750000000000000       0.87500000000000000        0.0000000000000000     
  0.50000000000000000       0.87500000000000000        0.0000000000000000     
  0.25000000000000000       0.93750000000000000        0.0000000000000000     
  0.31250000000000000       0.93750000000000000        0.0000000000000000     
  0.37500000000000000       0.93750000000000000        0.0000000000000000     
  0.43750000000000000       0.93750000000000000        0.0000000000000000     
  0.50000000000000000       0.93750000000000000        0.0000000000000000     
  0.25000000000000000        1.0000000000000000        0.0000000000000000     
  0.31250000000000000        1.0000000000000000        0.0000000000000000     
  0.37500000000000000        1.0000000000000000        0.0000000000000000     
  0.43750000000000000        1.0000000000000000        0.0000000000000000     
  0.50000000000000000        1.0000000000000000        0.0000000000000000     
  0.50000000000000000       0.75000000000000000        0.0000000000000000     
  0.56250000000000000       0.75000000000000000        0.0000000000000000     
  0.62500000000000000       0.75000000000000000        0.0000000000000000     
  0.68750000000000000       0.75000000000000000        0.0000000000000000     
  0.75000000000000000       0.75000000000000000        0.0000000000000000     
  0.50000000000000000       0.81250000000000000        0.0000000000000000     
  0.56250000000000000       0.81250000000000000        0.0000000000000000     
  0.62500000000000000       0.81250000000000000        0.0000000000000000     
  0.68750000000000000       0.81250000000000000        0.0000000000000000     
  0.75000000000000000       0.81250000000000000        0.0000000000000000     
  0.50000000000000000       0.87500000000000000        0.0000000000000000     
  0.56250000000000000       0.87500000000000000        0.0000000000000000     
  0.62500000000000000       0.87500000000000000        0.0000000000000000     
  0.68750000000000000       0.87500000000000000        0.0000000000000000     
  0.75000000000000000       0.87500000000000000        0.0000000000000000     
  0.50000000000000000       0.93750000000000000        0.0000000000000000     
  0.56250000000000000       0.93750000000000000        0.0000000000000000     
  0.62500000000000000       0.93750000000000000        0.0000000000000000     
  0.68750000000000000       0.93750000000000000        0.0000000000000000     
  0.75000000000000000       0.93750000000000000        0.0000000000000000     
  0.50000000000000000        1.0000000000000000        0.0000000000000000     
  0.56250000000000000        1.0000000000000000        0.0000000000000000     
  0.62500000000000000        1.0000000000000000        0.0000000000000000     
  0.68750000000000000        1.0000000000000000        0.0000000000000000     
  0.75000000000000000        1.0000000000000000        0.0000000000000000     
  0.75000000000000000       0.75000000000000000        0.0000000000000000     
  0.81250000000000000       0.75000000000000000        0.0000000000000000     
  0.87500000000000000       0.75000000000000000        0.0000000000000000     
  0.93750000000000000       0.75000000000000000        0.0000000000000000     
   1.0000000000000000       0.75000000000000000        0.0000000000000000     
  0.75000000000000000       0.81250000000000000        0.0000000000000000     
  0.81250000000000000       0.81250000000000000        0.0000000000000000     
  0.87500000000000000       0.81250000000000000        0.0000000000000000     
  0.93750000000000000       0.81250000000000000        0.0000000000000000     
   1.0000000000000000       0.81250000000000000        0.0000000000000000     
  0.75000000000000000       0.87500000000000000        0.0000000000000000     
  0.81250000000000000       0.87500000000000000        0.0000000000000000     
  0.87500000000000000       0.87500000000000000        0.0000000000000000     
  0.93750000000000000       0.87500000000000000        0.0000000000000000     
   1.0000000000000000       0.87500000000000000        0.0000000000000000     
  0.75000000000000000       0.93750000000000000        0.0000000000000000     
  0.81250000000000000       0.93750000000000000        0.0000000000000000     
  0.87500000000000000       0.93750000000000000        0.0000000000000000     
  0.93750000000000000       0.93750000000000000        0.0000000000000000     
   1.0000000000000000       0.93750000000000000        0.0000000000000000     
  0.75000000000000000        1.0000000000000000        0.0000000000000000     
  0.81250000000000000        1.0000000000000000        0.0000000000000000     
  0.87500000000000000        1.0000000000000000        0.0000000000000000     
  0.93750000000000000        1.0000000000000000        0.0000000000000000     
   1.0000000000000000        1.0000000000000000        0.0000000000000000     
 </DataArray>
 </Points>
 <Cells>
 <DataArray  type="Int32"  Name="connectivity"  format="ascii">
           0           1           6           5
           1           2           7           6
           2           3           8           7
           3           4           9           8
           5           6          11          10
           6           7          12          11
           7           8          13          12
           8           9          14          13
          10          11          16          15
          11          12          17          16
          12          13          18          17
          13          14          19          18
          15          16          21          20
          16          17          22          21
          17          18          23          22
          18          19          24          23
          25          26          31          30
          26          27          32          31
          27          28          33          32
          28          29          34          33
          30          31          36          35
          31          32          37          36
          32          33          38          37
          33          34          39          38
          35          36          41          40
          36          37          42          41
          37          38          43          42
          38          39          44          43
          40          41          46          45
          41          42          47          46
          42          43          48          47
          43          44          49          48
          50          51          56          55
          51          52          57          56
          52          53          58          57
          53          54          59          58
          55          56          61          60
          56          57          62          61
          57          58          63          62
          58          59          64          63
          60          61          66          65
          61          62          67          66
          62          63          68          67
          63          64          69          68
          65          66          71          70
          66          67          72          71
          67          68          73          72
          68          69          74          73
          75          76          81          80
          76          77          82          81
          77          78          83          82
          78          79          84          83
          80          81          86          85
          81          82          87          86
          82          83          88          87
          83          84          89          88
          85          86          91          90
          86          87          92          91
          87          88          93          92
          88          89          94          93
          90          91          96          95
          91          92          97          96
          92          93          98          97
          93          94          99          98
         100         101         106         105
         101         102         107         106
         102         103         108         107
         103         104         109         108
         105         106         111         110
         106         107         112         111
         107         108         113         112
         108         109         114         113
         110         111         116         115
         111         112         117         116
         112         113         118         117
         113         114         119         118
         115         116         121         120
         116         117         122         121
         117         118         123         122
         118         119         124         123
         125         126         131         130
         126         127         132         131
         127         128         133         132
         128         129         134         133
         130         131         136         135
         131         132         137         136
         132         133         138         137
         133         134         139         138
         135         136         141         140
         136         137         142         141
         137         138         143         142
         138         139         144         143
         140         141         146         145
         141         142         147         146
         142         143         148         147
         143         144         149         148
         150         151         156         155
         151         152         157         156
         152         153         158         157
         153         154         159         158
         155         156         161         160
         156         157         162         161
         157         158         163         162
         158         159         164         163
         160         161         166         165
         161         162         167         166
         162         163         168         167
         163         164         169         168
         165         166         171         170
         166         167         172         171
         167         168         173         172
         168         169         174         173
         175         176         181         180
         176         177         182         181
         177         178         183         182
         178         179         184         183
         180         181         186         185
         181         182         187         186
         182         183         188         187
         183         184         189         188
         185         186         191         190
         186         187         192         191
         187         188         193         192
         188         189         194         193
         190         191         196         195
         191         192         197         196
         192         193         198         197
         193         194         199         198
         200         201         206         205
         201         202         207         206
         202         203         208         207
         203         204         209         208
         205         206         211         210
         206         207         212         211
         207         208         213         212
         208         209         214         213
         210         211         216         215
         211         212         217         216
         212         213         218         217
         213         214         219         218
         215         216         221         220
         216         217         222         221
         217         218         223         222
         218         219         224         223
         225         226         231         230
         226         227         232         231
         227         228         233         232
         228         229         234         233
         230         231         236         235
         231         232         237         236
         232         233         238         237
         233         234         239         238
         235         236         241         240
         236         237         242         241
         237         238         243         242
         238         239         244         243
         240         241         246         245
         241         242         247         246
         242         243         248         247
         243         244         249         248
         250         251         256         255
         251         252         257         256
         252         253         258         257
         253         254         259         258
         255         256         261         260
         256         257         262         261
         257         258         263         262
         258         259         264         263
         260         261         266         265
         261         262         267         266
         262         263         268         267
         263         264         269         268
         265         266         271         270
         266         267         272         271
         267         268         273         272
         268         269         274         273
         275         276         281         280
         276         277         282         281
         277         278         283         282
         278         279         284         283
         280         281         286         285
         281         282         287         286
         282         283         288         287
         283         284         289         288
         285         286         291         290
         286         287         292         291
         287         288         293         292
         288         289         294         293
         290         291         296         295
         291         292         297         296
         292         293         298         297
         293         294         299         298
         300         301         306         305
         301         302         307         306
         302         303         308         307
         303         304         309         308
         305         306         311         310
         306         307         312         311
         307         308         313         312
         308         309         314         313
         310         311         316         315
         311         312         317         316
         312         313         318         317
         313         314         319         318
         315         316         321         320
         316         317         322         321
         317         318         323         322
         318         319         324         323
         325         326         331         330
         326         327         332         331
         327         328         333         332
         328         329         334         333
         330         331         336         335
         331         332         337         336
         332         333         338         337
         333         334         339         338
         335         336         341         340
         336         337         342         341
         337         338         343         342
         338         339         344         343
         340         341         346         345
         341         342         347         346
         342         343         348         347
         343         344         349         348
         350         351         356         355
         351         352         357         356
         352         353         358         357
         353         354         359         358
         355         356         361         360
         356         357         362         361
         357         358         363         362
         358         359         364         363
         360         361         366         365
         361         362         367         366
         362         363         368         367
         363         364         369         368
         365         366         371         370
         366         367         372         371
         367         368         373         372
         368         369         374         373
         375         376         381         380
         376         377         382         381
         377         378         383         382
         378         379         384         383
         380         381         386         385
         381         382         387         386
         382         383         388         387
         383         384         389         388
         385         386         391         390
         386         387         392         391
         387         388         393         392
         388         389         394         393
         390         391         396         395
         391         392         397         396
         392         393         398         397
         393         394         399         398
 </DataArray>
 <DataArray  type="Int32"  Name="offsets"  format="ascii"> 
           4
           8
          12
          16
          20
          24
          28
          32
          36
          40
          44
          48
          52
          56
          60
          64
          68
          72
          76
          80
          84
          88
          92
          96
         100
         104
         108
         112
         116
         120
         124
         128
         132
         136
         140
         144
         148
         152
         156
         160
         164
         168
         172
         176
         180
         184
         188
         192
         196
         200
         204
         208
         212
         216
         220
         224
         228
         232
         236
         240
         244
         248
         252
         256
         260
         264
         268
         272
         276
         280
         284
         288
         292
         296
         300
         304
         308
         312
         316
         320
         324
         328
         332
         336
         340
         344
         348
         352
         356
         360
         364
         368
         372
         376
         380
         384
         388
         392
         396
         400
         404
         408
         412
         416
         420
         424
         428
         432
         436
         440
         444
         448
         452
         456
         460
         464
         468
         472
         476
         480
         484
         488
         492
         496
         500
         504
         508
         512
         516
         520
         524
         528
         532
         536
         540
         544
         548
         552
         556
         560
         564
         568
         572
         576
         580
         584
         588
         592
         596
         600
         604
         608
         612
         616
         620
         624
         628
         632
         636
         640
         644
         648
         652
         656
         660
         664
         668
         672
         676
         680
         684
         688
         692
         696
         700
         704
         708
         712
         716
         720
         724
         728
         732
         736
         740
         744
         748
         752
         756
         760
         764
         768
         772
         776
         780
         784
         788
         792
         796
         800
         804
         808
         812
         816
         820
         824
         828
         832
         836
         840
         844
         848
         852
         856
         860
         864
         868
         872
         876
         880
         884
         888
         892
         896
         900
         904
         908
         912
         916
         920
         924
         928
         932
         936
         940
         944
         948
         952
         956
         960
         964
         968
         972
         976
         980
         984
         988
         992
         996
        1000
        1004
        1008
        1012
        1016
        1020
        1024
 </DataArray>
 <DataArray  type="UInt8"  Name="types"  format="ascii">
 9
 9
 9
 9
 9
 9
 9
 9
 9
 9
 9
 9
 9
 9
 9
 9
 9
 9
 9
 9
 9
 9
 9
 9
 9
 9
 9
 9
 9
 9
 9
 9
 9
 9
 9
 9
 9
 9
 9
 9
 9
 9
 9
 9
 9
 9
 9
 9
 9
 9
 9
 9
 9
 9
 9
 9
 9
 9
 9
 9
 9
 9
 9
 9
 9
 9
 9
 9
 9
 9
 9
 9
 9
 9
 9
 9
 9
 9
 9
 9
 9
 9
 9
 9
 9
 9
 9
 9
 9
 9
 9
 9
 9
 9
 9
 9
 9
 9
 9
 9
 9
 9
 9
 9
 9
 9
 9
 9
 9
 9
 9
 9
 9
 9
 9
 9
 9
 9
 9
 9
 9
 9
 9
 9
 9
 9
 9
 9
 9
 9
 9
 9
 9
 9
 9
 9
 9
 9
 9
 9
 9
 9
 9
 9
 9
 9
 9
 9
 9
 9
 9
 9
 9
 9
 9
 9
 9
 9
 9
 9
 9
 9
 9
 9
 9
 9
 9
 9
 9
 9
 9
 9
 9
 9
 9
 9
 9
 9
 9
 9
 9
 9
 9
 9
 9
 9
 9
 9
 9
 9
 9
 9
 9
 9
 9
 9
 9
 9
 9
 9
 9
 9
 9
 9
 9
 9
 9
 9
 9
 9
 9
 9
 9
 9
 9
 9
 9
 9
 9
 9
 9
 9
 9
 9
 9
 9
 9
 9
 9
 9
 9
 9
 9
 9
 9
 9
 9
 9
 9
 9
 9
 9
 9
 9
 9
 9
 9
 9
 9
 9
 9
 9
 9
 9
 9
 9
 </DataArray>
 </Cells> 
 <PointData>
 <DataArray  type="Float64" Name="disp" NumberOfComponents="3" format="ascii">
   0.0000000000000000        0.0000000000000000        0.0000000000000000     
   1.0692003732219554E-002   6.3567833586749955E-003   0.0000000000000000     
   2.0503769213648892E-002   1.2948642102707769E-002   0.0000000000000000     
   2.9435296444288009E-002   1.9775576232098316E-002   0.0000000000000000     
   3.7486585424136909E-002   2.6837585746846644E-002   0.0000000000000000     
   0.0000000000000000        0.0000000000000000        0.0000000000000000     
   8.1754390658817112E-003   5.0227216584595221E-003   0.0000000000000000     
   1.5982792747128202E-002   1.0760788033669949E-002   0.0000000000000000     
   2.3422061043739464E-002   1.7214199125631276E-002   0.0000000000000000     
   3.0493243955715510E-002   2.4382954934343511E-002   0.0000000000000000     
   0.0000000000000000        0.0000000000000000        0.0000000000000000     
   6.1373860081862189E-003   4.0113002358532542E-003   0.0000000000000000     
   1.2245273865721350E-002   9.0817562577609531E-003   0.0000000000000000     
   1.8323663572605391E-002   1.5211368065723098E-002   0.0000000000000000     
   2.4372555128838347E-002   2.2400135659739692E-002   0.0000000000000000     
   0.0000000000000000        0.0000000000000000        0.0000000000000000     
   4.5778445591330786E-003   3.3225190908561888E-003   0.0000000000000000     
   9.2912125694283414E-003   7.9115467749807829E-003   0.0000000000000000     
   1.4140104030885789E-002   1.3767083052373780E-002   0.0000000000000000     
   1.9124518943505420E-002   2.0889127923035183E-002   0.0000000000000000     
   0.0000000000000000        0.0000000000000000        0.0000000000000000     
   3.4968147187222904E-003   2.9563782234683293E-003   0.0000000000000000     
   7.1206088582491745E-003   7.2501595853294368E-003   0.0000000000000000     
   1.0871382418580653E-002   1.2881344085583323E-002   0.0000000000000000     
   1.4749135399716725E-002   1.9849931724229990E-002   0.0000000000000000     
   3.7486585424136909E-002   2.6837585746846644E-002   0.0000000000000000     
   4.4910444882257101E-002   3.4443146113361287E-002   0.0000000000000000     
   5.1959683547710120E-002   4.2900732798050803E-002   0.0000000000000000     
   5.8634301420495943E-002   5.2210345800915200E-002   0.0000000000000000     
   6.4934298500614593E-002   6.2371985121954458E-002   0.0000000000000000     
   3.0493243955715510E-002   2.4382954934343511E-002   0.0000000000000000     
   3.7196605999589231E-002   3.2298279221222144E-002   0.0000000000000000     
   4.3532411691893549E-002   4.0991395747682700E-002   0.0000000000000000     
   4.9500661032628457E-002   5.0462304513725145E-002   0.0000000000000000     
   5.5101354021793947E-002   6.0711005519349520E-002   0.0000000000000000     
   2.4372555128838347E-002   2.2400135659739692E-002   0.0000000000000000     
   3.0239046693023262E-002   3.0491775950425043E-002   0.0000000000000000     
   3.5770236423763209E-002   3.9330005848393489E-002   0.0000000000000000     
   4.0966124321058173E-002   4.8914825353645025E-002   0.0000000000000000     
   4.5826710384908154E-002   5.9246234466179652E-002   0.0000000000000000     
   1.9124518943505420E-002   2.0889127923035183E-002   0.0000000000000000     
   2.4037766962559198E-002   2.9023636300969990E-002   0.0000000000000000     
   2.8673157743319092E-002   3.7916563100183202E-002   0.0000000000000000     
   3.3030691285785091E-002   4.7567908320674826E-002   0.0000000000000000     
   3.7110367589957199E-002   5.7977671962444854E-002   0.0000000000000000     
   1.4749135399716725E-002   1.9849931724229990E-002   0.0000000000000000     
   1.8592766808197027E-002   2.7893860272856976E-002   0.0000000000000000     
   2.2241175650561194E-002   3.6751067503051835E-002   0.0000000000000000     
   2.5694361926809222E-002   4.6421553414814562E-002   0.0000000000000000     
   2.8952325636941119E-002   5.6905318008145141E-002   0.0000000000000000     
   6.4934298500614593E-002   6.2371985121954458E-002   0.0000000000000000     
   7.0855808666562228E-002   7.3319027531260808E-002   0.0000000000000000     
   7.6394965796835052E-002   8.4984849798926468E-002   0.0000000000000000     
   8.1551769891433035E-002   9.7369451924951431E-002   0.0000000000000000     
   8.6326220950356192E-002  0.11047283390933570        0.0000000000000000     
   5.5101354021793947E-002   6.0711005519349520E-002   0.0000000000000000     
   6.0354525599651904E-002   7.1715289784159281E-002   0.0000000000000000     
   6.5280210706464184E-002   8.3452948327757903E-002   0.0000000000000000     
   6.9878409342230816E-002   9.5923981150145388E-002   0.0000000000000000     
   7.4149121506951784E-002  0.10912838825132178        0.0000000000000000     
   4.5826710384908154E-002   5.9246234466179652E-002   0.0000000000000000     
   5.0380110960420020E-002   7.0319755941129172E-002   0.0000000000000000     
   5.4654442392700647E-002   8.2130912533625380E-002   0.0000000000000000     
   5.8649704681750028E-002   9.4679704243668311E-002   0.0000000000000000     
   6.2365897827568170E-002  0.10796613107125795        0.0000000000000000     
   3.7110367589957199E-002   5.7977671962444854E-002   0.0000000000000000     
   4.0932564748866598E-002   6.9132426002170483E-002   0.0000000000000000     
   4.4517660855544428E-002   8.1018742416528927E-002   0.0000000000000000     
   4.7865655909990673E-002   9.3636621205520201E-002   0.0000000000000000     
   5.0976549912205363E-002  0.10698606236914426        0.0000000000000000     
   2.8952325636941119E-002   5.6905318008145141E-002   0.0000000000000000     
   3.2011886964991625E-002   6.8153299967283240E-002   0.0000000000000000     
   3.4869866094995511E-002   8.0116437976468530E-002   0.0000000000000000     
   3.7526263026952757E-002   9.2794732035701016E-002   0.0000000000000000     
   3.9981077760863383E-002  0.10618818214498066        0.0000000000000000     
   8.6326220950356192E-002  0.11047283390933570        0.0000000000000000     
   9.0642269312279811E-002  0.12411889067721460        0.0000000000000000     
   9.4423865315879124E-002  0.13813151715372343        0.0000000000000000     
   9.7671008961154132E-002  0.15251071333886224        0.0000000000000000     
  0.10038370024810488       0.16725647923263093        0.0000000000000000     
   7.4149121506951784E-002  0.10912838825132178        0.0000000000000000     
   7.8075604987153630E-002  0.12289043428238493        0.0000000000000000     
   8.1641117569362931E-002  0.13703438389443279        0.0000000000000000     
   8.4845659253579675E-002  0.15156023708746535        0.0000000000000000     
   8.7689230039803889E-002  0.16646799386148264        0.0000000000000000     
   6.2365897827568170E-002  0.10796613107125795        0.0000000000000000     
   6.5821264463950577E-002  0.12182225936545611        0.0000000000000000     
   6.9034047224692766E-002  0.13608015547532465        0.0000000000000000     
   7.2004246109794751E-002  0.15073981940086348        0.0000000000000000     
   7.4731861119256546E-002  0.16580125114207270        0.0000000000000000     
   5.0976549912205363E-002  0.10698606236914426        0.0000000000000000     
   5.3879247742670645E-002  0.12091436592642812        0.0000000000000000     
   5.6602654281868642E-002  0.13526883189639893        0.0000000000000000     
   5.9146769529799387E-002  0.15004946027905658        0.0000000000000000     
   6.1511593486462859E-002  0.16525625107440112        0.0000000000000000     
   3.9981077760863383E-002  0.10618818214498066        0.0000000000000000     
   4.2249554823313828E-002  0.12016675396530105        0.0000000000000000     
   4.4346938740890546E-002  0.13460041315765570        0.0000000000000000     
   4.6273229513593542E-002  0.14948915972204466        0.0000000000000000     
   4.8028427141422816E-002  0.16483299365846787        0.0000000000000000     
   0.0000000000000000        0.0000000000000000        0.0000000000000000     
   3.4968147187222904E-003   2.9563782234683293E-003   0.0000000000000000     
   7.1206088582491745E-003   7.2501595853294368E-003   0.0000000000000000     
   1.0871382418580653E-002   1.2881344085583323E-002   0.0000000000000000     
   1.4749135399716725E-002   1.9849931724229990E-002   0.0000000000000000     
   0.0000000000000000        0.0000000000000000        0.0000000000000000     
   2.6469332717343631E-003   2.7771600859585596E-003   0.0000000000000000     
   5.3414146156406245E-003   6.8940555476294900E-003   0.0000000000000000     
   8.0834440317187825E-003   1.2350686385012792E-002   0.0000000000000000     
   1.0873021519968839E-002   1.9147052598108467E-002   0.0000000000000000     
   0.0000000000000000        0.0000000000000000        0.0000000000000000     
   1.7808370029498053E-003   2.6491471305957665E-003   0.0000000000000000     
   3.5615817250594624E-003   6.6396955207035152E-003   0.0000000000000000     
   5.3422341663289710E-003   1.1971645170323248E-002   0.0000000000000000     
   7.1227943267583313E-003   1.8644996079454960E-002   0.0000000000000000     
   0.0000000000000000        0.0000000000000000        0.0000000000000000     
   8.9852591236861724E-004   2.5723393573799497E-003   0.0000000000000000     
   1.7811101865056894E-003   6.4870795045515123E-003   0.0000000000000000     
   2.6477528224112166E-003   1.1744220441514687E-002   0.0000000000000000     
   3.4984538200851993E-003   1.8343762168269481E-002   0.0000000000000000     
   0.0000000000000000        0.0000000000000000        0.0000000000000000     
  -9.2007564761464877E-015   2.5467367663111087E-003   0.0000000000000000     
  -2.0693733185361829E-014   6.4362074991734805E-003   0.0000000000000000     
  -3.4478713287211527E-014   1.1668412198587115E-002   0.0000000000000000     
  -5.0555371521043835E-014   1.8243350864552012E-002   0.0000000000000000     
   1.4749135399716725E-002   1.9849931724229990E-002   0.0000000000000000     
   1.8592766808197027E-002   2.7893860272856976E-002   0.0000000000000000     
   2.2241175650561194E-002   3.6751067503051835E-002   0.0000000000000000     
   2.5694361926809222E-002   4.6421553414814562E-002   0.0000000000000000     
   2.8952325636941119E-002   5.6905318008145141E-002   0.0000000000000000     
   1.0873021519968839E-002   1.9147052598108467E-002   0.0000000000000000     
   1.3630573607946924E-002   2.7053340332597355E-002   0.0000000000000000     
   1.6276526823209160E-002   3.5839735734160300E-002   0.0000000000000000     
   1.8810881165755557E-002   4.5506238802797312E-002   0.0000000000000000     
   2.1233636635586101E-002   5.6052849538508379E-002   0.0000000000000000     
   7.1227943267583313E-003   1.8644996079454960E-002   0.0000000000000000     
   8.8777147398190499E-003   2.6452968946702460E-002   0.0000000000000000     
   1.0581447938982630E-002   3.5188784470669539E-002   0.0000000000000000     
   1.2233993924249075E-002   4.4852442651356204E-002   0.0000000000000000     
   1.3835352695618383E-002   5.5443943488762450E-002   0.0000000000000000     
   3.4984538200851993E-003   1.8343762168269481E-002   0.0000000000000000     
   4.3341902038134036E-003   2.6092746115172292E-002   0.0000000000000000     
   5.1559389978815991E-003   3.4798213712579538E-002   0.0000000000000000     
   5.9637002022897845E-003   4.4460164960491232E-002   0.0000000000000000     
   6.7574738170379607E-003   5.5078599858907354E-002   0.0000000000000000     
  -5.0555371521043835E-014   1.8243350864552012E-002   0.0000000000000000     
  -7.0010186883906478E-014   2.5972671838006851E-002   0.0000000000000000     
  -9.3931454411486093E-014   3.4668023459890313E-002   0.0000000000000000     
  -1.2231537261991540E-013   4.4329405730202394E-002   0.0000000000000000     
  -1.5516581075569746E-013   5.4956818648943091E-002   0.0000000000000000     
   2.8952325636941119E-002   5.6905318008145141E-002   0.0000000000000000     
   3.2011886964991625E-002   6.8153299967283240E-002   0.0000000000000000     
   3.4869866094995511E-002   8.0116437976468530E-002   0.0000000000000000     
   3.7526263026952757E-002   9.2794732035701016E-002   0.0000000000000000     
   3.9981077760863383E-002  0.10618818214498066        0.0000000000000000     
   2.1233636635586101E-002   5.6052849538508379E-002   0.0000000000000000     
   2.3518211352151753E-002   6.7387653894783614E-002   0.0000000000000000     
   2.5638023434903463E-002   7.9418737825113134E-002   0.0000000000000000     
   2.7593072883841222E-002   9.2146101329496938E-002   0.0000000000000000     
   2.9383359698965036E-002  0.10556974440793498        0.0000000000000000     
   1.3835352695618383E-002   5.5443943488762450E-002   0.0000000000000000     
   1.5351671653703611E-002   6.6840763842987774E-002   0.0000000000000000     
   1.6749098199117813E-002   7.8920380574131629E-002   0.0000000000000000     
   1.8027632331860999E-002   9.1682793682194050E-002   0.0000000000000000     
   1.9187274051933153E-002  0.10512800316717502        0.0000000000000000     
   6.7574738170379607E-003   5.5078599858907354E-002   0.0000000000000000     
   7.5122678696472002E-003   6.6512629811895707E-002   0.0000000000000000     
   8.2030903876385720E-003   7.8621366223524058E-002   0.0000000000000000     
   8.8299413710120830E-003   9.1404809093792394E-002   0.0000000000000000     
   9.3928208197677273E-003  0.10486295842270074        0.0000000000000000     
  -1.5516581075569746E-013   5.4956818648943091E-002   0.0000000000000000     
  -1.7483193712197753E-014   6.6403251801507426E-002   0.0000000000000000     
   4.6573270413852175E-013   7.8521694773290365E-002   0.0000000000000000     
   1.2944825875278732E-012   9.1312147564291957E-002   0.0000000000000000     
   2.4687639085807511E-012  0.10477461017451220        0.0000000000000000     
   3.9981077760863383E-002  0.10618818214498066        0.0000000000000000     
   4.2249554823313828E-002  0.12016675396530105        0.0000000000000000     
   4.4346938740890546E-002  0.13460041315765570        0.0000000000000000     
   4.6273229513593542E-002  0.14948915972204466        0.0000000000000000     
   4.8028427141422816E-002  0.16483299365846787        0.0000000000000000     
   2.9383359698965036E-002  0.10556974440793498        0.0000000000000000     
   3.1003809383304031E-002  0.11958271664590360        0.0000000000000000     
   3.2449347439887331E-002  0.13407806762887908        0.0000000000000000     
   3.3719973868714941E-002  0.14905579735686134        0.0000000000000000     
   3.4815688669786841E-002  0.16451590582985040        0.0000000000000000     
   1.9187274051933153E-002  0.10512800316717502        0.0000000000000000     
   2.0213635100065144E-002  0.11916554713206463        0.0000000000000000     
   2.1092327216987845E-002  0.13370496367985304        0.0000000000000000     
   2.1823350402701246E-002  0.14874625281054016        0.0000000000000000     
   2.2406704657205356E-002  0.16428941452412613        0.0000000000000000     
   9.3928208197677273E-003  0.10486295842270074        0.0000000000000000     
   9.8790319735971733E-003  0.11891524542378416        0.0000000000000000     
   1.0275878072192095E-002  0.13348110131057767        0.0000000000000000     
   1.0583359115552483E-002  0.14856052608308132        0.0000000000000000     
   1.0801475103678342E-002  0.16415351974129505        0.0000000000000000     
   2.4687639085807511E-012  0.10477461017451220        0.0000000000000000     
   3.9001154736317822E-012  0.11883181152106215        0.0000000000000000     
   5.5000750048134206E-012  0.13340648052105297        0.0000000000000000     
   7.2686411468729506E-012  0.14849861717448468        0.0000000000000000     
   9.2058149298024361E-012  0.16410822148135717        0.0000000000000000     
   0.0000000000000000        0.0000000000000000        0.0000000000000000     
  -9.2007564761464877E-015   2.5467367663111087E-003   0.0000000000000000     
  -2.0693733185361829E-014   6.4362074991734805E-003   0.0000000000000000     
  -3.4478713287211527E-014   1.1668412198587115E-002   0.0000000000000000     
  -5.0555371521043835E-014   1.8243350864552012E-002   0.0000000000000000     
   0.0000000000000000        0.0000000000000000        0.0000000000000000     
  -8.9852591238541554E-004   2.5723393573879216E-003   0.0000000000000000     
  -1.7811101865439860E-003   6.4870795045677181E-003   0.0000000000000000     
  -2.6477528224757110E-003   1.1744220441539388E-002   0.0000000000000000     
  -3.4984538201805904E-003   1.8343762168302930E-002   0.0000000000000000     
   0.0000000000000000        0.0000000000000000        0.0000000000000000     
  -1.7808370029617940E-003   2.6491471306090671E-003   0.0000000000000000     
  -3.5615817250884861E-003   6.6396955207325232E-003   0.0000000000000000     
  -5.3422341663800768E-003   1.1971645170370367E-002   0.0000000000000000     
  -7.1227943268365674E-003   1.8644996079522604E-002   0.0000000000000000     
   0.0000000000000000        0.0000000000000000        0.0000000000000000     
  -2.6469332717383351E-003   2.7771600859745442E-003   0.0000000000000000     
  -5.3414146156541943E-003   6.8940555476678968E-003   0.0000000000000000     
  -8.0834440317475754E-003   1.2350686385080058E-002   0.0000000000000000     
  -1.0873021520018481E-002   1.9147052598211024E-002   0.0000000000000000     
   0.0000000000000000        0.0000000000000000        0.0000000000000000     
  -3.4968147187150402E-003   2.9563782234843529E-003   0.0000000000000000     
  -7.1206088582411097E-003   7.2501595853738362E-003   0.0000000000000000     
  -1.0871382418578207E-002   1.2881344085668449E-002   0.0000000000000000     
  -1.4749135399726335E-002   1.9849931724368192E-002   0.0000000000000000     
  -5.0555371521043835E-014   1.8243350864552012E-002   0.0000000000000000     
  -7.0010186883906478E-014   2.5972671838006851E-002   0.0000000000000000     
  -9.3931454411486093E-014   3.4668023459890313E-002   0.0000000000000000     
  -1.2231537261991540E-013   4.4329405730202394E-002   0.0000000000000000     
  -1.5516581075569746E-013   5.4956818648943091E-002   0.0000000000000000     
  -3.4984538201805904E-003   1.8343762168302930E-002   0.0000000000000000     
  -4.3341902039466659E-003   2.6092746115207854E-002   0.0000000000000000     
  -5.1559389980619791E-003   3.4798213712603658E-002   0.0000000000000000     
  -5.9637002025265283E-003   4.4460164960490350E-002   0.0000000000000000     
  -6.7574738173403186E-003   5.5078599858867913E-002   0.0000000000000000     
  -7.1227943268365674E-003   1.8644996079522604E-002   0.0000000000000000     
  -8.8777147399320341E-003   2.6452968946777015E-002   0.0000000000000000     
  -1.0581447939140566E-002   3.5188784470721393E-002   0.0000000000000000     
  -1.2233993924462158E-002   4.4852442651355753E-002   0.0000000000000000     
  -1.3835352695896813E-002   5.5443943488680057E-002   0.0000000000000000     
  -1.0873021520018481E-002   1.9147052598211024E-002   0.0000000000000000     
  -1.3630573608026116E-002   2.7053340332714334E-002   0.0000000000000000     
  -1.6276526823329689E-002   3.5839735734243525E-002   0.0000000000000000     
  -1.8810881165929202E-002   4.5506238802798589E-002   0.0000000000000000     
  -2.1233636635824654E-002   5.6052849538379544E-002   0.0000000000000000     
  -1.4749135399726335E-002   1.9849931724368192E-002   0.0000000000000000     
  -1.8592766808228911E-002   2.7893860273019804E-002   0.0000000000000000     
  -2.2241175650629354E-002   3.6751067503170039E-002   0.0000000000000000     
  -2.5694361926927665E-002   4.6421553414818892E-002   0.0000000000000000     
  -2.8952325637123837E-002   5.6905318007966353E-002   0.0000000000000000     
  -1.5516581075569746E-013   5.4956818648943091E-002   0.0000000000000000     
  -1.7483193712197753E-014   6.6403251801507426E-002   0.0000000000000000     
   4.6573270413852175E-013   7.8521694773290365E-002   0.0000000000000000     
   1.2944825875278732E-012   9.1312147564291957E-002   0.0000000000000000     
   2.4687639085807511E-012  0.10477461017451220        0.0000000000000000     
  -6.7574738173403186E-003   5.5078599858867913E-002   0.0000000000000000     
  -7.5122678696797592E-003   6.6512629811817589E-002   0.0000000000000000     
  -8.2030903867212710E-003   7.8621366223420600E-002   0.0000000000000000     
  -8.8299413684648550E-003   9.1404809093676959E-002   0.0000000000000000     
  -9.3928208149105068E-003  0.10486295842258665        0.0000000000000000     
  -1.3835352695896813E-002   5.5443943488680057E-002   0.0000000000000000     
  -1.5351671653728954E-002   6.6840763842820880E-002   0.0000000000000000     
  -1.6749098198243009E-002   7.8920380573904728E-002   0.0000000000000000     
  -1.8027632329438978E-002   9.1682793681931565E-002   0.0000000000000000     
  -1.9187274047316863E-002  0.10512800316690145        0.0000000000000000     
  -2.1233636635824654E-002   5.6052849538379544E-002   0.0000000000000000     
  -2.3518211352165069E-002   6.7387653894517285E-002   0.0000000000000000     
  -2.5638023434099488E-002   7.9418737824742694E-002   0.0000000000000000     
  -2.7593072881627888E-002   9.2146101329055805E-002   0.0000000000000000     
  -2.9383359694750300E-002  0.10556974440745662        0.0000000000000000     
  -2.8952325637123837E-002   5.6905318007966353E-002   0.0000000000000000     
  -3.2011886964988114E-002   6.8153299966906805E-002   0.0000000000000000     
  -3.4869866094290693E-002   8.0116437975934568E-002   0.0000000000000000     
  -3.7526263025031599E-002   9.2794732035049676E-002   0.0000000000000000     
  -3.9981077757210812E-002  0.10618818214425213        0.0000000000000000     
   2.4687639085807511E-012  0.10477461017451220        0.0000000000000000     
   3.9001154736317822E-012  0.11883181152106215        0.0000000000000000     
   5.5000750048134206E-012  0.13340648052105297        0.0000000000000000     
   7.2686411468729506E-012  0.14849861717448468        0.0000000000000000     
   9.2058149298024361E-012  0.16410822148135717        0.0000000000000000     
  -9.3928208149105068E-003  0.10486295842258665        0.0000000000000000     
  -9.8790319659216950E-003  0.11891524542385776        0.0000000000000000     
  -1.0275878061361873E-002  0.13348110131119836        0.0000000000000000     
  -1.0583359101231036E-002  0.14856052608460843        0.0000000000000000     
  -1.0801475085529200E-002  0.16415351974408801        0.0000000000000000     
  -1.9187274047316863E-002  0.10512800316690145        0.0000000000000000     
  -2.0213635092763915E-002  0.11916554713213010        0.0000000000000000     
  -2.1092327206667403E-002  0.13370496368093326        0.0000000000000000     
  -2.1823350389027319E-002  0.14874625281331091        0.0000000000000000     
  -2.2406704639843660E-002  0.16428941452926304        0.0000000000000000     
  -2.9383359694750300E-002  0.10556974440745662        0.0000000000000000     
  -3.1003809376626553E-002  0.11958271664587922        0.0000000000000000     
  -3.2449347430416511E-002  0.13407806763025770        0.0000000000000000     
  -3.3719973856120196E-002  0.14905579736059202        0.0000000000000000     
  -3.4815688653737568E-002  0.16451590583688228        0.0000000000000000     
  -3.9981077757210812E-002  0.10618818214425213        0.0000000000000000     
  -4.2249554817509603E-002  0.12016675396510507        0.0000000000000000     
  -4.4346938732609226E-002  0.13460041315917165        0.0000000000000000     
  -4.6273229502509658E-002  0.14948915972645185        0.0000000000000000     
  -4.8028427127210935E-002  0.16483299366694576        0.0000000000000000     
   0.0000000000000000        0.0000000000000000        0.0000000000000000     
  -3.4968147187150402E-003   2.9563782234843529E-003   0.0000000000000000     
  -7.1206088582411097E-003   7.2501595853738362E-003   0.0000000000000000     
  -1.0871382418578207E-002   1.2881344085668449E-002   0.0000000000000000     
  -1.4749135399726335E-002   1.9849931724368192E-002   0.0000000000000000     
   0.0000000000000000        0.0000000000000000        0.0000000000000000     
  -4.5778445591175146E-003   3.3225190908701802E-003   0.0000000000000000     
  -9.2912125694021245E-003   7.9115467750273966E-003   0.0000000000000000     
  -1.4140104030853832E-002   1.3767083052471650E-002   0.0000000000000000     
  -1.9124518943472633E-002   2.0889127923202942E-002   0.0000000000000000     
   0.0000000000000000        0.0000000000000000        0.0000000000000000     
  -6.1373860081713636E-003   4.0113002358637103E-003   0.0000000000000000     
  -1.2245273865690132E-002   9.0817562578056291E-003   0.0000000000000000     
  -1.8323663572556308E-002   1.5211368065825759E-002   0.0000000000000000     
  -2.4372555128769884E-002   2.2400135659924100E-002   0.0000000000000000     
   0.0000000000000000        0.0000000000000000        0.0000000000000000     
  -8.1754390658765903E-003   5.0227216584649449E-003   0.0000000000000000     
  -1.5982792747105127E-002   1.0760788033708538E-002   0.0000000000000000     
  -2.3422061043685632E-002   1.7214199125730783E-002   0.0000000000000000     
  -3.0493243955618088E-002   2.4382954934531669E-002   0.0000000000000000     
   0.0000000000000000        0.0000000000000000        0.0000000000000000     
  -1.0692003732233188E-002   6.3567833586738835E-003   0.0000000000000000     
  -2.0503769213647122E-002   1.2948642102736118E-002   0.0000000000000000     
  -2.9435296444241803E-002   1.9775576232186703E-002   0.0000000000000000     
  -3.7486585424017234E-002   2.6837585747025640E-002   0.0000000000000000     
  -1.4749135399726335E-002   1.9849931724368192E-002   0.0000000000000000     
  -1.8592766808228911E-002   2.7893860273019804E-002   0.0000000000000000     
  -2.2241175650629354E-002   3.6751067503170039E-002   0.0000000000000000     
  -2.5694361926927665E-002   4.6421553414818892E-002   0.0000000000000000     
  -2.8952325637123837E-002   5.6905318007966353E-002   0.0000000000000000     
  -1.9124518943472633E-002   2.0889127923202942E-002   0.0000000000000000     
  -2.4037766962534422E-002   2.9023636301172134E-002   0.0000000000000000     
  -2.8673157743315074E-002   3.7916563100330099E-002   0.0000000000000000     
  -3.3030691285814588E-002   4.7567908320676824E-002   0.0000000000000000     
  -3.7110367590032979E-002   5.7977671962212318E-002   0.0000000000000000     
  -2.4372555128769884E-002   2.2400135659924100E-002   0.0000000000000000     
  -3.0239046692936648E-002   3.0491775950650005E-002   0.0000000000000000     
  -3.5770236423662366E-002   3.9330005848552833E-002   0.0000000000000000     
  -4.0966124320947032E-002   4.8914825353632597E-002   0.0000000000000000     
  -4.5826710384790678E-002   5.9246234465889280E-002   0.0000000000000000     
  -3.0493243955618088E-002   2.4382954934531669E-002   0.0000000000000000     
  -3.7196605999435584E-002   3.2298279221453410E-002   0.0000000000000000     
  -4.3532411691671227E-002   4.0991395747838263E-002   0.0000000000000000     
  -4.9500661032325005E-002   5.0462304513686197E-002   0.0000000000000000     
  -5.5101354021396924E-002   6.0711005518997226E-002   0.0000000000000000     
  -3.7486585424017234E-002   2.6837585747025640E-002   0.0000000000000000     
  -4.4910444882031247E-002   3.4443146113582387E-002   0.0000000000000000     
  -5.1959683547341665E-002   4.2900732798186389E-002   0.0000000000000000     
  -5.8634301419948499E-002   5.2210345800837638E-002   0.0000000000000000     
  -6.4934298499851745E-002   6.2371985121536161E-002   0.0000000000000000     
  -2.8952325637123837E-002   5.6905318007966353E-002   0.0000000000000000     
  -3.2011886964988114E-002   6.8153299966906805E-002   0.0000000000000000     
  -3.4869866094290693E-002   8.0116437975934568E-002   0.0000000000000000     
  -3.7526263025031599E-002   9.2794732035049676E-002   0.0000000000000000     
  -3.9981077757210812E-002  0.10618818214425213        0.0000000000000000     
  -3.7110367590032979E-002   5.7977671962212318E-002   0.0000000000000000     
  -4.0932564748789188E-002   6.9132426001682179E-002   0.0000000000000000     
  -4.4517660854902150E-002   8.1018742415831971E-002   0.0000000000000000     
  -4.7865655908371885E-002   9.3636621204661707E-002   0.0000000000000000     
  -5.0976549909198372E-002  0.10698606236817140        0.0000000000000000     
  -4.5826710384790678E-002   5.9246234465889280E-002   0.0000000000000000     
  -5.0380110960159395E-002   7.0319755940536188E-002   0.0000000000000000     
  -5.4654442392019359E-002   8.2130912532786551E-002   0.0000000000000000     
  -5.8649704680370542E-002   9.4679704242640453E-002   0.0000000000000000     
  -6.2365897825212950E-002  0.10796613107009785        0.0000000000000000     
  -5.5101354021396924E-002   6.0711005518997226E-002   0.0000000000000000     
  -6.0354525599098770E-002   7.1715289783468791E-002   0.0000000000000000     
  -6.5280210705642328E-002   8.3452948326798337E-002   0.0000000000000000     
  -6.9878409341027570E-002   9.5923981148985885E-002   0.0000000000000000     
  -7.4149121505254531E-002  0.10912838825003143        0.0000000000000000     
  -6.4934298499851745E-002   6.2371985121536161E-002   0.0000000000000000     
  -7.0855808665607298E-002   7.3319027530480030E-002   0.0000000000000000     
  -7.6394965795771042E-002   8.4984849797867329E-002   0.0000000000000000     
  -8.1551769890342990E-002   9.7369451923698044E-002   0.0000000000000000     
  -8.6326220949323129E-002  0.11047283390797222        0.0000000000000000     
  -3.9981077757210812E-002  0.10618818214425213        0.0000000000000000     
  -4.2249554817509603E-002  0.12016675396510507        0.0000000000000000     
  -4.4346938732609226E-002  0.13460041315917165        0.0000000000000000     
  -4.6273229502509658E-002  0.14948915972645185        0.0000000000000000     
  -4.8028427127210935E-002  0.16483299366694576        0.0000000000000000     
  -5.0976549909198372E-002  0.10698606236817140        0.0000000000000000     
  -5.3879247737924671E-002  0.12091436592603995        0.0000000000000000     
  -5.6602654275093797E-002  0.13526883189794631        0.0000000000000000     
  -5.9146769520705758E-002  0.15004946028389049        0.0000000000000000     
  -6.1511593474760540E-002  0.16525625108387251        0.0000000000000000     
  -6.2365897825212950E-002  0.10796613107009785        0.0000000000000000     
  -6.5821264460383361E-002  0.12182225936491617        0.0000000000000000     
  -6.9034047219718522E-002  0.13608015547685293        0.0000000000000000     
  -7.2004246103218483E-002  0.15073981940590808        0.0000000000000000     
  -7.4731861110883202E-002  0.16580125115208166        0.0000000000000000     
  -7.4149121505254531E-002  0.10912838825003143        0.0000000000000000     
  -7.8075604984885652E-002  0.12289043428173371        0.0000000000000000     
  -8.1641117566483429E-002  0.13703438389589140        0.0000000000000000     
  -8.4845659250047861E-002  0.15156023709250457        0.0000000000000000     
  -8.7689230035578908E-002  0.16646799387157321        0.0000000000000000     
  -8.6326220949323129E-002  0.11047283390797222        0.0000000000000000     
  -9.0642269311431586E-002  0.12411889067649257        0.0000000000000000     
  -9.4423865315388489E-002  0.13813151715506183        0.0000000000000000     
  -9.7671008961193850E-002  0.15251071334368005        0.0000000000000000     
 -0.10038370024884766       0.16725647924234716        0.0000000000000000     
 </DataArray>
 <DataArray  type="Float64" Name="stress" NumberOfComponents="3" format="ascii">
   11743777959.681404        3523133387.9044213        2303721476.6754861     
   10341911266.938118        1667006814.6221628        1372984829.7950270     
   9113635296.3729820        389515981.93375111        663393665.58795583     
   8058950047.9860029       -309339110.16081238        174947984.05427402     
   7177855521.7771788       -429558461.66152620       -92352214.806019261     
   8818793942.7157688        2645638182.8147306        1722479741.5695033     
   8059330713.1156111        1291967314.9802470        1145754518.7021437     
   7430271415.0542641        372976218.94180822        726089006.62970054     
   6931616048.5317316       -111335105.30058575        463483205.35217381     
   6563364613.5480137       -160966657.74693298        357937114.86956477     
   6490164483.7047167        1947049345.1114151        1285559018.8896115     
   6190002511.8806238        1040903521.1145871        1012460630.9561208     
   5977057680.9560041        425481500.11600137        832336181.93907440     
   5851329990.9308567        100783282.11565804        745185671.83847225     
   5812819441.8051805        66808867.113557816        751009100.65431368     
   4757889582.6482506        1427366874.7944751        992959308.63581061     
   4733926663.2331581        913815433.02518392        973103166.55695760     
   4753994094.0782003        547031825.45633280        982135191.51607692     
   4818091875.1833744        327016052.08792114        1020055383.5131682     
   4926220006.5486774        253768112.91994834        1086863742.5482318     
   3621969239.5463662        1086590771.8639100        844680610.80810082     
   3691103167.1732149        910703050.71203697        1027682125.5046548     
   3761080654.4208541        737627194.96280098        1175486035.3607082     
   3831901701.2892847        567363204.61620176        1288092340.3762619     
   3903566307.7785068        399911079.67223883        1365501040.5513158     
   7177855521.7771788       -429558461.66152620       -92352214.806019261     
   6901803376.8195744       -150945741.65188932       -22303438.196947329     
   6595447997.9046850        26656198.500132561        45703271.674072377     
   6258789385.0325108        103247358.79454279        111667914.80703737     
   5891827538.2030525        78827739.231331587        175590491.20195287     
   6563364613.5480137       -160966657.74693298        357937114.86956477     
   6252530999.8930111       -20898378.241494417        357607869.06560189     
   5925012895.7232647        63554932.881465673        364537508.04112518     
   5580810301.0387745        92393275.621951580        378726031.79613245     
   5219923215.8395424        65616649.979955196        400173440.33062261     
   5812819441.8051805        66808867.113557816        751009100.65431368     
   5493778506.6457405        76304950.272686720        696190366.45361888     
   5171671824.4140968        75581876.524474859        657931468.54994261     
   4846499395.1102505        64639645.868922472        636232406.94328380     
   4518261218.7342005        43478258.306023836        631093181.63364780     
   4926220006.5486774        253768112.91994834        1086863742.5482318     
   4625545897.0777588        140664243.89065671        993444053.96709955     
   4335424783.9771767        62737029.429156542        925885153.20052195     
   4055856667.2469349        19986469.535455227        884187040.24849868     
   3786841546.8870292        12412564.209543228        868349715.11103392     
   3903566307.7785068        399911079.67223883        1365501040.5513158     
   3647833171.1890688        172179502.61241210        1249368931.6060445     
   3416271774.4125094        25020391.595517397        1168398561.9928634     
   3208882117.4488297       -41566253.378448248        1122589931.7117734     
   3025664200.2980289       -27580432.309481978        1111943040.7627773     
   5891827538.2030525        78827739.231331587        175590491.20195287     
   5504684031.6860352        11879098.334049702        200017867.47191617     
   5123794622.8002691       -34222550.459053755        245894295.93998420     
   4749159311.5457668       -59477207.147946835        313219776.60615563     
   4380778097.9225149       -63884871.732675552        401994309.47043681     
   5219923215.8395424        65616649.979955196        400173440.33062261     
   4894457252.3766603        28686812.449811220        418383711.18760085     
   4571974978.2796965        1702606.1393961906        455661777.57262522     
   4252476393.5486531       -15335968.951293945        512007639.48569787     
   3935961498.1835222       -22428912.822261333        587421296.92681444     
   4518261218.7342005        43478258.306023836        631093181.63364780     
   4247669207.8395743        34526146.997256041        639270870.76808250     
   3976790478.0455284        24618306.023753643        664135098.76050091     
   3705625029.3520646        13754735.385520697        705685865.61091018     
   3434172861.7591758        1935435.0825438499        763923171.31930327     
   3786841546.8870292        12412564.209543228        868349715.11103392     
   3564319898.0747795        29397101.976392984        862679346.21335900     
   3338241122.0977707        34524549.194041371        871314259.50361192     
   3108605218.9560013        27794905.862491012        894254454.98179364     
   2875412188.6494741        9208171.9817467928        931499932.64790583     
   3025664200.2980289       -27580432.309481978        1111943040.7627773     
   2844409323.0822725        13299677.387212873        1088609137.5234308     
   2656326910.4364185        31421335.650250196        1077199259.8019547     
   2461416962.3604670        26784542.479625463        1077713407.5983503     
   2259679478.8544130       -610702.12466585636        1090151580.9126151     
   4380778097.9225149       -63884871.732675552        401994309.47043681     
   3857135517.4970689       -99112593.179768562        408559530.86995548     
   3337628962.4150548       -120553563.48209190        489350726.17277634     
   2822258432.6764793       -128207782.63961124        644367895.37889814     
   2311023928.2813377       -122075250.65236712        873611038.48832595     
   3935961498.1835222       -22428912.822261333        587421296.92681444     
   3588399122.0484996       -25863293.029519081        569536762.11356091     
   3246406556.2583289       -10731638.753924012        605535639.48814023     
   2909983800.8130131        22966050.004515409        695417929.05054498     
   2579130855.7125549        75229773.245822549        839183630.80078661     
   3434172861.7591758        1935435.0825438499        763923171.31930327     
   3204569085.0132256        12857914.644715548        723261629.46160388     
   2981968903.6135521        47125712.027808905        716140938.07626235     
   2766372317.5601606        104738827.23183572        742561097.16328168     
   2557779326.8530426        185697260.25678003        802522106.72266269     
   2875412188.6494741        9208171.9817467928        931499932.64790583     
   2705645406.3912563        17051029.842943192        869734132.91408050     
   2544316004.4807410        53018488.863141537        821166621.93714416     
   2391423982.9179230        117110549.04233241        785797399.71710241     
   2246969341.7028036        209327210.38052267        763626466.25394189     
   2259679478.8544130       -610702.12466585636        1090151580.9126151     
   2091628086.1825871       -13283947.434836745        1008954272.4709913     
   1933447858.8598814        6946691.7520568371        920612691.07078898     
   1785138796.8862970        60081215.436020911        825126836.71200144     
   1646700900.2618275        146119623.61704427        722496709.39463603     
   3621969239.5463662        1086590771.8639100        844680610.80810082     
   3691103167.1732149        910703050.71203697        1027682125.5046548     
   3761080654.4208541        737627194.96280098        1175486035.3607082     
   3831901701.2892847        567363204.61620176        1288092340.3762619     
   3903566307.7785068        399911079.67223883        1365501040.5513158     
   2767288863.9807444        830186659.19422328        778077193.14549196     
   2768832679.2679677        683178879.20156014        955952830.49667799     
   2771009164.2707567        538279998.26078463        1110369076.7749887     
   2773818318.9891129        395490016.37189674        1241325931.9804230     
   2777260143.4230347        254808933.53489673        1348823396.1129827     
   1878733865.5330596        563620159.65991783        730503323.38699389     
   1846225322.1024418        455553646.91299957        903007045.17004991     
   1814138558.4821653        348893066.86722004        1063789589.6478549     
   1782473574.6722307        243638419.52257901        1212850956.8204083     
   1751230370.6726377        139789704.87907660        1350191146.6877115     
   956304244.20331228        286891273.26099366        701959001.53260648     
   923281095.67663753        227827353.84635556        868844769.52477038     
   890468837.05508006        169466400.78210720        1035747573.9793077     
   857867468.33863902        111808414.06824800        1202667414.8962183     
   825476989.52731514        54853393.704778999        1369604292.2755027     
  -8.4974381011480166E-003  -2.5492314303444050E-003   692444227.58232999     
  -9.4445570869511383E-003   1.6281161400751288E-003   853466003.56083930     
  -1.0499425276086830E-002   5.4462129632123031E-003   1026243029.7693468     
  -1.1662102716675409E-002   8.9049889829267426E-003   1210775306.2078524     
  -1.2932649456837201E-002   1.2003853726035279E-002   1407062832.8763554     
   3903566307.7785068        399911079.67223883        1365501040.5513158     
   3647833171.1890688        172179502.61241210        1249368931.6060445     
   3416271774.4125094        25020391.595517397        1168398561.9928634     
   3208882117.4488297       -41566253.378448248        1122589931.7117734     
   3025664200.2980289       -27580432.309481978        1111943040.7627773     
   2777260143.4230347        254808933.53489673        1348823396.1129827     
   2622191422.6253891        95029590.233447194        1288178043.2628658     
   2485251506.6869154       -4320403.5374249220        1254123832.3608727     
   2366440395.6076150       -43241047.777722478        1246660763.4070015     
   2265758089.3874879       -21732342.487443686        1265788836.4012544     
   1751230370.6726377        139789704.87907660        1350191146.6877115     
   1672338644.5697300        40616369.006888747        1337982459.1534262     
   1605532788.3722889       -18270733.847077847        1343794316.1832952     
   1550812802.0803142       -36871603.682824016        1367626717.7773182     
   1508178685.6938059       -15186240.500348866        1409479663.9354951     
   825476989.52731514        54853393.704778999        1369604292.2755027     
   798274837.02209318        8939838.9327364862        1398782179.2777247     
   777115619.46863067       -16830599.333439916        1437410013.4601316     
   761999336.86692798       -22457921.093750864        1485487794.8227234     
   752925989.21698463       -7942126.3481959999        1543015523.3655021     
  -1.2932649456837201E-002   1.2003853726035279E-002   1407062832.8763554     
  -1.7523168127154196E-002   1.0990521679556796E-002   1470577203.6357603     
  -2.4059952176185236E-002   3.4892046898291756E-003   1534970924.1913810     
  -3.2544077466086091E-002  -1.0502859456682404E-002   1600243994.5432191     
  -4.2974369484217602E-002  -3.0982839920019892E-002   1666396414.6912739     
   3025664200.2980289       -27580432.309481978        1111943040.7627773     
   2844409323.0822725        13299677.387212873        1088609137.5234308     
   2656326910.4364185        31421335.650250196        1077199259.8019547     
   2461416962.3604670        26784542.479625463        1077713407.5983503     
   2259679478.8544130       -610702.12466585636        1090151580.9126151     
   2265758089.3874879       -21732342.487443686        1265788836.4012544     
   2115495012.9382222        4631164.2196344137        1237970395.4430897     
   1960111284.9169548        13925832.353368044        1225417761.0158052     
   1799606905.3236856        6151661.9137655497        1228130933.1194015     
   1633981874.1584110       -18691347.099187374        1246109911.7538795     
   1508178685.6938059       -15186240.500348866        1409479663.9354951     
   1398455355.7624917       -474953.05745130777        1379168049.7596231     
   1285318258.1172707        2857108.6724214554        1367464023.1276422     
   1168767392.7581427       -5190055.3107286692        1374367584.0395525     
   1048802759.6851079       -24616445.006901741        1399878732.4953573     
   752925989.21698463       -7942126.3481959999        1543015523.3655021     
   693290351.55508077       -2018674.4440437555        1512202100.4730339     
   631947830.03736711       -1784835.3925893307        1503338046.1374669     
   568898424.66383934       -7240609.1938498020        1516423360.3588045     
   504142135.43450189       -18385995.847808093        1551458043.1370428     
  -4.2974369484217602E-002  -3.0982839920019892E-002   1666396414.6912739     
  0.31599208140219326        5.9867232508388990E-002   1637072547.5833204     
  0.67724148175909660       0.15832748344980119        1633039830.0452807     
   1.0407763478886771       0.26440595363347125        1654298262.0771556     
   1.4065956275191125       0.37809878854196133        1700847843.6789420     
   2259679478.8544130       -610702.12466585636        1090151580.9126151     
   2091628086.1825871       -13283947.434836745        1008954272.4709913     
   1933447858.8598814        6946691.7520568371        920612691.07078898     
   1785138796.8862970        60081215.436020911        825126836.71200144     
   1646700900.2618275        146119623.61704427        722496709.39463603     
   1633981874.1584110       -18691347.099187374        1246109911.7538795     
   1458791573.2490745       -42941807.978754342        1194905261.1129935     
   1291004646.3666482       -42514355.435286045        1148025080.6870785     
   1130621093.5111282       -17408989.468795300        1105469370.4761314     
   977640914.68251550        32374289.920718729        1067238130.4801611     
   1048802759.6851079       -24616445.006901741        1399878732.4953573     
   899241388.17698026       -50613770.164244294        1375787649.7792919     
   754615599.37355185       -60159152.972589552        1367489780.4517510     
   614925393.27481699       -53252593.431955963        1374985124.5127335     
   480170769.88078040       -29894091.542330474        1398273681.9622376     
   504142135.43450189       -18385995.847808093        1551458043.1370428     
   412977530.96630353       -36299833.991307586        1551601438.4698884     
   324280717.88059121       -45987700.859856501        1579006790.3648090     
   238051696.17736423       -47449596.453451663        1633674098.8218017     
   154290465.85661849       -40685520.772111028        1715603363.8408718     
   1.4065956275191125       0.37809878854196133        1700847843.6789420     
   1.6170439987028828       0.54004925531536685        1722346627.1847832     
   1.8877709834890672       0.90292912798620928        1782576110.4262493     
   2.2187648810725058        1.4666962813683657        1881536293.4033437     
   2.6100339838126714        2.2313849486092883        2019227176.1160638     
  -8.4974381011480166E-003  -2.5492314303444050E-003   692444227.58232999     
  -9.4445570869511383E-003   1.6281161400751288E-003   853466003.56083930     
  -1.0499425276086830E-002   5.4462129632123031E-003   1026243029.7693468     
  -1.1662102716675409E-002   8.9049889829267426E-003   1210775306.2078524     
  -1.2932649456837201E-002   1.2003853726035279E-002   1407062832.8763554     
  -956304244.21855474       -286891273.26556641        701959001.53550220     
  -923281095.69473326       -227827353.84539995        868844769.52894604     
  -890468837.07564771       -169466400.77435356        1035747573.9846780     
  -857867468.36129832       -111808414.05242756        1202667414.9026985     
  -825476989.55168509       -54853393.679621726        1369604292.2830064     
  -1878733865.5430450       -563620159.66291356        730503323.39146066     
  -1846225322.1164832       -455553646.91336626        903007045.17777312     
  -1814138558.4992862       -348893066.86170030        1063789589.6586633     
  -1782473574.6914530       -243638419.50791562        1212850956.8341320     
  -1751230370.6929843       -139789704.85201192        1350191146.7041788     
  -2767288863.9819674       -830186659.19459033        778077193.15020573     
  -2768832679.2746949       -683178879.20227098        955952830.50732005     
  -2771009164.2814136       -538279998.25659370        1110369076.7913024     
  -2773818319.0021248       -395490016.35755819        1241325932.0021529     
  -2777260143.4368291       -254808933.50516522        1348823396.1398718     
  -3621969239.5353241       -1086590771.8605971        844680610.81173718     
  -3691103167.1693668       -910703050.71211410        1027682125.5175871     
  -3761080654.4220304       -737627194.95903397        1175486035.3825953     
  -3831901701.2933164       -567363204.60135794        1288092340.4067616     
  -3903566307.7832212       -399911079.63908291        1365501040.5900862     
  -1.2932649456837201E-002   1.2003853726035279E-002   1407062832.8763554     
  -1.7523168127154196E-002   1.0990521679556796E-002   1470577203.6357603     
  -2.4059952176185236E-002   3.4892046898291756E-003   1534970924.1913810     
  -3.2544077466086091E-002  -1.0502859456682404E-002   1600243994.5432191     
  -4.2974369484217602E-002  -3.0982839920019892E-002   1666396414.6912739     
  -825476989.55168509       -54853393.679621726        1369604292.2830064     
  -798274837.05512440       -8939838.9068592787        1398782179.2809908     
  -777115619.51500893        16830599.344418675        1437410013.4589274     
  -761999336.93133926        22457921.074208945        1485487794.8168142     
  -752925989.30411732        7942126.2825092971        1543015523.3546529     
  -1751230370.6929843       -139789704.85201192        1350191146.7041788     
  -1672338644.5988870       -40616368.976556599        1337982459.1604941     
  -1605532788.4157350        18270733.862414181        1343794316.1804955     
  -1550812802.1435280        36871603.664901078        1367626717.7641833     
  -1508178685.7822669        15186240.430902004        1409479663.9115562     
  -2777260143.4368291       -254808933.50516522        1348823396.1398718     
  -2622191422.6488118       -95029590.198103189        1288178043.2742691     
  -2485251506.7262387        4320403.5574767590        1254123832.3560867     
  -2366440395.6691098        43241047.761575460        1246660763.3853259     
  -2265758089.4774261        21732342.414192080        1265788836.3619847     
  -3903566307.7832212       -399911079.63908291        1365501040.5900862     
  -3647833171.2048979       -172179502.57149780        1249368931.6223161     
  -3416271774.4465194       -25020391.570393324        1168398561.9857011     
  -3208882117.5080829        41566253.364233732        1122589931.6802416     
  -3025664200.3895931        27580432.232377410        1111943040.7059369     
  -4.2974369484217602E-002  -3.0982839920019892E-002   1666396414.6912739     
  0.31599208140219326        5.9867232508388990E-002   1637072547.5833204     
  0.67724148175909660       0.15832748344980119        1633039830.0452807     
   1.0407763478886771       0.26440595363347125        1654298262.0771556     
   1.4065956275191125       0.37809878854196133        1700847843.6789420     
  -752925989.30411732        7942126.2825092971        1543015523.3546529     
  -693290350.93815362        2018674.5490148067        1512202100.4629946     
  -631947828.71250713        1784835.6811294854        1503338046.1201150     
  -568898422.62717605        7240609.6788587272        1516423360.3260140     
  -504142132.68216127        18385996.542202383        1551458043.0806937     
  -1508178685.7822669        15186240.430902004        1409479663.9115562     
  -1398455355.1839778        474953.14065587521        1379168049.7364931     
  -1285318256.8686037       -2857108.4259729981        1367464023.0890737     
  -1168767390.8361468        5190055.7310076952        1374367583.9693003     
  -1048802757.0866050        24616445.611604095        1399878732.3771710     
  -2265758089.4774261        21732342.414192080        1265788836.3619847     
  -2115495012.4214802       -4631164.1652041674        1237970395.4038167     
  -1960111283.7910492       -13925832.162983298        1225417760.9521575     
  -1799606903.5861347       -6151661.5791500807        1228130933.0070093     
  -1633981871.8067350        18691347.586300373        1246109911.5683711     
  -3025664200.3895931        27580432.232377410        1111943040.7059369     
  -2844409322.6506605       -13299677.368567824        1088609137.4649634     
  -2656326909.4798417       -31421335.529892087        1077199259.7093658     
  -2461416960.8771410       -26784542.251612902        1077713407.4391441     
  -2259679476.8425555        610702.46628618240        1090151580.6542974     
   1.4065956275191125       0.37809878854196133        1700847843.6789420     
   1.6170439987028828       0.54004925531536685        1722346627.1847832     
   1.8877709834890672       0.90292912798620928        1782576110.4262493     
   2.2187648810725058        1.4666962813683657        1881536293.4033437     
   2.6100339838126714        2.2313849486092883        2019227176.1160638     
  -504142132.68216127        18385996.542202383        1551458043.0806937     
  -412977527.80534893        36299834.971016973        1551601438.5134158     
  -324280714.20409167        45987702.481312141        1579006790.5076671     
  -238051691.87839049        47449599.073086545        1633674099.0634508     
  -154290460.82824686        40685524.746340141        1715603364.1807685     
  -1048802757.0866050        24616445.611604095        1399878732.3771710     
  -899241385.18370235        50613771.015188277        1375787649.8449724     
  -754615595.89218163        60159154.380831718        1367489780.7002096     
  -614925389.21204722        53252595.708518863        1374985124.9428859     
  -480170765.14329672        29894094.998268008        1398273682.5729985     
  -1633981871.8067350        18691347.586300373        1246109911.5683711     
  -1458791570.5180120        42941808.672576785        1194905261.1794546     
  -1291004643.1765032        42514356.601476133        1148025081.0038805     
  -1130621089.7822025        17408991.373008668        1105469371.0416470     
  -977640910.33511734       -32374287.012837112        1067238131.2927577     
  -2259679476.8425555        610702.46628618240        1090151580.6542974     
  -2091628083.8082805        13283947.943176746        1008954272.5168629     
  -1933447856.0570498       -6946690.8567399979        920612691.41867387     
  -1785138793.5888574       -60081213.933457911        825126837.35973108     
  -1646700896.4037063       -146119621.28697264        722496710.34004128     
  -3621969239.5353241       -1086590771.8605971        844680610.81173718     
  -3691103167.1693668       -910703050.71211410        1027682125.5175871     
  -3761080654.4220304       -737627194.95903397        1175486035.3825953     
  -3831901701.2933164       -567363204.60135794        1288092340.4067616     
  -3903566307.7832212       -399911079.63908291        1365501040.5900862     
  -4757889582.6292391       -1427366874.7887716        992959308.63753641     
  -4733926663.2202110       -913815433.02397192        973103166.56696737     
  -4753994094.0695095       -547031825.45359194        982135191.53583670     
  -4818091875.1771336       -327016052.07763076        1020055383.5441439     
  -4926220006.5430851       -253768112.89609027        1086863742.5918899     
  -6490164483.6898403       -1947049345.1069522        1285559018.8890853     
  -6190002511.8655138       -1040903521.1141669        1012460630.9624413     
  -5977057680.9392176       -425481500.11481714        832336181.95551574     
  -5851329990.9109535       -100783282.10890484        745185671.86830807     
  -5812819441.7807178       -66808867.096427679        751009100.70081973     
  -8818793942.7171268       -2645638182.8151383        1722479741.5663834     
  -8059330713.1052694       -1291967314.9826977        1145754518.7040088     
  -7430271415.0311546       -372976218.94271207        726089006.64163244     
  -6931616048.4947701        111335105.30482197        463483205.37925506     
  -6563364613.4961233        160966657.75990343        357937114.91687495     
  -11743777959.711100       -3523133387.9133301        2303721476.6694307     
  -10341911266.939487       -1667006814.6295679        1372984829.7916696     
  -9113635296.3453178       -389515981.93727493        663393665.59418714     
  -8058950047.9285889        309339110.16354799        174947984.07698351     
  -7177855521.6892996        429558461.67290211       -92352214.759942502     
  -3903566307.7832212       -399911079.63908291        1365501040.5900862     
  -3647833171.2048979       -172179502.57149780        1249368931.6223161     
  -3416271774.4465194       -25020391.570393324        1168398561.9857011     
  -3208882117.5080829        41566253.364233732        1122589931.6802416     
  -3025664200.3895931        27580432.232377410        1111943040.7059369     
  -4926220006.5430851       -253768112.89609027        1086863742.5918899     
  -4625545897.0830984       -140664243.86243391        993444053.98512399     
  -4335424783.9992962       -62737029.416045904        925885153.19477201     
  -4055856667.2916718       -19986469.556923151        884187040.22083402     
  -3786841546.9602246       -12412564.285062313        868349715.06331027     
  -5812819441.7807178       -66808867.096427679        751009100.70081973     
  -5493778506.6240482       -76304950.252196074        696190366.47278285     
  -5171671824.3997946       -75581876.516015053        657931468.54641926     
  -4846499395.1079559       -64639645.887888193        636232406.92172682     
  -4518261218.7485304       -43478258.367805004        631093181.59870970     
  -6563364613.4961233        160966657.75990343        357937114.91687495     
  -6252530999.8277435        20898378.259218216        357607869.08529413     
  -5925012895.6480141       -63554932.870302916        364537508.04064351     
  -5580810300.9569349       -92393275.628659487        378726031.78292340     
  -5219923215.7545061       -65616650.015849113        400173440.31213605     
  -7177855521.6892996        429558461.67290211       -92352214.759942502     
  -6901803376.6941833        150945741.67181015       -22303438.177344821     
  -6595447997.7439537       -26656198.478903294        45703271.677443676     
  -6258789384.8386116       -103247358.77924180        111667914.80442111     
  -5891827537.9781523       -78827739.229194164        175590491.20358938     
  -3025664200.3895931        27580432.232377410        1111943040.7059369     
  -2844409322.6506605       -13299677.368567824        1088609137.4649634     
  -2656326909.4798417       -31421335.529892087        1077199259.7093658     
  -2461416960.8771410       -26784542.251612902        1077713407.4391441     
  -2259679476.8425555        610702.46628618240        1090151580.6542974     
  -3786841546.9602246       -12412564.285062313        868349715.06331027     
  -3564319897.7302971       -29397101.976983786        862679346.17508221     
  -3338241121.3329749       -34524549.110932112        871314259.43093097     
  -3108605217.7682629       -27794905.686908126        894254454.83085787     
  -2875412187.0361571       -9208171.7049111128        931499932.37486172     
  -4518261218.7485304       -43478258.367805004        631093181.59870970     
  -4247669207.5741701       -34526147.014675379        639270870.75465131     
  -3976790477.4969091       -24618305.985210657        664135098.71337271     
  -3705625028.5167494       -13754735.279417276        705685865.47487414     
  -3434172860.6336865       -1935434.8972842693        763923171.03915834     
  -5219923215.7545061       -65616650.015849113        400173440.31213605     
  -4894457252.1822777       -28686812.481636286        418383711.20367438     
  -4571974977.9716434       -1702606.1527283192        455661777.55669361     
  -4252476393.1226015        15335968.970861673        512007639.37119782     
  -3935961497.6351519        22428912.889155865        587421296.64718068     
  -5891827537.9781523       -78827739.229194164        175590491.20358938     
  -5504684031.5546207       -11879098.377860546        200017867.52214938     
  -5123794622.7571774        34222550.386513472        245894295.96089327     
  -4749159311.5858183        59477207.063939810        313219776.51982135     
  -4380778098.0405397        63884871.654428959        401994309.19893479     
  -2259679476.8425555        610702.46628618240        1090151580.6542974     
  -2091628083.8082805        13283947.943176746        1008954272.5168629     
  -1933447856.0570498       -6946690.8567399979        920612691.41867387     
  -1785138793.5888574       -60081213.933457911        825126837.35973108     
  -1646700896.4037063       -146119621.28697264        722496710.34004128     
  -2875412187.0361571       -9208171.7049111128        931499932.37486172     
  -2705645404.4582434       -17051029.428142071        869734132.96637094     
  -2544316002.1855111       -53018488.168641925        821166622.29069078     
  -2391423980.2179599       -117110547.92641020        785797400.34782100     
  -2246969338.5555835       -209327208.70143455        763626467.13776028     
  -3434172860.6336865       -1935434.8972842693        763923171.03915834     
  -3204569083.6733851       -12857914.369011045        723261629.50044870     
  -2981968902.0404029       -47125711.598479986        716140938.38811266     
  -2766372315.7347374       -104738826.58565772        742561097.70215142     
  -2557779324.7563915       -185697259.33057904        802522107.44256115     
  -3935961497.6351519        22428912.889155865        587421296.64718068     
  -3588399121.4537086        25863293.120553493        569536762.11909211     
  -3246406555.6217213        10731638.853757501        605535639.71094263     
  -2909983800.1391940       -22966049.911227465        695417929.42272425     
  -2579130855.0061235       -75229773.174405813        839183631.25444829     
  -4380778098.0405397        63884871.654428959        401994309.19893479     
  -3857135517.7992048        99112593.040581465        408559530.82230449     
  -3337628962.9294662        120553563.18807364        489350726.25917453     
  -2822258433.4313164        128207782.09692788        644367895.50953782     
  -2311023929.3047767        122075249.76710451        873611038.57340920     
 </DataArray>
 <DataArray  type="Float64" Name="VM" NumberOfComponents="1" format="ascii">
   11174761354.573244     
   9907031131.6537514     
   8998913149.9671173     
   8223571936.1514111     
   7403717021.4828024     
   8386894502.5900669     
   7755505107.7130489     
   7359235405.9247084     
   7033909211.6355925     
   6674166997.8583279     
   6183409386.6833315     
   6002636538.6170683     
   5953274403.1614943     
   5943434087.1278429     
   5924274589.6782522     
   4565253558.9549665     
   4664758769.0171604     
   4815899313.7671843     
   4986671674.4452353     
   5160013821.4701414     
   3536127589.4513907     
   3776309756.3229814     
   4007598838.7864232     
   4220051807.4173331     
   4407999393.0798626     
   7403717021.4828024     
   6978607642.5542564     
   6582636374.7421961     
   6210822029.2993279     
   5860708333.4204874     
   6674166997.8583279     
   6293560087.0009632     
   5927218237.1984196     
   5573925996.1631250     
   5233527146.8176575     
   5924274589.6782522     
   5587688726.9056549     
   5259243184.1629524     
   4939011408.4655390     
   4627630547.3767042     
   5160013821.4701414     
   4870893719.2650795     
   4593434692.1314049     
   4326045616.3713760     
   4068834260.8575425     
   4407999393.0798626     
   4170254033.8336763     
   3959990908.8344698     
   3769967886.9454827     
   3598347626.0057683     
   5860708333.4204874     
   5509656809.7015104     
   5158602897.4854174     
   4809868846.6667175     
   4467657299.0202417     
   5233527146.8176575     
   4933686566.9263792     
   4638755953.3605604     
   4351489628.1899786     
   4076244184.1574631     
   4627630547.3767042     
   4373011758.6426764     
   4128049540.7033391     
   3895491468.6029506     
   3679352688.5515642     
   4068834260.8575425     
   3851377261.8435540     
   3647925448.8494120     
   3460761284.0894151     
   3293126042.0279799     
   3598347626.0057683     
   3407083960.6913571     
   3233368112.6569486     
   3078597328.9592452     
   2944965724.6342373     
   4467657299.0202417     
   3971192652.1692648     
   3503577559.7291503     
   3096618372.6473870     
   2815571261.5604777     
   4076244184.1574631     
   3734059634.9337511     
   3416742628.7428312     
   3138872506.9839969     
   2928521053.1660185     
   3679352688.5515642     
   3434755657.2160535     
   3208177909.1239643     
   3004701379.1933165     
   2834408428.4628739     
   3293126042.0279799     
   3089334256.4448142     
   2892127757.2094359     
   2702775468.1708169     
   2524225310.7318416     
   2944965724.6342373     
   2730720740.6708145     
   2503481774.2583594     
   2263974350.1075850     
   2014538152.7365584     
   3536127589.4513907     
   3776309756.3229814     
   4007598838.7864232     
   4220051807.4173331     
   4407999393.0798626     
   2804628960.1802683     
   2997181546.4956775     
   3189892913.0693851     
   3372852379.7582598     
   3539548624.2268248     
   2095070800.0122466     
   2285013688.7032728     
   2484920439.2129536     
   2686133840.6116138     
   2882809982.2649484     
   1483478475.5459592     
   1720080898.2433839     
   1972072050.6482465     
   2234221933.0527515     
   2503315540.0383854     
   1199348583.5803821     
   1478246480.7001340     
   1777505068.4739285     
   2097124346.9017653     
   2437104315.9836435     
   4407999393.0798626     
   4170254033.8336763     
   3959990908.8344698     
   3769967886.9454827     
   3598347626.0057683     
   3539548624.2268248     
   3407923226.3855338     
   3302379561.3865705     
   3219740125.1407890     
   3160701880.9437280     
   2882809982.2649484     
   2846231383.9649525     
   2832799517.9914346     
   2841613860.9624596     
   2873610255.9782224     
   2503315540.0383854     
   2549502097.0516148     
   2610692229.4880795     
   2686686106.3935571     
   2777702498.8265481     
   2437104315.9836435     
   2547114433.1497002     
   2658647628.8404274     
   2771703903.0558286     
   2886283255.7959027     
   3598347626.0057683     
   3407083960.6913571     
   3233368112.6569486     
   3078597328.9592452     
   2944965724.6342373     
   3160701880.9437280     
   3010524122.5770545     
   2884420230.1254234     
   2784325600.5769081     
   2712776656.9351182     
   2873610255.9782224     
   2768150165.1321988     
   2694114410.6037521     
   2653067826.2416763     
   2646770180.9230008     
   2777702498.8265481     
   2709671694.5316515     
   2679657629.4879327     
   2688203198.9223118     
   2735842223.4508419     
   2886283255.7959027     
   2835492828.0905294     
   2828507956.4220705     
   2865328640.7905273     
   2945954881.1958947     
   2944965724.6342373     
   2730720740.6708145     
   2503481774.2583594     
   2263974350.1075850     
   2014538152.7365584     
   2712776656.9351182     
   2544789922.5242572     
   2382702552.8635144     
   2228110788.9643726     
   2083787682.0231028     
   2646770180.9230008     
   2556381387.1837959     
   2495705463.5317917     
   2466874080.2591362     
   2472108363.9097433     
   2735842223.4508419     
   2721995629.3926187     
   2757167588.1822214     
   2841986754.8352275     
   2976847821.6856570     
   2945954881.1958947     
   2983191866.5289359     
   3087512391.6167731     
   3258916456.4594135     
   3497404061.0568519     
   1199348583.5803821     
   1478246480.7001340     
   1777505068.4739285     
   2097124346.9017653     
   2437104315.9836435     
   1483478475.5578322     
   1720080898.2583563     
   1972072050.6661956     
   2234221933.0735955     
   2503315540.0620675     
   2095070800.0239930     
   2285013688.7222996     
   2484920439.2393718     
   2686133840.6456223     
   2882809982.3068609     
   2804628960.1851449     
   2997181546.5111423     
   3189892913.0958924     
   3372852379.7964048     
   3539548624.2774158     
   3536127589.4450617     
   3776309756.3302231     
   4007598838.8077526     
   4220051807.4533954     
   4407999393.1315279     
   2437104315.9836435     
   2547114433.1497002     
   2658647628.8404274     
   2771703903.0558286     
   2886283255.7959027     
   2503315540.0620675     
   2549502097.0712357     
   2610692229.5017500     
   2686686106.3993583     
   2777702498.8231201     
   2882809982.3068609     
   2846231384.0003219     
   2832799518.0166593     
   2841613860.9732804     
   2873610255.9710674     
   3539548624.2774158     
   3407923226.4287724     
   3302379561.4183083     
   3219740125.1550708     
   3160701880.9345708     
   4407999393.1315279     
   4170254033.8780255     
   3959990908.8680410     
   3769967886.9618697     
   3598347625.9974093     
   2886283255.7959027     
   2835492828.0905294     
   2828507956.4220705     
   2865328640.7905273     
   2945954881.1958947     
   2777702498.8231201     
   2709671694.3702750     
   2679657629.1800590     
   2688203198.4856896     
   2735842222.9071922     
   2873610255.9710674     
   2768150164.8263464     
   2694114410.0084929     
   2653067825.3773093     
   2646770179.8191471     
   3160701880.9345708     
   3010524122.1849289     
   2884420229.3456788     
   2784325599.4144611     
   2712776655.4049540     
   3598347625.9974093     
   3407083960.2835345     
   3233368111.8314662     
   3078597327.7017102     
   2944965722.9345913     
   2945954881.1958947     
   2983191866.5289359     
   3087512391.6167731     
   3258916456.4594135     
   3497404061.0568519     
   2735842222.9071922     
   2721995629.0537863     
   2757167588.0869923     
   2841986755.0094237     
   2976847822.1356463     
   2646770179.8191471     
   2556381386.3737950     
   2495705463.0924525     
   2466874080.2547069     
   2472108364.3747120     
   2712776655.4049540     
   2544789921.2398367     
   2382702551.9012218     
   2228110788.3973641     
   2083787681.9027314     
   2944965722.9345913     
   2730720739.0944147     
   2503481772.8246412     
   2263974348.8120375     
   2014538151.5233049     
   3536127589.4450617     
   3776309756.3302231     
   4007598838.8077526     
   4220051807.4533954     
   4407999393.1315279     
   4565253558.9404402     
   4664758769.0119305     
   4815899313.7722292     
   4986671674.4627161     
   5160013821.5027428     
   6183409386.6706676     
   6002636538.6061382     
   5953274403.1526461     
   5943434087.1228485     
   5924274589.6802845     
   8386894502.5892735     
   7755505107.7031250     
   7359235405.9050827     
   7033909211.6063833     
   6674166997.8209753     
   11174761354.594152     
   9907031131.6510506     
   8998913149.9394455     
   8223571936.0969591     
   7403717021.3995056     
   4407999393.1315279     
   4170254033.8780255     
   3959990908.8680410     
   3769967886.9618697     
   3598347625.9974093     
   5160013821.5027428     
   4870893719.2936878     
   4593434692.1546621     
   4326045616.3862886     
   4068834260.8600864     
   5924274589.6802845     
   5587688726.9014311     
   5259243184.1517067     
   4939011408.4459143     
   4627630547.3467541     
   6674166997.8209753     
   6293560086.9482327     
   5927218237.1289711     
   5573925996.0759230     
   5233527146.7116852     
   7403717021.3995056     
   6978607642.4389830     
   6582636374.5920973     
   6210822029.1128559     
   5860708333.1970978     
   3598347625.9974093     
   3407083960.2835345     
   3233368111.8314662     
   3078597327.7017102     
   2944965722.9345913     
   4068834260.8600864     
   3851377261.5000720     
   3647925448.1383214     
   3460761282.9877501     
   3293126040.5099435     
   4627630547.3467541     
   4373011758.3717146     
   4128049540.1720471     
   3895491467.7859840     
   3679352687.4132347     
   5233527146.7116852     
   4933686566.7225952     
   4638755953.0457392     
   4351489627.7420835     
   4076244183.5382280     
   5860708333.1970978     
   5509656809.5540352     
   5158602897.4089565     
   4809868846.6471329     
   4467657299.0240459     
   2944965722.9345913     
   2730720739.0944147     
   2503481772.8246412     
   2263974348.8120375     
   2014538151.5233049     
   3293126040.5099435     
   3089334254.9807281     
   2892127755.8051782     
   2702775466.8358288     
   2524225309.4710050     
   3679352687.4132347     
   3434755656.1206331     
   3208177908.0753512     
   3004701378.2189541     
   2834408427.6082406     
   4076244183.5382280     
   3734059634.4070058     
   3416742628.3031616     
   3138872506.6517076     
   2928521052.9725533     
   4467657299.0240459     
   3971192652.3807178     
   3503577560.1140857     
   3096618373.1627560     
   2815571262.1002078     
 </DataArray>
 <DataArray  type="Float64" Name="strain" NumberOfComponents="3" format="ascii">
  0.17811396572183463        0.0000000000000000        9.9827930655937730E-002
  0.16403015370919113       -2.3926109424321208E-002   5.9496009291117841E-002
  0.14994634169654764       -3.9076243449635728E-002   2.8747058842144756E-002
  0.13586252968390411       -4.5450402075943558E-002   7.5810793090185409E-003
  0.12177871767126061       -4.3048585303244666E-002  -4.0019293082608348E-003
  0.13375170813118917        0.0000000000000000        7.4640788801345143E-002
  0.12786234197702562       -1.8763864982573937E-002   4.9649362477092895E-002
  0.12197297582286204       -3.0935086759574525E-002   3.1463856953953692E-002
  0.11608360966869846       -3.6513665331001754E-002   2.0084272231927533E-002
  0.11019424351453490       -3.5499600696855621E-002   1.5510608311014473E-002
   9.8434161336188208E-002   0.0000000000000000        5.5707557485216497E-002
   9.7962190925770798E-002  -1.3601620540826666E-002   4.3873294008098571E-002
   9.7490220515353387E-002  -2.2793930069513330E-002   3.6067901217359893E-002
   9.7018250104935977E-002  -2.7576928586059979E-002   3.2291379113000465E-002
   9.6546279694518566E-002  -2.7950616090466611E-002   3.2543727695020258E-002
   7.2161325336831797E-002   0.0000000000000000        4.3028236707551792E-002
   7.4329700555426731E-002  -8.4393760990793959E-003   4.2167803884134832E-002
   7.6498075774021679E-002  -1.4652773379452123E-002   4.2559191632363332E-002
   7.8666450992616627E-002  -1.8640191841118182E-002   4.4202399952237292E-002
   8.0834826211211547E-002  -2.0401631484077584E-002   4.7097428843756714E-002
   5.4933200133119892E-002   0.0000000000000000        3.6602826468351037E-002
   5.6964870865993396E-002  -3.2771316573321245E-003   4.4532892105201706E-002
   5.8996541598866900E-002  -6.5116166893909224E-003   5.0937728198964027E-002
   6.1028212331740404E-002  -9.7034550961763947E-003   5.5817334749638021E-002
   6.3059883064613922E-002  -1.2852646877688554E-002   5.9171711757223688E-002
  0.12177871767126061       -4.3048585303244666E-002  -4.0019293082608348E-003
  0.11578478498858569       -3.7024779244962697E-002  -9.6648232186771765E-004
  0.10979085230591075       -3.2532970014521212E-002   1.9804751058764697E-003
  0.10379691962323581       -2.9573157611920177E-002   4.8389429749716197E-003
   9.7802986940560888E-002  -2.8145342037159737E-002   7.6089212854179578E-003
  0.11019424351453490       -3.5499600696855621E-002   1.5510608311014473E-002
  0.10431334188942433       -3.1610961303489962E-002   1.5496340992842750E-002
   9.8432440264313747E-002  -2.8565815597258560E-002   1.5796625348448758E-002
   9.2551538639203165E-002  -2.6364163578161352E-002   1.6411461377832406E-002
   8.6670637014092611E-002  -2.5006005246198462E-002   1.7340849080993648E-002
   9.6546279694518566E-002  -2.7950616090466611E-002   3.2543727695020258E-002
   9.1181450359398897E-002  -2.6197143362017256E-002   3.0168249212990151E-002
   8.5816621024279227E-002  -2.4598661179995901E-002   2.8510363637164179E-002
   8.0451791689159557E-002  -2.3155169544402544E-002   2.7570070967542298E-002
   7.5086962354039888E-002  -2.1866668455237270E-002   2.7347371204124740E-002
   8.0834826211211547E-002  -2.0401631484077584E-002   4.7097428843756714E-002
   7.6389110398509361E-002  -2.0783325420544514E-002   4.3049242338574316E-002
   7.1943394585807161E-002  -2.0631506762733273E-002   4.0121689972022617E-002
   6.7497678773104974E-002  -1.9946175510643753E-002   3.8314771744101611E-002
   6.3051962960402774E-002  -1.8727331664276092E-002   3.7628487654811471E-002
   6.3059883064613922E-002  -1.2852646877688554E-002   5.9171711757223688E-002
   5.9936322006755749E-002  -1.5369507479071808E-002   5.4139320369595262E-002
   5.6812760948897569E-002  -1.6664352345470593E-002   5.0630604353024078E-002
   5.3689199891039402E-002  -1.6737181476884952E-002   4.8645563707510185E-002
   5.0565638833181228E-002  -1.5587994873314845E-002   4.8184198433053688E-002
   9.7802986940560888E-002  -2.8145342037159737E-002   7.6089212854179578E-003
   9.1685338369763669E-002  -2.7325435186196012E-002   8.6674409237830347E-003
   8.5567689798966423E-002  -2.6189348954985578E-002   1.0655419490732648E-002
   7.9450041228169177E-002  -2.4737083343527946E-002   1.3572856986266743E-002
   7.3332392657371959E-002  -2.2968638351823834E-002   1.7419753410385597E-002
   8.6670637014092611E-002  -2.5006005246198462E-002   1.7340849080993648E-002
   8.1430853477361953E-002  -2.3994172721053114E-002   1.8129960818129370E-002
   7.6191069940631309E-002  -2.2831498122408551E-002   1.9745343694813761E-002
   7.0951286403900693E-002  -2.1517981450264834E-002   2.2186997711046909E-002
   6.5711502867170007E-002  -2.0053622704621965E-002   2.5454922866828628E-002
   7.5086962354039888E-002  -2.1866668455237270E-002   2.7347371204124740E-002
   7.0621856062339963E-002  -2.0662910255910272E-002   2.7701737733283573E-002
   6.6156749770640039E-002  -1.9473647289831746E-002   2.8779187612955039E-002
   6.1691643478940142E-002  -1.8298879557001643E-002   3.0579720843139441E-002
   5.7226537187240217E-002  -1.7138607057420152E-002   3.3103337423836476E-002
   6.3051962960402774E-002  -1.8727331664276092E-002   3.7628487654811471E-002
   5.9258346124697693E-002  -1.7331647790767346E-002   3.7382771669245557E-002
   5.5464729288992633E-002  -1.6115796457254829E-002   3.7756951245156517E-002
   5.1671112453287572E-002  -1.5079777663738490E-002   3.8751026382544393E-002
   4.7877495617582498E-002  -1.4223591410218256E-002   4.0364997081409254E-002
   5.0565638833181228E-002  -1.5587994873314845E-002   4.8184198433053688E-002
   4.7340323664435149E-002  -1.4000385325624483E-002   4.7173062626015339E-002
   4.4115008495689063E-002  -1.2757945624677924E-002   4.6678634591418043E-002
   4.0889693326942991E-002  -1.1860675770475244E-002   4.6700914329261850E-002
   3.7664378158196885E-002  -1.1308575763016498E-002   4.7239901839546655E-002
   7.3332392657371959E-002  -2.2968638351823834E-002   1.7419753410385597E-002
   6.4781154924183321E-002  -2.0937554140481485E-002   1.7704246337698071E-002
   5.6229917190994710E-002  -1.8697370870110142E-002   2.1205198134153641E-002
   4.7678679457806045E-002  -1.6248088540709249E-002   2.7922608799752252E-002
   3.9127441724617462E-002  -1.3589707152279473E-002   3.7856478334494126E-002
   6.5711502867170007E-002  -2.0053622704621965E-002   2.5454922866828628E-002
   5.9935968499289255E-002  -1.8373050494067816E-002   2.4679926358254306E-002
   5.4160434131408433E-002  -1.6410893427190376E-002   2.6239877711152743E-002
   4.8384899763527646E-002  -1.4167151503989811E-002   3.0134776925523618E-002
   4.2609365395646803E-002  -1.1641824724465732E-002   3.6364624001367418E-002
   5.7226537187240217E-002  -1.7138607057420152E-002   3.3103337423836476E-002
   5.3345195176996853E-002  -1.5808546847654203E-002   3.1341337276669504E-002
   4.9463853166753488E-002  -1.4124415984270944E-002   3.1032773983304701E-002
   4.5582511156510165E-002  -1.2086214467270207E-002   3.2177647543742208E-002
   4.1701169146266814E-002  -9.6939422966522137E-003   3.4775957957982051E-002
   4.7877495617582498E-002  -1.4223591410218256E-002   4.0364997081409254E-002
   4.5008834957306225E-002  -1.3244043201240563E-002   3.7688479092943490E-002
   4.2140174297029973E-002  -1.1837938541351345E-002   3.5583886950609579E-002
   3.9271513636753720E-002  -1.0005277430550741E-002   3.4051220654407771E-002
   3.6402852976477447E-002  -7.7460598688386395E-003   3.3090480204337483E-002
   3.7664378158196885E-002  -1.1308575763016498E-002   4.7239901839546655E-002
   3.4926887840217302E-002  -1.0679539554826881E-002   4.3721351807076286E-002
   3.2189397522237741E-002  -9.5514610984317946E-003   3.9893216613067523E-002
   2.9451907204258176E-002  -7.9243403938311346E-003   3.5755496257520065E-002
   2.6714416886278569E-002  -5.7981774410250653E-003   3.1308190740434227E-002
   5.4933200133119892E-002   0.0000000000000000        3.6602826468351037E-002
   5.6964870865993396E-002  -3.2771316573321245E-003   4.4532892105201706E-002
   5.8996541598866900E-002  -6.5116166893909224E-003   5.0937728198964027E-002
   6.1028212331740404E-002  -9.7034550961763947E-003   5.5817334749638021E-002
   6.3059883064613922E-002  -1.2852646877688554E-002   5.9171711757223688E-002
   4.1970547770374622E-002   0.0000000000000000        3.3716678369637987E-002
   4.2731316925124996E-002  -2.4578487429805030E-003   4.1424622654856046E-002
   4.3492086079875356E-002  -4.8837125170073745E-003   4.8115993326916170E-002
   4.4252855234625729E-002  -7.2775913220806173E-003   5.3790790385818334E-002
   4.5013624389376096E-002  -9.6394851582002287E-003   5.8449013831562584E-002
   2.8494130293918070E-002   0.0000000000000000        3.1655144013436401E-002
   2.8492653800475699E-002  -1.6385658286288828E-003   3.9130305290702161E-002
   2.8491177307033325E-002  -3.2558083446238275E-003   4.6097548884740380E-002
   2.8489700813590948E-002  -4.8517275479848356E-003   5.2556874795551031E-002
   2.8488224320148577E-002  -6.4263234387119108E-003   5.8508283023134162E-002
   1.4503947703750237E-002   0.0000000000000000        3.0418223399746282E-002
   1.4248881492045515E-002  -8.1928291427726192E-004   3.7649940012740052E-002
   1.3993815280340797E-002  -1.6279041722402801E-003   4.4882394872436664E-002
   1.3738749068636076E-002  -2.4258637738890612E-003   5.2115587978836128E-002
   1.3483682856931358E-002  -3.2131617192235925E-003   5.9349519331938445E-002
  -1.2887781120074493E-013   0.0000000000000000        3.0005916528567635E-002
  -1.6554986548289463E-013   7.4358054436007848E-014   3.6983526820969705E-002
  -2.0222148608417534E-013   1.4326734243397254E-013   4.4470531290005028E-002
  -2.3889332352589054E-013   2.0672699663215610E-013   5.2466929935673604E-002
  -2.7556342624412977E-013   2.6472747605144065E-013   6.0972722757975405E-002
   6.3059883064613922E-002  -1.2852646877688554E-002   5.9171711757223688E-002
   5.9936322006755749E-002  -1.5369507479071808E-002   5.4139320369595262E-002
   5.6812760948897569E-002  -1.6664352345470593E-002   5.0630604353024078E-002
   5.3689199891039402E-002  -1.6737181476884952E-002   4.8645563707510185E-002
   5.0565638833181228E-002  -1.5587994873314845E-002   4.8184198433053688E-002
   4.5013624389376096E-002  -9.6394851582002287E-003   5.8449013831562584E-002
   4.3228042425922576E-002  -1.1527130609236156E-002   5.5821048541390854E-002
   4.1442460462469050E-002  -1.2498264259058327E-002   5.4345366068971154E-002
   3.9656878499015530E-002  -1.2552886107666784E-002   5.4021966414303402E-002
   3.7871296535562017E-002  -1.1690996155061500E-002   5.4850849577387693E-002
   2.8488224320148577E-002  -6.4263234387119108E-003   5.8508283023134162E-002
   2.7669228897794391E-002  -7.6847537394005051E-003   5.7979239896648466E-002
   2.6850233475440206E-002  -8.3321761726460764E-003   5.8231087034609462E-002
   2.6031238053086023E-002  -8.3685907384486377E-003   5.9263824437017124E-002
   2.5212242630731841E-002  -7.7939974368081769E-003   6.1077452103871457E-002
   1.3483682856931358E-002  -3.2131617192235925E-003   5.9349519331938445E-002
   1.3259881422371203E-002  -3.8423768695648574E-003   6.0613894435368069E-002
   1.3036079987811044E-002  -4.1660880862338179E-003   6.2287767249939036E-002
   1.2812278553250888E-002  -4.1842953692304875E-003   6.4371137775651344E-002
   1.2588477118690725E-002  -3.8969987185548567E-003   6.6864006012505098E-002
  -2.7556342624412977E-013   2.6472747605144065E-013   6.0972722757975405E-002
  -3.4700541051702061E-013   2.7079120196171758E-013   6.3725012157549610E-002
  -4.1844522638556647E-013   1.7845317237807912E-013   6.6515406714959840E-002
  -4.8988699381802281E-013  -1.2327270280942937E-014   6.9343906430206159E-002
  -5.6132529180352719E-013  -3.0150881791257689E-013   7.2210511303288538E-002
   5.0565638833181228E-002  -1.5587994873314845E-002   4.8184198433053688E-002
   4.7340323664435149E-002  -1.4000385325624483E-002   4.7173062626015339E-002
   4.4115008495689063E-002  -1.2757945624677924E-002   4.6678634591418043E-002
   4.0889693326942991E-002  -1.1860675770475244E-002   4.6700914329261850E-002
   3.7664378158196885E-002  -1.1308575763016498E-002   4.7239901839546655E-002
   3.7871296535562017E-002  -1.1690996155061500E-002   5.4850849577387693E-002
   3.5235094394538868E-002  -1.0500288994363872E-002   5.3645383802533884E-002
   3.2598892253515740E-002  -9.5684592186953063E-003   5.3101436310684896E-002
   2.9962690112492599E-002  -8.8955068280556684E-003   5.3219007101840729E-002
   2.7326487971469457E-002  -8.4814318224451790E-003   5.3998096176001445E-002
   2.5212242630731841E-002  -7.7939974368081769E-003   6.1077452103871457E-002
   2.3309964027995456E-002  -7.0001926631033141E-003   5.9763948822917003E-002
   2.1407685425259074E-002  -6.3789728127126629E-003   5.9256774335531164E-002
   1.9505406822522688E-002  -5.9303378856361919E-003   5.9555928641713940E-002
   1.7603128219786306E-002  -5.6542878818739012E-003   6.0661411741465478E-002
   1.2588477118690725E-002  -3.8969987185548567E-003   6.6864006012505098E-002
   1.1564932564804897E-002  -3.5000963318427992E-003   6.5528757687164804E-002
   1.0541388010919065E-002  -3.1894864067299909E-003   6.5144648665956900E-002
   9.5178434570332392E-003  -2.9651689432166938E-003   6.5711678948881524E-002
   8.4942989031474049E-003  -2.8271439413026442E-003   6.7229848535938525E-002
  -5.6132529180352719E-013  -3.0150881791257689E-013   7.2210511303288538E-002
   4.9671985274946096E-012  -5.8217319853781646E-013   7.0939810395277220E-002
   1.0495720612069270E-011  -7.4741601796546320E-013   7.0765059301962169E-002
   1.6024242696643931E-011  -7.9711584555219872E-013   7.1686258023343413E-002
   2.1552766515942068E-011  -7.3133166189620624E-013   7.3703406559420814E-002
   3.7664378158196885E-002  -1.1308575763016498E-002   4.7239901839546655E-002
   3.4926887840217302E-002  -1.0679539554826881E-002   4.3721351807076286E-002
   3.2189397522237741E-002  -9.5514610984317946E-003   3.9893216613067523E-002
   2.9451907204258176E-002  -7.9243403938311346E-003   3.5755496257520065E-002
   2.6714416886278569E-002  -5.7981774410250653E-003   3.1308190740434227E-002
   2.7326487971469457E-002  -8.4814318224451790E-003   5.3998096176001445E-002
   2.4527901927378346E-002  -8.0096546658912776E-003   5.1779227981563050E-002
   2.1729315883287234E-002  -7.1635958224213411E-003   4.9747753496440068E-002
   1.8930729839196112E-002  -5.9432552920355621E-003   4.7903672720632368E-002
   1.6132143795104997E-002  -4.3486330747339319E-003   4.6246985654140316E-002
   1.7603128219786306E-002  -5.6542878818739012E-003   6.0661411741465478E-002
   1.5240425320437560E-002  -5.3397697769556399E-003   5.9617464823769319E-002
   1.2877722421088813E-002  -4.7757305464109188E-003   5.9257890486242540E-002
   1.0515019521740065E-002  -3.9621701902400183E-003   5.9582688728885114E-002
   8.1523166223913257E-003  -2.8990887084427430E-003   6.0591859551696964E-002
   8.4942989031474049E-003  -2.8271439413026442E-003   6.7229848535938525E-002
   7.0644580193949310E-003  -2.6698848880199778E-003   6.7236062333695168E-002
   5.6346171356424692E-003  -2.3878652704005642E-003   6.8423627582475055E-002
   4.2047762518899962E-003  -1.9810850884443491E-003   7.0792544282278075E-002
   2.7749353681375301E-003  -1.4495443421516097E-003   7.4342812433104449E-002
   2.1552766515942068E-011  -7.3133166189620624E-013   7.3703406559420814E-002
   2.4250487035137880E-011   9.1560092840836660E-013   7.4635020511340605E-002
   2.6948204084886740E-011   5.6099638823248199E-012   7.7244964785137468E-002
   2.9645933277699932E-011   1.3351113617443566E-011   8.1533239380811556E-002
   3.2343641653831412E-011   2.4139579224424779E-011   8.7499844298362772E-002
  -1.2887781120074493E-013   0.0000000000000000        3.0005916528567635E-002
  -1.6554986548289463E-013   7.4358054436007848E-014   3.6983526820969705E-002
  -2.0222148608417534E-013   1.4326734243397254E-013   4.4470531290005028E-002
  -2.3889332352589054E-013   2.0672699663215610E-013   5.2466929935673604E-002
  -2.7556342624412977E-013   2.6472747605144065E-013   6.0972722757975405E-002
  -1.4503947703981415E-002   0.0000000000000000        3.0418223399871762E-002
  -1.4248881492351888E-002   8.1928291438366704E-004   3.7649940012920997E-002
  -1.3993815280722362E-002   1.6279041724723466E-003   4.4882394872669380E-002
  -1.3738749069092835E-002   2.4258637742660327E-003   5.2115587979116931E-002
  -1.3483682857463309E-002   3.2131617197647296E-003   5.9349519332263616E-002
  -2.8494130294069518E-002   0.0000000000000000        3.1655144013629961E-002
  -2.8492653800707889E-002   1.6385658286929782E-003   3.9130305291036838E-002
  -2.8491177307346269E-002   3.2558083448014259E-003   4.6097548885208742E-002
  -2.8489700813984640E-002   4.8517275483253384E-003   5.2556874796145722E-002
  -2.8488224320623014E-002   6.4263234392647238E-003   5.8508283023847751E-002
  -4.1970547770393177E-002   0.0000000000000000        3.3716678369842247E-002
  -4.2731316925233555E-002   2.4578487430022894E-003   4.1424622655317205E-002
  -4.3492086080073926E-002   4.8837125171305052E-003   4.8115993327623105E-002
  -4.4252855234914290E-002   7.2775913223846545E-003   5.3790790386759962E-002
  -4.5013624389754661E-002   9.6394851587647250E-003   5.8449013832727777E-002
  -5.4933200132952414E-002   0.0000000000000000        3.6602826468508612E-002
  -5.6964870865928878E-002   3.2771316573115992E-003   4.4532892105762105E-002
  -5.8996541598905342E-002   6.5116166894595862E-003   5.0937728199912463E-002
  -6.1028212331881812E-002   9.7034550964439498E-003   5.5817334750959673E-002
  -6.3059883064858269E-002   1.2852646878264722E-002   5.9171711758903733E-002
  -2.7556342624412977E-013   2.6472747605144065E-013   6.0972722757975405E-002
  -3.4700541051702061E-013   2.7079120196171758E-013   6.3725012157549610E-002
  -4.1844522638556647E-013   1.7845317237807912E-013   6.6515406714959840E-002
  -4.8988699381802281E-013  -1.2327270280942937E-014   6.9343906430206159E-002
  -5.6132529180352719E-013  -3.0150881791257689E-013   7.2210511303288538E-002
  -1.3483682857463309E-002   3.2131617197647296E-003   5.9349519332263616E-002
  -1.3259881423051111E-002   3.8423768701613009E-003   6.0613894435509602E-002
  -1.3036079988638909E-002   4.1660880866486892E-003   6.2287767249886855E-002
  -1.2812278554226699E-002   4.1842953692268455E-003   6.4371137775395285E-002
  -1.2588477119814501E-002   3.8969987178957416E-003   6.6864006012034960E-002
  -2.8488224320623014E-002   6.4263234392647238E-003   5.8508283023847751E-002
  -2.7669228898432000E-002   7.6847537400518244E-003   5.7979239896954748E-002
  -2.6850233476240989E-002   8.3321761731189117E-003   5.8231087034488142E-002
  -2.6031238054049971E-002   8.3685907384659902E-003   5.9263824436447947E-002
  -2.5212242631858957E-002   7.7939974360930336E-003   6.1077452102834107E-002
  -4.5013624389754661E-002   9.6394851587647250E-003   5.8449013832727777E-002
  -4.3228042426489685E-002   1.1527130609942341E-002   5.5821048541885000E-002
  -4.1442460463224695E-002   1.2498264259589140E-002   5.4345366068763758E-002
  -3.9656878499959712E-002   1.2552886107705141E-002   5.4021966413364118E-002
  -3.7871296536694729E-002   1.1690996154290333E-002   5.4850849575686006E-002
  -6.3059883064858269E-002   1.2852646878264722E-002   5.9171711758903733E-002
  -5.9936322007224145E-002   1.5369507479832860E-002   5.4139320370300364E-002
  -5.6812760949590022E-002   1.6664352346059372E-002   5.0630604352713715E-002
  -5.3689199891955891E-002   1.6737181476944314E-002   4.8645563706143799E-002
  -5.0565638834321774E-002   1.5587994872487590E-002   4.8184198430590602E-002
  -5.6132529180352719E-013  -3.0150881791257689E-013   7.2210511303288538E-002
   4.9671985274946096E-012  -5.8217319853781646E-013   7.0939810395277220E-002
   1.0495720612069270E-011  -7.4741601796546320E-013   7.0765059301962169E-002
   1.6024242696643931E-011  -7.9711584555219872E-013   7.1686258023343413E-002
   2.1552766515942068E-011  -7.3133166189620624E-013   7.3703406559420814E-002
  -1.2588477119814501E-002   3.8969987178957416E-003   6.6864006012034960E-002
  -1.1564932555047635E-002   3.5000963305076814E-003   6.5528757686729763E-002
  -1.0541387990280766E-002   3.1894864049146938E-003   6.5144648665204988E-002
  -9.5178434255138965E-003   2.9651689411168596E-003   6.5711678947460606E-002
  -8.4942988607470335E-003   2.8271439391141795E-003   6.7229848533496728E-002
  -2.5212242631858957E-002   7.7939974360930336E-003   6.1077452102834107E-002
  -2.3309964018769579E-002   7.0001926615974874E-003   5.9763948821914700E-002
  -2.1407685405680200E-002   6.3789728105768037E-003   5.9256774333859862E-002
  -1.9505406792590819E-002   5.9303378830308628E-003   5.9555928638669681E-002
  -1.7603128179501437E-002   5.6542878789597600E-003   6.0661411736344074E-002
  -3.7871296536694729E-002   1.1690996154290333E-002   5.4850849575686006E-002
  -3.5235094386198651E-002   1.0500288992687332E-002   5.3645383800832058E-002
  -3.2598892235702573E-002   9.5684592162388581E-003   5.3101436307926825E-002
  -2.9962690085206495E-002   8.8955068249448391E-003   5.3219007096970403E-002
  -2.7326487934710420E-002   8.4814318188053475E-003   5.3998096167962750E-002
  -5.0565638834321774E-002   1.5587994872487590E-002   4.8184198430590602E-002
  -4.7340323657334843E-002   1.4000385323777176E-002   4.7173062623481754E-002
  -4.4115008480347898E-002   1.2757945621901006E-002   4.6678634587405850E-002
  -4.0889693303360952E-002   1.1860675766858824E-002   4.6700914322362910E-002
  -3.7664378126374021E-002   1.1308575758650879E-002   4.7239901828352887E-002
   2.1552766515942068E-011  -7.3133166189620624E-013   7.3703406559420814E-002
   2.4250487035137880E-011   9.1560092840836660E-013   7.4635020511340605E-002
   2.6948204084886740E-011   5.6099638823248199E-012   7.7244964785137468E-002
   2.9645933277699932E-011   1.3351113617443566E-011   8.1533239380811556E-002
   3.2343641653831412E-011   2.4139579224424779E-011   8.7499844298362772E-002
  -8.4942988607470335E-003   2.8271439391141795E-003   6.7229848533496728E-002
  -7.0644579716109008E-003   2.6698848885436943E-003   6.7236062335581354E-002
  -5.6346170824747542E-003   2.3878652790423269E-003   6.8423627588665575E-002
  -4.2047761933386076E-003   1.9810851106100615E-003   7.0792544292749532E-002
  -2.7749353042024819E-003   1.4495443832469035E-003   7.4342812447833306E-002
  -1.7603128179501437E-002   5.6542878789597600E-003   6.0661411736344074E-002
  -1.5240425274804313E-002   5.3397697761716489E-003   5.9617464826615472E-002
  -1.2877722370107186E-002   4.7757305524747697E-003   5.9257890497009080E-002
  -1.0515019465410048E-002   3.9621702078688837E-003   5.9582688747525051E-002
  -8.1523165607129515E-003   2.8990887423542833E-003   6.0591859578163265E-002
  -2.7326487934710420E-002   8.4814318188053475E-003   5.3998096167962750E-002
  -2.4527901885329752E-002   8.0096546637996729E-003   5.1779227984443031E-002
  -2.1729315835949097E-002   7.1635958259071170E-003   4.9747753510168156E-002
  -1.8930729786568418E-002   5.9432553051278238E-003   4.7903672745138036E-002
  -1.6132143737187771E-002   4.3486331014616353E-003   4.6246985689352836E-002
  -3.7664378126374021E-002   1.1308575758650879E-002   4.7239901828352887E-002
  -3.4926887803187229E-002   1.0679539551427683E-002   4.3721351809064057E-002
  -3.2189397480000465E-002   9.5514610993395824E-003   3.9893216628142533E-002
  -2.9451907156813669E-002   7.9243404023866554E-003   3.5755496285588349E-002
  -2.6714416833626908E-002   5.7981774605689873E-003   3.1308190781401790E-002
  -5.4933200132952414E-002   0.0000000000000000        3.6602826468508612E-002
  -5.6964870865928878E-002   3.2771316573115992E-003   4.4532892105762105E-002
  -5.8996541598905342E-002   6.5116166894595862E-003   5.0937728199912463E-002
  -6.1028212331881812E-002   9.7034550964439498E-003   5.5817334750959673E-002
  -6.3059883064858269E-002   1.2852646878264722E-002   5.9171711758903733E-002
  -7.2161325336543458E-002   0.0000000000000000        4.3028236707626580E-002
  -7.4329700555216996E-002   8.4393760990348586E-003   4.2167803884568589E-002
  -7.6498075773890534E-002   1.4652773379454351E-002   4.2559191633219591E-002
  -7.8666450992564085E-002   1.8640191841258490E-002   4.4202399953579573E-002
  -8.0834826211237623E-002   2.0401631484447250E-002   4.7097428845648562E-002
  -9.8434161335962583E-002   0.0000000000000000        5.5707557485193696E-002
  -9.7962190925521053E-002   1.3601620540758121E-002   4.3873294008372456E-002
  -9.7490220515079537E-002   2.2793930069449134E-002   3.6067901218072351E-002
  -9.7018250104638035E-002   2.7576928586073017E-002   3.2291379114293348E-002
  -9.6546279694196491E-002   2.7950616090629793E-002   3.2543727697035521E-002
 -0.13375170813120976        0.0000000000000000        7.4640788801209945E-002
 -0.12786234197684102        1.8763864982481386E-002   4.9649362477173720E-002
 -0.12197297582247235        3.0935086759443901E-002   3.1463856954470737E-002
 -0.11608360966810360        3.6513665330887547E-002   2.0084272233101053E-002
 -0.11019424351373490        3.5499600696812343E-002   1.5510608313064582E-002
 -0.17811396572228502        0.0000000000000000        9.9827930655675329E-002
 -0.16403015370917698        2.3926109424204645E-002   5.9496009290972346E-002
 -0.14994634169606894        3.9076243449438677E-002   2.8747058842414776E-002
 -0.13586252968296089        4.5450402075702077E-002   7.5810793100026183E-003
 -0.12177871766985283        4.3048585302994866E-002  -4.0019293062641750E-003
  -6.3059883064858269E-002   1.2852646878264722E-002   5.9171711758903733E-002
  -5.9936322007224145E-002   1.5369507479832860E-002   5.4139320370300364E-002
  -5.6812760949590022E-002   1.6664352346059372E-002   5.0630604352713715E-002
  -5.3689199891955891E-002   1.6737181476944314E-002   4.8645563706143799E-002
  -5.0565638834321774E-002   1.5587994872487590E-002   4.8184198430590602E-002
  -8.0834826211237623E-002   2.0401631484447250E-002   4.7097428845648562E-002
  -7.6389110398739468E-002   2.0783325421041592E-002   4.3049242339355372E-002
  -7.1943394586241369E-002   2.0631506763062381E-002   4.0121689971773455E-002
  -6.7497678773743242E-002   1.9946175510509638E-002   3.8314771742902806E-002
  -6.3051962961245100E-002   1.8727331663383417E-002   3.7628487652743445E-002
  -9.6546279694196491E-002   2.7950616090629793E-002   3.2543727697035521E-002
  -9.1181450359139826E-002   2.6197143362250305E-002   3.0168249213820591E-002
  -8.5816621024083176E-002   2.4598661180065391E-002   2.8510363637011499E-002
  -8.0451791689026497E-002   2.3155169544074979E-002   2.7570070966608164E-002
  -7.5086962353969819E-002   2.1866668454279238E-002   2.7347371202610753E-002
 -0.11019424351373490        3.5499600696812343E-002   1.5510608313064582E-002
 -0.10431334188842514        3.1610961303459022E-002   1.5496340993696079E-002
  -9.8432440263115387E-002   2.8565815597068354E-002   1.5796625348427885E-002
  -9.2551538637805617E-002   2.6364163577640348E-002   1.6411461377260014E-002
  -8.6670637012495860E-002   2.5006005245175048E-002   1.7340849080192563E-002
 -0.12177871766985283        4.3048585302994866E-002  -4.0019293062641750E-003
 -0.11578478498659543        3.7024779244667752E-002  -9.6648232101827561E-004
 -0.10979085230333804        3.2532970014071377E-002   1.9804751060225594E-003
 -0.10379691962008064        2.9573157611205693E-002   4.8389429748582485E-003
  -9.7802986936823239E-002   2.8145342036070858E-002   7.6089212854888733E-003
  -5.0565638834321774E-002   1.5587994872487590E-002   4.8184198430590602E-002
  -4.7340323657334843E-002   1.4000385323777176E-002   4.7173062623481754E-002
  -4.4115008480347898E-002   1.2757945621901006E-002   4.6678634587405850E-002
  -4.0889693303360952E-002   1.1860675766858824E-002   4.6700914322362910E-002
  -3.7664378126374021E-002   1.1308575758650879E-002   4.7239901828352887E-002
  -6.3051962961245100E-002   1.8727331663383417E-002   3.7628487652743445E-002
  -5.9258346118953364E-002   1.7331647789035089E-002   3.7382771667586898E-002
  -5.5464729276661587E-002   1.6115796454816006E-002   3.7756951242007009E-002
  -5.1671112434369837E-002   1.5079777660726178E-002   3.8751026376003840E-002
  -4.7877495592078066E-002   1.4223591406765601E-002   4.0364997069577344E-002
  -7.5086962353969819E-002   2.1866668454279238E-002   2.7347371202610753E-002
  -7.0621856057829460E-002   2.0662910254292927E-002   2.7701737732701556E-002
  -6.6156749761689101E-002   1.9473647287731037E-002   2.8779187610912818E-002
  -6.1691643465548743E-002   1.8298879554593462E-002   3.0579720837244546E-002
  -5.7226537169408356E-002   1.7138607054880364E-002   3.3103337411696861E-002
  -8.6670637012495860E-002   2.5006005245175048E-002   1.7340849080192563E-002
  -8.1430853473963130E-002   2.3994172719550788E-002   1.8129960818825890E-002
  -7.6191069935430414E-002   2.2831498120646079E-002   1.9745343694123389E-002
  -7.0951286396897670E-002   2.1517981448460701E-002   2.2186997706085239E-002
  -6.5711502858364981E-002   2.0053622702995023E-002   2.5454922854711161E-002
  -9.7802986936823239E-002   2.8145342036070858E-002   7.6089212854888733E-003
  -9.1685338367354374E-002   2.7325435184808761E-002   8.6674409259598073E-003
  -8.5567689797885524E-002   2.6189348953561113E-002   1.0655419491638708E-002
  -7.9450041228416673E-002   2.4737083342328089E-002   1.3572856982525592E-002
  -7.3332392658947809E-002   2.2968638351109849E-002   1.7419753398620508E-002
  -3.7664378126374021E-002   1.1308575758650879E-002   4.7239901828352887E-002
  -3.4926887803187229E-002   1.0679539551427683E-002   4.3721351809064057E-002
  -3.2189397480000465E-002   9.5514610993395824E-003   3.9893216628142533E-002
  -2.9451907156813669E-002   7.9243404023866554E-003   3.5755496285588349E-002
  -2.6714416833626908E-002   5.7981774605689873E-003   3.1308190781401790E-002
  -4.7877495592078066E-002   1.4223591406765601E-002   4.0364997069577344E-002
  -4.5008834927163344E-002   1.3244043198488847E-002   3.7688479095209407E-002
  -4.2140174262248642E-002   1.1837938541450189E-002   3.5583886965929935E-002
  -3.9271513597333947E-002   1.0005277435649629E-002   3.4051220681738908E-002
  -3.6402852932419218E-002   7.7460598810873416E-003   3.3090480242636278E-002
  -5.7226537169408356E-002   1.7138607054880364E-002   3.3103337411696861E-002
  -5.3345195156044696E-002   1.5808546845550074E-002   3.1341337278352775E-002
  -4.9463853142680987E-002   1.4124415983560682E-002   3.1032773996818214E-002
  -4.5582511129317341E-002   1.2086214468912726E-002   3.2177647567093230E-002
  -4.1701169115953632E-002   9.6939423016056403E-003   3.4775957989177653E-002
  -6.5711502858364981E-002   2.0053622702995023E-002   2.5454922854711161E-002
  -5.9935968489831251E-002   1.8373050492611103E-002   2.4679926358493989E-002
  -5.4160434121297472E-002   1.6410893425671230E-002   2.6239877720807516E-002
  -4.8384899752763763E-002   1.4167151502175512E-002   3.0134776941651384E-002
  -4.2609365384230033E-002   1.1641824722123856E-002   3.6364624021026096E-002
  -7.3332392658947809E-002   2.2968638351109849E-002   1.7419753398620508E-002
  -6.4781154928522988E-002   2.0937554139672382E-002   1.7704246335633195E-002
  -5.6229917198098139E-002   1.8697370867781893E-002   2.1205198137897563E-002
  -4.7678679467673249E-002   1.6248088535438715E-002   2.7922608805413307E-002
  -3.9127441737248470E-002   1.3589707142642293E-002   3.7856478338181065E-002
 </DataArray>
 </PointData>
 </Piece>
 <Piece  NumberOfPoints="           400 "  NumberOfCells="          256 ">
 <Points>
 <DataArray  type="Float64" NumberOfComponents="3"  format="ascii" >
  0.50000000000000000        0.0000000000000000        0.0000000000000000     
  0.56250000000000000        0.0000000000000000        0.0000000000000000     
  0.62500000000000000        0.0000000000000000        0.0000000000000000     
  0.68750000000000000        0.0000000000000000        0.0000000000000000     
  0.75000000000000000        0.0000000000000000        0.0000000000000000     
  0.50000000000000000        6.2500000000000000E-002   0.0000000000000000     
  0.56250000000000000        6.2500000000000000E-002   0.0000000000000000     
  0.62500000000000000        6.2500000000000000E-002   0.0000000000000000     
  0.68750000000000000        6.2500000000000000E-002   0.0000000000000000     
  0.75000000000000000        6.2500000000000000E-002   0.0000000000000000     
  0.50000000000000000       0.12500000000000000        0.0000000000000000     
  0.56250000000000000       0.12500000000000000        0.0000000000000000     
  0.62500000000000000       0.12500000000000000        0.0000000000000000     
  0.68750000000000000       0.12500000000000000        0.0000000000000000     
  0.75000000000000000       0.12500000000000000        0.0000000000000000     
  0.50000000000000000       0.18750000000000000        0.0000000000000000     
  0.56250000000000000       0.18750000000000000        0.0000000000000000     
  0.62500000000000000       0.18750000000000000        0.0000000000000000     
  0.68750000000000000       0.18750000000000000        0.0000000000000000     
  0.75000000000000000       0.18750000000000000        0.0000000000000000     
  0.50000000000000000       0.25000000000000000        0.0000000000000000     
  0.56250000000000000       0.25000000000000000        0.0000000000000000     
  0.62500000000000000       0.25000000000000000        0.0000000000000000     
  0.68750000000000000       0.25000000000000000        0.0000000000000000     
  0.75000000000000000       0.25000000000000000        0.0000000000000000     
  0.75000000000000000        0.0000000000000000        0.0000000000000000     
  0.81250000000000000        0.0000000000000000        0.0000000000000000     
  0.87500000000000000        0.0000000000000000        0.0000000000000000     
  0.93750000000000000        0.0000000000000000        0.0000000000000000     
   1.0000000000000000        0.0000000000000000        0.0000000000000000     
  0.75000000000000000        6.2500000000000000E-002   0.0000000000000000     
  0.81250000000000000        6.2500000000000000E-002   0.0000000000000000     
  0.87500000000000000        6.2500000000000000E-002   0.0000000000000000     
  0.93750000000000000        6.2500000000000000E-002   0.0000000000000000     
   1.0000000000000000        6.2500000000000000E-002   0.0000000000000000     
  0.75000000000000000       0.12500000000000000        0.0000000000000000     
  0.81250000000000000       0.12500000000000000        0.0000000000000000     
  0.87500000000000000       0.12500000000000000        0.0000000000000000     
  0.93750000000000000       0.12500000000000000        0.0000000000000000     
   1.0000000000000000       0.12500000000000000        0.0000000000000000     
  0.75000000000000000       0.18750000000000000        0.0000000000000000     
  0.81250000000000000       0.18750000000000000        0.0000000000000000     
  0.87500000000000000       0.18750000000000000        0.0000000000000000     
  0.93750000000000000       0.18750000000000000        0.0000000000000000     
   1.0000000000000000       0.18750000000000000        0.0000000000000000     
  0.75000000000000000       0.25000000000000000        0.0000000000000000     
  0.81250000000000000       0.25000000000000000        0.0000000000000000     
  0.87500000000000000       0.25000000000000000        0.0000000000000000     
  0.93750000000000000       0.25000000000000000        0.0000000000000000     
   1.0000000000000000       0.25000000000000000        0.0000000000000000     
   1.0000000000000000        0.0000000000000000        0.0000000000000000     
   1.0625000000000000        0.0000000000000000        0.0000000000000000     
   1.1250000000000000        0.0000000000000000        0.0000000000000000     
   1.1875000000000000        0.0000000000000000        0.0000000000000000     
   1.2500000000000000        0.0000000000000000        0.0000000000000000     
   1.0000000000000000        6.2500000000000000E-002   0.0000000000000000     
   1.0625000000000000        6.2500000000000000E-002   0.0000000000000000     
   1.1250000000000000        6.2500000000000000E-002   0.0000000000000000     
   1.1875000000000000        6.2500000000000000E-002   0.0000000000000000     
   1.2500000000000000        6.2500000000000000E-002   0.0000000000000000     
   1.0000000000000000       0.12500000000000000        0.0000000000000000     
   1.0625000000000000       0.12500000000000000        0.0000000000000000     
   1.1250000000000000       0.12500000000000000        0.0000000000000000     
   1.1875000000000000       0.12500000000000000        0.0000000000000000     
   1.2500000000000000       0.12500000000000000        0.0000000000000000     
   1.0000000000000000       0.18750000000000000        0.0000000000000000     
   1.0625000000000000       0.18750000000000000        0.0000000000000000     
   1.1250000000000000       0.18750000000000000        0.0000000000000000     
   1.1875000000000000       0.18750000000000000        0.0000000000000000     
   1.2500000000000000       0.18750000000000000        0.0000000000000000     
   1.0000000000000000       0.25000000000000000        0.0000000000000000     
   1.0625000000000000       0.25000000000000000        0.0000000000000000     
   1.1250000000000000       0.25000000000000000        0.0000000000000000     
   1.1875000000000000       0.25000000000000000        0.0000000000000000     
   1.2500000000000000       0.25000000000000000        0.0000000000000000     
   1.2500000000000000        0.0000000000000000        0.0000000000000000     
   1.3125000000000000        0.0000000000000000        0.0000000000000000     
   1.3750000000000000        0.0000000000000000        0.0000000000000000     
   1.4375000000000000        0.0000000000000000        0.0000000000000000     
   1.5000000000000000        0.0000000000000000        0.0000000000000000     
   1.2500000000000000        6.2500000000000000E-002   0.0000000000000000     
   1.3125000000000000        6.2500000000000000E-002   0.0000000000000000     
   1.3750000000000000        6.2500000000000000E-002   0.0000000000000000     
   1.4375000000000000        6.2500000000000000E-002   0.0000000000000000     
   1.5000000000000000        6.2500000000000000E-002   0.0000000000000000     
   1.2500000000000000       0.12500000000000000        0.0000000000000000     
   1.3125000000000000       0.12500000000000000        0.0000000000000000     
   1.3750000000000000       0.12500000000000000        0.0000000000000000     
   1.4375000000000000       0.12500000000000000        0.0000000000000000     
   1.5000000000000000       0.12500000000000000        0.0000000000000000     
   1.2500000000000000       0.18750000000000000        0.0000000000000000     
   1.3125000000000000       0.18750000000000000        0.0000000000000000     
   1.3750000000000000       0.18750000000000000        0.0000000000000000     
   1.4375000000000000       0.18750000000000000        0.0000000000000000     
   1.5000000000000000       0.18750000000000000        0.0000000000000000     
   1.2500000000000000       0.25000000000000000        0.0000000000000000     
   1.3125000000000000       0.25000000000000000        0.0000000000000000     
   1.3750000000000000       0.25000000000000000        0.0000000000000000     
   1.4375000000000000       0.25000000000000000        0.0000000000000000     
   1.5000000000000000       0.25000000000000000        0.0000000000000000     
  0.50000000000000000       0.25000000000000000        0.0000000000000000     
  0.56250000000000000       0.25000000000000000        0.0000000000000000     
  0.62500000000000000       0.25000000000000000        0.0000000000000000     
  0.68750000000000000       0.25000000000000000        0.0000000000000000     
  0.75000000000000000       0.25000000000000000        0.0000000000000000     
  0.50000000000000000       0.31250000000000000        0.0000000000000000     
  0.56250000000000000       0.31250000000000000        0.0000000000000000     
  0.62500000000000000       0.31250000000000000        0.0000000000000000     
  0.68750000000000000       0.31250000000000000        0.0000000000000000     
  0.75000000000000000       0.31250000000000000        0.0000000000000000     
  0.50000000000000000       0.37500000000000000        0.0000000000000000     
  0.56250000000000000       0.37500000000000000        0.0000000000000000     
  0.62500000000000000       0.37500000000000000        0.0000000000000000     
  0.68750000000000000       0.37500000000000000        0.0000000000000000     
  0.75000000000000000       0.37500000000000000        0.0000000000000000     
  0.50000000000000000       0.43750000000000000        0.0000000000000000     
  0.56250000000000000       0.43750000000000000        0.0000000000000000     
  0.62500000000000000       0.43750000000000000        0.0000000000000000     
  0.68750000000000000       0.43750000000000000        0.0000000000000000     
  0.75000000000000000       0.43750000000000000        0.0000000000000000     
  0.50000000000000000       0.50000000000000000        0.0000000000000000     
  0.56250000000000000       0.50000000000000000        0.0000000000000000     
  0.62500000000000000       0.50000000000000000        0.0000000000000000     
  0.68750000000000000       0.50000000000000000        0.0000000000000000     
  0.75000000000000000       0.50000000000000000        0.0000000000000000     
  0.75000000000000000       0.25000000000000000        0.0000000000000000     
  0.81250000000000000       0.25000000000000000        0.0000000000000000     
  0.87500000000000000       0.25000000000000000        0.0000000000000000     
  0.93750000000000000       0.25000000000000000        0.0000000000000000     
   1.0000000000000000       0.25000000000000000        0.0000000000000000     
  0.75000000000000000       0.31250000000000000        0.0000000000000000     
  0.81250000000000000       0.31250000000000000        0.0000000000000000     
  0.87500000000000000       0.31250000000000000        0.0000000000000000     
  0.93750000000000000       0.31250000000000000        0.0000000000000000     
   1.0000000000000000       0.31250000000000000        0.0000000000000000     
  0.75000000000000000       0.37500000000000000        0.0000000000000000     
  0.81250000000000000       0.37500000000000000        0.0000000000000000     
  0.87500000000000000       0.37500000000000000        0.0000000000000000     
  0.93750000000000000       0.37500000000000000        0.0000000000000000     
   1.0000000000000000       0.37500000000000000        0.0000000000000000     
  0.75000000000000000       0.43750000000000000        0.0000000000000000     
  0.81250000000000000       0.43750000000000000        0.0000000000000000     
  0.87500000000000000       0.43750000000000000        0.0000000000000000     
  0.93750000000000000       0.43750000000000000        0.0000000000000000     
   1.0000000000000000       0.43750000000000000        0.0000000000000000     
  0.75000000000000000       0.50000000000000000        0.0000000000000000     
  0.81250000000000000       0.50000000000000000        0.0000000000000000     
  0.87500000000000000       0.50000000000000000        0.0000000000000000     
  0.93750000000000000       0.50000000000000000        0.0000000000000000     
   1.0000000000000000       0.50000000000000000        0.0000000000000000     
   1.0000000000000000       0.25000000000000000        0.0000000000000000     
   1.0625000000000000       0.25000000000000000        0.0000000000000000     
   1.1250000000000000       0.25000000000000000        0.0000000000000000     
   1.1875000000000000       0.25000000000000000        0.0000000000000000     
   1.2500000000000000       0.25000000000000000        0.0000000000000000     
   1.0000000000000000       0.31250000000000000        0.0000000000000000     
   1.0625000000000000       0.31250000000000000        0.0000000000000000     
   1.1250000000000000       0.31250000000000000        0.0000000000000000     
   1.1875000000000000       0.31250000000000000        0.0000000000000000     
   1.2500000000000000       0.31250000000000000        0.0000000000000000     
   1.0000000000000000       0.37500000000000000        0.0000000000000000     
   1.0625000000000000       0.37500000000000000        0.0000000000000000     
   1.1250000000000000       0.37500000000000000        0.0000000000000000     
   1.1875000000000000       0.37500000000000000        0.0000000000000000     
   1.2500000000000000       0.37500000000000000        0.0000000000000000     
   1.0000000000000000       0.43750000000000000        0.0000000000000000     
   1.0625000000000000       0.43750000000000000        0.0000000000000000     
   1.1250000000000000       0.43750000000000000        0.0000000000000000     
   1.1875000000000000       0.43750000000000000        0.0000000000000000     
   1.2500000000000000       0.43750000000000000        0.0000000000000000     
   1.0000000000000000       0.50000000000000000        0.0000000000000000     
   1.0625000000000000       0.50000000000000000        0.0000000000000000     
   1.1250000000000000       0.50000000000000000        0.0000000000000000     
   1.1875000000000000       0.50000000000000000        0.0000000000000000     
   1.2500000000000000       0.50000000000000000        0.0000000000000000     
   1.2500000000000000       0.25000000000000000        0.0000000000000000     
   1.3125000000000000       0.25000000000000000        0.0000000000000000     
   1.3750000000000000       0.25000000000000000        0.0000000000000000     
   1.4375000000000000       0.25000000000000000        0.0000000000000000     
   1.5000000000000000       0.25000000000000000        0.0000000000000000     
   1.2500000000000000       0.31250000000000000        0.0000000000000000     
   1.3125000000000000       0.31250000000000000        0.0000000000000000     
   1.3750000000000000       0.31250000000000000        0.0000000000000000     
   1.4375000000000000       0.31250000000000000        0.0000000000000000     
   1.5000000000000000       0.31250000000000000        0.0000000000000000     
   1.2500000000000000       0.37500000000000000        0.0000000000000000     
   1.3125000000000000       0.37500000000000000        0.0000000000000000     
   1.3750000000000000       0.37500000000000000        0.0000000000000000     
   1.4375000000000000       0.37500000000000000        0.0000000000000000     
   1.5000000000000000       0.37500000000000000        0.0000000000000000     
   1.2500000000000000       0.43750000000000000        0.0000000000000000     
   1.3125000000000000       0.43750000000000000        0.0000000000000000     
   1.3750000000000000       0.43750000000000000        0.0000000000000000     
   1.4375000000000000       0.43750000000000000        0.0000000000000000     
   1.5000000000000000       0.43750000000000000        0.0000000000000000     
   1.2500000000000000       0.50000000000000000        0.0000000000000000     
   1.3125000000000000       0.50000000000000000        0.0000000000000000     
   1.3750000000000000       0.50000000000000000        0.0000000000000000     
   1.4375000000000000       0.50000000000000000        0.0000000000000000     
   1.5000000000000000       0.50000000000000000        0.0000000000000000     
  0.50000000000000000       0.50000000000000000        0.0000000000000000     
  0.56250000000000000       0.50000000000000000        0.0000000000000000     
  0.62500000000000000       0.50000000000000000        0.0000000000000000     
  0.68750000000000000       0.50000000000000000        0.0000000000000000     
  0.75000000000000000       0.50000000000000000        0.0000000000000000     
  0.50000000000000000       0.56250000000000000        0.0000000000000000     
  0.56250000000000000       0.56250000000000000        0.0000000000000000     
  0.62500000000000000       0.56250000000000000        0.0000000000000000     
  0.68750000000000000       0.56250000000000000        0.0000000000000000     
  0.75000000000000000       0.56250000000000000        0.0000000000000000     
  0.50000000000000000       0.62500000000000000        0.0000000000000000     
  0.56250000000000000       0.62500000000000000        0.0000000000000000     
  0.62500000000000000       0.62500000000000000        0.0000000000000000     
  0.68750000000000000       0.62500000000000000        0.0000000000000000     
  0.75000000000000000       0.62500000000000000        0.0000000000000000     
  0.50000000000000000       0.68750000000000000        0.0000000000000000     
  0.56250000000000000       0.68750000000000000        0.0000000000000000     
  0.62500000000000000       0.68750000000000000        0.0000000000000000     
  0.68750000000000000       0.68750000000000000        0.0000000000000000     
  0.75000000000000000       0.68750000000000000        0.0000000000000000     
  0.50000000000000000       0.75000000000000000        0.0000000000000000     
  0.56250000000000000       0.75000000000000000        0.0000000000000000     
  0.62500000000000000       0.75000000000000000        0.0000000000000000     
  0.68750000000000000       0.75000000000000000        0.0000000000000000     
  0.75000000000000000       0.75000000000000000        0.0000000000000000     
  0.75000000000000000       0.50000000000000000        0.0000000000000000     
  0.81250000000000000       0.50000000000000000        0.0000000000000000     
  0.87500000000000000       0.50000000000000000        0.0000000000000000     
  0.93750000000000000       0.50000000000000000        0.0000000000000000     
   1.0000000000000000       0.50000000000000000        0.0000000000000000     
  0.75000000000000000       0.56250000000000000        0.0000000000000000     
  0.81250000000000000       0.56250000000000000        0.0000000000000000     
  0.87500000000000000       0.56250000000000000        0.0000000000000000     
  0.93750000000000000       0.56250000000000000        0.0000000000000000     
   1.0000000000000000       0.56250000000000000        0.0000000000000000     
  0.75000000000000000       0.62500000000000000        0.0000000000000000     
  0.81250000000000000       0.62500000000000000        0.0000000000000000     
  0.87500000000000000       0.62500000000000000        0.0000000000000000     
  0.93750000000000000       0.62500000000000000        0.0000000000000000     
   1.0000000000000000       0.62500000000000000        0.0000000000000000     
  0.75000000000000000       0.68750000000000000        0.0000000000000000     
  0.81250000000000000       0.68750000000000000        0.0000000000000000     
  0.87500000000000000       0.68750000000000000        0.0000000000000000     
  0.93750000000000000       0.68750000000000000        0.0000000000000000     
   1.0000000000000000       0.68750000000000000        0.0000000000000000     
  0.75000000000000000       0.75000000000000000        0.0000000000000000     
  0.81250000000000000       0.75000000000000000        0.0000000000000000     
  0.87500000000000000       0.75000000000000000        0.0000000000000000     
  0.93750000000000000       0.75000000000000000        0.0000000000000000     
   1.0000000000000000       0.75000000000000000        0.0000000000000000     
   1.0000000000000000       0.50000000000000000        0.0000000000000000     
   1.0625000000000000       0.50000000000000000        0.0000000000000000     
   1.1250000000000000       0.50000000000000000        0.0000000000000000     
   1.1875000000000000       0.50000000000000000        0.0000000000000000     
   1.2500000000000000       0.50000000000000000        0.0000000000000000     
   1.0000000000000000       0.56250000000000000        0.0000000000000000     
   1.0625000000000000       0.56250000000000000        0.0000000000000000     
   1.1250000000000000       0.56250000000000000        0.0000000000000000     
   1.1875000000000000       0.56250000000000000        0.0000000000000000     
   1.2500000000000000       0.56250000000000000        0.0000000000000000     
   1.0000000000000000       0.62500000000000000        0.0000000000000000     
   1.0625000000000000       0.62500000000000000        0.0000000000000000     
   1.1250000000000000       0.62500000000000000        0.0000000000000000     
   1.1875000000000000       0.62500000000000000        0.0000000000000000     
   1.2500000000000000       0.62500000000000000        0.0000000000000000     
   1.0000000000000000       0.68750000000000000        0.0000000000000000     
   1.0625000000000000       0.68750000000000000        0.0000000000000000     
   1.1250000000000000       0.68750000000000000        0.0000000000000000     
   1.1875000000000000       0.68750000000000000        0.0000000000000000     
   1.2500000000000000       0.68750000000000000        0.0000000000000000     
   1.0000000000000000       0.75000000000000000        0.0000000000000000     
   1.0625000000000000       0.75000000000000000        0.0000000000000000     
   1.1250000000000000       0.75000000000000000        0.0000000000000000     
   1.1875000000000000       0.75000000000000000        0.0000000000000000     
   1.2500000000000000       0.75000000000000000        0.0000000000000000     
   1.2500000000000000       0.50000000000000000        0.0000000000000000     
   1.3125000000000000       0.50000000000000000        0.0000000000000000     
   1.3750000000000000       0.50000000000000000        0.0000000000000000     
   1.4375000000000000       0.50000000000000000        0.0000000000000000     
   1.5000000000000000       0.50000000000000000        0.0000000000000000     
   1.2500000000000000       0.56250000000000000        0.0000000000000000     
   1.3125000000000000       0.56250000000000000        0.0000000000000000     
   1.3750000000000000       0.56250000000000000        0.0000000000000000     
   1.4375000000000000       0.56250000000000000        0.0000000000000000     
   1.5000000000000000       0.56250000000000000        0.0000000000000000     
   1.2500000000000000       0.62500000000000000        0.0000000000000000     
   1.3125000000000000       0.62500000000000000        0.0000000000000000     
   1.3750000000000000       0.62500000000000000        0.0000000000000000     
   1.4375000000000000       0.62500000000000000        0.0000000000000000     
   1.5000000000000000       0.62500000000000000        0.0000000000000000     
   1.2500000000000000       0.68750000000000000        0.0000000000000000     
   1.3125000000000000       0.68750000000000000        0.0000000000000000     
   1.3750000000000000       0.68750000000000000        0.0000000000000000     
   1.4375000000000000       0.68750000000000000        0.0000000000000000     
   1.5000000000000000       0.68750000000000000        0.0000000000000000     
   1.2500000000000000       0.75000000000000000        0.0000000000000000     
   1.3125000000000000       0.75000000000000000        0.0000000000000000     
   1.3750000000000000       0.75000000000000000        0.0000000000000000     
   1.4375000000000000       0.75000000000000000        0.0000000000000000     
   1.5000000000000000       0.75000000000000000        0.0000000000000000     
  0.50000000000000000       0.75000000000000000        0.0000000000000000     
  0.56250000000000000       0.75000000000000000        0.0000000000000000     
  0.62500000000000000       0.75000000000000000        0.0000000000000000     
  0.68750000000000000       0.75000000000000000        0.0000000000000000     
  0.75000000000000000       0.75000000000000000        0.0000000000000000     
  0.50000000000000000       0.81250000000000000        0.0000000000000000     
  0.56250000000000000       0.81250000000000000        0.0000000000000000     
  0.62500000000000000       0.81250000000000000        0.0000000000000000     
  0.68750000000000000       0.81250000000000000        0.0000000000000000     
  0.75000000000000000       0.81250000000000000        0.0000000000000000     
  0.50000000000000000       0.87500000000000000        0.0000000000000000     
  0.56250000000000000       0.87500000000000000        0.0000000000000000     
  0.62500000000000000       0.87500000000000000        0.0000000000000000     
  0.68750000000000000       0.87500000000000000        0.0000000000000000     
  0.75000000000000000       0.87500000000000000        0.0000000000000000     
  0.50000000000000000       0.93750000000000000        0.0000000000000000     
  0.56250000000000000       0.93750000000000000        0.0000000000000000     
  0.62500000000000000       0.93750000000000000        0.0000000000000000     
  0.68750000000000000       0.93750000000000000        0.0000000000000000     
  0.75000000000000000       0.93750000000000000        0.0000000000000000     
  0.50000000000000000        1.0000000000000000        0.0000000000000000     
  0.56250000000000000        1.0000000000000000        0.0000000000000000     
  0.62500000000000000        1.0000000000000000        0.0000000000000000     
  0.68750000000000000        1.0000000000000000        0.0000000000000000     
  0.75000000000000000        1.0000000000000000        0.0000000000000000     
  0.75000000000000000       0.75000000000000000        0.0000000000000000     
  0.81250000000000000       0.75000000000000000        0.0000000000000000     
  0.87500000000000000       0.75000000000000000        0.0000000000000000     
  0.93750000000000000       0.75000000000000000        0.0000000000000000     
   1.0000000000000000       0.75000000000000000        0.0000000000000000     
  0.75000000000000000       0.81250000000000000        0.0000000000000000     
  0.81250000000000000       0.81250000000000000        0.0000000000000000     
  0.87500000000000000       0.81250000000000000        0.0000000000000000     
  0.93750000000000000       0.81250000000000000        0.0000000000000000     
   1.0000000000000000       0.81250000000000000        0.0000000000000000     
  0.75000000000000000       0.87500000000000000        0.0000000000000000     
  0.81250000000000000       0.87500000000000000        0.0000000000000000     
  0.87500000000000000       0.87500000000000000        0.0000000000000000     
  0.93750000000000000       0.87500000000000000        0.0000000000000000     
   1.0000000000000000       0.87500000000000000        0.0000000000000000     
  0.75000000000000000       0.93750000000000000        0.0000000000000000     
  0.81250000000000000       0.93750000000000000        0.0000000000000000     
  0.87500000000000000       0.93750000000000000        0.0000000000000000     
  0.93750000000000000       0.93750000000000000        0.0000000000000000     
   1.0000000000000000       0.93750000000000000        0.0000000000000000     
  0.75000000000000000        1.0000000000000000        0.0000000000000000     
  0.81250000000000000        1.0000000000000000        0.0000000000000000     
  0.87500000000000000        1.0000000000000000        0.0000000000000000     
  0.93750000000000000        1.0000000000000000        0.0000000000000000     
   1.0000000000000000        1.0000000000000000        0.0000000000000000     
   1.0000000000000000       0.75000000000000000        0.0000000000000000     
   1.0625000000000000       0.75000000000000000        0.0000000000000000     
   1.1250000000000000       0.75000000000000000        0.0000000000000000     
   1.1875000000000000       0.75000000000000000        0.0000000000000000     
   1.2500000000000000       0.75000000000000000        0.0000000000000000     
   1.0000000000000000       0.81250000000000000        0.0000000000000000     
   1.0625000000000000       0.81250000000000000        0.0000000000000000     
   1.1250000000000000       0.81250000000000000        0.0000000000000000     
   1.1875000000000000       0.81250000000000000        0.0000000000000000     
   1.2500000000000000       0.81250000000000000        0.0000000000000000     
   1.0000000000000000       0.87500000000000000        0.0000000000000000     
   1.0625000000000000       0.87500000000000000        0.0000000000000000     
   1.1250000000000000       0.87500000000000000        0.0000000000000000     
   1.1875000000000000       0.87500000000000000        0.0000000000000000     
   1.2500000000000000       0.87500000000000000        0.0000000000000000     
   1.0000000000000000       0.93750000000000000        0.0000000000000000     
   1.0625000000000000       0.93750000000000000        0.0000000000000000     
   1.1250000000000000       0.93750000000000000        0.0000000000000000     
   1.1875000000000000       0.93750000000000000        0.0000000000000000     
   1.2500000000000000       0.93750000000000000        0.0000000000000000     
   1.0000000000000000        1.0000000000000000        0.0000000000000000     
   1.0625000000000000        1.0000000000000000        0.0000000000000000     
   1.1250000000000000        1.0000000000000000        0.0000000000000000     
   1.1875000000000000        1.0000000000000000        0.0000000000000000     
   1.2500000000000000        1.0000000000000000        0.0000000000000000     
   1.2500000000000000       0.75000000000000000        0.0000000000000000     
   1.3125000000000000       0.75000000000000000        0.0000000000000000     
   1.3750000000000000       0.75000000000000000        0.0000000000000000     
   1.4375000000000000       0.75000000000000000        0.0000000000000000     
   1.5000000000000000       0.75000000000000000        0.0000000000000000     
   1.2500000000000000       0.81250000000000000        0.0000000000000000     
   1.3125000000000000       0.81250000000000000        0.0000000000000000     
   1.3750000000000000       0.81250000000000000        0.0000000000000000     
   1.4375000000000000       0.81250000000000000        0.0000000000000000     
   1.5000000000000000       0.81250000000000000        0.0000000000000000     
   1.2500000000000000       0.87500000000000000        0.0000000000000000     
   1.3125000000000000       0.87500000000000000        0.0000000000000000     
   1.3750000000000000       0.87500000000000000        0.0000000000000000     
   1.4375000000000000       0.87500000000000000        0.0000000000000000     
   1.5000000000000000       0.87500000000000000        0.0000000000000000     
   1.2500000000000000       0.93750000000000000        0.0000000000000000     
   1.3125000000000000       0.93750000000000000        0.0000000000000000     
   1.3750000000000000       0.93750000000000000        0.0000000000000000     
   1.4375000000000000       0.93750000000000000        0.0000000000000000     
   1.5000000000000000       0.93750000000000000        0.0000000000000000     
   1.2500000000000000        1.0000000000000000        0.0000000000000000     
   1.3125000000000000        1.0000000000000000        0.0000000000000000     
   1.3750000000000000        1.0000000000000000        0.0000000000000000     
   1.4375000000000000        1.0000000000000000        0.0000000000000000     
   1.5000000000000000        1.0000000000000000        0.0000000000000000     
 </DataArray>
 </Points>
 <Cells>
 <DataArray  type="Int32"  Name="connectivity"  format="ascii">
           0           1           6           5
           1           2           7           6
           2           3           8           7
           3           4           9           8
           5           6          11          10
           6           7          12          11
           7           8          13          12
           8           9          14          13
          10          11          16          15
          11          12          17          16
          12          13          18          17
          13          14          19          18
          15          16          21          20
          16          17          22          21
          17          18          23          22
          18          19          24          23
          25          26          31          30
          26          27          32          31
          27          28          33          32
          28          29          34          33
          30          31          36          35
          31          32          37          36
          32          33          38          37
          33          34          39          38
          35          36          41          40
          36          37          42          41
          37          38          43          42
          38          39          44          43
          40          41          46          45
          41          42          47          46
          42          43          48          47
          43          44          49          48
          50          51          56          55
          51          52          57          56
          52          53          58          57
          53          54          59          58
          55          56          61          60
          56          57          62          61
          57          58          63          62
          58          59          64          63
          60          61          66          65
          61          62          67          66
          62          63          68          67
          63          64          69          68
          65          66          71          70
          66          67          72          71
          67          68          73          72
          68          69          74          73
          75          76          81          80
          76          77          82          81
          77          78          83          82
          78          79          84          83
          80          81          86          85
          81          82          87          86
          82          83          88          87
          83          84          89          88
          85          86          91          90
          86          87          92          91
          87          88          93          92
          88          89          94          93
          90          91          96          95
          91          92          97          96
          92          93          98          97
          93          94          99          98
         100         101         106         105
         101         102         107         106
         102         103         108         107
         103         104         109         108
         105         106         111         110
         106         107         112         111
         107         108         113         112
         108         109         114         113
         110         111         116         115
         111         112         117         116
         112         113         118         117
         113         114         119         118
         115         116         121         120
         116         117         122         121
         117         118         123         122
         118         119         124         123
         125         126         131         130
         126         127         132         131
         127         128         133         132
         128         129         134         133
         130         131         136         135
         131         132         137         136
         132         133         138         137
         133         134         139         138
         135         136         141         140
         136         137         142         141
         137         138         143         142
         138         139         144         143
         140         141         146         145
         141         142         147         146
         142         143         148         147
         143         144         149         148
         150         151         156         155
         151         152         157         156
         152         153         158         157
         153         154         159         158
         155         156         161         160
         156         157         162         161
         157         158         163         162
         158         159         164         163
         160         161         166         165
         161         162         167         166
         162         163         168         167
         163         164         169         168
         165         166         171         170
         166         167         172         171
         167         168         173         172
         168         169         174         173
         175         176         181         180
         176         177         182         181
         177         178         183         182
         178         179         184         183
         180         181         186         185
         181         182         187         186
         182         183         188         187
         183         184         189         188
         185         186         191         190
         186         187         192         191
         187         188         193         192
         188         189         194         193
         190         191         196         195
         191         192         197         196
         192         193         198         197
         193         194         199         198
         200         201         206         205
         201         202         207         206
         202         203         208         207
         203         204         209         208
         205         206         211         210
         206         207         212         211
         207         208         213         212
         208         209         214         213
         210         211         216         215
         211         212         217         216
         212         213         218         217
         213         214         219         218
         215         216         221         220
         216         217         222         221
         217         218         223         222
         218         219         224         223
         225         226         231         230
         226         227         232         231
         227         228         233         232
         228         229         234         233
         230         231         236         235
         231         232         237         236
         232         233         238         237
         233         234         239         238
         235         236         241         240
         236         237         242         241
         237         238         243         242
         238         239         244         243
         240         241         246         245
         241         242         247         246
         242         243         248         247
         243         244         249         248
         250         251         256         255
         251         252         257         256
         252         253         258         257
         253         254         259         258
         255         256         261         260
         256         257         262         261
         257         258         263         262
         258         259         264         263
         260         261         266         265
         261         262         267         266
         262         263         268         267
         263         264         269         268
         265         266         271         270
         266         267         272         271
         267         268         273         272
         268         269         274         273
         275         276         281         280
         276         277         282         281
         277         278         283         282
         278         279         284         283
         280         281         286         285
         281         282         287         286
         282         283         288         287
         283         284         289         288
         285         286         291         290
         286         287         292         291
         287         288         293         292
         288         289         294         293
         290         291         296         295
         291         292         297         296
         292         293         298         297
         293         294         299         298
         300         301         306         305
         301         302         307         306
         302         303         308         307
         303         304         309         308
         305         306         311         310
         306         307         312         311
         307         308         313         312
         308         309         314         313
         310         311         316         315
         311         312         317         316
         312         313         318         317
         313         314         319         318
         315         316         321         320
         316         317         322         321
         317         318         323         322
         318         319         324         323
         325         326         331         330
         326         327         332         331
         327         328         333         332
         328         329         334         333
         330         331         336         335
         331         332         337         336
         332         333         338         337
         333         334         339         338
         335         336         341         340
         336         337         342         341
         337         338         343         342
         338         339         344         343
         340         341         346         345
         341         342         347         346
         342         343         348         347
         343         344         349         348
         350         351         356         355
         351         352         357         356
         352         353         358         357
         353         354         359         358
         355         356         361         360
         356         357         362         361
         357         358         363         362
         358         359         364         363
         360         361         366         365
         361         362         367         366
         362         363         368         367
         363         364         369         368
         365         366         371         370
         366         367         372         371
         367         368         373         372
         368         369         374         373
         375         376         381         380
         376         377         382         381
         377         378         383         382
         378         379         384         383
         380         381         386         385
         381         382         387         386
         382         383         388         387
         383         384         389         388
         385         386         391         390
         386         387         392         391
         387         388         393         392
         388         389         394         393
         390         391         396         395
         391         392         397         396
         392         393         398         397
         393         394         399         398
 </DataArray>
 <DataArray  type="Int32"  Name="offsets"  format="ascii"> 
           4
           8
          12
          16
          20
          24
          28
          32
          36
          40
          44
          48
          52
          56
          60
          64
          68
          72
          76
          80
          84
          88
          92
          96
         100
         104
         108
         112
         116
         120
         124
         128
         132
         136
         140
         144
         148
         152
         156
         160
         164
         168
         172
         176
         180
         184
         188
         192
         196
         200
         204
         208
         212
         216
         220
         224
         228
         232
         236
         240
         244
         248
         252
         256
         260
         264
         268
         272
         276
         280
         284
         288
         292
         296
         300
         304
         308
         312
         316
         320
         324
         328
         332
         336
         340
         344
         348
         352
         356
         360
         364
         368
         372
         376
         380
         384
         388
         392
         396
         400
         404
         408
         412
         416
         420
         424
         428
         432
         436
         440
         444
         448
         452
         456
         460
         464
         468
         472
         476
         480
         484
         488
         492
         496
         500
         504
         508
         512
         516
         520
         524
         528
         532
         536
         540
         544
         548
         552
         556
         560
         564
         568
         572
         576
         580
         584
         588
         592
         596
         600
         604
         608
         612
         616
         620
         624
         628
         632
         636
         640
         644
         648
         652
         656
         660
         664
         668
         672
         676
         680
         684
         688
         692
         696
         700
         704
         708
         712
         716
         720
         724
         728
         732
         736
         740
         744
         748
         752
         756
         760
         764
         768
         772
         776
         780
         784
         788
         792
         796
         800
         804
         808
         812
         816
         820
         824
         828
         832
         836
         840
         844
         848
         852
         856
         860
         864
         868
         872
         876
         880
         884
         888
         892
         896
         900
         904
         908
         912
         916
         920
         924
         928
         932
         936
         940
         944
         948
         952
         956
         960
         964
         968
         972
         976
         980
         984
         988
         992
         996
        1000
        1004
        1008
        1012
        1016
        1020
        1024
 </DataArray>
 <DataArray  type="UInt8"  Name="types"  format="ascii">
 9
 9
 9
 9
 9
 9
 9
 9
 9
 9
 9
 9
 9
 9
 9
 9
 9
 9
 9
 9
 9
 9
 9
 9
 9
 9
 9
 9
 9
 9
 9
 9
 9
 9
 9
 9
 9
 9
 9
 9
 9
 9
 9
 9
 9
 9
 9
 9
 9
 9
 9
 9
 9
 9
 9
 9
 9
 9
 9
 9
 9
 9
 9
 9
 9
 9
 9
 9
 9
 9
 9
 9
 9
 9
 9
 9
 9
 9
 9
 9
 9
 9
 9
 9
 9
 9
 9
 9
 9
 9
 9
 9
 9
 9
 9
 9
 9
 9
 9
 9
 9
 9
 9
 9
 9
 9
 9
 9
 9
 9
 9
 9
 9
 9
 9
 9
 9
 9
 9
 9
 9
 9
 9
 9
 9
 9
 9
 9
 9
 9
 9
 9
 9
 9
 9
 9
 9
 9
 9
 9
 9
 9
 9
 9
 9
 9
 9
 9
 9
 9
 9
 9
 9
 9
 9
 9
 9
 9
 9
 9
 9
 9
 9
 9
 9
 9
 9
 9
 9
 9
 9
 9
 9
 9
 9
 9
 9
 9
 9
 9
 9
 9
 9
 9
 9
 9
 9
 9
 9
 9
 9
 9
 9
 9
 9
 9
 9
 9
 9
 9
 9
 9
 9
 9
 9
 9
 9
 9
 9
 9
 9
 9
 9
 9
 9
 9
 9
 9
 9
 9
 9
 9
 9
 9
 9
 9
 9
 9
 9
 9
 9
 9
 9
 9
 9
 9
 9
 9
 9
 9
 9
 9
 9
 9
 9
 9
 9
 9
 9
 9
 9
 9
 9
 9
 9
 9
 </DataArray>
 </Cells> 
 <PointData>
 <DataArray  type="Float64" Name="disp" NumberOfComponents="3" format="ascii">
   6.9411443872872930E-002   6.1973542802436929E-002   0.0000000000000000     
   7.4099935516688351E-002   7.3288977332190572E-002   0.0000000000000000     
   7.8745801137967836E-002   8.5144004026364059E-002   0.0000000000000000     
   8.3349040736711386E-002   9.7538622884957404E-002   0.0000000000000000     
   8.7909654312919000E-002  0.11047283390797061        0.0000000000000000     
   5.5925396993495302E-002   6.0412531594700135E-002   0.0000000000000000     
   6.0930705933791643E-002   7.1693258921931888E-002   0.0000000000000000     
   6.5682215046823741E-002   8.3572810806897171E-002   0.0000000000000000     
   7.0179924332591570E-002   9.6051187249596007E-002   0.0000000000000000     
   7.4423833791095170E-002  0.10912838825002837        0.0000000000000000     
   4.4633881082450831E-002   5.9034133710451603E-002   0.0000000000000000     
   4.9482858747979253E-002   7.0304498282078048E-002   0.0000000000000000     
   5.3980105018542529E-002   8.2216619365893917E-002   0.0000000000000000     
   5.8125619894140661E-002   9.4770496961899223E-002   0.0000000000000000     
   6.1919403374773654E-002  0.10796613107009392        0.0000000000000000     
   3.5536896139739503E-002   5.7838349149691347E-002   0.0000000000000000     
   3.9756393959251159E-002   6.9122695412629054E-002   0.0000000000000000     
   4.3639471053124199E-002   8.1075429703354282E-002   0.0000000000000000     
   4.7186127421358616E-002   9.3696552021867052E-002   0.0000000000000000     
   5.0396363063954425E-002  0.10698606236816731        0.0000000000000000     
   2.8634442165361335E-002   5.6825177912419353E-002   0.0000000000000000     
   3.1751311567607382E-002   6.8147850313584904E-002   0.0000000000000000     
   3.4660313150568757E-002   8.0149241819278280E-002   0.0000000000000000     
   3.7361446914245464E-002   9.2829352429499482E-002   0.0000000000000000     
   3.9854712858637495E-002  0.10618818214424851        0.0000000000000000     
   8.7909654312919000E-002  0.11047283390797061        0.0000000000000000     
   9.2260661162046065E-002  0.12394971971523509        0.0000000000000000     
   9.6235080579548007E-002  0.13797236292658230        0.0000000000000000     
   9.9832912565424814E-002  0.15254076354201221        0.0000000000000000     
  0.10305415711967647       0.16765492156152478        0.0000000000000000     
   7.4423833791095170E-002  0.10912838825002837        0.0000000000000000     
   7.8368704454357827E-002  0.12276322818112256        0.0000000000000000     
   8.1969297354402837E-002  0.13691452141580690        0.0000000000000000     
   8.5225612491230202E-002  0.15158226795408139        0.0000000000000000     
   8.8137649864839920E-002  0.16676646779594601        0.0000000000000000     
   6.1919403374773654E-002  0.10796613107009392        0.0000000000000000     
   6.5384753152930325E-002  0.12173146664565448        0.0000000000000000     
   6.8544966921099446E-002  0.13599444864375726        0.0000000000000000     
   7.1400044679281030E-002  0.15075507706440228        0.0000000000000000     
   7.3949986427475092E-002  0.16601335190758951        0.0000000000000000     
   5.0396363063954425E-002  0.10698606236816731        0.0000000000000000     
   5.3308807257763519E-002  0.12085443510883084        0.0000000000000000     
   5.5962089279637826E-002  0.13521214461043332        0.0000000000000000     
   5.8356209129577313E-002  0.15005919087297481        0.0000000000000000     
   6.0491166807582000E-002  0.16539557389645523        0.0000000000000000     
   3.9854712858637495E-002  0.10618818214424851        0.0000000000000000     
   4.2140866768857463E-002  0.12013213357065163        0.0000000000000000     
   4.4220664430017986E-002  0.13456760931583511        0.0000000000000000     
   4.6094105842119044E-002  0.14949460937979903        0.0000000000000000     
   4.7761191005160644E-002  0.16491313376254324        0.0000000000000000     
  0.10305415711967647       0.16765492156152478        0.0000000000000000     
  0.10595886492809778       0.18317865143773138        0.0000000000000000     
  0.10860708667648350       0.19897576762324323        0.0000000000000000     
  0.11099882236483363       0.21504627011806030        0.0000000000000000     
  0.11313407199314821       0.23139015892218262        0.0000000000000000     
   8.8137649864839920E-002  0.16676646779594601        0.0000000000000000     
   9.0722818427995788E-002  0.18236065216836136        0.0000000000000000     
   9.2998527133461628E-002  0.19825835229828795        0.0000000000000000     
   9.4964775981237440E-002  0.21445956818572584        0.0000000000000000     
   9.6621564971323182E-002  0.23096429983067501        0.0000000000000000     
   7.3949986427475092E-002  0.16601335190758951        0.0000000000000000     
   7.6183681410155413E-002  0.18168147327829121        0.0000000000000000     
   7.8090018871795744E-002  0.19767164128147968        0.0000000000000000     
   7.9668998812396141E-002  0.21398385591715488        0.0000000000000000     
   8.0920621231956522E-002  0.23061811718531683        0.0000000000000000     
   6.0491166807582000E-002  0.16539557389645523        0.0000000000000000     
   6.2341453874576611E-002  0.18114111476752096        0.0000000000000000     
   6.3881561891485861E-002  0.19721563457281835        0.0000000000000000     
   6.5111490858309751E-002  0.21361913331234741        0.0000000000000000     
   6.6031240775048280E-002  0.23035161098610807        0.0000000000000000     
   4.7761191005160644E-002  0.16491313376254324        0.0000000000000000     
   4.9196135821259403E-002  0.18073957663605070        0.0000000000000000     
   5.0373156192531958E-002  0.19689033217230403        0.0000000000000000     
   5.1292252118978282E-002  0.21336540037130342        0.0000000000000000     
   5.1953423600598403E-002  0.23016478123304873        0.0000000000000000     
  0.11313407199314821       0.23139015892218262        0.0000000000000000     
  0.11495666498081410       0.24825982633562976        0.0000000000000000     
  0.11641043074721820       0.26590766465842131        0.0000000000000000     
  0.11749536929236055       0.28433367389055719        0.0000000000000000     
  0.11821148061624111       0.30353785403203754        0.0000000000000000     
   9.6621564971323182E-002  0.23096429983067501        0.0000000000000000     
   9.7977721941326146E-002  0.24793777697646197        0.0000000000000000     
   9.9042074728853638E-002  0.26554522936641306        0.0000000000000000     
   9.9814623333905603E-002  0.28378665700052852        0.0000000000000000     
  0.10029536775648210       0.30266205987880812        0.0000000000000000     
   8.0920621231956522E-002  0.23061811718531683        0.0000000000000000     
   8.1898454207953136E-002  0.24765138210555263        0.0000000000000000     
   8.2656065817862112E-002  0.26516060769744931        0.0000000000000000     
   8.3193456061683463E-002  0.28314579396100692        0.0000000000000000     
   8.3510624939417175E-002  0.30160694089622553        0.0000000000000000     
   6.6031240775048280E-002  0.23035161098610807        0.0000000000000000     
   6.6718861780695041E-002  0.24740064172290180        0.0000000000000000     
   6.7252404014243650E-002  0.26475379965153001        0.0000000000000000     
   6.7631867475694107E-002  0.28241108477199262        0.0000000000000000     
   6.7857252165046386E-002  0.30037249708428976        0.0000000000000000     
   5.1953423600598403E-002  0.23016478123304873        0.0000000000000000     
   5.2438944659551866E-002  0.24718555582850946        0.0000000000000000     
   5.2831089317998244E-002  0.26432480522865515        0.0000000000000000     
   5.3129857575937529E-002  0.28158252943348555        0.0000000000000000     
   5.3335249433369730E-002  0.29895872844300081        0.0000000000000000     
   2.8634442165361335E-002   5.6825177912419353E-002   0.0000000000000000     
   3.1751311567607382E-002   6.8147850313584904E-002   0.0000000000000000     
   3.4660313150568757E-002   8.0149241819278280E-002   0.0000000000000000     
   3.7361446914245464E-002   9.2829352429499482E-002   0.0000000000000000     
   3.9854712858637495E-002  0.10618818214424851        0.0000000000000000     
   2.2490898162941801E-002   5.6018546408641665E-002   0.0000000000000000     
   2.4408561200259117E-002   6.7385404876367558E-002   0.0000000000000000     
   2.6270228675658234E-002   7.9432890698744887E-002   0.0000000000000000     
   2.8075900589139165E-002   9.2161003875773626E-002   0.0000000000000000     
   2.9825576940701898E-002  0.10556974440745383        0.0000000000000000     
   1.5670643136106395E-002   5.5442381048364311E-002   0.0000000000000000     
   1.6669092484417582E-002   6.6840800992398974E-002   0.0000000000000000     
   1.7696814993174690E-002   7.8921211326833052E-002   0.0000000000000000     
   1.8753810662377721E-002   9.1683612051666571E-002   0.0000000000000000     
   1.9840079492026669E-002  0.10512800316689952        0.0000000000000000     
   8.1736770848551132E-003   5.5096681831587307E-002   0.0000000000000000     
   8.5329054200827779E-003   6.6514038661679153E-002   0.0000000000000000     
   8.9400721031181185E-003   7.8614203703542815E-002   0.0000000000000000     
   9.3951771339611349E-003   9.1397176957178319E-002   0.0000000000000000     
   9.8982205126118220E-003  0.10486295842258561        0.0000000000000000     
   9.1879576863407308E-012   5.4981448758310639E-002   0.0000000000000000     
   7.2547055168792340E-012   6.6405117884208095E-002   0.0000000000000000     
   5.4885219633038496E-012   7.8511867828874149E-002   0.0000000000000000     
   3.8893998698802390E-012   9.1301698592308828E-002   0.0000000000000000     
   2.4573433565766578E-012  0.10477461017451209        0.0000000000000000     
   3.9854712858637495E-002  0.10618818214424851        0.0000000000000000     
   4.2140866768857463E-002  0.12013213357065163        0.0000000000000000     
   4.4220664430017986E-002  0.13456760931583511        0.0000000000000000     
   4.6094105842119044E-002  0.14949460937979903        0.0000000000000000     
   4.7761191005160644E-002  0.16491313376254324        0.0000000000000000     
   2.9825576940701898E-002  0.10556974440745383        0.0000000000000000     
   3.1471609256552194E-002  0.11956781409915850        0.0000000000000000     
   3.2966349062895799E-002  0.13406391475626078        0.0000000000000000     
   3.4309796359732705E-002  0.14905804637876061        0.0000000000000000     
   3.5501951147062928E-002  0.16455020896665801        0.0000000000000000     
   1.9840079492026669E-002  0.10512800316689952        0.0000000000000000     
   2.0891712291187740E-002  0.11916472876239302        0.0000000000000000     
   2.1844799868927112E-002  0.13370413292800831        0.0000000000000000     
   2.2699342225244789E-002  0.14874621566374530        0.0000000000000000     
   2.3455339360140763E-002  0.16429097696960404        0.0000000000000000     
   9.8982205126118220E-003  0.10486295842258561        0.0000000000000000     
   1.0401175872764111E-002  0.11892287756035526        0.0000000000000000     
   1.0856016848111934E-002  0.13348826383107776        0.0000000000000000     
   1.1262743438655283E-002  0.14855911723475312        0.0000000000000000     
   1.1621355644394165E-002  0.16413543777138134        0.0000000000000000     
   2.4573433565766578E-012  0.10477461017451209        0.0000000000000000     
   1.2813109948051071E-012  0.11884226049304515        0.0000000000000000     
   4.5026092229671910E-013  0.13341630746546915        0.0000000000000000     
  -3.5804800964378547E-014  0.14849675109178403        0.0000000000000000     
  -1.7688454867492709E-013  0.16408359137198991        0.0000000000000000     
   4.7761191005160644E-002  0.16491313376254324        0.0000000000000000     
   4.9196135821259403E-002  0.18073957663605070        0.0000000000000000     
   5.0373156192531958E-002  0.19689033217230403        0.0000000000000000     
   5.1292252118978282E-002  0.21336540037130342        0.0000000000000000     
   5.1953423600598403E-002  0.23016478123304873        0.0000000000000000     
   3.5501951147062928E-002  0.16455020896665801        0.0000000000000000     
   3.6523729848281630E-002  0.18044896468695842        0.0000000000000000     
   3.7356048886784003E-002  0.19666287570666727        0.0000000000000000     
   3.7998908262570033E-002  0.21319194202578448        0.0000000000000000     
   3.8452307975639741E-002  0.23003616364431015        0.0000000000000000     
   2.3455339360140763E-002  0.16429097696960404        0.0000000000000000     
   2.4100238553721138E-002  0.18024138472332249        0.0000000000000000     
   2.4621487086091989E-002  0.19650040680263856        0.0000000000000000     
   2.5019084957253312E-002  0.21306804320755218        0.0000000000000000     
   2.5293032167205114E-002  0.22994429393806351        0.0000000000000000     
   1.1621355644394165E-002  0.16413543777138134        0.0000000000000000     
   1.1925661937577920E-002  0.18011683674514281        0.0000000000000000     
   1.2169470790455899E-002  0.19640292546021790        0.0000000000000000     
   1.2352782203028103E-002  0.21299370391660657        0.0000000000000000     
   1.2475596175294531E-002  0.22988917211430884        0.0000000000000000     
  -1.7688454867492709E-013  0.16408359137198991        0.0000000000000000     
  -1.4802438788596994E-013  0.18007532075241944        0.0000000000000000     
  -1.2425694154161171E-013  0.19637043167940532        0.0000000000000000     
  -1.0558708855162857E-013  0.21296892415294760        0.0000000000000000     
  -9.2014937336237779E-014  0.22987079817304618        0.0000000000000000     
   5.1953423600598403E-002  0.23016478123304873        0.0000000000000000     
   5.2438944659551866E-002  0.24718555582850946        0.0000000000000000     
   5.2831089317998244E-002  0.26432480522865515        0.0000000000000000     
   5.3129857575937529E-002  0.28158252943348555        0.0000000000000000     
   5.3335249433369730E-002  0.29895872844300081        0.0000000000000000     
   3.8452307975639741E-002  0.23003616364431015        0.0000000000000000     
   3.8788951017260494E-002  0.24701295450952729        0.0000000000000000     
   3.9081540378699701E-002  0.26393972856871917        0.0000000000000000     
   3.9330076059957357E-002  0.28081648582188573        0.0000000000000000     
   3.9534558061033467E-002  0.29764322626902706        0.0000000000000000     
   2.5293032167205114E-002  0.22994429393806351        0.0000000000000000     
   2.5499129026557821E-002  0.24688966785310687        0.0000000000000000     
   2.5693175845921856E-002  0.26366467381161696        0.0000000000000000     
   2.5875172625297226E-002  0.28026931181359355        0.0000000000000000     
   2.6045119364683927E-002  0.29670358185903678        0.0000000000000000     
   1.2475596175294531E-002  0.22988917211430884        0.0000000000000000     
   1.2569478687443842E-002  0.24681569585924820        0.0000000000000000     
   1.2665995719664707E-002  0.26349964095734824        0.0000000000000000     
   1.2765147271957119E-002  0.27994100740860889        0.0000000000000000     
   1.2866933344321079E-002  0.29613979521303008        0.0000000000000000     
  -9.2014937336237779E-014  0.22987079817304618        0.0000000000000000     
  -8.1436159898862215E-014  0.24679103852795134        0.0000000000000000     
  -7.1750331370745712E-014  0.26344463000591317        0.0000000000000000     
  -6.2960379097753982E-014  0.27983157260693170        0.0000000000000000     
  -5.5060123127503857E-014  0.29595186633100690        0.0000000000000000     
   9.1879576863407308E-012   5.4981448758310639E-002   0.0000000000000000     
   7.2547055168792340E-012   6.6405117884208095E-002   0.0000000000000000     
   5.4885219633038496E-012   7.8511867828874149E-002   0.0000000000000000     
   3.8893998698802390E-012   9.1301698592308828E-002   0.0000000000000000     
   2.4573433565766578E-012  0.10477461017451209        0.0000000000000000     
  -8.1736770667383569E-003   5.5096681828759167E-002   0.0000000000000000     
  -8.5329054057863129E-003   6.6514038660128116E-002   0.0000000000000000     
  -8.9400720923084390E-003   7.8614203702908156E-002   0.0000000000000000     
  -9.3951771263047316E-003   9.1397176957099327E-002   0.0000000000000000     
  -9.8982205077751996E-003  0.10486295842270163        0.0000000000000000     
  -1.5670643118767112E-002   5.5442381043157761E-002   0.0000000000000000     
  -1.6669092470759955E-002   6.6840800989581492E-002   0.0000000000000000     
  -1.7696814982867091E-002   7.8921211325725937E-002   0.0000000000000000     
  -1.8753810655088524E-002   9.1683612051591049E-002   0.0000000000000000     
  -1.9840079487424250E-002  0.10512800316717684        0.0000000000000000     
  -2.2490898146898308E-002   5.6018546401506407E-002   0.0000000000000000     
  -2.4408561187666218E-002   6.7385404872568291E-002   0.0000000000000000     
  -2.6270228666187438E-002   7.9432890697327480E-002   0.0000000000000000     
  -2.8075900582461965E-002   9.2161003875783964E-002   0.0000000000000000     
  -2.9825576936489798E-002  0.10556974440793776        0.0000000000000000     
  -2.8634442151131943E-002   5.6825177903805112E-002   0.0000000000000000     
  -3.1751311556505110E-002   6.8147850309088473E-002   0.0000000000000000     
  -3.4660313142269486E-002   8.0149241817712810E-002   0.0000000000000000     
  -3.7361446908425064E-002   9.2829352429678089E-002   0.0000000000000000     
  -3.9854712854971858E-002  0.10618818214498435        0.0000000000000000     
   2.4573433565766578E-012  0.10477461017451209        0.0000000000000000     
   1.2813109948051071E-012  0.11884226049304515        0.0000000000000000     
   4.5026092229671910E-013  0.13341630746546915        0.0000000000000000     
  -3.5804800964378547E-014  0.14849675109178403        0.0000000000000000     
  -1.7688454867492709E-013  0.16408359137198991        0.0000000000000000     
  -9.8982205077751996E-003  0.10486295842270163        0.0000000000000000     
  -1.0401175870240998E-002  0.11892287756047812        0.0000000000000000     
  -1.0856016847223296E-002  0.13348826383119183        0.0000000000000000     
  -1.1262743438722085E-002  0.14855911723484280        0.0000000000000000     
  -1.1621355644737371E-002  0.16413543777143103        0.0000000000000000     
  -1.9840079487424250E-002  0.10512800316717684        0.0000000000000000     
  -2.0891712288783153E-002  0.11916472876266952        0.0000000000000000     
  -2.1844799868074135E-002  0.13370413292825525        0.0000000000000000     
  -2.2699342225297178E-002  0.14874621566393412        0.0000000000000000     
  -2.3455339360452292E-002  0.16429097696970596        0.0000000000000000     
  -2.9825576936489798E-002  0.10556974440793776        0.0000000000000000     
  -3.1471609254345154E-002  0.11956781409961939        0.0000000000000000     
  -3.2966349062102246E-002  0.13406391475665944        0.0000000000000000     
  -3.4309796359761079E-002  0.14905804637905787        0.0000000000000000     
  -3.5501951147321645E-002  0.16455020896681474        0.0000000000000000     
  -3.9854712854971858E-002  0.10618818214498435        0.0000000000000000     
  -4.2140866766927007E-002  0.12013213357132772        0.0000000000000000     
  -4.4220664429307652E-002  0.13456760931640432        0.0000000000000000     
  -4.6094105842113785E-002  0.14949460938021422        0.0000000000000000     
  -4.7761191005345434E-002  0.16491313376275735        0.0000000000000000     
  -1.7688454867492709E-013  0.16408359137198991        0.0000000000000000     
  -1.4802438788596994E-013  0.18007532075241944        0.0000000000000000     
  -1.2425694154161171E-013  0.19637043167940532        0.0000000000000000     
  -1.0558708855162857E-013  0.21296892415294760        0.0000000000000000     
  -9.2014937336237779E-014  0.22987079817304618        0.0000000000000000     
  -1.1621355644737371E-002  0.16413543777143103        0.0000000000000000     
  -1.1925661937863215E-002  0.18011683674515142        0.0000000000000000     
  -1.2169470790693684E-002  0.19640292546019883        0.0000000000000000     
  -1.2352782203228767E-002  0.21299370391657327        0.0000000000000000     
  -1.2475596175468477E-002  0.22988917211427479        0.0000000000000000     
  -2.3455339360452292E-002  0.16429097696970596        0.0000000000000000     
  -2.4100238553974185E-002  0.18024138472333778        0.0000000000000000     
  -2.4621487086297571E-002  0.19650040680259637        0.0000000000000000     
  -2.5019084957422447E-002  0.21306804320748177        0.0000000000000000     
  -2.5293032167348812E-002  0.22994429393799384        0.0000000000000000     
  -3.5501951147321645E-002  0.16455020896681474        0.0000000000000000     
  -3.6523729848480936E-002  0.18044896468697855        0.0000000000000000     
  -3.7356048886935923E-002  0.19666287570659799        0.0000000000000000     
  -3.7998908262686627E-002  0.21319194202567290        0.0000000000000000     
  -3.8452307975733020E-002  0.23003616364420340        0.0000000000000000     
  -4.7761191005345434E-002  0.16491313376275735        0.0000000000000000     
  -4.9196135821383456E-002  0.18073957663607379        0.0000000000000000     
  -5.0373156192608744E-002  0.19689033217220364        0.0000000000000000     
  -5.1292252119021289E-002  0.21336540037114685        0.0000000000000000     
  -5.1953423600621107E-002  0.23016478123290340        0.0000000000000000     
  -9.2014937336237779E-014  0.22987079817304618        0.0000000000000000     
  -8.1436159898862215E-014  0.24679103852795134        0.0000000000000000     
  -7.1750331370745712E-014  0.26344463000591317        0.0000000000000000     
  -6.2960379097753982E-014  0.27983157260693170        0.0000000000000000     
  -5.5060123127503857E-014  0.29595186633100690        0.0000000000000000     
  -1.2475596175468477E-002  0.22988917211427479        0.0000000000000000     
  -1.2569478687597236E-002  0.24681569585921712        0.0000000000000000     
  -1.2665995719799464E-002  0.26349964095731415        0.0000000000000000     
  -1.2765147272075172E-002  0.27994100740856587        0.0000000000000000     
  -1.2866933344424359E-002  0.29613979521297218        0.0000000000000000     
  -2.5293032167348812E-002  0.22994429393799384        0.0000000000000000     
  -2.5499129026682762E-002  0.24688966785304656        0.0000000000000000     
  -2.5693175846030394E-002  0.26366467381155362        0.0000000000000000     
  -2.5875172625391692E-002  0.28026931181351500        0.0000000000000000     
  -2.6045119364766670E-002  0.29670358185893075        0.0000000000000000     
  -3.8452307975733020E-002  0.23003616364420340        0.0000000000000000     
  -3.8788951017338029E-002  0.24701295450943953        0.0000000000000000     
  -3.9081540378764525E-002  0.26393972856863157        0.0000000000000000     
  -3.9330076060012514E-002  0.28081648582177920        0.0000000000000000     
  -3.9534558061082005E-002  0.29764322626888273        0.0000000000000000     
  -5.1953423600621107E-002  0.23016478123290340        0.0000000000000000     
  -5.2438944659563017E-002  0.24718555582839616        0.0000000000000000     
  -5.2831089318001873E-002  0.26432480522854784        0.0000000000000000     
  -5.3129857575937640E-002  0.28158252943335849        0.0000000000000000     
  -5.3335249433370355E-002  0.29895872844282800        0.0000000000000000     
  -2.8634442151131943E-002   5.6825177903805112E-002   0.0000000000000000     
  -3.1751311556505110E-002   6.8147850309088473E-002   0.0000000000000000     
  -3.4660313142269486E-002   8.0149241817712810E-002   0.0000000000000000     
  -3.7361446908425064E-002   9.2829352429678089E-002   0.0000000000000000     
  -3.9854712854971858E-002  0.10618818214498435        0.0000000000000000     
  -3.5536896128004203E-002   5.7838349140055423E-002   0.0000000000000000     
  -3.9756393950125896E-002   6.9122695407688353E-002   0.0000000000000000     
  -4.3639471046319489E-002   8.1075429701748192E-002   0.0000000000000000     
  -4.7186127416584955E-002   9.3696552022234883E-002   0.0000000000000000     
  -5.0396363060922302E-002  0.10698606236914847        0.0000000000000000     
  -4.4633881074051272E-002   5.9034133700258860E-002   0.0000000000000000     
  -4.9482858741377894E-002   7.0304498276914276E-002   0.0000000000000000     
  -5.3980105013543743E-002   8.2216619364299900E-002   0.0000000000000000     
  -5.8125619890548784E-002   9.4770496962415809E-002   0.0000000000000000     
  -6.1919403372393038E-002  0.10796613107126191        0.0000000000000000     
  -5.5925396989273145E-002   6.0412531584415438E-002   0.0000000000000000     
  -6.0930705930261085E-002   7.1693258916766200E-002   0.0000000000000000     
  -6.5682215043942213E-002   8.3572810805367978E-002   0.0000000000000000     
  -7.0179924330316529E-002   9.6051187250220826E-002   0.0000000000000000     
  -7.4423833789384053E-002  0.10912838825132469        0.0000000000000000     
  -6.9411443873669820E-002   6.1973542792525156E-002   0.0000000000000000     
  -7.4099935516775461E-002   7.3288977327244126E-002   0.0000000000000000     
  -7.8745801137514948E-002   8.5144004024952410E-002   0.0000000000000000     
  -8.3349040735888225E-002   9.7538622885649962E-002   0.0000000000000000     
  -8.7909654311895347E-002  0.11047283390933681        0.0000000000000000     
  -3.9854712854971858E-002  0.10618818214498435        0.0000000000000000     
  -4.2140866766927007E-002  0.12013213357132772        0.0000000000000000     
  -4.4220664429307652E-002  0.13456760931640432        0.0000000000000000     
  -4.6094105842113785E-002  0.14949460938021422        0.0000000000000000     
  -4.7761191005345434E-002  0.16491313376275735        0.0000000000000000     
  -5.0396363060922302E-002  0.10698606236914847        0.0000000000000000     
  -5.3308807256122193E-002  0.12085443510971750        0.0000000000000000     
  -5.5962089278975287E-002  0.13521214461117051        0.0000000000000000     
  -5.8356209129481577E-002  0.15005919087350758        0.0000000000000000     
  -6.0491166807641064E-002  0.16539557389672860        0.0000000000000000     
  -6.1919403372393038E-002  0.10796613107126191        0.0000000000000000     
  -6.5384753151524241E-002  0.12173146664671168        0.0000000000000000     
  -6.8544966920390124E-002  0.13599444864463853        0.0000000000000000     
  -7.1400044678990721E-002  0.15075507706504240        0.0000000000000000     
  -7.3949986427325989E-002  0.16601335190792338        0.0000000000000000     
  -7.4423833789384053E-002  0.10912838825132469        0.0000000000000000     
  -7.8368704453133126E-002  0.12276322818231029        0.0000000000000000     
  -8.1969297353552198E-002  0.13691452141680835        0.0000000000000000     
  -8.5225612490641187E-002  0.15158226795481880        0.0000000000000000     
  -8.8137649864400161E-002  0.16676646779634166        0.0000000000000000     
  -8.7909654311895347E-002  0.11047283390933681        0.0000000000000000     
  -9.2260661160948873E-002  0.12394971971651333        0.0000000000000000     
  -9.6235080578461418E-002  0.13797236292767995        0.0000000000000000     
  -9.9832912564432996E-002  0.15254076354283666        0.0000000000000000     
 -0.10305415711886361       0.16765492156198347        0.0000000000000000     
  -4.7761191005345434E-002  0.16491313376275735        0.0000000000000000     
  -4.9196135821383456E-002  0.18073957663607379        0.0000000000000000     
  -5.0373156192608744E-002  0.19689033217220364        0.0000000000000000     
  -5.1292252119021289E-002  0.21336540037114685        0.0000000000000000     
  -5.1953423600621107E-002  0.23016478123290340        0.0000000000000000     
  -6.0491166807641064E-002  0.16539557389672860        0.0000000000000000     
  -6.2341453874590197E-002  0.18114111476755096        0.0000000000000000     
  -6.3881561891465391E-002  0.19721563457269187        0.0000000000000000     
  -6.5111490858266646E-002  0.21361913331215135        0.0000000000000000     
  -6.6031240774993977E-002  0.23035161098592943        0.0000000000000000     
  -7.3949986427325989E-002  0.16601335190792338        0.0000000000000000     
  -7.6183681410009599E-002  0.18168147327833761        0.0000000000000000     
  -7.8090018871655231E-002  0.19767164128134129        0.0000000000000000     
  -7.9668998812262873E-002  0.21398385591693436        0.0000000000000000     
  -8.0920621231832524E-002  0.23061811718511693        0.0000000000000000     
  -8.8137649864400161E-002  0.16676646779634166        0.0000000000000000     
  -9.0722818427641669E-002  0.18236065216843378        0.0000000000000000     
  -9.2998527133178271E-002  0.19825835229815186        0.0000000000000000     
  -9.4964775981009969E-002  0.21445956818549589        0.0000000000000000     
  -9.6621564971136761E-002  0.23096429983046590        0.0000000000000000     
 -0.10305415711886361       0.16765492156198347        0.0000000000000000     
 -0.10595886492748638       0.18317865143783937        0.0000000000000000     
 -0.10860708667603450       0.19897576762312350        0.0000000000000000     
 -0.11099882236450793       0.21504627011783581        0.0000000000000000     
 -0.11313407199290670       0.23139015892197631        0.0000000000000000     
  -5.1953423600621107E-002  0.23016478123290340        0.0000000000000000     
  -5.2438944659563017E-002  0.24718555582839616        0.0000000000000000     
  -5.2831089318001873E-002  0.26432480522854784        0.0000000000000000     
  -5.3129857575937640E-002  0.28158252943335849        0.0000000000000000     
  -5.3335249433370355E-002  0.29895872844282800        0.0000000000000000     
  -6.6031240774993977E-002  0.23035161098592943        0.0000000000000000     
  -6.6718861780636712E-002  0.24740064172276791        0.0000000000000000     
  -6.7252404014184225E-002  0.26475379965140855        0.0000000000000000     
  -6.7631867475636487E-002  0.28241108477185151        0.0000000000000000     
  -6.7857252164993526E-002  0.30037249708409663        0.0000000000000000     
  -8.0920621231832524E-002  0.23061811718511693        0.0000000000000000     
  -8.1898454207838076E-002  0.24765138210540621        0.0000000000000000     
  -8.2656065817753380E-002  0.26516060769731958        0.0000000000000000     
  -8.3193456061578464E-002  0.28314579396085693        0.0000000000000000     
  -8.3510624939313327E-002  0.30160694089601836        0.0000000000000000     
  -9.6621564971136761E-002  0.23096429983046590        0.0000000000000000     
  -9.7977721941167092E-002  0.24793777697631106        0.0000000000000000     
  -9.9042074728709364E-002  0.26554522936628078        0.0000000000000000     
  -9.9814623333763591E-002  0.28378665700037481        0.0000000000000000     
 -0.10029536775632975       0.30266205987859329        0.0000000000000000     
 -0.11313407199290670       0.23139015892197631        0.0000000000000000     
 -0.11495666498062379       0.24825982633548258        0.0000000000000000     
 -0.11641043074705217       0.26590766465829219        0.0000000000000000     
 -0.11749536929219184       0.28433367389040515        0.0000000000000000     
 -0.11821148061604281       0.30353785403182143        0.0000000000000000     
 </DataArray>
 <DataArray  type="Float64" Name="stress" NumberOfComponents="3" format="ascii">
   4445653760.9555445       -252529026.41502810       -1306218061.2924881     
   4385849083.6843481       -315474678.53735781       -902654831.80626118     
   4347369892.6437721       -307335376.55761600       -597969727.82478106     
   4330216187.8338108       -228111120.47582293       -392162749.34804821     
   4334387969.2544670       -77801910.291969538       -285233896.37606406     
   4949061088.4894991        73801962.393896580       -519679881.91239077     
   4674184266.3532372       -30294664.148041964       -268947241.20222735     
   4415474110.2376595       -80502403.954368591       -75280207.709759012     
   4172930620.1427608       -76821257.025097847        61321218.565008476     
   3946553796.0685358       -19251223.360247850        140857037.62207448     
   4893590501.5486650        232469576.86038136        278856328.11833954     
   4523105872.5103378        123061277.28774095        370739756.47418529     
   4163629089.2827497        50345797.084238529        447370095.89937651     
   3815160151.8659015        14323136.249867439        508747346.39391673     
   3477699060.2597928        14993294.784633875        554871507.95780635     
   4279242000.1330571        223473816.98443556        1089390568.7997062     
   3932613902.1556478        144593145.76998496        1016406161.2229679     
   3591834829.7790451        85209226.558211565        969981183.00262320     
   3256904783.0032415        45322059.349104285        950115634.13867438     
   2927823761.8282380        24931644.142670274        956809514.63112235     
   3106015584.2426577        46814682.766052365        1911922840.1317098     
   2902708355.2891669        34300941.298690081        1668051973.0441236     
   2700091331.7265382        24087884.467535734        1492553053.5999837     
   2498164513.5547762        16175512.272597432        1385426081.7992818     
   2296927900.7738729        10563824.713861823        1346671057.6420267     
   4334387969.2544670       -77801910.291969538       -285233896.37606406     
   3991443875.1128769       -15869109.563493729       -220133502.09702671     
   3637564417.7384396        9612480.3888177872       -144364692.06554508     
   3272749597.1311607       -1357140.4350051880       -57927466.281632036     
   2896999413.2910299       -48777972.035006166        39178175.254726514     
   3946553796.0685358       -19251223.360247850        140857037.62207448     
   3629004470.7341371        23939867.821550608        168041567.38389924     
   3303841979.0900331        41753737.970991611        208417128.83266073     
   2971066321.1362371        34190387.088117003        261983721.96836904     
   2630677496.8727264        1249815.1728719473        328741346.79102015     
   3477699060.2597928        14993294.784633875        554871507.95780635     
   3192751977.8311701        41604918.649319649        548016069.61274207     
   2903513926.0159883        53913311.225474477        556874278.88912749     
   2609984904.8142509        51918472.513117075        581446135.78695774     
   2312164914.2259483        35620402.512210727        621731640.30623806     
   2927823761.8282380        24931644.142670274        956809514.63112235     
   2682686396.4039745        37126042.919826865        919790004.58951056     
   2436580258.5163007        46091200.152274132        901006758.10384834     
   2189505348.1652060        51827115.839994431        900459775.17413998     
   1941461665.3507020        54333789.983010888        918149055.80038297     
   2296927900.7738729        10563824.713861823        1346671057.6420267     
   2098807726.4525533        10503240.633063197        1283363372.3141983     
   1903040976.5909655        18287404.751368523        1240814566.4768271     
   1709627651.1891055        33916317.068763971        1219024640.1299138     
   1518567750.2469738        57389977.585259736        1217993593.2734544     
   2896999413.2910299       -48777972.035006166        39178175.254726514     
   2648167322.0545301       -57462884.042812228        28032660.785144608     
   2410706083.1570764       -28244954.920472980       -9148003.7669165414     
   2184615696.5986872        38875815.332080126       -72363818.401471660     
   1969896162.3793366        143899426.71477425       -161614783.11850476     
   2630677496.8727264        1249815.1728719473        328741346.79102015     
   2327063114.2626810       -20526582.252479553        316929412.50454247     
   2031148826.7494869       -16635996.021654963        292033516.18647653     
   1742934634.3331501        12921573.865350127        254053657.83683813     
   1462420537.0136588        68146127.408517659        202989837.45561725     
   2312164914.2259483        35620402.512210727        621731640.30623806     
   1990771634.6735256        11853537.998692870        604970736.08695328     
   1673407692.9757409        1517799.6673169136        588077057.88699734     
   1360073089.1326172        4613187.5181345344        571050605.70636272     
   1050767823.1441386        21139701.551108301        553891379.54506135     
   1941461665.3507020        54333789.983010888        918149055.80038297     
   1639292883.2870450        39677476.710645318        892156631.53239667     
   1337482681.8358407        26216432.146448791        878982621.33463705     
   1036031060.9970856        13950656.290412724        878627025.20711505     
   734938020.77077794        2880149.1425468922        891089843.14981759     
   1518567750.2469738        57389977.585259736        1217993593.2734544     
   1272626860.1032541        62945233.883414626        1178487098.8408589     
   1023373793.3297824        57459901.415734053        1164750206.5294001     
   770808549.92655611        40933980.182200104        1176782916.3390815     
   514931129.89357936        13367470.182830721        1214585228.2698979     
   1969896162.3793366        143899426.71477425       -161614783.11850476     
   1620623890.3341131        159905627.93504202       -62779504.403465137     
   1227902795.3027918        31082419.201656342        65499398.921584710     
   791732877.28536594       -242570199.48542494        223221926.85666400     
   312114136.28183693       -661052228.12616134        410388079.40176380     
   1462420537.0136588        68146127.408517659        202989837.45561725     
   1180471114.8170431        62088104.008080244        281117310.06961995     
   850699413.25074017       -103377517.29132760        386679709.79270220     
   473105432.31474829       -428250736.48969483        519677036.62485188     
   47689172.009059727       -912531553.58704531        680109290.56607604     
   1050767823.1441386        21139701.551108301        553891379.54506135     
   830402115.07914007       -8704287.1851281524        606208680.27717519     
   557840671.26087165       -212534061.76561001        683952210.61742377     
   233083491.68930599       -590349622.19040549        787121970.56579053     
  -143869423.63554144       -1142150968.4594765        915717960.12227619     
   734938020.77077794        2880149.1425468922        891089843.14981759     
   570416891.12040591       -52471545.644580901        912494606.21919215     
   349326569.33315766       -296387214.22129601        957316901.39574659     
   71667055.409041703       -728866856.58758605        1025556728.6794727     
  -262561650.65195408       -1349910472.7434511        1117214088.0703874     
   514931129.89357936        13367470.182830721        1214585228.2698979     
   400515442.94083458       -69213671.370296419        1199975087.8956728     
   225157107.46762827       -354936974.65830088        1206773782.1276805     
  -11143876.526049227       -843802439.68120813        1234981310.9659157     
  -308387509.04018617       -1535810066.4389715        1284597674.4103763     
   3106015584.2426577        46814682.766052365        1911922840.1317098     
   2902708355.2891669        34300941.298690081        1668051973.0441236     
   2700091331.7265382        24087884.467535734        1492553053.5999837     
   2498164513.5547762        16175512.272597432        1385426081.7992818     
   2296927900.7738729        10563824.713861823        1346671057.6420267     
   1833749051.7817867       -113617779.21188223        1678022871.0545411     
   1786663235.0034218       -91384703.668219686        1538238499.7378633     
   1740095072.2530880       -67426114.697782397        1442234001.6022184     
   1694044563.5307918       -41742012.300555825        1390009376.6476040     
   1648511708.8365259       -14332396.476559997        1381564624.8740239     
   891990943.15260315       -174897714.04031128        1439562169.7692068     
   930863468.65675867       -138996742.45340902        1403662984.3001378     
   970081096.82611883       -101945428.64915812        1386951597.5496898     
   1009643827.6606858       -63743772.627553821        1389428009.5178614     
   1049551661.1604555       -24391774.388604581        1411092220.2046564     
   280741258.35510486       -137025121.71923354        1196540736.2757120     
   335309056.24918109       -108535175.05687054        1264325426.7309473     
   390049405.44563395       -79470057.386586785        1326705841.4423957     
   444962305.94446224       -49829768.708383888        1383681980.4100552     
   500047757.74566692       -19614309.022260159        1435253843.6339247     
  -2.6107076207830522       -2.2486517227004033        948958570.57405210     
  -2.2193110902126940       -1.4786064771833041        1120225827.0302939     
  -1.8883699091600301      -0.91007490005550873        1261496733.2803388     
  -1.6178796283452874      -0.54304701761017560        1372771289.3241844     
  -1.4078434388971466      -0.37753554861107563        1454049495.1618290     
   2296927900.7738729        10563824.713861823        1346671057.6420267     
   2098807726.4525533        10503240.633063197        1283363372.3141983     
   1903040976.5909655        18287404.751368523        1240814566.4768271     
   1709627651.1891055        33916317.068763971        1219024640.1299138     
   1518567750.2469738        57389977.585259736        1217993593.2734544     
   1648511708.8365259       -14332396.476559997        1381564624.8740239     
   1503587171.7184961       -13278156.448579431        1337541391.5945640     
   1360427702.9445949       -6340355.2735056281        1313421732.6482270     
   1219033302.5148239        6481007.0486683846        1309205648.0350161     
   1079403970.4291821        25185930.517939091        1324893137.7549319     
   1049551661.1604555       -24391774.388604581        1411092220.2046564     
   955379032.22477102       -22955828.958127379        1385667023.5053613     
   862383115.51761532       -17597509.432556033        1379290095.9818606     
   770563911.03898692       -8316815.8118940294        1391961437.6341538     
   679921418.78888881        4886251.9038678408        1423681048.4622421     
   500047757.74566692       -19614309.022260159        1435253843.6339247     
   454183307.97138119       -18529776.895573109        1427740268.0465956     
   408907214.31002456       -15484057.725791395        1438419656.4777279     
   364219476.76159394       -10477151.512921527        1467292008.9273243     
   320120095.32609236       -3509058.2569543123        1514357325.3953865     
  -1.4078434388971466      -0.37753554861107563        1454049495.1618290     
  -1.0416743017611081      -0.26091855324668606        1463761125.2182629     
 -0.67817939908531877      -0.15321567274979503        1490810414.1358294     
 -0.31735589431095274       -5.4418145813704119E-002   1535197361.9145298     
   4.0794291022140126E-002   3.5469704096923439E-002   1596921968.5543630     
   1518567750.2469738        57389977.585259736        1217993593.2734544     
   1272626860.1032541        62945233.883414626        1178487098.8408589     
   1023373793.3297824        57459901.415734053        1164750206.5294001     
   770808549.92655611        40933980.182200104        1176782916.3390815     
   514931129.89357936        13367470.182830721        1214585228.2698979     
   1079403970.4291821        25185930.517939091        1324893137.7549319     
   899150856.73984563        30613138.912426591        1295403594.9177175     
   716413610.57867908        27759905.734146744        1290703058.2866631     
   531192231.94568926        16626230.983123094        1310791527.8617647     
   343486720.84086990       -2787885.3406656086        1355669003.6430271     
   679921418.78888881        4886251.9038678408        1423681048.4622421     
   562554378.93971074        9344901.6104172766        1405174508.7379870     
   443531250.77663136        8283256.9372923672        1410476379.3049128     
   322852034.29965031        1701317.8844944090        1439586660.1630173     
   200516729.50876412       -10400915.547982574        1492505351.3123040     
   320120095.32609236       -3509058.2569543123        1514357325.3953865     
   262837426.70285127       -859478.02260610461        1507799840.3016694     
   204726713.92363352       -970044.97484853864        1524070169.5841553     
   145787956.98843601       -3840759.1136885360        1563168313.2428432     
   86021155.897261083       -9471620.4391211867        1625094271.2777312     
   4.0794291022140126E-002   3.5469704096923439E-002   1596921968.5543630     
   2.9265783935444573E-002   1.3347747815453576E-002   1603279589.6087620     
   1.9686450272147236E-002  -2.2741881637939818E-003   1631484429.1243849     
   1.2050205156055472E-002  -1.1421243987194164E-002   1681536487.1012311     
   6.3613949273068800E-003  -1.4075462407336316E-002   1753435763.5393026     
   514931129.89357936        13367470.182830721        1214585228.2698979     
   400515442.94083458       -69213671.370296419        1199975087.8956728     
   225157107.46762827       -354936974.65830088        1206773782.1276805     
  -11143876.526049227       -843802439.68120813        1234981310.9659157     
  -308387509.04018617       -1535810066.4389715        1284597674.4103763     
   343486720.84086990       -2787885.3406656086        1355669003.6430271     
   285080972.53934765       -56501936.431450650        1285615253.7996991     
   180968237.84725389       -262572608.82413918        1230575601.2828443     
   31148516.764575481       -620999902.51878214        1190550046.0924678     
  -164378190.70867664       -1131783817.5153306        1165538588.2285719     
   200516729.50876412       -10400915.547982574        1492505351.3123040     
   179850241.91631961       -40729079.559058040        1384782931.1514032     
   128712430.06318507       -172628324.43909883        1285679871.0372291     
   47103293.949357808       -406098650.18811369        1195196170.9697788     
  -64977166.425156087       -741140056.80608594        1113331830.9490569     
   86021155.897261083       -9471620.4391211867        1625094271.2777312     
   84823251.071743146       -21895100.753137868        1497478119.9507942     
   68389684.115423664       -85104121.503159717        1372086591.3908329     
   36720455.028301105       -199098682.68919456        1248919685.5978458     
  -10184436.189625859       -363878784.31123859        1127977402.5718269     
   6.3613949273068800E-003  -1.4075462407336316E-002   1753435763.5393026     
   5.6215105830388279E-003  -1.3682919266486706E-002   1623700820.1978679     
   3.9726463876752025E-003  -1.6321696741403127E-002   1489795762.3436544     
   1.4025182114586468E-003  -2.2034823599447938E-002   1351720589.9766674     
  -2.0818511749674355E-003  -3.0787094485506487E-002   1209475303.0968945     
  -2.6107076207830522       -2.2486517227004033        948958570.57405210     
  -2.2193110902126940       -1.4786064771833041        1120225827.0302939     
  -1.8883699091600301      -0.91007490005550873        1261496733.2803388     
  -1.6178796283452874      -0.54304701761017560        1372771289.3241844     
  -1.4078434388971466      -0.37753554861107563        1454049495.1618290     
  -280741263.38511008        137025117.71108401        1196540736.6224637     
  -335309060.54930562        108535172.41444789        1264325426.9786451     
  -390049409.12328124        79470055.751871139        1326705841.5905752     
  -444962309.10703820        49829767.723358035        1383681980.4582541     
  -500047760.50057679        19614308.328908622        1435253843.5816822     
  -891990947.89303815        174897710.55076289        1439562170.3938828     
  -930863472.72154069        138996740.15483260        1403662984.7424505     
  -970081100.30915380        101945427.22852987        1386951597.8087153     
  -1009643830.6558763        63743771.771863461        1389428009.5926793     
  -1049551663.7617092        24391773.784829736        1411092220.0943389     
  -1833749056.1344922        113617776.27038372        1678022871.8883059     
  -1786663238.7360198        91384701.742541909        1538238500.3217094     
  -1740095075.4459877        67426113.519901395        1442234001.9347606     
  -1694044566.2643936        41742011.602464318        1390009376.7274578     
  -1648511711.1912384        14332395.990234256        1381564624.6998007     
  -3106015588.1094718       -46814685.130053401        1911922841.1057327     
  -2902708358.5927444       -34300942.822421312        1668051973.7164233     
  -2700091334.5337853       -24087885.374020457        1492553053.9687095     
  -2498164515.9325924       -16175512.784841299        1385426081.8625915     
  -2296927902.7891665       -10563825.054884195        1346671057.3980660     
  -1.4078434388971466      -0.37753554861107563        1454049495.1618290     
  -1.0416743017611081      -0.26091855324668606        1463761125.2182629     
 -0.67817939908531877      -0.15321567274979503        1490810414.1358294     
 -0.31735589431095274       -5.4418145813704119E-002   1535197361.9145298     
   4.0794291022140126E-002   3.5469704096923439E-002   1596921968.5543630     
  -500047760.50057679        19614308.328908622        1435253843.5816822     
  -454183310.01008129        18529776.416679412        1427740268.0170584     
  -408907215.63705206        15484057.446229249        1438419656.4628272     
  -364219477.38148719        10477151.417565063        1467292008.9189832     
  -320120095.24338543        3509058.3306905776        1514357325.3855326     
  -1049551663.7617092        24391773.784829736        1411092220.0943389     
  -955379034.14900947        22955828.543115258        1385667023.4414020     
  -862383116.76856530        17597509.193882048        1379290095.9481127     
  -770563911.62037826        8316815.7371253073        1391961437.6144705     
  -679921418.70444727       -4886251.8271514773        1423681048.4404767     
  -1648511711.1912384        14332395.990234256        1381564624.6998007     
  -1503587173.4584560        13278156.118399262        1337541391.4912927     
  -1360427704.0727222        6340355.0897367001        1313421732.5916896     
  -1219033303.0340326       -6481007.0957459807        1309205648.0009906     
  -1079403970.3423951       -25185930.438060105        1324893137.7191982     
  -2296927902.7891665       -10563825.054884195        1346671057.3980660     
  -2098807727.9384232       -10503240.857476234        1283363372.1667290     
  -1903040977.5495157       -18287404.866191745        1240814566.3935547     
  -1709627651.6224508       -33916317.081046820        1219024640.0785425     
  -1518567750.1572251       -57389977.502033532        1217993593.2216945     
   4.0794291022140126E-002   3.5469704096923439E-002   1596921968.5543630     
   2.9265783935444573E-002   1.3347747815453576E-002   1603279589.6087620     
   1.9686450272147236E-002  -2.2741881637939818E-003   1631484429.1243849     
   1.2050205156055472E-002  -1.1421243987194164E-002   1681536487.1012311     
   6.3613949273068800E-003  -1.4075462407336316E-002   1753435763.5393026     
  -320120095.24338543        3509058.3306905776        1514357325.3855326     
  -262837426.64482042        859478.04736196995        1507799840.2969160     
  -204726713.88566494        970044.96600051224        1524070169.5843501     
  -145787956.96591544        3840759.0866226405        1563168313.2478356     
  -86021155.885578260        9471620.4092002735        1625094271.2873683     
  -679921418.70444727       -4886251.8271514773        1423681048.4404767     
  -562554378.88200140       -9344901.5875580311        1405174508.7272637     
  -443531250.74031687       -8283256.9505049884        1410476379.3049273     
  -322852034.27939612       -1701317.9159979820        1439586660.1734707     
  -200516729.49923980        10400915.515961096        1492505351.3328857     
  -1079403970.3423951       -25185930.438060105        1324893137.7191982     
  -899150856.68227541       -30613138.891404778        1295403594.8998089     
  -716413610.54427123       -27759905.751802891        1290703058.2861221     
  -531192231.92838854       -16626231.019270480        1310791527.8781376     
  -343486720.83462161        2787885.3062083423        1355669003.6758595     
  -1518567750.1572251       -57389977.502033532        1217993593.2216945     
  -1272626860.0456405       -62945233.864175498        1178487098.8145454     
  -1023373793.2975295       -57459901.437891960        1164750206.5279281     
  -770808549.91289282       -40933980.223189831        1176782916.3618376     
  -514931129.89172953       -13367470.220068872        1214585228.3162801     
   6.3613949273068800E-003  -1.4075462407336316E-002   1753435763.5393026     
   5.6215105830388279E-003  -1.3682919266486706E-002   1623700820.1978679     
   3.9726463876752025E-003  -1.6321696741403127E-002   1489795762.3436544     
   1.4025182114586468E-003  -2.2034823599447938E-002   1351720589.9766674     
  -2.0818511749674355E-003  -3.0787094485506487E-002   1209475303.0968945     
  -86021155.885578260        9471620.4092002735        1625094271.2873683     
  -84823251.060621917        21895100.727509499        1497478119.9577935     
  -68389684.106807336        85104121.475347891        1372086591.3950839     
  -36720455.024122745        199098682.65274626        1248919685.5992472     
   10184436.187419280        363878784.25968403        1127977402.5702863     
  -200516729.49923980        10400915.515961096        1492505351.3328857     
  -179850241.90673569        40729079.534738302        1384782931.1665761     
  -128712430.05559172        172628324.41564655        1285679871.0467801     
  -47103293.945810139        406098650.15868217        1195196170.9735055     
   64977166.422615528        741140056.76385689        1113331830.9467561     
  -343486720.83462161        2787885.3062083423        1355669003.6758595     
  -285080972.53271818        56501936.408006072        1285615253.8242166     
  -180968237.84239787        262572608.80452681        1230575601.2987406     
  -31148516.763655931        620999902.49578214        1190550046.0994310     
   164378190.70349342        1131783817.4817345        1165538588.2262943     
  -514931129.89172953       -13367470.220068872        1214585228.3162801     
  -400515442.93856877        69213671.347315103        1199975087.9307168     
  -225157107.46721771        354936974.64200294        1206773782.1509688     
   11143876.522328317        843802439.66400611        1234981310.9770384     
   308387509.03007007        1535810066.4133282        1284597674.4089212     
  -3106015588.1094718       -46814685.130053401        1911922841.1057327     
  -2902708358.5927444       -34300942.822421312        1668051973.7164233     
  -2700091334.5337853       -24087885.374020457        1492553053.9687095     
  -2498164515.9325924       -16175512.784841299        1385426081.8625915     
  -2296927902.7891665       -10563825.054884195        1346671057.3980660     
  -4279242003.2889943       -223473818.68889880        1089390569.7082508     
  -3932613904.8620019       -144593146.90222192        1016406161.8744588     
  -3591834832.0789013       -85209227.261858702        969981183.37334156     
  -3256904784.9396973       -45322059.767817378        950115634.20490503     
  -2927823763.4443865       -24931644.420089006        956809514.36914361     
  -4893590503.6515398       -232469577.80265117        278856328.85753316     
  -4523105874.3397541       -123061277.94457054        370739757.02877527     
  -4163629090.8579917       -50345797.519893885        447370096.22377694     
  -3815160153.2062516       -14323136.528627157        508747346.44253772     
  -3477699061.3845363       -14993294.970773697        554871507.68505764     
  -4949061089.1970835       -73801962.471304178       -519679881.44641507     
  -4674184267.0259943        30294664.050535679       -268947240.82061982     
  -4415474110.8710508        80502403.851882458       -75280207.479983762     
  -4172930620.7322621        76821256.932720423        61321218.575493157     
  -3946553796.6096182        19251223.293065071        140857037.34581065     
  -4445653759.9256477        252529027.30513883       -1306218061.2035964     
  -4385849082.9207315        315474679.08308959       -902654831.67373192     
  -4347369892.1180849        307335376.85347009       -597969727.73794162     
  -4330216187.5177193        228111120.61623812       -392162749.39623111     
  -4334387969.1196327        77801910.371421814       -285233896.64859670     
  -2296927902.7891665       -10563825.054884195        1346671057.3980660     
  -2098807727.9384232       -10503240.857476234        1283363372.1667290     
  -1903040977.5495157       -18287404.866191745        1240814566.3935547     
  -1709627651.6224508       -33916317.081046820        1219024640.0785425     
  -1518567750.1572251       -57389977.502033532        1217993593.2216945     
  -2927823763.4443865       -24931644.420089006        956809514.36914361     
  -2682686397.5935616       -37126043.093767405        919790004.44765878     
  -2436580259.2821803       -46091200.232251644        901006758.03832376     
  -2189505348.5102391       -51827115.835536718        900459775.14114106     
  -1941461665.2777364       -54333789.903618813        918149055.75610352     
  -3477699061.3845363       -14993294.970773697        554871507.68505764     
  -3192751978.6651011       -41604918.754982710        548016069.48289287     
  -2903513926.5627060       -53913311.262666583        556874278.84686625     
  -2609984905.0773540       -51918472.493817806        581446135.77697229     
  -2312164914.2090406       -35620402.448442221        621731640.27321708     
  -3946553796.6096182        19251223.293065071        140857037.34581065     
  -3629004471.1530395       -23939867.841119051        168041567.27243030     
  -3303841979.3910999       -41753737.957440019        208417128.81917569     
  -2971066321.3238039       -34190387.055906296        261983721.98604065     
  -2630677496.9511523       -1249815.1365209818        328741346.77302808     
  -4334387969.1196327        77801910.371421814       -285233896.64859670     
  -3991443875.0573716        15869109.647831202       -220133502.18372816     
  -3637564417.7673588       -9612480.3165814877       -144364692.04474521     
  -3272749597.2495832        1357140.4782145023       -57927466.231657147     
  -2896999413.5040512        48777972.032190681        39178175.255541243     
  -1518567750.1572251       -57389977.502033532        1217993593.2216945     
  -1272626860.0456405       -62945233.864175498        1178487098.8145454     
  -1023373793.2975295       -57459901.437891960        1164750206.5279281     
  -770808549.91289282       -40933980.223189831        1176782916.3618376     
  -514931129.89172953       -13367470.220068872        1214585228.3162801     
  -1941461665.2777364       -54333789.903618813        918149055.75610352     
  -1639292883.2414086       -39677476.685794234        892156631.50839055     
  -1337482681.8119509       -26216432.157516062        878982621.33303201     
  -1036031060.9893560       -13950656.318792343        878627025.23002541     
  -734938020.77362788       -2880149.1696142852        891089843.19937634     
  -2312164914.2090406       -35620402.448442221        621731640.27321708     
  -1990771634.6713390       -11853537.977664948        604970736.06764734     
  -1673407692.9838915       -1517799.6744025946        588077057.88625419     
  -1360073089.1466992       -4613187.5386588573        571050605.72904277     
  -1050767823.1597650       -21139701.570441246        553891379.59600747     
  -2630677496.9511523       -1249815.1365209818        328741346.77302808     
  -2327063114.3354225        20526582.260226607        316929412.49231333     
  -2031148826.8133450        16635996.011477113        292033516.18760240     
  -1742934634.3849194       -12921573.882786751        254053657.85889024     
  -1462420537.0501378       -68146127.422530532        202989837.50618416     
  -2896999413.5040512        48777972.032190681        39178175.255541243     
  -2648167322.2336664        57462884.027860403        28032660.782391682     
  -2410706083.3003197        28244954.900078535       -9148003.7629357520     
  -2184615696.7040124       -38875815.351178765       -72363818.380427763     
  -1969896162.4447451       -143899426.72589022       -161614783.07010117     
  -514931129.89172953       -13367470.220068872        1214585228.3162801     
  -400515442.93856877        69213671.347315103        1199975087.9307168     
  -225157107.46721771        354936974.64200294        1206773782.1509688     
   11143876.522328317        843802439.66400611        1234981310.9770384     
   308387509.03007007        1535810066.4133282        1284597674.4089212     
  -734938020.77362788       -2880149.1696142852        891089843.19937634     
  -570416891.12293875        52471545.627930373        912494606.25306320     
  -349326569.33711237        296387214.20926666        957316901.41514957     
  -71667055.416139275        728866856.57441938        1025556728.6856407     
   262561650.63996482        1349910472.7233543        1117214088.0645254     
  -1050767823.1597650       -21139701.570441246        553891379.59600747     
  -830402115.08987999        8704287.1737751365        606208680.30872238     
  -557840671.26791239        212534061.75826535        683952210.63241625     
  -233083491.69385758        590349622.18304229        787121970.56708956     
   143869423.63227856        1142150968.4480994        915717960.11274922     
  -1462420537.0501378       -68146127.422530532        202989837.50618416     
  -1180471114.8393922       -62088104.015153408        281117310.09768772     
  -850699413.25961947        103377517.28898525        386679709.80275828     
  -473105432.31081414        428250736.48991132        519677036.62139183     
  -47689171.992979467        912531553.58757293        680109290.55359209     
  -1969896162.4447451       -143899426.72589022       -161614783.07010117     
  -1620623890.3714776       -159905627.93885404       -62779504.380033880     
  -1227902795.3122344       -31082419.198565602        65499398.926181033     
  -791732877.26700830        242570199.49499440        223221926.84854966     
  -312114136.23581815        661052228.14177883        410388079.38705248     
 </DataArray>
 <DataArray  type="Float64" Name="VM" NumberOfComponents="1" format="ascii">
   5105769458.0202932     
   4812813940.2631540     
   4626325103.8296881     
   4500216911.3389063     
   4401621405.3622417     
   4994357166.4339027     
   4712485227.6337252     
   4458177863.7367487     
   4213205681.8190994     
   3963730008.2924652     
   4805927771.3033609     
   4508808659.3930779     
   4210598612.4608860     
   3908641537.0734367     
   3600849976.9454064     
   4578850241.4011927     
   4244640705.6117368     
   3927476425.7817893     
   3629053923.1936998     
   3353540136.7702889     
   4524429702.1492023     
   4083444486.6884999     
   3729501011.0233779     
   3458163497.8153954     
   3269907314.3583117     
   4401621405.3622417     
   4017535684.1254869     
   3641363037.2832894     
   3274965667.3335795     
   2922481725.4826813     
   3963730008.2924652     
   3628785276.5950465     
   3302950278.7526422     
   2988767065.4141536     
   2690983168.5110774     
   3600849976.9454064     
   3311121684.9516325     
   3034318473.9278989     
   2773706748.7517233     
   2534692457.9536142     
   3353540136.7702889     
   3104291879.2937002     
   2874401221.2958207     
   2667513334.9973483     
   2489122667.6032686     
   3269907314.3583117     
   3053542949.4736571     
   2864604697.3889270     
   2706299312.4409261     
   2583160125.1634717     
   2922481725.4826813     
   2677801518.1497765     
   2425003698.8452272     
   2169063835.1813188     
   1922521526.9221258     
   2690983168.5110774     
   2400988023.3549566     
   2101305123.0840690     
   1791395107.5042067     
   1472166447.0604892     
   2534692457.9536142     
   2244478401.5735674     
   1958381880.7948611     
   1679833979.8670855     
   1415179835.9074228     
   2489122667.6032686     
   2238669877.3416386     
   2017997657.9210424     
   1837133096.7560384     
   1708844283.1977122     
   2583160125.1634717     
   2389546182.5569353     
   2249827045.5080676     
   2172262241.5419860     
   2164278462.0888839     
   1922521526.9221258     
   1550699365.2723286     
   1217955547.5675690     
   1013516718.4235538     
   1116236603.3872502     
   1472166447.0604892     
   1249461723.4168289     
   1127334551.0475709     
   1191649218.6886711     
   1505374341.8115234     
   1415179835.9074228     
   1341394195.5899022     
   1370506827.7209997     
   1548910691.8793461     
   1917421391.2816896     
   1708844283.1977122     
   1689969990.2229095     
   1750079229.8144479     
   1934920828.8917074     
   2298100115.0098939     
   2164278462.0888839     
   2124322228.6874859     
   2150697897.2562351     
   2297446414.6745787     
   2632634484.7815418     
   4524429702.1492023     
   4083444486.6884999     
   3729501011.0233779     
   3458163497.8153954     
   3269907314.3583117     
   3468598181.8171673     
   3234551501.5053463     
   3064297919.1785750     
   2956115763.8584633     
   2909911653.8611765     
   2683144042.3198915     
   2631733877.5012245     
   2611752235.5535793     
   2622848263.7708244     
   2664826042.5770807     
   2105039036.1996536     
   2226243748.6898589     
   2338780974.4599886     
   2442616281.1797891     
   2537735478.6086483     
   1643644458.5121944     
   1940288048.3673341     
   2184976435.6237116     
   2377709620.2813225     
   2518487602.3401642     
   3269907314.3583117     
   3053542949.4736571     
   2864604697.3889270     
   2706299312.4409261     
   2583160125.1634717     
   2909911653.8611765     
   2765495702.5425701     
   2652293210.2960830     
   2572983077.9091339     
   2530728541.0499182     
   2664826042.5770807     
   2587552295.7116151     
   2542934055.7511215     
   2532373684.9292154     
   2557263757.8298750     
   2537735478.6086483     
   2516022369.5832520     
   2526050223.8264828     
   2568154804.3262992     
   2642621205.5308199     
   2518487602.3401642     
   2535308639.0222211     
   2582159381.7360559     
   2659039830.4816713     
   2765949985.2590656     
   2583160125.1634717     
   2389546182.5569353     
   2249827045.5080676     
   2172262241.5419860     
   2164278462.0888839     
   2530728541.0499182     
   2411658147.1151137     
   2343474909.9369636     
   2329835441.1060700     
   2373281239.8887467     
   2557263757.8298750     
   2496966948.3494935     
   2482225926.2972741     
   2514143256.2509041     
   2593283125.0201545     
   2642621205.5308199     
   2624822132.9856305     
   2647731521.1233387     
   2711515137.8587813     
   2816220567.0389414     
   2765949985.2590656     
   2776961707.9405546     
   2825813923.0009394     
   2912506630.4402204     
   3037039830.2584004     
   2164278462.0888839     
   2124322228.6874859     
   2150697897.2562351     
   2297446414.6745787     
   2632634484.7815418     
   2373281239.8887467     
   2249220086.8568006     
   2166139448.8254943     
   2158282319.7282848     
   2279770783.4173288     
   2593283125.0201545     
   2407114746.2212157     
   2242209854.4870038     
   2114650108.0273774     
   2055207223.7506540     
   2816220567.0389414     
   2595544981.7296348     
   2380253126.7073879     
   2174327669.5823483     
   1986404957.2760346     
   3037039830.2584004     
   2812332316.8739653     
   2580401953.2800179     
   2341248739.4765658     
   2094872675.4635887     
   1643644458.5121944     
   1940288048.3673341     
   2184976435.6237116     
   2377709620.2813225     
   2518487602.3401642     
   2105039037.0973151     
   2226243749.5365453     
   2338780975.1961188     
   2442616281.7602592     
   2537735478.9998264     
   2683144044.2482686     
   2631733879.2261333     
   2611752237.0086350     
   2622848264.8936052     
   2664826043.3138256     
   3468598184.5257769     
   3234551503.8665648     
   3064297921.1360121     
   2956115765.3470550     
   2909911654.8126545     
   4524429705.2315798     
   4083444489.3180809     
   3729501013.1671181     
   3458163499.4210248     
   3269907315.3505983     
   2518487602.3401642     
   2535308639.0222211     
   2582159381.7360559     
   2659039830.4816713     
   2765949985.2590656     
   2537735478.9998264     
   2516022369.8617435     
   2526050223.9955683     
   2568154804.3940301     
   2642621205.5083694     
   2664826043.3138256     
   2587552296.2475700     
   2542934056.0826464     
   2532373685.0630002     
   2557263757.7812042     
   2909911654.8126545     
   2765495703.2515688     
   2652293210.7445145     
   2572983078.0914989     
   2530728540.9734516     
   3269907315.3505983     
   3053542950.2301025     
   2864604697.8770437     
   2706299312.6388192     
   2583160125.0611057     
   2765949985.2590656     
   2776961707.9405546     
   2825813923.0009394     
   2912506630.4402204     
   3037039830.2584004     
   2642621205.5083694     
   2624822132.9728661     
   2647731521.1203871     
   2711515137.8654232     
   2816220567.0546904     
   2557263757.7812042     
   2496966948.3209853     
   2482225926.2897344     
   2514143256.2642655     
   2593283125.0535684     
   2530728540.9734516     
   2411658147.0688086     
   2343474909.9232650     
   2329835441.1259589     
   2373281239.9415679     
   2583160125.0611057     
   2389546182.4926944     
   2249827045.4870486     
   2172262241.5677495     
   2164278462.1623378     
   3037039830.2584004     
   2812332316.8739653     
   2580401953.2800179     
   2341248739.4765658     
   2094872675.4635887     
   2816220567.0546904     
   2595544981.7407041     
   2380253126.7129436     
   2174327669.5808563     
   1986404957.2642889     
   2593283125.0535684     
   2407114746.2452850     
   2242209854.5002265     
   2114650108.0272965     
   2055207223.7327316     
   2373281239.9415679     
   2249220086.8958435     
   2166139448.8486896     
   2158282319.7328792     
   2279770783.3992810     
   2164278462.1623378     
   2124322228.7434928     
   2150697897.2918167     
   2297446414.6869044     
   2632634484.7677197     
   4524429705.2315798     
   4083444489.3180809     
   3729501013.1671181     
   3458163499.4210248     
   3269907315.3505983     
   4578850244.2088099     
   4244640708.0551262     
   3927476427.8283329     
   3629053924.7888470     
   3353540137.8319907     
   4805927773.0882559     
   4508808661.0286045     
   4210598613.9023509     
   3908641538.2632351     
   3600849977.8141427     
   4994357166.9471741     
   4712485228.1888580     
   4458177864.3055496     
   4213205682.3613663     
   3963730008.7692924     
   5105769457.4613953     
   4812813939.7521162     
   4626325103.4432268     
   4500216911.1140137     
   4401621405.3217812     
   3269907315.3505983     
   3053542950.2301025     
   2864604697.8770437     
   2706299312.6388192     
   2583160125.0611057     
   3353540137.8319907     
   3104291880.1154428     
   2874401221.8446698     
   2667513335.2455258     
   2489122667.5273833     
   3600849977.8141427     
   3311121685.6364231     
   3034318474.4057894     
   2773706748.9992733     
   2534692457.9422002     
   3963730008.7692924     
   3628785276.9874506     
   3302950279.0559411     
   2988767065.6198254     
   2690983168.5988846     
   4401621405.3217812     
   4017535684.1267128     
   3641363037.3455563     
   3274965667.4709024     
   2922481725.6942129     
   2583160125.0611057     
   2389546182.4926944     
   2249827045.4870486     
   2172262241.5677495     
   2164278462.1623378     
   2489122667.5273833     
   2238669877.2885828     
   2017997657.8997428     
   1837133096.7767932     
   1708844283.2706890     
   2534692457.9422002     
   2244478401.5652370     
   1958381880.7981312     
   1679833979.8933451     
   1415179835.9718401     
   2690983168.5988846     
   2400988023.4247475     
   2101305123.1415176     
   1791395107.5554142     
   1472166447.1104884     
   2922481725.6942129     
   2677801518.3210521     
   2425003698.9780402     
   2169063835.2750740     
   1922521526.9696283     
   2164278462.1623378     
   2124322228.7434928     
   2150697897.2918167     
   2297446414.6869044     
   2632634484.7677197     
   1708844283.2706890     
   1689969990.2753425     
   1750079229.8441756     
   1934920828.8979113     
   2298100114.9928393     
   1415179835.9718401     
   1341394195.6357687     
   1370506827.7442236     
   1548910691.8795185     
   1917421391.2624168     
   1472166447.1104884     
   1249461723.4533439     
   1127334551.0639277     
   1191649218.6819963     
   1505374341.7895482     
   1922521526.9696283     
   1550699365.3050067     
   1217955547.5791891     
   1013516718.4076831     
   1116236603.3559628     
 </DataArray>
 <DataArray  type="Float64" Name="strain" NumberOfComponents="3" format="ascii">
   7.5356874481334213E-002  -2.6437085911694858E-002  -5.6602782656007822E-002
   7.4674858120759247E-002  -2.7187156727377704E-002  -3.9115042711604653E-002
   7.3992841760184280E-002  -2.6859105739179129E-002  -2.5912021539073848E-002
   7.3310825399609286E-002  -2.5452932947099431E-002  -1.6993719138415422E-002
   7.2628809039034292E-002  -2.2968638351138493E-002  -1.2360135509629444E-002
   8.2115341662855501E-002  -2.3515272735882553E-002  -2.2519461549536934E-002
   7.8054544426627487E-002  -2.3875832400900215E-002  -1.1654380452096519E-002
   7.3993747190399500E-002  -2.3419077283761108E-002  -3.2621423340895572E-003
   6.9932949954171500E-002  -2.2145007384465433E-002   2.6572528044837007E-003
   6.5872152717943500E-002  -2.0053622703013474E-002   6.1038049636232272E-003
   8.0397493808175846E-002  -2.0593459560070304E-002   1.2083774218461379E-002
   7.4769791488733597E-002  -2.0564508074422672E-002   1.6065389447214695E-002
   6.9142089169291293E-002  -1.9979048828343102E-002   1.9386037488972982E-002
   6.3514386849849017E-002  -1.8837081821831716E-002   2.2045718343736392E-002
   5.7886684530406712E-002  -1.7138607054888400E-002   2.4044432011504940E-002
   7.0203330917295442E-002  -1.7671646384258027E-002   4.7206924647987265E-002
   6.4820599307077537E-002  -1.7253183747945156E-002   4.4044266986328608E-002
   5.9437867696859693E-002  -1.6539020372925033E-002   4.2032517930113672E-002
   5.4055136086641836E-002  -1.5529156259197803E-002   4.1171677479342556E-002
   4.8672404476423951E-002  -1.4223591406763353E-002   4.1461745634015300E-002
   5.1532852990214040E-002  -1.4749833208445751E-002   8.2849989739040758E-002
   4.8206967881659332E-002  -1.3941859421467667E-002   7.2282252165245364E-002
   4.4881082773104625E-002  -1.3098991917507095E-002   6.4677298989332624E-002
   4.1555197664549945E-002  -1.2221230696563922E-002   6.0035130211302211E-002
   3.8229312555995237E-002  -1.1308575758638334E-002   5.8355745831154493E-002
   7.2628809039034292E-002  -2.2968638351138493E-002  -1.2360135509629444E-002
   6.6603410133032087E-002  -2.0221704534955948E-002  -9.5391184242044902E-003
   6.0578011227029910E-002  -1.8027614082211901E-002  -6.2558033228402865E-003
   5.4552612321027705E-002  -1.6386366992905889E-002  -2.5101902055373881E-003
   4.8527213415025527E-002  -1.5297963267038583E-002   1.6977209277048155E-003
   6.5872152717943500E-002  -2.0053622703013474E-002   6.1038049636232272E-003
   6.0363708506461194E-002  -1.7746024556644840E-002   7.2818012533023002E-003
   5.4855264294978931E-002  -1.5823314262600308E-002   9.0314089160819649E-003
   4.9346820083496702E-002  -1.4285491820879237E-002   1.1352627951962659E-002
   4.3838375872014418E-002  -1.3132557231482433E-002   1.4245458360944208E-002
   5.7886684530406712E-002  -1.7138607054888400E-002   2.4044432011504940E-002
   5.3004508370606239E-002  -1.5270344578333858E-002   2.3747363016552156E-002
   4.8122332210805766E-002  -1.3619014442988700E-002   2.4131218751862193E-002
   4.3240156051005264E-002  -1.2184616648852637E-002   2.5195999217434838E-002
   3.8357979891204749E-002  -1.0967151195926228E-002   2.6941704413270318E-002
   4.8672404476423951E-002  -1.4223591406763353E-002   4.1461745634015300E-002
   4.4525809725467110E-002  -1.2794664600022758E-002   3.9857566865545459E-002
   4.0379214974510302E-002  -1.1414714623376933E-002   3.9043626184500094E-002
   3.6232620223553461E-002  -1.0083741476826122E-002   3.9019923590879399E-002
   3.2086025472596647E-002  -8.8017451603699948E-003   3.9786459084683264E-002
   3.8229312555995237E-002  -1.1308575758638334E-002   5.8355745831154493E-002
   3.4927612571043903E-002  -1.0318984621711713E-002   5.5612412800281924E-002
   3.1625912586092583E-002  -9.2104148037653530E-003   5.3768631213995846E-002
   2.8324212601141270E-002  -7.9828663047994599E-003   5.2824401072296266E-002
   2.5022512616189929E-002  -6.6363391248138726E-003   5.2779722375183025E-002
   4.8527213415025527E-002  -1.5297963267038583E-002   1.6977209277048155E-003
   4.4423436454456233E-002  -1.4198551344319521E-002   1.2147486340229330E-003
   4.0319659493886967E-002  -1.2524279664459931E-002  -3.9641349656638347E-004
   3.6215882533317714E-002  -1.0275148227458765E-002  -3.1357654640637722E-003
   3.2112105572748406E-002  -7.4511570333171129E-003  -7.0033072684685393E-003
   4.3838375872014418E-002  -1.3132557231482433E-002   1.4245458360944208E-002
   3.8887018148973745E-002  -1.1977425275521397E-002   1.3733607875196840E-002
   3.3935660425933059E-002  -1.0433010734108350E-002   1.2654785701413984E-002
   2.8984302702892421E-002  -8.4993136072432501E-003   1.1008991839596319E-002
   2.4032944979851728E-002  -6.1763338949263336E-003   8.7962262897434140E-003
   3.8357979891204749E-002  -1.0967151195926228E-002   2.6941704413270318E-002
   3.3120259554565296E-002  -9.7562992067227461E-003   2.6215398563767978E-002
   2.7882539217925766E-002  -8.3417418037567553E-003   2.5483339175103217E-002
   2.2644818881286281E-002  -6.7234789870275098E-003   2.4745526247275718E-002
   1.7407098544646768E-002  -4.9015107565355542E-003   2.4001959780285992E-002
   3.2086025472596647E-002  -8.8017451603699948E-003   3.9786459084683264E-002
   2.7123160671230856E-002  -7.5351731379244696E-003   3.8660120699737191E-002
   2.2160295869865100E-002  -6.2504728734050566E-003   3.8089246924500941E-002
   1.7197431068499362E-002  -4.9476443668118823E-003   3.8073837758974986E-002
   1.2234566267133564E-002  -3.6266876181447749E-003   3.8613893203158764E-002
   2.5022512616189929E-002  -6.6363391248138726E-003   5.2779722375183025E-002
   2.0895721498970496E-002  -5.3140470691260266E-003   5.1067774283103884E-002
   1.6768930381751035E-002  -4.1592039430533440E-003   5.0472508949607336E-002
   1.2642139264531602E-002  -3.1718097465961125E-003   5.0993926374693535E-002
   8.5153481473121684E-003  -2.3518644797540511E-003   5.2632026558362244E-002
   3.2112105572748406E-002  -7.4511570333171129E-003  -7.0033072684685393E-003
   2.6210870032560007E-002  -5.4380256527531978E-003  -2.7204451908168226E-003
   2.0309634492371581E-002  -5.6214736564863532E-003   2.8383072866020043E-003
   1.4408398952183224E-002  -8.0015010445172452E-003   9.6729501637887738E-003
   8.5071634119947559E-003  -1.2578107816845208E-002   1.7783483440743098E-002
   2.4032944979851728E-002  -6.1763338949263336E-003   8.7962262897434140E-003
   1.9364078060243650E-002  -4.8675538406172114E-003   1.2181750103016864E-002
   1.4695211140635642E-002  -5.9764556877758279E-003   1.6756120757683762E-002
   1.0026344221027612E-002  -9.5030394364019888E-003   2.2519338253743582E-002
   5.3574773014195554E-003  -1.5447305086496055E-002   2.9471402591196627E-002
   1.7407098544646768E-002  -4.9015107565355542E-003   2.4001959780285992E-002
   1.3883556687244641E-002  -4.2970820284811695E-003   2.6269042812010923E-002
   1.0360014829842577E-002  -6.3314377190645255E-003   2.9637929126755030E-002
   6.8364729724404612E-003  -1.1004577828286621E-002   3.4108618724517592E-002
   3.3129311150383589E-003  -1.8316502356146902E-002   3.9681111605298636E-002
   1.2234566267133564E-002  -3.6266876181447749E-003   3.8613893203158764E-002
   9.7693059135630020E-003  -3.7266102163450443E-003   3.9541432936164994E-002
   7.3040455599924416E-003  -6.6864197503540557E-003   4.1483732393815684E-002
   4.8387852064219585E-003  -1.2506116220171642E-002   4.4440791576110486E-002
   2.3735248528513539E-003  -2.1185699625797749E-002   4.8412610483050122E-002
   8.5153481473121684E-003  -2.3518644797540511E-003   5.2632026558362244E-002
   7.0213257391987249E-003  -3.1561384042091134E-003   5.1998920475479160E-002
   5.5273033310853092E-003  -7.0414017816431557E-003   5.2293530558866153E-002
   4.0332809229718866E-003  -1.4007654612056556E-002   5.3515856808523013E-002
   2.5392585148584224E-003  -2.4054896895448596E-002   5.5665899224449644E-002
   5.1532852990214040E-002  -1.4749833208445751E-002   8.2849989739040758E-002
   4.8206967881659332E-002  -1.3941859421467667E-002   7.2282252165245364E-002
   4.4881082773104625E-002  -1.3098991917507095E-002   6.4677298989332624E-002
   4.1555197664549945E-002  -1.2221230696563922E-002   6.0035130211302211E-002
   3.8229312555995237E-002  -1.1308575758638334E-002   5.8355745831154493E-002
   3.1130573092422523E-002  -1.1062374912440304E-002   7.2714324412363446E-002
   3.0234644101731462E-002  -1.0456394569487437E-002   6.6657001655307413E-002
   2.9338715111040380E-002  -9.8242439395618136E-003   6.2496806736096130E-002
   2.8442786120349308E-002  -9.1659230226632214E-003   6.0233739654729508E-002
   2.7546857129658230E-002  -8.4814318187919624E-003   5.9867800411207706E-002
   1.5741004289411609E-002  -7.3749166164348706E-003   6.2381027356665626E-002
   1.6209374856546357E-002  -6.9709297175072765E-003   6.0825395986339306E-002
   1.6677745423681105E-002  -6.5494959616165631E-003   6.0101235893819896E-002
   1.7146115990815867E-002  -6.1106153487626600E-003   6.0208547079107326E-002
   1.7614486557950615E-002  -5.6542878789456880E-003   6.1147329542201777E-002
   5.3641465811812492E-003  -3.6874583204294167E-003   5.1850098571947521E-002
   6.1311601461040378E-003  -3.4854648655270812E-003   5.4787435158341044E-002
   6.8981737110268334E-003  -3.2747479836712830E-003   5.7490586462503809E-002
   7.6651872759496238E-003  -3.0553076748620427E-003   5.9959552484435720E-002
   8.4322008408724159E-003  -2.8271439390993372E-003   6.2194333224136734E-002
  -3.2268535066215520E-011  -2.4423990607758128E-011   4.1121538058208923E-002
  -2.9595485784295050E-011  -1.3546885835324929E-011   4.8543119171312737E-002
  -2.6922457319056292E-011  -5.7260654551249957E-012   5.4664858442148009E-002
  -2.4249425384370582E-011  -9.6138548510982247E-013   5.9486755870714662E-002
  -2.1576379571897064E-011   7.4695805096780532E-013   6.3008811457012592E-002
   3.8229312555995237E-002  -1.1308575758638334E-002   5.8355745831154493E-002
   3.4927612571043903E-002  -1.0318984621711713E-002   5.5612412800281924E-002
   3.1625912586092583E-002  -9.2104148037653530E-003   5.3768631213995846E-002
   2.8324212601141270E-002  -7.9828663047994599E-003   5.2824401072296266E-002
   2.5022512616189929E-002  -6.6363391248138726E-003   5.2779722375183025E-002
   2.7546857129658230E-002  -8.4814318187919624E-003   5.9867800411207706E-002
   2.5126176977551165E-002  -7.7392384660688041E-003   5.7960126969097775E-002
   2.2705496825444111E-002  -6.9078111026147360E-003   5.6914941748089837E-002
   2.0284816673337057E-002  -5.9871497284296471E-003   5.6732244748184030E-002
   1.7864136521230006E-002  -4.9772543435135930E-003   5.7412035969380382E-002
   1.7614486557950615E-002  -5.6542878789456880E-003   6.1147329542201777E-002
   1.6037763015203488E-002  -5.1594923104259782E-003   6.0045571018565655E-002
   1.4461039472456371E-002  -4.6052074014640114E-003   5.9769237492547297E-002
   1.2884315929709253E-002  -3.9914331520598352E-003   6.0318328964146663E-002
   1.1307592386962141E-002  -3.3181695622133134E-003   6.1692845433363827E-002
   8.4322008408724159E-003  -2.8271439390993372E-003   6.2194333224136734E-002
   7.6623706840008854E-003  -2.5797461547831246E-003   6.1868744948685814E-002
   6.8925405271293661E-003  -2.3026037003133128E-003   6.2331518447368207E-002
   6.1227103702578400E-003  -1.9957165756899951E-003   6.3582653720184054E-002
   5.3528802133863112E-003  -1.6590847809130338E-003   6.5622150767133416E-002
  -2.1576379571897064E-011   7.4695805096780532E-013   6.3008811457012592E-002
  -1.6056645596451702E-011   8.5972895469410560E-013   6.3429648759458057E-002
  -1.0536911621006340E-011   8.3730244959667743E-013   6.4601784612552615E-002
  -5.0171741761140254E-012   6.7981037465969507E-013   6.6525219016296294E-002
   5.0255632988438492E-013   3.8719027983802334E-013   6.9199951970689066E-002
   2.5022512616189929E-002  -6.6363391248138726E-003   5.2779722375183025E-002
   2.0895721498970496E-002  -5.3140470691260266E-003   5.1067774283103884E-002
   1.6768930381751035E-002  -4.1592039430533440E-003   5.0472508949607336E-002
   1.2642139264531602E-002  -3.1718097465961125E-003   5.0993926374693535E-002
   8.5153481473121684E-003  -2.3518644797540511E-003   5.2632026558362244E-002
   1.7864136521230006E-002  -4.9772543435135930E-003   5.7412035969380382E-002
   1.4832781917768628E-002  -3.9855353018254519E-003   5.6134155779767755E-002
   1.1801427314307250E-002  -3.1194029573242826E-003   5.5930465859088729E-002
   8.7700727108458720E-003  -2.3788573100097278E-003   5.6800966207343137E-002
   5.7387181073844939E-003  -1.7638983598821101E-003   5.8745656824531173E-002
   1.1307592386962141E-002  -3.3181695622133134E-003   6.1692845433363827E-002
   9.3291818076097592E-003  -2.6570235345249327E-003   6.0890895378646101E-002
   7.3507712282573946E-003  -2.0796019715949507E-003   6.1120643103212892E-002
   5.3723606489050335E-003  -1.5859048734233449E-003   6.2382088607064082E-002
   3.3939500695526481E-003  -1.1759322400101968E-003   6.4675231890199844E-002
   5.3528802133863112E-003  -1.6590847809130338E-003   6.5622150767133416E-002
   4.3849211684938846E-003  -1.3285117672243579E-003   6.5337993079739004E-002
   3.4169621236014676E-003  -1.0398009858656430E-003   6.6043040681980067E-002
   2.4490030787090427E-003  -7.9295243683698887E-004   6.7737293573856536E-002
   1.4810440338166239E-003  -5.8796612013832517E-004   7.0420751755368355E-002
   5.0255632988438492E-013   3.8719027983802334E-013   6.9199951970689066E-002
   4.2102432651347499E-013   7.6133543913670110E-014   6.9475448883046353E-002
   3.3947844535475724E-013  -1.3633538742396922E-013   7.0697658595390012E-002
   2.5794297253689535E-013  -2.5060509223351346E-013   7.2866581107720013E-002
   1.7640056082512956E-013  -2.6639801475880631E-013   7.5982216420036441E-002
   8.5153481473121684E-003  -2.3518644797540511E-003   5.2632026558362244E-002
   7.0213257391987249E-003  -3.1561384042091134E-003   5.1998920475479160E-002
   5.5273033310853092E-003  -7.0414017816431557E-003   5.2293530558866153E-002
   4.0332809229718866E-003  -1.4007654612056556E-002   5.3515856808523013E-002
   2.5392585148584224E-003  -2.4054896895448596E-002   5.5665899224449644E-002
   5.7387181073844939E-003  -1.7638983598821101E-003   5.8745656824531173E-002
   5.0338592244797142E-003  -2.3671038032209157E-003   5.5709994331320289E-002
   4.3290003415749276E-003  -5.2810513363052564E-003   5.3324942722256588E-002
   3.6241414586701687E-003  -1.0505740959135913E-002   5.1590501997340270E-002
   2.9192825757653751E-003  -1.8041172671712125E-002   5.0506672156571453E-002
   3.3939500695526481E-003  -1.1759322400101968E-003   6.4675231890199844E-002
   3.2011494297339502E-003  -1.5780692022325654E-003   6.0007260349894134E-002
   3.0083487899152453E-003  -3.5207008909675722E-003   5.5712794411613260E-002
   2.8155481500965317E-003  -7.0038273062153506E-003   5.1791834075357077E-002
   2.6227475102778286E-003  -1.2027448447975653E-002   4.8244379341125798E-002
   1.4810440338166239E-003  -5.8796612013832517E-004   7.0420751755368355E-002
   1.5231963549614085E-003  -7.8903460124434693E-004   6.4890718531201083E-002
   1.5653486761061930E-003  -1.7603504456297804E-003   5.9457085626936093E-002
   1.6075009972509910E-003  -3.5019136532947479E-003   5.4119853042573322E-002
   1.6496533183957621E-003  -6.0137242242391808E-003   4.8879020778112500E-002
   1.7640056082512956E-013  -2.6639801475880631E-013   7.5982216420036441E-002
   1.6210643938308067E-013  -2.5615620735663924E-013   7.0360368875240942E-002
   1.4781925683493569E-013  -2.9189151096176147E-013   6.4557816368225024E-002
   1.3354942152155047E-013  -3.7425965104809222E-013   5.8574558898988924E-002
   1.1923795284474181E-013  -5.0270898555027088E-013   5.2410596467532100E-002
  -3.2268535066215520E-011  -2.4423990607758128E-011   4.1121538058208923E-002
  -2.9595485784295050E-011  -1.3546885835324929E-011   4.8543119171312737E-002
  -2.6922457319056292E-011  -5.7260654551249957E-012   5.4664858442148009E-002
  -2.4249425384370582E-011  -9.6138548510982247E-013   5.9486755870714662E-002
  -2.1576379571897064E-011   7.4695805096780532E-013   6.3008811457012592E-002
  -5.3641466449739217E-003   3.6874582787769505E-003   5.1850098586973425E-002
  -6.1311602045606671E-003   3.4854648429873264E-003   5.4787435169074625E-002
  -6.8981737641473761E-003   3.2747479748142586E-003   5.7490586468924923E-002
  -7.6651873237340937E-003   3.0553076742578251E-003   5.9959552486524341E-002
  -8.4322008833208235E-003   2.8271439413180277E-003   6.2194333221872899E-002
  -1.5741004350971116E-002   7.3749165819779056E-003   6.2381027383734917E-002
  -1.6209374912799841E-002   6.9709296995215803E-003   6.0825396005506190E-002
  -1.6677745474628546E-002   6.5494959553545999E-003   6.0101235905044334E-002
  -1.7146116036457257E-002   6.1106153494771059E-003   6.0208547082349434E-002
  -1.7614486598285968E-002   5.6542878818890419E-003   6.1147329537421358E-002
  -3.1130573150260119E-002   1.1062374885178854E-002   7.2714324448493253E-002
  -3.0234644154313043E-002   1.0456394556055799E-002   6.6657001680607411E-002
  -2.9338715158365967E-002   9.8242439358949604E-003   6.2496806750506291E-002
  -2.8442786162418882E-002   9.1659230246963729E-003   6.0233739658189837E-002
  -2.7546857166471813E-002   8.4814318224600976E-003   5.9867800403658029E-002
  -5.1532853042840929E-002   1.4749833188379802E-002   8.2849989781248412E-002
  -4.8206967929100300E-002   1.3941859412590032E-002   7.2282252194378338E-002
  -4.4881082815359651E-002   1.3098991916435251E-002   6.4677299005310745E-002
  -4.1555197701619001E-002   1.2221230699915608E-002   6.0035130214045634E-002
  -3.8229312587878359E-002   1.1308575763031098E-002   5.8355745820582866E-002
  -2.1576379571897064E-011   7.4695805096780532E-013   6.3008811457012592E-002
  -1.6056645596451702E-011   8.5972895469410560E-013   6.3429648759458057E-002
  -1.0536911621006340E-011   8.3730244959667743E-013   6.4601784612552615E-002
  -5.0171741761140254E-012   6.7981037465969507E-013   6.6525219016296294E-002
   5.0255632988438492E-013   3.8719027983802334E-013   6.9199951970689066E-002
  -8.4322008833208235E-003   2.8271439413180277E-003   6.2194333221872899E-002
  -7.6623707155847520E-003   2.5797461569950636E-003   6.1868744947405865E-002
  -6.8925405478486804E-003   2.3026037022890813E-003   6.2331518446722509E-002
  -6.1227103801126115E-003   1.9957165772001868E-003   6.3582653719822607E-002
  -5.3528802123765443E-003   1.6590847817284371E-003   6.5622150766706411E-002
  -1.7614486598285968E-002   5.6542878818890419E-003   6.1147329537421358E-002
  -1.6037763045199067E-002   5.1594923131303011E-003   6.0045571015794087E-002
  -1.4461039492112165E-002   4.6052074037408602E-003   5.9769237491084884E-002
  -1.2884315939025264E-002   3.9914331537206464E-003   6.0318328963293720E-002
  -1.1307592385938363E-002   3.3181695630697117E-003   6.1692845432420651E-002
  -2.7546857166471813E-002   8.4814318224600976E-003   5.9867800403658029E-002
  -2.5126177004899598E-002   7.7392384692656011E-003   5.7960126964622688E-002
  -2.2705496843327386E-002   6.9078111051925559E-003   5.6914941745639880E-002
  -2.0284816681755150E-002   5.9871497302410644E-003   5.6732244746709598E-002
  -1.7864136520182948E-002   4.9772543444109724E-003   5.7412035967831926E-002
  -3.8229312587878359E-002   1.1308575763031098E-002   5.8355745820582866E-002
  -3.4927612594686339E-002   1.0318984625400845E-002   5.5612412793891591E-002
  -3.1625912601494305E-002   9.2104148066443833E-003   5.3768631210387371E-002
  -2.8324212608302281E-002   7.9828663067614738E-003   5.2824401070070172E-002
  -2.5022512615110251E-002   6.6363391257522331E-003   5.2779722372940097E-002
   5.0255632988438492E-013   3.8719027983802334E-013   6.9199951970689066E-002
   4.2102432651347499E-013   7.6133543913670110E-014   6.9475448883046353E-002
   3.3947844535475724E-013  -1.3633538742396922E-013   7.0697658595390012E-002
   2.5794297253689535E-013  -2.5060509223351346E-013   7.2866581107720013E-002
   1.7640056082512956E-013  -2.6639801475880631E-013   7.5982216420036441E-002
  -5.3528802123765443E-003   1.6590847817284371E-003   6.5622150766706411E-002
  -4.3849211676504837E-003   1.3285117673468017E-003   6.5337993079533030E-002
  -3.4169621229244180E-003   1.0398009855283330E-003   6.6043040681988505E-002
  -2.4490030781983705E-003   7.9295243627328788E-004   6.7737293574072877E-002
  -1.4810440334723056E-003   5.8796611958122913E-004   7.0420751755785965E-002
  -1.1307592385938363E-002   3.3181695630697117E-003   6.1692845432420651E-002
  -9.3291818067622323E-003   2.6570235346173726E-003   6.0890895378181431E-002
  -7.3507712275860896E-003   2.0796019711931679E-003   6.1120643103213523E-002
  -5.3723606484099460E-003   1.5859048727970143E-003   6.2382088607517067E-002
  -3.3939500692338025E-003   1.1759322394288840E-003   6.4675231891091714E-002
  -1.7864136520182948E-002   4.9772543444109724E-003   5.7412035967831926E-002
  -1.4832781916914234E-002   3.9855353018879644E-003   5.6134155778991716E-002
  -1.1801427313645507E-002   3.1194029568579751E-003   5.5930465859065290E-002
  -8.7700727103767907E-003   2.3788573093207685E-003   5.6800966208052632E-002
  -5.7387181071080684E-003   1.7638983592765806E-003   5.8745656825953910E-002
  -2.5022512615110251E-002   6.6363391257522331E-003   5.2779722372940097E-002
  -2.0895721498106465E-002   5.3140470691586117E-003   5.1067774281963629E-002
  -1.6768930381102699E-002   4.1592039425227822E-003   5.0472508949543554E-002
  -1.2642139264098930E-002   3.1718097458446337E-003   5.0993926375679635E-002
  -8.5153481470951475E-003   2.3518644791241661E-003   5.2632026560372136E-002
   1.7640056082512956E-013  -2.6639801475880631E-013   7.5982216420036441E-002
   1.6210643938308067E-013  -2.5615620735663924E-013   7.0360368875240942E-002
   1.4781925683493569E-013  -2.9189151096176147E-013   6.4557816368225024E-002
   1.3354942152155047E-013  -3.7425965104809222E-013   5.8574558898988924E-002
   1.1923795284474181E-013  -5.0270898555027088E-013   5.2410596467532100E-002
  -1.4810440334723056E-003   5.8796611958122913E-004   7.0420751755785965E-002
  -1.5231963546479127E-003   7.8903460076160115E-004   6.4890718531504382E-002
  -1.5653486758235285E-003   1.7603504451231683E-003   5.9457085627120307E-002
  -1.6075009969991104E-003   3.5019136526663851E-003   5.4119853042634052E-002
  -1.6496533181747652E-003   6.0137242233909705E-003   4.8879020778045734E-002
  -3.3939500692338025E-003   1.1759322394288840E-003   6.4675231891091714E-002
  -3.2011494294526197E-003   1.5780692017793169E-003   6.0007260350551636E-002
  -3.0083487896714282E-003   3.5207008905387346E-003   5.5712794412027138E-002
  -2.8155481498902462E-003   7.0038273057070870E-003   5.1791834075518572E-002
  -2.6227475101090261E-003   1.2027448447284539E-002   4.8244379341026100E-002
  -5.7387181071080684E-003   1.7638983592765806E-003   5.8745656825953910E-002
  -5.0338592242520006E-003   2.3671038027970256E-003   5.5709994332382717E-002
  -4.3290003413959319E-003   5.2810513359541032E-003   5.3324942722945426E-002
  -3.6241414585398432E-003   1.0505740958747983E-002   5.1590501997642008E-002
  -2.9192825756837824E-003   1.8041172671178107E-002   5.0506672156472754E-002
  -8.5153481470951475E-003   2.3518644791241661E-003   5.2632026560372136E-002
  -7.0213257390460554E-003   3.1561384038147622E-003   5.1998920476997723E-002
  -5.5273033309969771E-003   7.0414017813694718E-003   5.2293530559875318E-002
  -4.0332809229478919E-003   1.4007654611788461E-002   5.3515856809005002E-002
  -2.5392585148988067E-003   2.4054896895071787E-002   5.5665899224386584E-002
  -5.1532853042840929E-002   1.4749833188379802E-002   8.2849989781248412E-002
  -4.8206967929100300E-002   1.3941859412590032E-002   7.2282252194378338E-002
  -4.4881082815359651E-002   1.3098991916435251E-002   6.4677299005310745E-002
  -4.1555197701619001E-002   1.2221230699915608E-002   6.0035130214045634E-002
  -3.8229312587878359E-002   1.1308575763031098E-002   5.8355745820582866E-002
  -7.0203330961372074E-002   1.7671646371629990E-002   4.7206924687357529E-002
  -6.4820599346522262E-002   1.7253183742606315E-002   4.4044267014559879E-002
  -5.9437867731672395E-002   1.6539020372696861E-002   4.2032517946178134E-002
  -5.4055136116822534E-002   1.5529156261901531E-002   4.1171677482212551E-002
  -4.8672404501972660E-002   1.4223591410220449E-002   4.1461745622662888E-002
  -8.0397493838512399E-002   2.0593459554880178E-002   1.2083774250493104E-002
  -7.4769791515939710E-002   2.0564508072622591E-002   1.6065389471246930E-002
  -6.9142089193367062E-002   1.9979048828958394E-002   1.9386037503030334E-002
  -6.3514386870794387E-002   1.8837081823887471E-002   2.2045718345843301E-002
  -5.7886684548221740E-002   1.7138607057409785E-002   2.4044431999685832E-002
  -8.2115341674261544E-002   2.3515272738130352E-002  -2.2519461529344652E-002
  -7.8054544437352574E-002   2.3875832402638898E-002  -1.1654380435560193E-002
  -7.3993747200443605E-002   2.3419077285219966E-002  -3.2621423241326296E-003
  -6.9932949963534635E-002   2.2145007385873317E-002   2.6572528049380369E-003
  -6.5872152726625624E-002   2.0053622704599171E-002   6.1038049516517947E-003
  -7.5356874468619828E-002   2.6437085921380554E-002  -5.6602782652155847E-002
  -7.4674858110760967E-002   2.7187156732655149E-002  -3.9115042705861719E-002
  -7.3992841752902105E-002   2.6859105741481593E-002  -2.5912021535310803E-002
  -7.3310825395043189E-002   2.5452932947859233E-002  -1.6993719140503349E-002
  -7.2628809037184328E-002   2.2968638351788528E-002  -1.2360135521439192E-002
  -3.8229312587878359E-002   1.1308575763031098E-002   5.8355745820582866E-002
  -3.4927612594686339E-002   1.0318984625400845E-002   5.5612412793891591E-002
  -3.1625912601494305E-002   9.2104148066443833E-003   5.3768631210387371E-002
  -2.8324212608302281E-002   7.9828663067614738E-003   5.2824401070070172E-002
  -2.5022512615110251E-002   6.6363391257522331E-003   5.2779722372940097E-002
  -4.8672404501972660E-002   1.4223591410220449E-002   4.1461745622662888E-002
  -4.4525809744423862E-002   1.2794664603071687E-002   3.9857566859398549E-002
  -4.0379214986875078E-002   1.1414714625873373E-002   3.9043626181660698E-002
  -3.6232620229326301E-002   1.0083741478625584E-002   3.9019923589449446E-002
  -3.2086025471777510E-002   8.8017451613283670E-003   3.9786459082764486E-002
  -5.7886684548221740E-002   1.7138607057409785E-002   2.4044431999685832E-002
  -5.3004508383976773E-002   1.5270344580742459E-002   2.3747363010925358E-002
  -4.8122332219731771E-002   1.3619014445102422E-002   2.4131218750030870E-002
  -4.3240156055486811E-002   1.2184616650489807E-002   2.5195999217002135E-002
  -3.8357979891241803E-002   1.0967151196904501E-002   2.6941704411839407E-002
  -6.5872152726625624E-002   2.0053622704599171E-002   6.1038049516517947E-003
  -6.0363708513345063E-002   1.7746024558413211E-002   7.2818012484719800E-003
  -5.4855264300064460E-002   1.5823314264331499E-002   9.0314089154976129E-003
  -4.9346820086783871E-002   1.4285491822353917E-002   1.1352627952728428E-002
  -4.3838375873503269E-002   1.3132557232480413E-002   1.4245458360164550E-002
  -7.2628809037184328E-002   2.2968638351788528E-002  -1.2360135521439192E-002
  -6.6603410132528684E-002   2.0221704536084045E-002  -9.5391184279615543E-003
  -6.0578011227873069E-002   1.8027614083560434E-002  -6.2558033219389589E-003
  -5.4552612323217467E-002   1.6386366994218159E-002  -2.5101902033718097E-003
  -4.8527213418561810E-002   1.5297963268056769E-002   1.6977209277401206E-003
  -2.5022512615110251E-002   6.6363391257522331E-003   5.2779722372940097E-002
  -2.0895721498106465E-002   5.3140470691586117E-003   5.1067774281963629E-002
  -1.6768930381102699E-002   4.1592039425227822E-003   5.0472508949543554E-002
  -1.2642139264098930E-002   3.1718097458446337E-003   5.0993926375679635E-002
  -8.5153481470951475E-003   2.3518644791241661E-003   5.2632026560372136E-002
  -3.2086025471777510E-002   8.8017451613283670E-003   3.9786459082764486E-002
  -2.7123160670594507E-002   7.5351731381104736E-003   3.8660120698696926E-002
  -2.2160295869411602E-002   6.2504728731011538E-003   3.8089246924431386E-002
  -1.7197431068228641E-002   4.9476443663002412E-003   3.8073837759967769E-002
  -1.2234566267045728E-002   3.6266876177079022E-003   3.8613893205306310E-002
  -3.8357979891241803E-002   1.0967151196904501E-002   2.6941704411839407E-002
  -3.3120259554633991E-002   9.7562992070622800E-003   2.6215398562931383E-002
  -2.7882539218026178E-002   8.3417418036794144E-003   2.5483339175071014E-002
  -2.2644818881418359E-002   6.7234789867558487E-003   2.4745526248258522E-002
  -1.7407098544810547E-002   4.9015107562914717E-003   2.4001959782493656E-002
  -4.3838375873503269E-002   1.3132557232480413E-002   1.4245458360164550E-002
  -3.8887018150224849E-002   1.1977425276014225E-002   1.3733607874666910E-002
  -3.3935660426946464E-002   1.0433010734258008E-002   1.2654785701462772E-002
  -2.8984302703668054E-002   8.4993136072114839E-003   1.1008991840551910E-002
  -2.4032944980389645E-002   6.1763338948751800E-003   8.7962262919346473E-003
  -4.8527213418561810E-002   1.5297963268056769E-002   1.6977209277401206E-003
  -4.4423436457367071E-002   1.4198551344966004E-002   1.2147486339036395E-003
  -4.0319659496172389E-002   1.2524279664836241E-002  -3.9641349639388257E-004
  -3.6215882534977650E-002   1.0275148227667084E-002  -3.1357654631518697E-003
  -3.2112105573782967E-002   7.4511570334588884E-003  -7.0033072663710505E-003
  -8.5153481470951475E-003   2.3518644791241661E-003   5.2632026560372136E-002
  -7.0213257390460554E-003   3.1561384038147622E-003   5.1998920476997723E-002
  -5.5273033309969771E-003   7.0414017813694718E-003   5.2293530559875318E-002
  -4.0332809229478919E-003   1.4007654611788461E-002   5.3515856809005002E-002
  -2.5392585148988067E-003   2.4054896895071787E-002   5.5665899224386584E-002
  -1.2234566267045728E-002   3.6266876177079022E-003   3.8613893205306310E-002
  -9.7693059135219654E-003   3.7266102160802006E-003   3.9541432937632737E-002
  -7.3040455599982061E-003   6.6864197501733391E-003   4.1483732394656483E-002
  -4.8387852064744174E-003   1.2506116219987685E-002   4.4440791576377765E-002
  -2.3735248529506911E-003   2.1185699625522747E-002   4.8412610482796103E-002
  -1.7407098544810547E-002   4.9015107562914717E-003   2.4001959782493656E-002
  -1.3883556687366875E-002   4.2970820283456529E-003   2.6269042813377969E-002
  -1.0360014829923200E-002   6.3314377189773174E-003   2.9637929127404705E-002
  -6.8364729724795046E-003   1.1004577828186660E-002   3.4108618724573880E-002
  -3.3129311150358540E-003   1.8316502355973596E-002   3.9681111604885799E-002
  -2.4032944980389645E-002   6.1763338948751800E-003   8.7962262919346473E-003
  -1.9364078060580769E-002   4.8675538406110705E-003   1.2181750104233134E-002
  -1.4695211140771918E-002   5.9764556877811847E-003   1.6756120758119525E-002
  -1.0026344220963124E-002   9.5030394363859252E-003   2.2519338253593646E-002
  -5.3574773011541895E-003   1.5447305086424445E-002   2.9471402590655657E-002
  -3.2112105573782967E-002   7.4511570334588884E-003  -7.0033072663710505E-003
  -2.6210870033163691E-002   5.4380256528764881E-003  -2.7204451898014681E-003
  -2.0309634492544415E-002   5.6214736565850798E-003   2.8383072868011783E-003
  -1.4408398951925111E-002   8.0015010445849480E-003   9.6729501634371523E-003
  -8.5071634113058625E-003   1.2578107816875406E-002   1.7783483440105607E-002
 </DataArray>
 </PointData>
 </Piece>
 </UnstructuredGrid>
 </VTKFile>
