 <VTKFile type="UnstructuredGrid"  version="0.1"   >
 <UnstructuredGrid>
 <Piece  NumberOfPoints="          1600 "  NumberOfCells="         1024 ">
 <Points>
 <DataArray  type="Float64" NumberOfComponents="3"  format="ascii" >
   0.0000000000000000        0.0000000000000000        0.0000000000000000     
   3.1250000000000000E-002   0.0000000000000000        0.0000000000000000     
   6.2500000000000000E-002   0.0000000000000000        0.0000000000000000     
   9.3750000000000000E-002   0.0000000000000000        0.0000000000000000     
  0.12500000000000000        0.0000000000000000        0.0000000000000000     
   0.0000000000000000        3.1250000000000000E-002   0.0000000000000000     
   3.1250000000000000E-002   3.1250000000000000E-002   0.0000000000000000     
   6.2500000000000000E-002   3.1250000000000000E-002   0.0000000000000000     
   9.3750000000000000E-002   3.1250000000000000E-002   0.0000000000000000     
  0.12500000000000000        3.1250000000000000E-002   0.0000000000000000     
   0.0000000000000000        6.2500000000000000E-002   0.0000000000000000     
   3.1250000000000000E-002   6.2500000000000000E-002   0.0000000000000000     
   6.2500000000000000E-002   6.2500000000000000E-002   0.0000000000000000     
   9.3750000000000000E-002   6.2500000000000000E-002   0.0000000000000000     
  0.12500000000000000        6.2500000000000000E-002   0.0000000000000000     
   0.0000000000000000        9.3750000000000000E-002   0.0000000000000000     
   3.1250000000000000E-002   9.3750000000000000E-002   0.0000000000000000     
   6.2500000000000000E-002   9.3750000000000000E-002   0.0000000000000000     
   9.3750000000000000E-002   9.3750000000000000E-002   0.0000000000000000     
  0.12500000000000000        9.3750000000000000E-002   0.0000000000000000     
   0.0000000000000000       0.12500000000000000        0.0000000000000000     
   3.1250000000000000E-002  0.12500000000000000        0.0000000000000000     
   6.2500000000000000E-002  0.12500000000000000        0.0000000000000000     
   9.3750000000000000E-002  0.12500000000000000        0.0000000000000000     
  0.12500000000000000       0.12500000000000000        0.0000000000000000     
  0.12500000000000000        0.0000000000000000        0.0000000000000000     
  0.15625000000000000        0.0000000000000000        0.0000000000000000     
  0.18750000000000000        0.0000000000000000        0.0000000000000000     
  0.21875000000000000        0.0000000000000000        0.0000000000000000     
  0.25000000000000000        0.0000000000000000        0.0000000000000000     
  0.12500000000000000        3.1250000000000000E-002   0.0000000000000000     
  0.15625000000000000        3.1250000000000000E-002   0.0000000000000000     
  0.18750000000000000        3.1250000000000000E-002   0.0000000000000000     
  0.21875000000000000        3.1250000000000000E-002   0.0000000000000000     
  0.25000000000000000        3.1250000000000000E-002   0.0000000000000000     
  0.12500000000000000        6.2500000000000000E-002   0.0000000000000000     
  0.15625000000000000        6.2500000000000000E-002   0.0000000000000000     
  0.18750000000000000        6.2500000000000000E-002   0.0000000000000000     
  0.21875000000000000        6.2500000000000000E-002   0.0000000000000000     
  0.25000000000000000        6.2500000000000000E-002   0.0000000000000000     
  0.12500000000000000        9.3750000000000000E-002   0.0000000000000000     
  0.15625000000000000        9.3750000000000000E-002   0.0000000000000000     
  0.18750000000000000        9.3750000000000000E-002   0.0000000000000000     
  0.21875000000000000        9.3750000000000000E-002   0.0000000000000000     
  0.25000000000000000        9.3750000000000000E-002   0.0000000000000000     
  0.12500000000000000       0.12500000000000000        0.0000000000000000     
  0.15625000000000000       0.12500000000000000        0.0000000000000000     
  0.18750000000000000       0.12500000000000000        0.0000000000000000     
  0.21875000000000000       0.12500000000000000        0.0000000000000000     
  0.25000000000000000       0.12500000000000000        0.0000000000000000     
  0.25000000000000000        0.0000000000000000        0.0000000000000000     
  0.28125000000000000        0.0000000000000000        0.0000000000000000     
  0.31250000000000000        0.0000000000000000        0.0000000000000000     
  0.34375000000000000        0.0000000000000000        0.0000000000000000     
  0.37500000000000000        0.0000000000000000        0.0000000000000000     
  0.25000000000000000        3.1250000000000000E-002   0.0000000000000000     
  0.28125000000000000        3.1250000000000000E-002   0.0000000000000000     
  0.31250000000000000        3.1250000000000000E-002   0.0000000000000000     
  0.34375000000000000        3.1250000000000000E-002   0.0000000000000000     
  0.37500000000000000        3.1250000000000000E-002   0.0000000000000000     
  0.25000000000000000        6.2500000000000000E-002   0.0000000000000000     
  0.28125000000000000        6.2500000000000000E-002   0.0000000000000000     
  0.31250000000000000        6.2500000000000000E-002   0.0000000000000000     
  0.34375000000000000        6.2500000000000000E-002   0.0000000000000000     
  0.37500000000000000        6.2500000000000000E-002   0.0000000000000000     
  0.25000000000000000        9.3750000000000000E-002   0.0000000000000000     
  0.28125000000000000        9.3750000000000000E-002   0.0000000000000000     
  0.31250000000000000        9.3750000000000000E-002   0.0000000000000000     
  0.34375000000000000        9.3750000000000000E-002   0.0000000000000000     
  0.37500000000000000        9.3750000000000000E-002   0.0000000000000000     
  0.25000000000000000       0.12500000000000000        0.0000000000000000     
  0.28125000000000000       0.12500000000000000        0.0000000000000000     
  0.31250000000000000       0.12500000000000000        0.0000000000000000     
  0.34375000000000000       0.12500000000000000        0.0000000000000000     
  0.37500000000000000       0.12500000000000000        0.0000000000000000     
  0.37500000000000000        0.0000000000000000        0.0000000000000000     
  0.40625000000000000        0.0000000000000000        0.0000000000000000     
  0.43750000000000000        0.0000000000000000        0.0000000000000000     
  0.46875000000000000        0.0000000000000000        0.0000000000000000     
  0.50000000000000000        0.0000000000000000        0.0000000000000000     
  0.37500000000000000        3.1250000000000000E-002   0.0000000000000000     
  0.40625000000000000        3.1250000000000000E-002   0.0000000000000000     
  0.43750000000000000        3.1250000000000000E-002   0.0000000000000000     
  0.46875000000000000        3.1250000000000000E-002   0.0000000000000000     
  0.50000000000000000        3.1250000000000000E-002   0.0000000000000000     
  0.37500000000000000        6.2500000000000000E-002   0.0000000000000000     
  0.40625000000000000        6.2500000000000000E-002   0.0000000000000000     
  0.43750000000000000        6.2500000000000000E-002   0.0000000000000000     
  0.46875000000000000        6.2500000000000000E-002   0.0000000000000000     
  0.50000000000000000        6.2500000000000000E-002   0.0000000000000000     
  0.37500000000000000        9.3750000000000000E-002   0.0000000000000000     
  0.40625000000000000        9.3750000000000000E-002   0.0000000000000000     
  0.43750000000000000        9.3750000000000000E-002   0.0000000000000000     
  0.46875000000000000        9.3750000000000000E-002   0.0000000000000000     
  0.50000000000000000        9.3750000000000000E-002   0.0000000000000000     
  0.37500000000000000       0.12500000000000000        0.0000000000000000     
  0.40625000000000000       0.12500000000000000        0.0000000000000000     
  0.43750000000000000       0.12500000000000000        0.0000000000000000     
  0.46875000000000000       0.12500000000000000        0.0000000000000000     
  0.50000000000000000       0.12500000000000000        0.0000000000000000     
  0.50000000000000000        0.0000000000000000        0.0000000000000000     
  0.53125000000000000        0.0000000000000000        0.0000000000000000     
  0.56250000000000000        0.0000000000000000        0.0000000000000000     
  0.59375000000000000        0.0000000000000000        0.0000000000000000     
  0.62500000000000000        0.0000000000000000        0.0000000000000000     
  0.50000000000000000        3.1250000000000000E-002   0.0000000000000000     
  0.53125000000000000        3.1250000000000000E-002   0.0000000000000000     
  0.56250000000000000        3.1250000000000000E-002   0.0000000000000000     
  0.59375000000000000        3.1250000000000000E-002   0.0000000000000000     
  0.62500000000000000        3.1250000000000000E-002   0.0000000000000000     
  0.50000000000000000        6.2500000000000000E-002   0.0000000000000000     
  0.53125000000000000        6.2500000000000000E-002   0.0000000000000000     
  0.56250000000000000        6.2500000000000000E-002   0.0000000000000000     
  0.59375000000000000        6.2500000000000000E-002   0.0000000000000000     
  0.62500000000000000        6.2500000000000000E-002   0.0000000000000000     
  0.50000000000000000        9.3750000000000000E-002   0.0000000000000000     
  0.53125000000000000        9.3750000000000000E-002   0.0000000000000000     
  0.56250000000000000        9.3750000000000000E-002   0.0000000000000000     
  0.59375000000000000        9.3750000000000000E-002   0.0000000000000000     
  0.62500000000000000        9.3750000000000000E-002   0.0000000000000000     
  0.50000000000000000       0.12500000000000000        0.0000000000000000     
  0.53125000000000000       0.12500000000000000        0.0000000000000000     
  0.56250000000000000       0.12500000000000000        0.0000000000000000     
  0.59375000000000000       0.12500000000000000        0.0000000000000000     
  0.62500000000000000       0.12500000000000000        0.0000000000000000     
  0.62500000000000000        0.0000000000000000        0.0000000000000000     
  0.65625000000000000        0.0000000000000000        0.0000000000000000     
  0.68750000000000000        0.0000000000000000        0.0000000000000000     
  0.71875000000000000        0.0000000000000000        0.0000000000000000     
  0.75000000000000000        0.0000000000000000        0.0000000000000000     
  0.62500000000000000        3.1250000000000000E-002   0.0000000000000000     
  0.65625000000000000        3.1250000000000000E-002   0.0000000000000000     
  0.68750000000000000        3.1250000000000000E-002   0.0000000000000000     
  0.71875000000000000        3.1250000000000000E-002   0.0000000000000000     
  0.75000000000000000        3.1250000000000000E-002   0.0000000000000000     
  0.62500000000000000        6.2500000000000000E-002   0.0000000000000000     
  0.65625000000000000        6.2500000000000000E-002   0.0000000000000000     
  0.68750000000000000        6.2500000000000000E-002   0.0000000000000000     
  0.71875000000000000        6.2500000000000000E-002   0.0000000000000000     
  0.75000000000000000        6.2500000000000000E-002   0.0000000000000000     
  0.62500000000000000        9.3750000000000000E-002   0.0000000000000000     
  0.65625000000000000        9.3750000000000000E-002   0.0000000000000000     
  0.68750000000000000        9.3750000000000000E-002   0.0000000000000000     
  0.71875000000000000        9.3750000000000000E-002   0.0000000000000000     
  0.75000000000000000        9.3750000000000000E-002   0.0000000000000000     
  0.62500000000000000       0.12500000000000000        0.0000000000000000     
  0.65625000000000000       0.12500000000000000        0.0000000000000000     
  0.68750000000000000       0.12500000000000000        0.0000000000000000     
  0.71875000000000000       0.12500000000000000        0.0000000000000000     
  0.75000000000000000       0.12500000000000000        0.0000000000000000     
  0.75000000000000000        0.0000000000000000        0.0000000000000000     
  0.78125000000000000        0.0000000000000000        0.0000000000000000     
  0.81250000000000000        0.0000000000000000        0.0000000000000000     
  0.84375000000000000        0.0000000000000000        0.0000000000000000     
  0.87500000000000000        0.0000000000000000        0.0000000000000000     
  0.75000000000000000        3.1250000000000000E-002   0.0000000000000000     
  0.78125000000000000        3.1250000000000000E-002   0.0000000000000000     
  0.81250000000000000        3.1250000000000000E-002   0.0000000000000000     
  0.84375000000000000        3.1250000000000000E-002   0.0000000000000000     
  0.87500000000000000        3.1250000000000000E-002   0.0000000000000000     
  0.75000000000000000        6.2500000000000000E-002   0.0000000000000000     
  0.78125000000000000        6.2500000000000000E-002   0.0000000000000000     
  0.81250000000000000        6.2500000000000000E-002   0.0000000000000000     
  0.84375000000000000        6.2500000000000000E-002   0.0000000000000000     
  0.87500000000000000        6.2500000000000000E-002   0.0000000000000000     
  0.75000000000000000        9.3750000000000000E-002   0.0000000000000000     
  0.78125000000000000        9.3750000000000000E-002   0.0000000000000000     
  0.81250000000000000        9.3750000000000000E-002   0.0000000000000000     
  0.84375000000000000        9.3750000000000000E-002   0.0000000000000000     
  0.87500000000000000        9.3750000000000000E-002   0.0000000000000000     
  0.75000000000000000       0.12500000000000000        0.0000000000000000     
  0.78125000000000000       0.12500000000000000        0.0000000000000000     
  0.81250000000000000       0.12500000000000000        0.0000000000000000     
  0.84375000000000000       0.12500000000000000        0.0000000000000000     
  0.87500000000000000       0.12500000000000000        0.0000000000000000     
  0.87500000000000000        0.0000000000000000        0.0000000000000000     
  0.90625000000000000        0.0000000000000000        0.0000000000000000     
  0.93750000000000000        0.0000000000000000        0.0000000000000000     
  0.96875000000000000        0.0000000000000000        0.0000000000000000     
   1.0000000000000000        0.0000000000000000        0.0000000000000000     
  0.87500000000000000        3.1250000000000000E-002   0.0000000000000000     
  0.90625000000000000        3.1250000000000000E-002   0.0000000000000000     
  0.93750000000000000        3.1250000000000000E-002   0.0000000000000000     
  0.96875000000000000        3.1250000000000000E-002   0.0000000000000000     
   1.0000000000000000        3.1250000000000000E-002   0.0000000000000000     
  0.87500000000000000        6.2500000000000000E-002   0.0000000000000000     
  0.90625000000000000        6.2500000000000000E-002   0.0000000000000000     
  0.93750000000000000        6.2500000000000000E-002   0.0000000000000000     
  0.96875000000000000        6.2500000000000000E-002   0.0000000000000000     
   1.0000000000000000        6.2500000000000000E-002   0.0000000000000000     
  0.87500000000000000        9.3750000000000000E-002   0.0000000000000000     
  0.90625000000000000        9.3750000000000000E-002   0.0000000000000000     
  0.93750000000000000        9.3750000000000000E-002   0.0000000000000000     
  0.96875000000000000        9.3750000000000000E-002   0.0000000000000000     
   1.0000000000000000        9.3750000000000000E-002   0.0000000000000000     
  0.87500000000000000       0.12500000000000000        0.0000000000000000     
  0.90625000000000000       0.12500000000000000        0.0000000000000000     
  0.93750000000000000       0.12500000000000000        0.0000000000000000     
  0.96875000000000000       0.12500000000000000        0.0000000000000000     
   1.0000000000000000       0.12500000000000000        0.0000000000000000     
   0.0000000000000000       0.12500000000000000        0.0000000000000000     
   3.1250000000000000E-002  0.12500000000000000        0.0000000000000000     
   6.2500000000000000E-002  0.12500000000000000        0.0000000000000000     
   9.3750000000000000E-002  0.12500000000000000        0.0000000000000000     
  0.12500000000000000       0.12500000000000000        0.0000000000000000     
   0.0000000000000000       0.15625000000000000        0.0000000000000000     
   3.1250000000000000E-002  0.15625000000000000        0.0000000000000000     
   6.2500000000000000E-002  0.15625000000000000        0.0000000000000000     
   9.3750000000000000E-002  0.15625000000000000        0.0000000000000000     
  0.12500000000000000       0.15625000000000000        0.0000000000000000     
   0.0000000000000000       0.18750000000000000        0.0000000000000000     
   3.1250000000000000E-002  0.18750000000000000        0.0000000000000000     
   6.2500000000000000E-002  0.18750000000000000        0.0000000000000000     
   9.3750000000000000E-002  0.18750000000000000        0.0000000000000000     
  0.12500000000000000       0.18750000000000000        0.0000000000000000     
   0.0000000000000000       0.21875000000000000        0.0000000000000000     
   3.1250000000000000E-002  0.21875000000000000        0.0000000000000000     
   6.2500000000000000E-002  0.21875000000000000        0.0000000000000000     
   9.3750000000000000E-002  0.21875000000000000        0.0000000000000000     
  0.12500000000000000       0.21875000000000000        0.0000000000000000     
   0.0000000000000000       0.25000000000000000        0.0000000000000000     
   3.1250000000000000E-002  0.25000000000000000        0.0000000000000000     
   6.2500000000000000E-002  0.25000000000000000        0.0000000000000000     
   9.3750000000000000E-002  0.25000000000000000        0.0000000000000000     
  0.12500000000000000       0.25000000000000000        0.0000000000000000     
  0.12500000000000000       0.12500000000000000        0.0000000000000000     
  0.15625000000000000       0.12500000000000000        0.0000000000000000     
  0.18750000000000000       0.12500000000000000        0.0000000000000000     
  0.21875000000000000       0.12500000000000000        0.0000000000000000     
  0.25000000000000000       0.12500000000000000        0.0000000000000000     
  0.12500000000000000       0.15625000000000000        0.0000000000000000     
  0.15625000000000000       0.15625000000000000        0.0000000000000000     
  0.18750000000000000       0.15625000000000000        0.0000000000000000     
  0.21875000000000000       0.15625000000000000        0.0000000000000000     
  0.25000000000000000       0.15625000000000000        0.0000000000000000     
  0.12500000000000000       0.18750000000000000        0.0000000000000000     
  0.15625000000000000       0.18750000000000000        0.0000000000000000     
  0.18750000000000000       0.18750000000000000        0.0000000000000000     
  0.21875000000000000       0.18750000000000000        0.0000000000000000     
  0.25000000000000000       0.18750000000000000        0.0000000000000000     
  0.12500000000000000       0.21875000000000000        0.0000000000000000     
  0.15625000000000000       0.21875000000000000        0.0000000000000000     
  0.18750000000000000       0.21875000000000000        0.0000000000000000     
  0.21875000000000000       0.21875000000000000        0.0000000000000000     
  0.25000000000000000       0.21875000000000000        0.0000000000000000     
  0.12500000000000000       0.25000000000000000        0.0000000000000000     
  0.15625000000000000       0.25000000000000000        0.0000000000000000     
  0.18750000000000000       0.25000000000000000        0.0000000000000000     
  0.21875000000000000       0.25000000000000000        0.0000000000000000     
  0.25000000000000000       0.25000000000000000        0.0000000000000000     
  0.25000000000000000       0.12500000000000000        0.0000000000000000     
  0.28125000000000000       0.12500000000000000        0.0000000000000000     
  0.31250000000000000       0.12500000000000000        0.0000000000000000     
  0.34375000000000000       0.12500000000000000        0.0000000000000000     
  0.37500000000000000       0.12500000000000000        0.0000000000000000     
  0.25000000000000000       0.15625000000000000        0.0000000000000000     
  0.28125000000000000       0.15625000000000000        0.0000000000000000     
  0.31250000000000000       0.15625000000000000        0.0000000000000000     
  0.34375000000000000       0.15625000000000000        0.0000000000000000     
  0.37500000000000000       0.15625000000000000        0.0000000000000000     
  0.25000000000000000       0.18750000000000000        0.0000000000000000     
  0.28125000000000000       0.18750000000000000        0.0000000000000000     
  0.31250000000000000       0.18750000000000000        0.0000000000000000     
  0.34375000000000000       0.18750000000000000        0.0000000000000000     
  0.37500000000000000       0.18750000000000000        0.0000000000000000     
  0.25000000000000000       0.21875000000000000        0.0000000000000000     
  0.28125000000000000       0.21875000000000000        0.0000000000000000     
  0.31250000000000000       0.21875000000000000        0.0000000000000000     
  0.34375000000000000       0.21875000000000000        0.0000000000000000     
  0.37500000000000000       0.21875000000000000        0.0000000000000000     
  0.25000000000000000       0.25000000000000000        0.0000000000000000     
  0.28125000000000000       0.25000000000000000        0.0000000000000000     
  0.31250000000000000       0.25000000000000000        0.0000000000000000     
  0.34375000000000000       0.25000000000000000        0.0000000000000000     
  0.37500000000000000       0.25000000000000000        0.0000000000000000     
  0.37500000000000000       0.12500000000000000        0.0000000000000000     
  0.40625000000000000       0.12500000000000000        0.0000000000000000     
  0.43750000000000000       0.12500000000000000        0.0000000000000000     
  0.46875000000000000       0.12500000000000000        0.0000000000000000     
  0.50000000000000000       0.12500000000000000        0.0000000000000000     
  0.37500000000000000       0.15625000000000000        0.0000000000000000     
  0.40625000000000000       0.15625000000000000        0.0000000000000000     
  0.43750000000000000       0.15625000000000000        0.0000000000000000     
  0.46875000000000000       0.15625000000000000        0.0000000000000000     
  0.50000000000000000       0.15625000000000000        0.0000000000000000     
  0.37500000000000000       0.18750000000000000        0.0000000000000000     
  0.40625000000000000       0.18750000000000000        0.0000000000000000     
  0.43750000000000000       0.18750000000000000        0.0000000000000000     
  0.46875000000000000       0.18750000000000000        0.0000000000000000     
  0.50000000000000000       0.18750000000000000        0.0000000000000000     
  0.37500000000000000       0.21875000000000000        0.0000000000000000     
  0.40625000000000000       0.21875000000000000        0.0000000000000000     
  0.43750000000000000       0.21875000000000000        0.0000000000000000     
  0.46875000000000000       0.21875000000000000        0.0000000000000000     
  0.50000000000000000       0.21875000000000000        0.0000000000000000     
  0.37500000000000000       0.25000000000000000        0.0000000000000000     
  0.40625000000000000       0.25000000000000000        0.0000000000000000     
  0.43750000000000000       0.25000000000000000        0.0000000000000000     
  0.46875000000000000       0.25000000000000000        0.0000000000000000     
  0.50000000000000000       0.25000000000000000        0.0000000000000000     
  0.50000000000000000       0.12500000000000000        0.0000000000000000     
  0.53125000000000000       0.12500000000000000        0.0000000000000000     
  0.56250000000000000       0.12500000000000000        0.0000000000000000     
  0.59375000000000000       0.12500000000000000        0.0000000000000000     
  0.62500000000000000       0.12500000000000000        0.0000000000000000     
  0.50000000000000000       0.15625000000000000        0.0000000000000000     
  0.53125000000000000       0.15625000000000000        0.0000000000000000     
  0.56250000000000000       0.15625000000000000        0.0000000000000000     
  0.59375000000000000       0.15625000000000000        0.0000000000000000     
  0.62500000000000000       0.15625000000000000        0.0000000000000000     
  0.50000000000000000       0.18750000000000000        0.0000000000000000     
  0.53125000000000000       0.18750000000000000        0.0000000000000000     
  0.56250000000000000       0.18750000000000000        0.0000000000000000     
  0.59375000000000000       0.18750000000000000        0.0000000000000000     
  0.62500000000000000       0.18750000000000000        0.0000000000000000     
  0.50000000000000000       0.21875000000000000        0.0000000000000000     
  0.53125000000000000       0.21875000000000000        0.0000000000000000     
  0.56250000000000000       0.21875000000000000        0.0000000000000000     
  0.59375000000000000       0.21875000000000000        0.0000000000000000     
  0.62500000000000000       0.21875000000000000        0.0000000000000000     
  0.50000000000000000       0.25000000000000000        0.0000000000000000     
  0.53125000000000000       0.25000000000000000        0.0000000000000000     
  0.56250000000000000       0.25000000000000000        0.0000000000000000     
  0.59375000000000000       0.25000000000000000        0.0000000000000000     
  0.62500000000000000       0.25000000000000000        0.0000000000000000     
  0.62500000000000000       0.12500000000000000        0.0000000000000000     
  0.65625000000000000       0.12500000000000000        0.0000000000000000     
  0.68750000000000000       0.12500000000000000        0.0000000000000000     
  0.71875000000000000       0.12500000000000000        0.0000000000000000     
  0.75000000000000000       0.12500000000000000        0.0000000000000000     
  0.62500000000000000       0.15625000000000000        0.0000000000000000     
  0.65625000000000000       0.15625000000000000        0.0000000000000000     
  0.68750000000000000       0.15625000000000000        0.0000000000000000     
  0.71875000000000000       0.15625000000000000        0.0000000000000000     
  0.75000000000000000       0.15625000000000000        0.0000000000000000     
  0.62500000000000000       0.18750000000000000        0.0000000000000000     
  0.65625000000000000       0.18750000000000000        0.0000000000000000     
  0.68750000000000000       0.18750000000000000        0.0000000000000000     
  0.71875000000000000       0.18750000000000000        0.0000000000000000     
  0.75000000000000000       0.18750000000000000        0.0000000000000000     
  0.62500000000000000       0.21875000000000000        0.0000000000000000     
  0.65625000000000000       0.21875000000000000        0.0000000000000000     
  0.68750000000000000       0.21875000000000000        0.0000000000000000     
  0.71875000000000000       0.21875000000000000        0.0000000000000000     
  0.75000000000000000       0.21875000000000000        0.0000000000000000     
  0.62500000000000000       0.25000000000000000        0.0000000000000000     
  0.65625000000000000       0.25000000000000000        0.0000000000000000     
  0.68750000000000000       0.25000000000000000        0.0000000000000000     
  0.71875000000000000       0.25000000000000000        0.0000000000000000     
  0.75000000000000000       0.25000000000000000        0.0000000000000000     
  0.75000000000000000       0.12500000000000000        0.0000000000000000     
  0.78125000000000000       0.12500000000000000        0.0000000000000000     
  0.81250000000000000       0.12500000000000000        0.0000000000000000     
  0.84375000000000000       0.12500000000000000        0.0000000000000000     
  0.87500000000000000       0.12500000000000000        0.0000000000000000     
  0.75000000000000000       0.15625000000000000        0.0000000000000000     
  0.78125000000000000       0.15625000000000000        0.0000000000000000     
  0.81250000000000000       0.15625000000000000        0.0000000000000000     
  0.84375000000000000       0.15625000000000000        0.0000000000000000     
  0.87500000000000000       0.15625000000000000        0.0000000000000000     
  0.75000000000000000       0.18750000000000000        0.0000000000000000     
  0.78125000000000000       0.18750000000000000        0.0000000000000000     
  0.81250000000000000       0.18750000000000000        0.0000000000000000     
  0.84375000000000000       0.18750000000000000        0.0000000000000000     
  0.87500000000000000       0.18750000000000000        0.0000000000000000     
  0.75000000000000000       0.21875000000000000        0.0000000000000000     
  0.78125000000000000       0.21875000000000000        0.0000000000000000     
  0.81250000000000000       0.21875000000000000        0.0000000000000000     
  0.84375000000000000       0.21875000000000000        0.0000000000000000     
  0.87500000000000000       0.21875000000000000        0.0000000000000000     
  0.75000000000000000       0.25000000000000000        0.0000000000000000     
  0.78125000000000000       0.25000000000000000        0.0000000000000000     
  0.81250000000000000       0.25000000000000000        0.0000000000000000     
  0.84375000000000000       0.25000000000000000        0.0000000000000000     
  0.87500000000000000       0.25000000000000000        0.0000000000000000     
  0.87500000000000000       0.12500000000000000        0.0000000000000000     
  0.90625000000000000       0.12500000000000000        0.0000000000000000     
  0.93750000000000000       0.12500000000000000        0.0000000000000000     
  0.96875000000000000       0.12500000000000000        0.0000000000000000     
   1.0000000000000000       0.12500000000000000        0.0000000000000000     
  0.87500000000000000       0.15625000000000000        0.0000000000000000     
  0.90625000000000000       0.15625000000000000        0.0000000000000000     
  0.93750000000000000       0.15625000000000000        0.0000000000000000     
  0.96875000000000000       0.15625000000000000        0.0000000000000000     
   1.0000000000000000       0.15625000000000000        0.0000000000000000     
  0.87500000000000000       0.18750000000000000        0.0000000000000000     
  0.90625000000000000       0.18750000000000000        0.0000000000000000     
  0.93750000000000000       0.18750000000000000        0.0000000000000000     
  0.96875000000000000       0.18750000000000000        0.0000000000000000     
   1.0000000000000000       0.18750000000000000        0.0000000000000000     
  0.87500000000000000       0.21875000000000000        0.0000000000000000     
  0.90625000000000000       0.21875000000000000        0.0000000000000000     
  0.93750000000000000       0.21875000000000000        0.0000000000000000     
  0.96875000000000000       0.21875000000000000        0.0000000000000000     
   1.0000000000000000       0.21875000000000000        0.0000000000000000     
  0.87500000000000000       0.25000000000000000        0.0000000000000000     
  0.90625000000000000       0.25000000000000000        0.0000000000000000     
  0.93750000000000000       0.25000000000000000        0.0000000000000000     
  0.96875000000000000       0.25000000000000000        0.0000000000000000     
   1.0000000000000000       0.25000000000000000        0.0000000000000000     
   0.0000000000000000       0.25000000000000000        0.0000000000000000     
   3.1250000000000000E-002  0.25000000000000000        0.0000000000000000     
   6.2500000000000000E-002  0.25000000000000000        0.0000000000000000     
   9.3750000000000000E-002  0.25000000000000000        0.0000000000000000     
  0.12500000000000000       0.25000000000000000        0.0000000000000000     
   0.0000000000000000       0.28125000000000000        0.0000000000000000     
   3.1250000000000000E-002  0.28125000000000000        0.0000000000000000     
   6.2500000000000000E-002  0.28125000000000000        0.0000000000000000     
   9.3750000000000000E-002  0.28125000000000000        0.0000000000000000     
  0.12500000000000000       0.28125000000000000        0.0000000000000000     
   0.0000000000000000       0.31250000000000000        0.0000000000000000     
   3.1250000000000000E-002  0.31250000000000000        0.0000000000000000     
   6.2500000000000000E-002  0.31250000000000000        0.0000000000000000     
   9.3750000000000000E-002  0.31250000000000000        0.0000000000000000     
  0.12500000000000000       0.31250000000000000        0.0000000000000000     
   0.0000000000000000       0.34375000000000000        0.0000000000000000     
   3.1250000000000000E-002  0.34375000000000000        0.0000000000000000     
   6.2500000000000000E-002  0.34375000000000000        0.0000000000000000     
   9.3750000000000000E-002  0.34375000000000000        0.0000000000000000     
  0.12500000000000000       0.34375000000000000        0.0000000000000000     
   0.0000000000000000       0.37500000000000000        0.0000000000000000     
   3.1250000000000000E-002  0.37500000000000000        0.0000000000000000     
   6.2500000000000000E-002  0.37500000000000000        0.0000000000000000     
   9.3750000000000000E-002  0.37500000000000000        0.0000000000000000     
  0.12500000000000000       0.37500000000000000        0.0000000000000000     
  0.12500000000000000       0.25000000000000000        0.0000000000000000     
  0.15625000000000000       0.25000000000000000        0.0000000000000000     
  0.18750000000000000       0.25000000000000000        0.0000000000000000     
  0.21875000000000000       0.25000000000000000        0.0000000000000000     
  0.25000000000000000       0.25000000000000000        0.0000000000000000     
  0.12500000000000000       0.28125000000000000        0.0000000000000000     
  0.15625000000000000       0.28125000000000000        0.0000000000000000     
  0.18750000000000000       0.28125000000000000        0.0000000000000000     
  0.21875000000000000       0.28125000000000000        0.0000000000000000     
  0.25000000000000000       0.28125000000000000        0.0000000000000000     
  0.12500000000000000       0.31250000000000000        0.0000000000000000     
  0.15625000000000000       0.31250000000000000        0.0000000000000000     
  0.18750000000000000       0.31250000000000000        0.0000000000000000     
  0.21875000000000000       0.31250000000000000        0.0000000000000000     
  0.25000000000000000       0.31250000000000000        0.0000000000000000     
  0.12500000000000000       0.34375000000000000        0.0000000000000000     
  0.15625000000000000       0.34375000000000000        0.0000000000000000     
  0.18750000000000000       0.34375000000000000        0.0000000000000000     
  0.21875000000000000       0.34375000000000000        0.0000000000000000     
  0.25000000000000000       0.34375000000000000        0.0000000000000000     
  0.12500000000000000       0.37500000000000000        0.0000000000000000     
  0.15625000000000000       0.37500000000000000        0.0000000000000000     
  0.18750000000000000       0.37500000000000000        0.0000000000000000     
  0.21875000000000000       0.37500000000000000        0.0000000000000000     
  0.25000000000000000       0.37500000000000000        0.0000000000000000     
  0.25000000000000000       0.25000000000000000        0.0000000000000000     
  0.28125000000000000       0.25000000000000000        0.0000000000000000     
  0.31250000000000000       0.25000000000000000        0.0000000000000000     
  0.34375000000000000       0.25000000000000000        0.0000000000000000     
  0.37500000000000000       0.25000000000000000        0.0000000000000000     
  0.25000000000000000       0.28125000000000000        0.0000000000000000     
  0.28125000000000000       0.28125000000000000        0.0000000000000000     
  0.31250000000000000       0.28125000000000000        0.0000000000000000     
  0.34375000000000000       0.28125000000000000        0.0000000000000000     
  0.37500000000000000       0.28125000000000000        0.0000000000000000     
  0.25000000000000000       0.31250000000000000        0.0000000000000000     
  0.28125000000000000       0.31250000000000000        0.0000000000000000     
  0.31250000000000000       0.31250000000000000        0.0000000000000000     
  0.34375000000000000       0.31250000000000000        0.0000000000000000     
  0.37500000000000000       0.31250000000000000        0.0000000000000000     
  0.25000000000000000       0.34375000000000000        0.0000000000000000     
  0.28125000000000000       0.34375000000000000        0.0000000000000000     
  0.31250000000000000       0.34375000000000000        0.0000000000000000     
  0.34375000000000000       0.34375000000000000        0.0000000000000000     
  0.37500000000000000       0.34375000000000000        0.0000000000000000     
  0.25000000000000000       0.37500000000000000        0.0000000000000000     
  0.28125000000000000       0.37500000000000000        0.0000000000000000     
  0.31250000000000000       0.37500000000000000        0.0000000000000000     
  0.34375000000000000       0.37500000000000000        0.0000000000000000     
  0.37500000000000000       0.37500000000000000        0.0000000000000000     
  0.37500000000000000       0.25000000000000000        0.0000000000000000     
  0.40625000000000000       0.25000000000000000        0.0000000000000000     
  0.43750000000000000       0.25000000000000000        0.0000000000000000     
  0.46875000000000000       0.25000000000000000        0.0000000000000000     
  0.50000000000000000       0.25000000000000000        0.0000000000000000     
  0.37500000000000000       0.28125000000000000        0.0000000000000000     
  0.40625000000000000       0.28125000000000000        0.0000000000000000     
  0.43750000000000000       0.28125000000000000        0.0000000000000000     
  0.46875000000000000       0.28125000000000000        0.0000000000000000     
  0.50000000000000000       0.28125000000000000        0.0000000000000000     
  0.37500000000000000       0.31250000000000000        0.0000000000000000     
  0.40625000000000000       0.31250000000000000        0.0000000000000000     
  0.43750000000000000       0.31250000000000000        0.0000000000000000     
  0.46875000000000000       0.31250000000000000        0.0000000000000000     
  0.50000000000000000       0.31250000000000000        0.0000000000000000     
  0.37500000000000000       0.34375000000000000        0.0000000000000000     
  0.40625000000000000       0.34375000000000000        0.0000000000000000     
  0.43750000000000000       0.34375000000000000        0.0000000000000000     
  0.46875000000000000       0.34375000000000000        0.0000000000000000     
  0.50000000000000000       0.34375000000000000        0.0000000000000000     
  0.37500000000000000       0.37500000000000000        0.0000000000000000     
  0.40625000000000000       0.37500000000000000        0.0000000000000000     
  0.43750000000000000       0.37500000000000000        0.0000000000000000     
  0.46875000000000000       0.37500000000000000        0.0000000000000000     
  0.50000000000000000       0.37500000000000000        0.0000000000000000     
  0.50000000000000000       0.25000000000000000        0.0000000000000000     
  0.53125000000000000       0.25000000000000000        0.0000000000000000     
  0.56250000000000000       0.25000000000000000        0.0000000000000000     
  0.59375000000000000       0.25000000000000000        0.0000000000000000     
  0.62500000000000000       0.25000000000000000        0.0000000000000000     
  0.50000000000000000       0.28125000000000000        0.0000000000000000     
  0.53125000000000000       0.28125000000000000        0.0000000000000000     
  0.56250000000000000       0.28125000000000000        0.0000000000000000     
  0.59375000000000000       0.28125000000000000        0.0000000000000000     
  0.62500000000000000       0.28125000000000000        0.0000000000000000     
  0.50000000000000000       0.31250000000000000        0.0000000000000000     
  0.53125000000000000       0.31250000000000000        0.0000000000000000     
  0.56250000000000000       0.31250000000000000        0.0000000000000000     
  0.59375000000000000       0.31250000000000000        0.0000000000000000     
  0.62500000000000000       0.31250000000000000        0.0000000000000000     
  0.50000000000000000       0.34375000000000000        0.0000000000000000     
  0.53125000000000000       0.34375000000000000        0.0000000000000000     
  0.56250000000000000       0.34375000000000000        0.0000000000000000     
  0.59375000000000000       0.34375000000000000        0.0000000000000000     
  0.62500000000000000       0.34375000000000000        0.0000000000000000     
  0.50000000000000000       0.37500000000000000        0.0000000000000000     
  0.53125000000000000       0.37500000000000000        0.0000000000000000     
  0.56250000000000000       0.37500000000000000        0.0000000000000000     
  0.59375000000000000       0.37500000000000000        0.0000000000000000     
  0.62500000000000000       0.37500000000000000        0.0000000000000000     
  0.62500000000000000       0.25000000000000000        0.0000000000000000     
  0.65625000000000000       0.25000000000000000        0.0000000000000000     
  0.68750000000000000       0.25000000000000000        0.0000000000000000     
  0.71875000000000000       0.25000000000000000        0.0000000000000000     
  0.75000000000000000       0.25000000000000000        0.0000000000000000     
  0.62500000000000000       0.28125000000000000        0.0000000000000000     
  0.65625000000000000       0.28125000000000000        0.0000000000000000     
  0.68750000000000000       0.28125000000000000        0.0000000000000000     
  0.71875000000000000       0.28125000000000000        0.0000000000000000     
  0.75000000000000000       0.28125000000000000        0.0000000000000000     
  0.62500000000000000       0.31250000000000000        0.0000000000000000     
  0.65625000000000000       0.31250000000000000        0.0000000000000000     
  0.68750000000000000       0.31250000000000000        0.0000000000000000     
  0.71875000000000000       0.31250000000000000        0.0000000000000000     
  0.75000000000000000       0.31250000000000000        0.0000000000000000     
  0.62500000000000000       0.34375000000000000        0.0000000000000000     
  0.65625000000000000       0.34375000000000000        0.0000000000000000     
  0.68750000000000000       0.34375000000000000        0.0000000000000000     
  0.71875000000000000       0.34375000000000000        0.0000000000000000     
  0.75000000000000000       0.34375000000000000        0.0000000000000000     
  0.62500000000000000       0.37500000000000000        0.0000000000000000     
  0.65625000000000000       0.37500000000000000        0.0000000000000000     
  0.68750000000000000       0.37500000000000000        0.0000000000000000     
  0.71875000000000000       0.37500000000000000        0.0000000000000000     
  0.75000000000000000       0.37500000000000000        0.0000000000000000     
  0.75000000000000000       0.25000000000000000        0.0000000000000000     
  0.78125000000000000       0.25000000000000000        0.0000000000000000     
  0.81250000000000000       0.25000000000000000        0.0000000000000000     
  0.84375000000000000       0.25000000000000000        0.0000000000000000     
  0.87500000000000000       0.25000000000000000        0.0000000000000000     
  0.75000000000000000       0.28125000000000000        0.0000000000000000     
  0.78125000000000000       0.28125000000000000        0.0000000000000000     
  0.81250000000000000       0.28125000000000000        0.0000000000000000     
  0.84375000000000000       0.28125000000000000        0.0000000000000000     
  0.87500000000000000       0.28125000000000000        0.0000000000000000     
  0.75000000000000000       0.31250000000000000        0.0000000000000000     
  0.78125000000000000       0.31250000000000000        0.0000000000000000     
  0.81250000000000000       0.31250000000000000        0.0000000000000000     
  0.84375000000000000       0.31250000000000000        0.0000000000000000     
  0.87500000000000000       0.31250000000000000        0.0000000000000000     
  0.75000000000000000       0.34375000000000000        0.0000000000000000     
  0.78125000000000000       0.34375000000000000        0.0000000000000000     
  0.81250000000000000       0.34375000000000000        0.0000000000000000     
  0.84375000000000000       0.34375000000000000        0.0000000000000000     
  0.87500000000000000       0.34375000000000000        0.0000000000000000     
  0.75000000000000000       0.37500000000000000        0.0000000000000000     
  0.78125000000000000       0.37500000000000000        0.0000000000000000     
  0.81250000000000000       0.37500000000000000        0.0000000000000000     
  0.84375000000000000       0.37500000000000000        0.0000000000000000     
  0.87500000000000000       0.37500000000000000        0.0000000000000000     
  0.87500000000000000       0.25000000000000000        0.0000000000000000     
  0.90625000000000000       0.25000000000000000        0.0000000000000000     
  0.93750000000000000       0.25000000000000000        0.0000000000000000     
  0.96875000000000000       0.25000000000000000        0.0000000000000000     
   1.0000000000000000       0.25000000000000000        0.0000000000000000     
  0.87500000000000000       0.28125000000000000        0.0000000000000000     
  0.90625000000000000       0.28125000000000000        0.0000000000000000     
  0.93750000000000000       0.28125000000000000        0.0000000000000000     
  0.96875000000000000       0.28125000000000000        0.0000000000000000     
   1.0000000000000000       0.28125000000000000        0.0000000000000000     
  0.87500000000000000       0.31250000000000000        0.0000000000000000     
  0.90625000000000000       0.31250000000000000        0.0000000000000000     
  0.93750000000000000       0.31250000000000000        0.0000000000000000     
  0.96875000000000000       0.31250000000000000        0.0000000000000000     
   1.0000000000000000       0.31250000000000000        0.0000000000000000     
  0.87500000000000000       0.34375000000000000        0.0000000000000000     
  0.90625000000000000       0.34375000000000000        0.0000000000000000     
  0.93750000000000000       0.34375000000000000        0.0000000000000000     
  0.96875000000000000       0.34375000000000000        0.0000000000000000     
   1.0000000000000000       0.34375000000000000        0.0000000000000000     
  0.87500000000000000       0.37500000000000000        0.0000000000000000     
  0.90625000000000000       0.37500000000000000        0.0000000000000000     
  0.93750000000000000       0.37500000000000000        0.0000000000000000     
  0.96875000000000000       0.37500000000000000        0.0000000000000000     
   1.0000000000000000       0.37500000000000000        0.0000000000000000     
   0.0000000000000000       0.37500000000000000        0.0000000000000000     
   3.1250000000000000E-002  0.37500000000000000        0.0000000000000000     
   6.2500000000000000E-002  0.37500000000000000        0.0000000000000000     
   9.3750000000000000E-002  0.37500000000000000        0.0000000000000000     
  0.12500000000000000       0.37500000000000000        0.0000000000000000     
   0.0000000000000000       0.40625000000000000        0.0000000000000000     
   3.1250000000000000E-002  0.40625000000000000        0.0000000000000000     
   6.2500000000000000E-002  0.40625000000000000        0.0000000000000000     
   9.3750000000000000E-002  0.40625000000000000        0.0000000000000000     
  0.12500000000000000       0.40625000000000000        0.0000000000000000     
   0.0000000000000000       0.43750000000000000        0.0000000000000000     
   3.1250000000000000E-002  0.43750000000000000        0.0000000000000000     
   6.2500000000000000E-002  0.43750000000000000        0.0000000000000000     
   9.3750000000000000E-002  0.43750000000000000        0.0000000000000000     
  0.12500000000000000       0.43750000000000000        0.0000000000000000     
   0.0000000000000000       0.46875000000000000        0.0000000000000000     
   3.1250000000000000E-002  0.46875000000000000        0.0000000000000000     
   6.2500000000000000E-002  0.46875000000000000        0.0000000000000000     
   9.3750000000000000E-002  0.46875000000000000        0.0000000000000000     
  0.12500000000000000       0.46875000000000000        0.0000000000000000     
   0.0000000000000000       0.50000000000000000        0.0000000000000000     
   3.1250000000000000E-002  0.50000000000000000        0.0000000000000000     
   6.2500000000000000E-002  0.50000000000000000        0.0000000000000000     
   9.3750000000000000E-002  0.50000000000000000        0.0000000000000000     
  0.12500000000000000       0.50000000000000000        0.0000000000000000     
  0.12500000000000000       0.37500000000000000        0.0000000000000000     
  0.15625000000000000       0.37500000000000000        0.0000000000000000     
  0.18750000000000000       0.37500000000000000        0.0000000000000000     
  0.21875000000000000       0.37500000000000000        0.0000000000000000     
  0.25000000000000000       0.37500000000000000        0.0000000000000000     
  0.12500000000000000       0.40625000000000000        0.0000000000000000     
  0.15625000000000000       0.40625000000000000        0.0000000000000000     
  0.18750000000000000       0.40625000000000000        0.0000000000000000     
  0.21875000000000000       0.40625000000000000        0.0000000000000000     
  0.25000000000000000       0.40625000000000000        0.0000000000000000     
  0.12500000000000000       0.43750000000000000        0.0000000000000000     
  0.15625000000000000       0.43750000000000000        0.0000000000000000     
  0.18750000000000000       0.43750000000000000        0.0000000000000000     
  0.21875000000000000       0.43750000000000000        0.0000000000000000     
  0.25000000000000000       0.43750000000000000        0.0000000000000000     
  0.12500000000000000       0.46875000000000000        0.0000000000000000     
  0.15625000000000000       0.46875000000000000        0.0000000000000000     
  0.18750000000000000       0.46875000000000000        0.0000000000000000     
  0.21875000000000000       0.46875000000000000        0.0000000000000000     
  0.25000000000000000       0.46875000000000000        0.0000000000000000     
  0.12500000000000000       0.50000000000000000        0.0000000000000000     
  0.15625000000000000       0.50000000000000000        0.0000000000000000     
  0.18750000000000000       0.50000000000000000        0.0000000000000000     
  0.21875000000000000       0.50000000000000000        0.0000000000000000     
  0.25000000000000000       0.50000000000000000        0.0000000000000000     
  0.25000000000000000       0.37500000000000000        0.0000000000000000     
  0.28125000000000000       0.37500000000000000        0.0000000000000000     
  0.31250000000000000       0.37500000000000000        0.0000000000000000     
  0.34375000000000000       0.37500000000000000        0.0000000000000000     
  0.37500000000000000       0.37500000000000000        0.0000000000000000     
  0.25000000000000000       0.40625000000000000        0.0000000000000000     
  0.28125000000000000       0.40625000000000000        0.0000000000000000     
  0.31250000000000000       0.40625000000000000        0.0000000000000000     
  0.34375000000000000       0.40625000000000000        0.0000000000000000     
  0.37500000000000000       0.40625000000000000        0.0000000000000000     
  0.25000000000000000       0.43750000000000000        0.0000000000000000     
  0.28125000000000000       0.43750000000000000        0.0000000000000000     
  0.31250000000000000       0.43750000000000000        0.0000000000000000     
  0.34375000000000000       0.43750000000000000        0.0000000000000000     
  0.37500000000000000       0.43750000000000000        0.0000000000000000     
  0.25000000000000000       0.46875000000000000        0.0000000000000000     
  0.28125000000000000       0.46875000000000000        0.0000000000000000     
  0.31250000000000000       0.46875000000000000        0.0000000000000000     
  0.34375000000000000       0.46875000000000000        0.0000000000000000     
  0.37500000000000000       0.46875000000000000        0.0000000000000000     
  0.25000000000000000       0.50000000000000000        0.0000000000000000     
  0.28125000000000000       0.50000000000000000        0.0000000000000000     
  0.31250000000000000       0.50000000000000000        0.0000000000000000     
  0.34375000000000000       0.50000000000000000        0.0000000000000000     
  0.37500000000000000       0.50000000000000000        0.0000000000000000     
  0.37500000000000000       0.37500000000000000        0.0000000000000000     
  0.40625000000000000       0.37500000000000000        0.0000000000000000     
  0.43750000000000000       0.37500000000000000        0.0000000000000000     
  0.46875000000000000       0.37500000000000000        0.0000000000000000     
  0.50000000000000000       0.37500000000000000        0.0000000000000000     
  0.37500000000000000       0.40625000000000000        0.0000000000000000     
  0.40625000000000000       0.40625000000000000        0.0000000000000000     
  0.43750000000000000       0.40625000000000000        0.0000000000000000     
  0.46875000000000000       0.40625000000000000        0.0000000000000000     
  0.50000000000000000       0.40625000000000000        0.0000000000000000     
  0.37500000000000000       0.43750000000000000        0.0000000000000000     
  0.40625000000000000       0.43750000000000000        0.0000000000000000     
  0.43750000000000000       0.43750000000000000        0.0000000000000000     
  0.46875000000000000       0.43750000000000000        0.0000000000000000     
  0.50000000000000000       0.43750000000000000        0.0000000000000000     
  0.37500000000000000       0.46875000000000000        0.0000000000000000     
  0.40625000000000000       0.46875000000000000        0.0000000000000000     
  0.43750000000000000       0.46875000000000000        0.0000000000000000     
  0.46875000000000000       0.46875000000000000        0.0000000000000000     
  0.50000000000000000       0.46875000000000000        0.0000000000000000     
  0.37500000000000000       0.50000000000000000        0.0000000000000000     
  0.40625000000000000       0.50000000000000000        0.0000000000000000     
  0.43750000000000000       0.50000000000000000        0.0000000000000000     
  0.46875000000000000       0.50000000000000000        0.0000000000000000     
  0.50000000000000000       0.50000000000000000        0.0000000000000000     
  0.50000000000000000       0.37500000000000000        0.0000000000000000     
  0.53125000000000000       0.37500000000000000        0.0000000000000000     
  0.56250000000000000       0.37500000000000000        0.0000000000000000     
  0.59375000000000000       0.37500000000000000        0.0000000000000000     
  0.62500000000000000       0.37500000000000000        0.0000000000000000     
  0.50000000000000000       0.40625000000000000        0.0000000000000000     
  0.53125000000000000       0.40625000000000000        0.0000000000000000     
  0.56250000000000000       0.40625000000000000        0.0000000000000000     
  0.59375000000000000       0.40625000000000000        0.0000000000000000     
  0.62500000000000000       0.40625000000000000        0.0000000000000000     
  0.50000000000000000       0.43750000000000000        0.0000000000000000     
  0.53125000000000000       0.43750000000000000        0.0000000000000000     
  0.56250000000000000       0.43750000000000000        0.0000000000000000     
  0.59375000000000000       0.43750000000000000        0.0000000000000000     
  0.62500000000000000       0.43750000000000000        0.0000000000000000     
  0.50000000000000000       0.46875000000000000        0.0000000000000000     
  0.53125000000000000       0.46875000000000000        0.0000000000000000     
  0.56250000000000000       0.46875000000000000        0.0000000000000000     
  0.59375000000000000       0.46875000000000000        0.0000000000000000     
  0.62500000000000000       0.46875000000000000        0.0000000000000000     
  0.50000000000000000       0.50000000000000000        0.0000000000000000     
  0.53125000000000000       0.50000000000000000        0.0000000000000000     
  0.56250000000000000       0.50000000000000000        0.0000000000000000     
  0.59375000000000000       0.50000000000000000        0.0000000000000000     
  0.62500000000000000       0.50000000000000000        0.0000000000000000     
  0.62500000000000000       0.37500000000000000        0.0000000000000000     
  0.65625000000000000       0.37500000000000000        0.0000000000000000     
  0.68750000000000000       0.37500000000000000        0.0000000000000000     
  0.71875000000000000       0.37500000000000000        0.0000000000000000     
  0.75000000000000000       0.37500000000000000        0.0000000000000000     
  0.62500000000000000       0.40625000000000000        0.0000000000000000     
  0.65625000000000000       0.40625000000000000        0.0000000000000000     
  0.68750000000000000       0.40625000000000000        0.0000000000000000     
  0.71875000000000000       0.40625000000000000        0.0000000000000000     
  0.75000000000000000       0.40625000000000000        0.0000000000000000     
  0.62500000000000000       0.43750000000000000        0.0000000000000000     
  0.65625000000000000       0.43750000000000000        0.0000000000000000     
  0.68750000000000000       0.43750000000000000        0.0000000000000000     
  0.71875000000000000       0.43750000000000000        0.0000000000000000     
  0.75000000000000000       0.43750000000000000        0.0000000000000000     
  0.62500000000000000       0.46875000000000000        0.0000000000000000     
  0.65625000000000000       0.46875000000000000        0.0000000000000000     
  0.68750000000000000       0.46875000000000000        0.0000000000000000     
  0.71875000000000000       0.46875000000000000        0.0000000000000000     
  0.75000000000000000       0.46875000000000000        0.0000000000000000     
  0.62500000000000000       0.50000000000000000        0.0000000000000000     
  0.65625000000000000       0.50000000000000000        0.0000000000000000     
  0.68750000000000000       0.50000000000000000        0.0000000000000000     
  0.71875000000000000       0.50000000000000000        0.0000000000000000     
  0.75000000000000000       0.50000000000000000        0.0000000000000000     
  0.75000000000000000       0.37500000000000000        0.0000000000000000     
  0.78125000000000000       0.37500000000000000        0.0000000000000000     
  0.81250000000000000       0.37500000000000000        0.0000000000000000     
  0.84375000000000000       0.37500000000000000        0.0000000000000000     
  0.87500000000000000       0.37500000000000000        0.0000000000000000     
  0.75000000000000000       0.40625000000000000        0.0000000000000000     
  0.78125000000000000       0.40625000000000000        0.0000000000000000     
  0.81250000000000000       0.40625000000000000        0.0000000000000000     
  0.84375000000000000       0.40625000000000000        0.0000000000000000     
  0.87500000000000000       0.40625000000000000        0.0000000000000000     
  0.75000000000000000       0.43750000000000000        0.0000000000000000     
  0.78125000000000000       0.43750000000000000        0.0000000000000000     
  0.81250000000000000       0.43750000000000000        0.0000000000000000     
  0.84375000000000000       0.43750000000000000        0.0000000000000000     
  0.87500000000000000       0.43750000000000000        0.0000000000000000     
  0.75000000000000000       0.46875000000000000        0.0000000000000000     
  0.78125000000000000       0.46875000000000000        0.0000000000000000     
  0.81250000000000000       0.46875000000000000        0.0000000000000000     
  0.84375000000000000       0.46875000000000000        0.0000000000000000     
  0.87500000000000000       0.46875000000000000        0.0000000000000000     
  0.75000000000000000       0.50000000000000000        0.0000000000000000     
  0.78125000000000000       0.50000000000000000        0.0000000000000000     
  0.81250000000000000       0.50000000000000000        0.0000000000000000     
  0.84375000000000000       0.50000000000000000        0.0000000000000000     
  0.87500000000000000       0.50000000000000000        0.0000000000000000     
  0.87500000000000000       0.37500000000000000        0.0000000000000000     
  0.90625000000000000       0.37500000000000000        0.0000000000000000     
  0.93750000000000000       0.37500000000000000        0.0000000000000000     
  0.96875000000000000       0.37500000000000000        0.0000000000000000     
   1.0000000000000000       0.37500000000000000        0.0000000000000000     
  0.87500000000000000       0.40625000000000000        0.0000000000000000     
  0.90625000000000000       0.40625000000000000        0.0000000000000000     
  0.93750000000000000       0.40625000000000000        0.0000000000000000     
  0.96875000000000000       0.40625000000000000        0.0000000000000000     
   1.0000000000000000       0.40625000000000000        0.0000000000000000     
  0.87500000000000000       0.43750000000000000        0.0000000000000000     
  0.90625000000000000       0.43750000000000000        0.0000000000000000     
  0.93750000000000000       0.43750000000000000        0.0000000000000000     
  0.96875000000000000       0.43750000000000000        0.0000000000000000     
   1.0000000000000000       0.43750000000000000        0.0000000000000000     
  0.87500000000000000       0.46875000000000000        0.0000000000000000     
  0.90625000000000000       0.46875000000000000        0.0000000000000000     
  0.93750000000000000       0.46875000000000000        0.0000000000000000     
  0.96875000000000000       0.46875000000000000        0.0000000000000000     
   1.0000000000000000       0.46875000000000000        0.0000000000000000     
  0.87500000000000000       0.50000000000000000        0.0000000000000000     
  0.90625000000000000       0.50000000000000000        0.0000000000000000     
  0.93750000000000000       0.50000000000000000        0.0000000000000000     
  0.96875000000000000       0.50000000000000000        0.0000000000000000     
   1.0000000000000000       0.50000000000000000        0.0000000000000000     
   0.0000000000000000       0.50000000000000000        0.0000000000000000     
   3.1250000000000000E-002  0.50000000000000000        0.0000000000000000     
   6.2500000000000000E-002  0.50000000000000000        0.0000000000000000     
   9.3750000000000000E-002  0.50000000000000000        0.0000000000000000     
  0.12500000000000000       0.50000000000000000        0.0000000000000000     
   0.0000000000000000       0.53125000000000000        0.0000000000000000     
   3.1250000000000000E-002  0.53125000000000000        0.0000000000000000     
   6.2500000000000000E-002  0.53125000000000000        0.0000000000000000     
   9.3750000000000000E-002  0.53125000000000000        0.0000000000000000     
  0.12500000000000000       0.53125000000000000        0.0000000000000000     
   0.0000000000000000       0.56250000000000000        0.0000000000000000     
   3.1250000000000000E-002  0.56250000000000000        0.0000000000000000     
   6.2500000000000000E-002  0.56250000000000000        0.0000000000000000     
   9.3750000000000000E-002  0.56250000000000000        0.0000000000000000     
  0.12500000000000000       0.56250000000000000        0.0000000000000000     
   0.0000000000000000       0.59375000000000000        0.0000000000000000     
   3.1250000000000000E-002  0.59375000000000000        0.0000000000000000     
   6.2500000000000000E-002  0.59375000000000000        0.0000000000000000     
   9.3750000000000000E-002  0.59375000000000000        0.0000000000000000     
  0.12500000000000000       0.59375000000000000        0.0000000000000000     
   0.0000000000000000       0.62500000000000000        0.0000000000000000     
   3.1250000000000000E-002  0.62500000000000000        0.0000000000000000     
   6.2500000000000000E-002  0.62500000000000000        0.0000000000000000     
   9.3750000000000000E-002  0.62500000000000000        0.0000000000000000     
  0.12500000000000000       0.62500000000000000        0.0000000000000000     
  0.12500000000000000       0.50000000000000000        0.0000000000000000     
  0.15625000000000000       0.50000000000000000        0.0000000000000000     
  0.18750000000000000       0.50000000000000000        0.0000000000000000     
  0.21875000000000000       0.50000000000000000        0.0000000000000000     
  0.25000000000000000       0.50000000000000000        0.0000000000000000     
  0.12500000000000000       0.53125000000000000        0.0000000000000000     
  0.15625000000000000       0.53125000000000000        0.0000000000000000     
  0.18750000000000000       0.53125000000000000        0.0000000000000000     
  0.21875000000000000       0.53125000000000000        0.0000000000000000     
  0.25000000000000000       0.53125000000000000        0.0000000000000000     
  0.12500000000000000       0.56250000000000000        0.0000000000000000     
  0.15625000000000000       0.56250000000000000        0.0000000000000000     
  0.18750000000000000       0.56250000000000000        0.0000000000000000     
  0.21875000000000000       0.56250000000000000        0.0000000000000000     
  0.25000000000000000       0.56250000000000000        0.0000000000000000     
  0.12500000000000000       0.59375000000000000        0.0000000000000000     
  0.15625000000000000       0.59375000000000000        0.0000000000000000     
  0.18750000000000000       0.59375000000000000        0.0000000000000000     
  0.21875000000000000       0.59375000000000000        0.0000000000000000     
  0.25000000000000000       0.59375000000000000        0.0000000000000000     
  0.12500000000000000       0.62500000000000000        0.0000000000000000     
  0.15625000000000000       0.62500000000000000        0.0000000000000000     
  0.18750000000000000       0.62500000000000000        0.0000000000000000     
  0.21875000000000000       0.62500000000000000        0.0000000000000000     
  0.25000000000000000       0.62500000000000000        0.0000000000000000     
  0.25000000000000000       0.50000000000000000        0.0000000000000000     
  0.28125000000000000       0.50000000000000000        0.0000000000000000     
  0.31250000000000000       0.50000000000000000        0.0000000000000000     
  0.34375000000000000       0.50000000000000000        0.0000000000000000     
  0.37500000000000000       0.50000000000000000        0.0000000000000000     
  0.25000000000000000       0.53125000000000000        0.0000000000000000     
  0.28125000000000000       0.53125000000000000        0.0000000000000000     
  0.31250000000000000       0.53125000000000000        0.0000000000000000     
  0.34375000000000000       0.53125000000000000        0.0000000000000000     
  0.37500000000000000       0.53125000000000000        0.0000000000000000     
  0.25000000000000000       0.56250000000000000        0.0000000000000000     
  0.28125000000000000       0.56250000000000000        0.0000000000000000     
  0.31250000000000000       0.56250000000000000        0.0000000000000000     
  0.34375000000000000       0.56250000000000000        0.0000000000000000     
  0.37500000000000000       0.56250000000000000        0.0000000000000000     
  0.25000000000000000       0.59375000000000000        0.0000000000000000     
  0.28125000000000000       0.59375000000000000        0.0000000000000000     
  0.31250000000000000       0.59375000000000000        0.0000000000000000     
  0.34375000000000000       0.59375000000000000        0.0000000000000000     
  0.37500000000000000       0.59375000000000000        0.0000000000000000     
  0.25000000000000000       0.62500000000000000        0.0000000000000000     
  0.28125000000000000       0.62500000000000000        0.0000000000000000     
  0.31250000000000000       0.62500000000000000        0.0000000000000000     
  0.34375000000000000       0.62500000000000000        0.0000000000000000     
  0.37500000000000000       0.62500000000000000        0.0000000000000000     
  0.37500000000000000       0.50000000000000000        0.0000000000000000     
  0.40625000000000000       0.50000000000000000        0.0000000000000000     
  0.43750000000000000       0.50000000000000000        0.0000000000000000     
  0.46875000000000000       0.50000000000000000        0.0000000000000000     
  0.50000000000000000       0.50000000000000000        0.0000000000000000     
  0.37500000000000000       0.53125000000000000        0.0000000000000000     
  0.40625000000000000       0.53125000000000000        0.0000000000000000     
  0.43750000000000000       0.53125000000000000        0.0000000000000000     
  0.46875000000000000       0.53125000000000000        0.0000000000000000     
  0.50000000000000000       0.53125000000000000        0.0000000000000000     
  0.37500000000000000       0.56250000000000000        0.0000000000000000     
  0.40625000000000000       0.56250000000000000        0.0000000000000000     
  0.43750000000000000       0.56250000000000000        0.0000000000000000     
  0.46875000000000000       0.56250000000000000        0.0000000000000000     
  0.50000000000000000       0.56250000000000000        0.0000000000000000     
  0.37500000000000000       0.59375000000000000        0.0000000000000000     
  0.40625000000000000       0.59375000000000000        0.0000000000000000     
  0.43750000000000000       0.59375000000000000        0.0000000000000000     
  0.46875000000000000       0.59375000000000000        0.0000000000000000     
  0.50000000000000000       0.59375000000000000        0.0000000000000000     
  0.37500000000000000       0.62500000000000000        0.0000000000000000     
  0.40625000000000000       0.62500000000000000        0.0000000000000000     
  0.43750000000000000       0.62500000000000000        0.0000000000000000     
  0.46875000000000000       0.62500000000000000        0.0000000000000000     
  0.50000000000000000       0.62500000000000000        0.0000000000000000     
  0.50000000000000000       0.50000000000000000        0.0000000000000000     
  0.53125000000000000       0.50000000000000000        0.0000000000000000     
  0.56250000000000000       0.50000000000000000        0.0000000000000000     
  0.59375000000000000       0.50000000000000000        0.0000000000000000     
  0.62500000000000000       0.50000000000000000        0.0000000000000000     
  0.50000000000000000       0.53125000000000000        0.0000000000000000     
  0.53125000000000000       0.53125000000000000        0.0000000000000000     
  0.56250000000000000       0.53125000000000000        0.0000000000000000     
  0.59375000000000000       0.53125000000000000        0.0000000000000000     
  0.62500000000000000       0.53125000000000000        0.0000000000000000     
  0.50000000000000000       0.56250000000000000        0.0000000000000000     
  0.53125000000000000       0.56250000000000000        0.0000000000000000     
  0.56250000000000000       0.56250000000000000        0.0000000000000000     
  0.59375000000000000       0.56250000000000000        0.0000000000000000     
  0.62500000000000000       0.56250000000000000        0.0000000000000000     
  0.50000000000000000       0.59375000000000000        0.0000000000000000     
  0.53125000000000000       0.59375000000000000        0.0000000000000000     
  0.56250000000000000       0.59375000000000000        0.0000000000000000     
  0.59375000000000000       0.59375000000000000        0.0000000000000000     
  0.62500000000000000       0.59375000000000000        0.0000000000000000     
  0.50000000000000000       0.62500000000000000        0.0000000000000000     
  0.53125000000000000       0.62500000000000000        0.0000000000000000     
  0.56250000000000000       0.62500000000000000        0.0000000000000000     
  0.59375000000000000       0.62500000000000000        0.0000000000000000     
  0.62500000000000000       0.62500000000000000        0.0000000000000000     
  0.62500000000000000       0.50000000000000000        0.0000000000000000     
  0.65625000000000000       0.50000000000000000        0.0000000000000000     
  0.68750000000000000       0.50000000000000000        0.0000000000000000     
  0.71875000000000000       0.50000000000000000        0.0000000000000000     
  0.75000000000000000       0.50000000000000000        0.0000000000000000     
  0.62500000000000000       0.53125000000000000        0.0000000000000000     
  0.65625000000000000       0.53125000000000000        0.0000000000000000     
  0.68750000000000000       0.53125000000000000        0.0000000000000000     
  0.71875000000000000       0.53125000000000000        0.0000000000000000     
  0.75000000000000000       0.53125000000000000        0.0000000000000000     
  0.62500000000000000       0.56250000000000000        0.0000000000000000     
  0.65625000000000000       0.56250000000000000        0.0000000000000000     
  0.68750000000000000       0.56250000000000000        0.0000000000000000     
  0.71875000000000000       0.56250000000000000        0.0000000000000000     
  0.75000000000000000       0.56250000000000000        0.0000000000000000     
  0.62500000000000000       0.59375000000000000        0.0000000000000000     
  0.65625000000000000       0.59375000000000000        0.0000000000000000     
  0.68750000000000000       0.59375000000000000        0.0000000000000000     
  0.71875000000000000       0.59375000000000000        0.0000000000000000     
  0.75000000000000000       0.59375000000000000        0.0000000000000000     
  0.62500000000000000       0.62500000000000000        0.0000000000000000     
  0.65625000000000000       0.62500000000000000        0.0000000000000000     
  0.68750000000000000       0.62500000000000000        0.0000000000000000     
  0.71875000000000000       0.62500000000000000        0.0000000000000000     
  0.75000000000000000       0.62500000000000000        0.0000000000000000     
  0.75000000000000000       0.50000000000000000        0.0000000000000000     
  0.78125000000000000       0.50000000000000000        0.0000000000000000     
  0.81250000000000000       0.50000000000000000        0.0000000000000000     
  0.84375000000000000       0.50000000000000000        0.0000000000000000     
  0.87500000000000000       0.50000000000000000        0.0000000000000000     
  0.75000000000000000       0.53125000000000000        0.0000000000000000     
  0.78125000000000000       0.53125000000000000        0.0000000000000000     
  0.81250000000000000       0.53125000000000000        0.0000000000000000     
  0.84375000000000000       0.53125000000000000        0.0000000000000000     
  0.87500000000000000       0.53125000000000000        0.0000000000000000     
  0.75000000000000000       0.56250000000000000        0.0000000000000000     
  0.78125000000000000       0.56250000000000000        0.0000000000000000     
  0.81250000000000000       0.56250000000000000        0.0000000000000000     
  0.84375000000000000       0.56250000000000000        0.0000000000000000     
  0.87500000000000000       0.56250000000000000        0.0000000000000000     
  0.75000000000000000       0.59375000000000000        0.0000000000000000     
  0.78125000000000000       0.59375000000000000        0.0000000000000000     
  0.81250000000000000       0.59375000000000000        0.0000000000000000     
  0.84375000000000000       0.59375000000000000        0.0000000000000000     
  0.87500000000000000       0.59375000000000000        0.0000000000000000     
  0.75000000000000000       0.62500000000000000        0.0000000000000000     
  0.78125000000000000       0.62500000000000000        0.0000000000000000     
  0.81250000000000000       0.62500000000000000        0.0000000000000000     
  0.84375000000000000       0.62500000000000000        0.0000000000000000     
  0.87500000000000000       0.62500000000000000        0.0000000000000000     
  0.87500000000000000       0.50000000000000000        0.0000000000000000     
  0.90625000000000000       0.50000000000000000        0.0000000000000000     
  0.93750000000000000       0.50000000000000000        0.0000000000000000     
  0.96875000000000000       0.50000000000000000        0.0000000000000000     
   1.0000000000000000       0.50000000000000000        0.0000000000000000     
  0.87500000000000000       0.53125000000000000        0.0000000000000000     
  0.90625000000000000       0.53125000000000000        0.0000000000000000     
  0.93750000000000000       0.53125000000000000        0.0000000000000000     
  0.96875000000000000       0.53125000000000000        0.0000000000000000     
   1.0000000000000000       0.53125000000000000        0.0000000000000000     
  0.87500000000000000       0.56250000000000000        0.0000000000000000     
  0.90625000000000000       0.56250000000000000        0.0000000000000000     
  0.93750000000000000       0.56250000000000000        0.0000000000000000     
  0.96875000000000000       0.56250000000000000        0.0000000000000000     
   1.0000000000000000       0.56250000000000000        0.0000000000000000     
  0.87500000000000000       0.59375000000000000        0.0000000000000000     
  0.90625000000000000       0.59375000000000000        0.0000000000000000     
  0.93750000000000000       0.59375000000000000        0.0000000000000000     
  0.96875000000000000       0.59375000000000000        0.0000000000000000     
   1.0000000000000000       0.59375000000000000        0.0000000000000000     
  0.87500000000000000       0.62500000000000000        0.0000000000000000     
  0.90625000000000000       0.62500000000000000        0.0000000000000000     
  0.93750000000000000       0.62500000000000000        0.0000000000000000     
  0.96875000000000000       0.62500000000000000        0.0000000000000000     
   1.0000000000000000       0.62500000000000000        0.0000000000000000     
   0.0000000000000000       0.62500000000000000        0.0000000000000000     
   3.1250000000000000E-002  0.62500000000000000        0.0000000000000000     
   6.2500000000000000E-002  0.62500000000000000        0.0000000000000000     
   9.3750000000000000E-002  0.62500000000000000        0.0000000000000000     
  0.12500000000000000       0.62500000000000000        0.0000000000000000     
   0.0000000000000000       0.65625000000000000        0.0000000000000000     
   3.1250000000000000E-002  0.65625000000000000        0.0000000000000000     
   6.2500000000000000E-002  0.65625000000000000        0.0000000000000000     
   9.3750000000000000E-002  0.65625000000000000        0.0000000000000000     
  0.12500000000000000       0.65625000000000000        0.0000000000000000     
   0.0000000000000000       0.68750000000000000        0.0000000000000000     
   3.1250000000000000E-002  0.68750000000000000        0.0000000000000000     
   6.2500000000000000E-002  0.68750000000000000        0.0000000000000000     
   9.3750000000000000E-002  0.68750000000000000        0.0000000000000000     
  0.12500000000000000       0.68750000000000000        0.0000000000000000     
   0.0000000000000000       0.71875000000000000        0.0000000000000000     
   3.1250000000000000E-002  0.71875000000000000        0.0000000000000000     
   6.2500000000000000E-002  0.71875000000000000        0.0000000000000000     
   9.3750000000000000E-002  0.71875000000000000        0.0000000000000000     
  0.12500000000000000       0.71875000000000000        0.0000000000000000     
   0.0000000000000000       0.75000000000000000        0.0000000000000000     
   3.1250000000000000E-002  0.75000000000000000        0.0000000000000000     
   6.2500000000000000E-002  0.75000000000000000        0.0000000000000000     
   9.3750000000000000E-002  0.75000000000000000        0.0000000000000000     
  0.12500000000000000       0.75000000000000000        0.0000000000000000     
  0.12500000000000000       0.62500000000000000        0.0000000000000000     
  0.15625000000000000       0.62500000000000000        0.0000000000000000     
  0.18750000000000000       0.62500000000000000        0.0000000000000000     
  0.21875000000000000       0.62500000000000000        0.0000000000000000     
  0.25000000000000000       0.62500000000000000        0.0000000000000000     
  0.12500000000000000       0.65625000000000000        0.0000000000000000     
  0.15625000000000000       0.65625000000000000        0.0000000000000000     
  0.18750000000000000       0.65625000000000000        0.0000000000000000     
  0.21875000000000000       0.65625000000000000        0.0000000000000000     
  0.25000000000000000       0.65625000000000000        0.0000000000000000     
  0.12500000000000000       0.68750000000000000        0.0000000000000000     
  0.15625000000000000       0.68750000000000000        0.0000000000000000     
  0.18750000000000000       0.68750000000000000        0.0000000000000000     
  0.21875000000000000       0.68750000000000000        0.0000000000000000     
  0.25000000000000000       0.68750000000000000        0.0000000000000000     
  0.12500000000000000       0.71875000000000000        0.0000000000000000     
  0.15625000000000000       0.71875000000000000        0.0000000000000000     
  0.18750000000000000       0.71875000000000000        0.0000000000000000     
  0.21875000000000000       0.71875000000000000        0.0000000000000000     
  0.25000000000000000       0.71875000000000000        0.0000000000000000     
  0.12500000000000000       0.75000000000000000        0.0000000000000000     
  0.15625000000000000       0.75000000000000000        0.0000000000000000     
  0.18750000000000000       0.75000000000000000        0.0000000000000000     
  0.21875000000000000       0.75000000000000000        0.0000000000000000     
  0.25000000000000000       0.75000000000000000        0.0000000000000000     
  0.25000000000000000       0.62500000000000000        0.0000000000000000     
  0.28125000000000000       0.62500000000000000        0.0000000000000000     
  0.31250000000000000       0.62500000000000000        0.0000000000000000     
  0.34375000000000000       0.62500000000000000        0.0000000000000000     
  0.37500000000000000       0.62500000000000000        0.0000000000000000     
  0.25000000000000000       0.65625000000000000        0.0000000000000000     
  0.28125000000000000       0.65625000000000000        0.0000000000000000     
  0.31250000000000000       0.65625000000000000        0.0000000000000000     
  0.34375000000000000       0.65625000000000000        0.0000000000000000     
  0.37500000000000000       0.65625000000000000        0.0000000000000000     
  0.25000000000000000       0.68750000000000000        0.0000000000000000     
  0.28125000000000000       0.68750000000000000        0.0000000000000000     
  0.31250000000000000       0.68750000000000000        0.0000000000000000     
  0.34375000000000000       0.68750000000000000        0.0000000000000000     
  0.37500000000000000       0.68750000000000000        0.0000000000000000     
  0.25000000000000000       0.71875000000000000        0.0000000000000000     
  0.28125000000000000       0.71875000000000000        0.0000000000000000     
  0.31250000000000000       0.71875000000000000        0.0000000000000000     
  0.34375000000000000       0.71875000000000000        0.0000000000000000     
  0.37500000000000000       0.71875000000000000        0.0000000000000000     
  0.25000000000000000       0.75000000000000000        0.0000000000000000     
  0.28125000000000000       0.75000000000000000        0.0000000000000000     
  0.31250000000000000       0.75000000000000000        0.0000000000000000     
  0.34375000000000000       0.75000000000000000        0.0000000000000000     
  0.37500000000000000       0.75000000000000000        0.0000000000000000     
  0.37500000000000000       0.62500000000000000        0.0000000000000000     
  0.40625000000000000       0.62500000000000000        0.0000000000000000     
  0.43750000000000000       0.62500000000000000        0.0000000000000000     
  0.46875000000000000       0.62500000000000000        0.0000000000000000     
  0.50000000000000000       0.62500000000000000        0.0000000000000000     
  0.37500000000000000       0.65625000000000000        0.0000000000000000     
  0.40625000000000000       0.65625000000000000        0.0000000000000000     
  0.43750000000000000       0.65625000000000000        0.0000000000000000     
  0.46875000000000000       0.65625000000000000        0.0000000000000000     
  0.50000000000000000       0.65625000000000000        0.0000000000000000     
  0.37500000000000000       0.68750000000000000        0.0000000000000000     
  0.40625000000000000       0.68750000000000000        0.0000000000000000     
  0.43750000000000000       0.68750000000000000        0.0000000000000000     
  0.46875000000000000       0.68750000000000000        0.0000000000000000     
  0.50000000000000000       0.68750000000000000        0.0000000000000000     
  0.37500000000000000       0.71875000000000000        0.0000000000000000     
  0.40625000000000000       0.71875000000000000        0.0000000000000000     
  0.43750000000000000       0.71875000000000000        0.0000000000000000     
  0.46875000000000000       0.71875000000000000        0.0000000000000000     
  0.50000000000000000       0.71875000000000000        0.0000000000000000     
  0.37500000000000000       0.75000000000000000        0.0000000000000000     
  0.40625000000000000       0.75000000000000000        0.0000000000000000     
  0.43750000000000000       0.75000000000000000        0.0000000000000000     
  0.46875000000000000       0.75000000000000000        0.0000000000000000     
  0.50000000000000000       0.75000000000000000        0.0000000000000000     
  0.50000000000000000       0.62500000000000000        0.0000000000000000     
  0.53125000000000000       0.62500000000000000        0.0000000000000000     
  0.56250000000000000       0.62500000000000000        0.0000000000000000     
  0.59375000000000000       0.62500000000000000        0.0000000000000000     
  0.62500000000000000       0.62500000000000000        0.0000000000000000     
  0.50000000000000000       0.65625000000000000        0.0000000000000000     
  0.53125000000000000       0.65625000000000000        0.0000000000000000     
  0.56250000000000000       0.65625000000000000        0.0000000000000000     
  0.59375000000000000       0.65625000000000000        0.0000000000000000     
  0.62500000000000000       0.65625000000000000        0.0000000000000000     
  0.50000000000000000       0.68750000000000000        0.0000000000000000     
  0.53125000000000000       0.68750000000000000        0.0000000000000000     
  0.56250000000000000       0.68750000000000000        0.0000000000000000     
  0.59375000000000000       0.68750000000000000        0.0000000000000000     
  0.62500000000000000       0.68750000000000000        0.0000000000000000     
  0.50000000000000000       0.71875000000000000        0.0000000000000000     
  0.53125000000000000       0.71875000000000000        0.0000000000000000     
  0.56250000000000000       0.71875000000000000        0.0000000000000000     
  0.59375000000000000       0.71875000000000000        0.0000000000000000     
  0.62500000000000000       0.71875000000000000        0.0000000000000000     
  0.50000000000000000       0.75000000000000000        0.0000000000000000     
  0.53125000000000000       0.75000000000000000        0.0000000000000000     
  0.56250000000000000       0.75000000000000000        0.0000000000000000     
  0.59375000000000000       0.75000000000000000        0.0000000000000000     
  0.62500000000000000       0.75000000000000000        0.0000000000000000     
  0.62500000000000000       0.62500000000000000        0.0000000000000000     
  0.65625000000000000       0.62500000000000000        0.0000000000000000     
  0.68750000000000000       0.62500000000000000        0.0000000000000000     
  0.71875000000000000       0.62500000000000000        0.0000000000000000     
  0.75000000000000000       0.62500000000000000        0.0000000000000000     
  0.62500000000000000       0.65625000000000000        0.0000000000000000     
  0.65625000000000000       0.65625000000000000        0.0000000000000000     
  0.68750000000000000       0.65625000000000000        0.0000000000000000     
  0.71875000000000000       0.65625000000000000        0.0000000000000000     
  0.75000000000000000       0.65625000000000000        0.0000000000000000     
  0.62500000000000000       0.68750000000000000        0.0000000000000000     
  0.65625000000000000       0.68750000000000000        0.0000000000000000     
  0.68750000000000000       0.68750000000000000        0.0000000000000000     
  0.71875000000000000       0.68750000000000000        0.0000000000000000     
  0.75000000000000000       0.68750000000000000        0.0000000000000000     
  0.62500000000000000       0.71875000000000000        0.0000000000000000     
  0.65625000000000000       0.71875000000000000        0.0000000000000000     
  0.68750000000000000       0.71875000000000000        0.0000000000000000     
  0.71875000000000000       0.71875000000000000        0.0000000000000000     
  0.75000000000000000       0.71875000000000000        0.0000000000000000     
  0.62500000000000000       0.75000000000000000        0.0000000000000000     
  0.65625000000000000       0.75000000000000000        0.0000000000000000     
  0.68750000000000000       0.75000000000000000        0.0000000000000000     
  0.71875000000000000       0.75000000000000000        0.0000000000000000     
  0.75000000000000000       0.75000000000000000        0.0000000000000000     
  0.75000000000000000       0.62500000000000000        0.0000000000000000     
  0.78125000000000000       0.62500000000000000        0.0000000000000000     
  0.81250000000000000       0.62500000000000000        0.0000000000000000     
  0.84375000000000000       0.62500000000000000        0.0000000000000000     
  0.87500000000000000       0.62500000000000000        0.0000000000000000     
  0.75000000000000000       0.65625000000000000        0.0000000000000000     
  0.78125000000000000       0.65625000000000000        0.0000000000000000     
  0.81250000000000000       0.65625000000000000        0.0000000000000000     
  0.84375000000000000       0.65625000000000000        0.0000000000000000     
  0.87500000000000000       0.65625000000000000        0.0000000000000000     
  0.75000000000000000       0.68750000000000000        0.0000000000000000     
  0.78125000000000000       0.68750000000000000        0.0000000000000000     
  0.81250000000000000       0.68750000000000000        0.0000000000000000     
  0.84375000000000000       0.68750000000000000        0.0000000000000000     
  0.87500000000000000       0.68750000000000000        0.0000000000000000     
  0.75000000000000000       0.71875000000000000        0.0000000000000000     
  0.78125000000000000       0.71875000000000000        0.0000000000000000     
  0.81250000000000000       0.71875000000000000        0.0000000000000000     
  0.84375000000000000       0.71875000000000000        0.0000000000000000     
  0.87500000000000000       0.71875000000000000        0.0000000000000000     
  0.75000000000000000       0.75000000000000000        0.0000000000000000     
  0.78125000000000000       0.75000000000000000        0.0000000000000000     
  0.81250000000000000       0.75000000000000000        0.0000000000000000     
  0.84375000000000000       0.75000000000000000        0.0000000000000000     
  0.87500000000000000       0.75000000000000000        0.0000000000000000     
  0.87500000000000000       0.62500000000000000        0.0000000000000000     
  0.90625000000000000       0.62500000000000000        0.0000000000000000     
  0.93750000000000000       0.62500000000000000        0.0000000000000000     
  0.96875000000000000       0.62500000000000000        0.0000000000000000     
   1.0000000000000000       0.62500000000000000        0.0000000000000000     
  0.87500000000000000       0.65625000000000000        0.0000000000000000     
  0.90625000000000000       0.65625000000000000        0.0000000000000000     
  0.93750000000000000       0.65625000000000000        0.0000000000000000     
  0.96875000000000000       0.65625000000000000        0.0000000000000000     
   1.0000000000000000       0.65625000000000000        0.0000000000000000     
  0.87500000000000000       0.68750000000000000        0.0000000000000000     
  0.90625000000000000       0.68750000000000000        0.0000000000000000     
  0.93750000000000000       0.68750000000000000        0.0000000000000000     
  0.96875000000000000       0.68750000000000000        0.0000000000000000     
   1.0000000000000000       0.68750000000000000        0.0000000000000000     
  0.87500000000000000       0.71875000000000000        0.0000000000000000     
  0.90625000000000000       0.71875000000000000        0.0000000000000000     
  0.93750000000000000       0.71875000000000000        0.0000000000000000     
  0.96875000000000000       0.71875000000000000        0.0000000000000000     
   1.0000000000000000       0.71875000000000000        0.0000000000000000     
  0.87500000000000000       0.75000000000000000        0.0000000000000000     
  0.90625000000000000       0.75000000000000000        0.0000000000000000     
  0.93750000000000000       0.75000000000000000        0.0000000000000000     
  0.96875000000000000       0.75000000000000000        0.0000000000000000     
   1.0000000000000000       0.75000000000000000        0.0000000000000000     
   0.0000000000000000       0.75000000000000000        0.0000000000000000     
   3.1250000000000000E-002  0.75000000000000000        0.0000000000000000     
   6.2500000000000000E-002  0.75000000000000000        0.0000000000000000     
   9.3750000000000000E-002  0.75000000000000000        0.0000000000000000     
  0.12500000000000000       0.75000000000000000        0.0000000000000000     
   0.0000000000000000       0.78125000000000000        0.0000000000000000     
   3.1250000000000000E-002  0.78125000000000000        0.0000000000000000     
   6.2500000000000000E-002  0.78125000000000000        0.0000000000000000     
   9.3750000000000000E-002  0.78125000000000000        0.0000000000000000     
  0.12500000000000000       0.78125000000000000        0.0000000000000000     
   0.0000000000000000       0.81250000000000000        0.0000000000000000     
   3.1250000000000000E-002  0.81250000000000000        0.0000000000000000     
   6.2500000000000000E-002  0.81250000000000000        0.0000000000000000     
   9.3750000000000000E-002  0.81250000000000000        0.0000000000000000     
  0.12500000000000000       0.81250000000000000        0.0000000000000000     
   0.0000000000000000       0.84375000000000000        0.0000000000000000     
   3.1250000000000000E-002  0.84375000000000000        0.0000000000000000     
   6.2500000000000000E-002  0.84375000000000000        0.0000000000000000     
   9.3750000000000000E-002  0.84375000000000000        0.0000000000000000     
  0.12500000000000000       0.84375000000000000        0.0000000000000000     
   0.0000000000000000       0.87500000000000000        0.0000000000000000     
   3.1250000000000000E-002  0.87500000000000000        0.0000000000000000     
   6.2500000000000000E-002  0.87500000000000000        0.0000000000000000     
   9.3750000000000000E-002  0.87500000000000000        0.0000000000000000     
  0.12500000000000000       0.87500000000000000        0.0000000000000000     
  0.12500000000000000       0.75000000000000000        0.0000000000000000     
  0.15625000000000000       0.75000000000000000        0.0000000000000000     
  0.18750000000000000       0.75000000000000000        0.0000000000000000     
  0.21875000000000000       0.75000000000000000        0.0000000000000000     
  0.25000000000000000       0.75000000000000000        0.0000000000000000     
  0.12500000000000000       0.78125000000000000        0.0000000000000000     
  0.15625000000000000       0.78125000000000000        0.0000000000000000     
  0.18750000000000000       0.78125000000000000        0.0000000000000000     
  0.21875000000000000       0.78125000000000000        0.0000000000000000     
  0.25000000000000000       0.78125000000000000        0.0000000000000000     
  0.12500000000000000       0.81250000000000000        0.0000000000000000     
  0.15625000000000000       0.81250000000000000        0.0000000000000000     
  0.18750000000000000       0.81250000000000000        0.0000000000000000     
  0.21875000000000000       0.81250000000000000        0.0000000000000000     
  0.25000000000000000       0.81250000000000000        0.0000000000000000     
  0.12500000000000000       0.84375000000000000        0.0000000000000000     
  0.15625000000000000       0.84375000000000000        0.0000000000000000     
  0.18750000000000000       0.84375000000000000        0.0000000000000000     
  0.21875000000000000       0.84375000000000000        0.0000000000000000     
  0.25000000000000000       0.84375000000000000        0.0000000000000000     
  0.12500000000000000       0.87500000000000000        0.0000000000000000     
  0.15625000000000000       0.87500000000000000        0.0000000000000000     
  0.18750000000000000       0.87500000000000000        0.0000000000000000     
  0.21875000000000000       0.87500000000000000        0.0000000000000000     
  0.25000000000000000       0.87500000000000000        0.0000000000000000     
  0.25000000000000000       0.75000000000000000        0.0000000000000000     
  0.28125000000000000       0.75000000000000000        0.0000000000000000     
  0.31250000000000000       0.75000000000000000        0.0000000000000000     
  0.34375000000000000       0.75000000000000000        0.0000000000000000     
  0.37500000000000000       0.75000000000000000        0.0000000000000000     
  0.25000000000000000       0.78125000000000000        0.0000000000000000     
  0.28125000000000000       0.78125000000000000        0.0000000000000000     
  0.31250000000000000       0.78125000000000000        0.0000000000000000     
  0.34375000000000000       0.78125000000000000        0.0000000000000000     
  0.37500000000000000       0.78125000000000000        0.0000000000000000     
  0.25000000000000000       0.81250000000000000        0.0000000000000000     
  0.28125000000000000       0.81250000000000000        0.0000000000000000     
  0.31250000000000000       0.81250000000000000        0.0000000000000000     
  0.34375000000000000       0.81250000000000000        0.0000000000000000     
  0.37500000000000000       0.81250000000000000        0.0000000000000000     
  0.25000000000000000       0.84375000000000000        0.0000000000000000     
  0.28125000000000000       0.84375000000000000        0.0000000000000000     
  0.31250000000000000       0.84375000000000000        0.0000000000000000     
  0.34375000000000000       0.84375000000000000        0.0000000000000000     
  0.37500000000000000       0.84375000000000000        0.0000000000000000     
  0.25000000000000000       0.87500000000000000        0.0000000000000000     
  0.28125000000000000       0.87500000000000000        0.0000000000000000     
  0.31250000000000000       0.87500000000000000        0.0000000000000000     
  0.34375000000000000       0.87500000000000000        0.0000000000000000     
  0.37500000000000000       0.87500000000000000        0.0000000000000000     
  0.37500000000000000       0.75000000000000000        0.0000000000000000     
  0.40625000000000000       0.75000000000000000        0.0000000000000000     
  0.43750000000000000       0.75000000000000000        0.0000000000000000     
  0.46875000000000000       0.75000000000000000        0.0000000000000000     
  0.50000000000000000       0.75000000000000000        0.0000000000000000     
  0.37500000000000000       0.78125000000000000        0.0000000000000000     
  0.40625000000000000       0.78125000000000000        0.0000000000000000     
  0.43750000000000000       0.78125000000000000        0.0000000000000000     
  0.46875000000000000       0.78125000000000000        0.0000000000000000     
  0.50000000000000000       0.78125000000000000        0.0000000000000000     
  0.37500000000000000       0.81250000000000000        0.0000000000000000     
  0.40625000000000000       0.81250000000000000        0.0000000000000000     
  0.43750000000000000       0.81250000000000000        0.0000000000000000     
  0.46875000000000000       0.81250000000000000        0.0000000000000000     
  0.50000000000000000       0.81250000000000000        0.0000000000000000     
  0.37500000000000000       0.84375000000000000        0.0000000000000000     
  0.40625000000000000       0.84375000000000000        0.0000000000000000     
  0.43750000000000000       0.84375000000000000        0.0000000000000000     
  0.46875000000000000       0.84375000000000000        0.0000000000000000     
  0.50000000000000000       0.84375000000000000        0.0000000000000000     
  0.37500000000000000       0.87500000000000000        0.0000000000000000     
  0.40625000000000000       0.87500000000000000        0.0000000000000000     
  0.43750000000000000       0.87500000000000000        0.0000000000000000     
  0.46875000000000000       0.87500000000000000        0.0000000000000000     
  0.50000000000000000       0.87500000000000000        0.0000000000000000     
  0.50000000000000000       0.75000000000000000        0.0000000000000000     
  0.53125000000000000       0.75000000000000000        0.0000000000000000     
  0.56250000000000000       0.75000000000000000        0.0000000000000000     
  0.59375000000000000       0.75000000000000000        0.0000000000000000     
  0.62500000000000000       0.75000000000000000        0.0000000000000000     
  0.50000000000000000       0.78125000000000000        0.0000000000000000     
  0.53125000000000000       0.78125000000000000        0.0000000000000000     
  0.56250000000000000       0.78125000000000000        0.0000000000000000     
  0.59375000000000000       0.78125000000000000        0.0000000000000000     
  0.62500000000000000       0.78125000000000000        0.0000000000000000     
  0.50000000000000000       0.81250000000000000        0.0000000000000000     
  0.53125000000000000       0.81250000000000000        0.0000000000000000     
  0.56250000000000000       0.81250000000000000        0.0000000000000000     
  0.59375000000000000       0.81250000000000000        0.0000000000000000     
  0.62500000000000000       0.81250000000000000        0.0000000000000000     
  0.50000000000000000       0.84375000000000000        0.0000000000000000     
  0.53125000000000000       0.84375000000000000        0.0000000000000000     
  0.56250000000000000       0.84375000000000000        0.0000000000000000     
  0.59375000000000000       0.84375000000000000        0.0000000000000000     
  0.62500000000000000       0.84375000000000000        0.0000000000000000     
  0.50000000000000000       0.87500000000000000        0.0000000000000000     
  0.53125000000000000       0.87500000000000000        0.0000000000000000     
  0.56250000000000000       0.87500000000000000        0.0000000000000000     
  0.59375000000000000       0.87500000000000000        0.0000000000000000     
  0.62500000000000000       0.87500000000000000        0.0000000000000000     
  0.62500000000000000       0.75000000000000000        0.0000000000000000     
  0.65625000000000000       0.75000000000000000        0.0000000000000000     
  0.68750000000000000       0.75000000000000000        0.0000000000000000     
  0.71875000000000000       0.75000000000000000        0.0000000000000000     
  0.75000000000000000       0.75000000000000000        0.0000000000000000     
  0.62500000000000000       0.78125000000000000        0.0000000000000000     
  0.65625000000000000       0.78125000000000000        0.0000000000000000     
  0.68750000000000000       0.78125000000000000        0.0000000000000000     
  0.71875000000000000       0.78125000000000000        0.0000000000000000     
  0.75000000000000000       0.78125000000000000        0.0000000000000000     
  0.62500000000000000       0.81250000000000000        0.0000000000000000     
  0.65625000000000000       0.81250000000000000        0.0000000000000000     
  0.68750000000000000       0.81250000000000000        0.0000000000000000     
  0.71875000000000000       0.81250000000000000        0.0000000000000000     
  0.75000000000000000       0.81250000000000000        0.0000000000000000     
  0.62500000000000000       0.84375000000000000        0.0000000000000000     
  0.65625000000000000       0.84375000000000000        0.0000000000000000     
  0.68750000000000000       0.84375000000000000        0.0000000000000000     
  0.71875000000000000       0.84375000000000000        0.0000000000000000     
  0.75000000000000000       0.84375000000000000        0.0000000000000000     
  0.62500000000000000       0.87500000000000000        0.0000000000000000     
  0.65625000000000000       0.87500000000000000        0.0000000000000000     
  0.68750000000000000       0.87500000000000000        0.0000000000000000     
  0.71875000000000000       0.87500000000000000        0.0000000000000000     
  0.75000000000000000       0.87500000000000000        0.0000000000000000     
  0.75000000000000000       0.75000000000000000        0.0000000000000000     
  0.78125000000000000       0.75000000000000000        0.0000000000000000     
  0.81250000000000000       0.75000000000000000        0.0000000000000000     
  0.84375000000000000       0.75000000000000000        0.0000000000000000     
  0.87500000000000000       0.75000000000000000        0.0000000000000000     
  0.75000000000000000       0.78125000000000000        0.0000000000000000     
  0.78125000000000000       0.78125000000000000        0.0000000000000000     
  0.81250000000000000       0.78125000000000000        0.0000000000000000     
  0.84375000000000000       0.78125000000000000        0.0000000000000000     
  0.87500000000000000       0.78125000000000000        0.0000000000000000     
  0.75000000000000000       0.81250000000000000        0.0000000000000000     
  0.78125000000000000       0.81250000000000000        0.0000000000000000     
  0.81250000000000000       0.81250000000000000        0.0000000000000000     
  0.84375000000000000       0.81250000000000000        0.0000000000000000     
  0.87500000000000000       0.81250000000000000        0.0000000000000000     
  0.75000000000000000       0.84375000000000000        0.0000000000000000     
  0.78125000000000000       0.84375000000000000        0.0000000000000000     
  0.81250000000000000       0.84375000000000000        0.0000000000000000     
  0.84375000000000000       0.84375000000000000        0.0000000000000000     
  0.87500000000000000       0.84375000000000000        0.0000000000000000     
  0.75000000000000000       0.87500000000000000        0.0000000000000000     
  0.78125000000000000       0.87500000000000000        0.0000000000000000     
  0.81250000000000000       0.87500000000000000        0.0000000000000000     
  0.84375000000000000       0.87500000000000000        0.0000000000000000     
  0.87500000000000000       0.87500000000000000        0.0000000000000000     
  0.87500000000000000       0.75000000000000000        0.0000000000000000     
  0.90625000000000000       0.75000000000000000        0.0000000000000000     
  0.93750000000000000       0.75000000000000000        0.0000000000000000     
  0.96875000000000000       0.75000000000000000        0.0000000000000000     
   1.0000000000000000       0.75000000000000000        0.0000000000000000     
  0.87500000000000000       0.78125000000000000        0.0000000000000000     
  0.90625000000000000       0.78125000000000000        0.0000000000000000     
  0.93750000000000000       0.78125000000000000        0.0000000000000000     
  0.96875000000000000       0.78125000000000000        0.0000000000000000     
   1.0000000000000000       0.78125000000000000        0.0000000000000000     
  0.87500000000000000       0.81250000000000000        0.0000000000000000     
  0.90625000000000000       0.81250000000000000        0.0000000000000000     
  0.93750000000000000       0.81250000000000000        0.0000000000000000     
  0.96875000000000000       0.81250000000000000        0.0000000000000000     
   1.0000000000000000       0.81250000000000000        0.0000000000000000     
  0.87500000000000000       0.84375000000000000        0.0000000000000000     
  0.90625000000000000       0.84375000000000000        0.0000000000000000     
  0.93750000000000000       0.84375000000000000        0.0000000000000000     
  0.96875000000000000       0.84375000000000000        0.0000000000000000     
   1.0000000000000000       0.84375000000000000        0.0000000000000000     
  0.87500000000000000       0.87500000000000000        0.0000000000000000     
  0.90625000000000000       0.87500000000000000        0.0000000000000000     
  0.93750000000000000       0.87500000000000000        0.0000000000000000     
  0.96875000000000000       0.87500000000000000        0.0000000000000000     
   1.0000000000000000       0.87500000000000000        0.0000000000000000     
   0.0000000000000000       0.87500000000000000        0.0000000000000000     
   3.1250000000000000E-002  0.87500000000000000        0.0000000000000000     
   6.2500000000000000E-002  0.87500000000000000        0.0000000000000000     
   9.3750000000000000E-002  0.87500000000000000        0.0000000000000000     
  0.12500000000000000       0.87500000000000000        0.0000000000000000     
   0.0000000000000000       0.90625000000000000        0.0000000000000000     
   3.1250000000000000E-002  0.90625000000000000        0.0000000000000000     
   6.2500000000000000E-002  0.90625000000000000        0.0000000000000000     
   9.3750000000000000E-002  0.90625000000000000        0.0000000000000000     
  0.12500000000000000       0.90625000000000000        0.0000000000000000     
   0.0000000000000000       0.93750000000000000        0.0000000000000000     
   3.1250000000000000E-002  0.93750000000000000        0.0000000000000000     
   6.2500000000000000E-002  0.93750000000000000        0.0000000000000000     
   9.3750000000000000E-002  0.93750000000000000        0.0000000000000000     
  0.12500000000000000       0.93750000000000000        0.0000000000000000     
   0.0000000000000000       0.96875000000000000        0.0000000000000000     
   3.1250000000000000E-002  0.96875000000000000        0.0000000000000000     
   6.2500000000000000E-002  0.96875000000000000        0.0000000000000000     
   9.3750000000000000E-002  0.96875000000000000        0.0000000000000000     
  0.12500000000000000       0.96875000000000000        0.0000000000000000     
   0.0000000000000000        1.0000000000000000        0.0000000000000000     
   3.1250000000000000E-002   1.0000000000000000        0.0000000000000000     
   6.2500000000000000E-002   1.0000000000000000        0.0000000000000000     
   9.3750000000000000E-002   1.0000000000000000        0.0000000000000000     
  0.12500000000000000        1.0000000000000000        0.0000000000000000     
  0.12500000000000000       0.87500000000000000        0.0000000000000000     
  0.15625000000000000       0.87500000000000000        0.0000000000000000     
  0.18750000000000000       0.87500000000000000        0.0000000000000000     
  0.21875000000000000       0.87500000000000000        0.0000000000000000     
  0.25000000000000000       0.87500000000000000        0.0000000000000000     
  0.12500000000000000       0.90625000000000000        0.0000000000000000     
  0.15625000000000000       0.90625000000000000        0.0000000000000000     
  0.18750000000000000       0.90625000000000000        0.0000000000000000     
  0.21875000000000000       0.90625000000000000        0.0000000000000000     
  0.25000000000000000       0.90625000000000000        0.0000000000000000     
  0.12500000000000000       0.93750000000000000        0.0000000000000000     
  0.15625000000000000       0.93750000000000000        0.0000000000000000     
  0.18750000000000000       0.93750000000000000        0.0000000000000000     
  0.21875000000000000       0.93750000000000000        0.0000000000000000     
  0.25000000000000000       0.93750000000000000        0.0000000000000000     
  0.12500000000000000       0.96875000000000000        0.0000000000000000     
  0.15625000000000000       0.96875000000000000        0.0000000000000000     
  0.18750000000000000       0.96875000000000000        0.0000000000000000     
  0.21875000000000000       0.96875000000000000        0.0000000000000000     
  0.25000000000000000       0.96875000000000000        0.0000000000000000     
  0.12500000000000000        1.0000000000000000        0.0000000000000000     
  0.15625000000000000        1.0000000000000000        0.0000000000000000     
  0.18750000000000000        1.0000000000000000        0.0000000000000000     
  0.21875000000000000        1.0000000000000000        0.0000000000000000     
  0.25000000000000000        1.0000000000000000        0.0000000000000000     
  0.25000000000000000       0.87500000000000000        0.0000000000000000     
  0.28125000000000000       0.87500000000000000        0.0000000000000000     
  0.31250000000000000       0.87500000000000000        0.0000000000000000     
  0.34375000000000000       0.87500000000000000        0.0000000000000000     
  0.37500000000000000       0.87500000000000000        0.0000000000000000     
  0.25000000000000000       0.90625000000000000        0.0000000000000000     
  0.28125000000000000       0.90625000000000000        0.0000000000000000     
  0.31250000000000000       0.90625000000000000        0.0000000000000000     
  0.34375000000000000       0.90625000000000000        0.0000000000000000     
  0.37500000000000000       0.90625000000000000        0.0000000000000000     
  0.25000000000000000       0.93750000000000000        0.0000000000000000     
  0.28125000000000000       0.93750000000000000        0.0000000000000000     
  0.31250000000000000       0.93750000000000000        0.0000000000000000     
  0.34375000000000000       0.93750000000000000        0.0000000000000000     
  0.37500000000000000       0.93750000000000000        0.0000000000000000     
  0.25000000000000000       0.96875000000000000        0.0000000000000000     
  0.28125000000000000       0.96875000000000000        0.0000000000000000     
  0.31250000000000000       0.96875000000000000        0.0000000000000000     
  0.34375000000000000       0.96875000000000000        0.0000000000000000     
  0.37500000000000000       0.96875000000000000        0.0000000000000000     
  0.25000000000000000        1.0000000000000000        0.0000000000000000     
  0.28125000000000000        1.0000000000000000        0.0000000000000000     
  0.31250000000000000        1.0000000000000000        0.0000000000000000     
  0.34375000000000000        1.0000000000000000        0.0000000000000000     
  0.37500000000000000        1.0000000000000000        0.0000000000000000     
  0.37500000000000000       0.87500000000000000        0.0000000000000000     
  0.40625000000000000       0.87500000000000000        0.0000000000000000     
  0.43750000000000000       0.87500000000000000        0.0000000000000000     
  0.46875000000000000       0.87500000000000000        0.0000000000000000     
  0.50000000000000000       0.87500000000000000        0.0000000000000000     
  0.37500000000000000       0.90625000000000000        0.0000000000000000     
  0.40625000000000000       0.90625000000000000        0.0000000000000000     
  0.43750000000000000       0.90625000000000000        0.0000000000000000     
  0.46875000000000000       0.90625000000000000        0.0000000000000000     
  0.50000000000000000       0.90625000000000000        0.0000000000000000     
  0.37500000000000000       0.93750000000000000        0.0000000000000000     
  0.40625000000000000       0.93750000000000000        0.0000000000000000     
  0.43750000000000000       0.93750000000000000        0.0000000000000000     
  0.46875000000000000       0.93750000000000000        0.0000000000000000     
  0.50000000000000000       0.93750000000000000        0.0000000000000000     
  0.37500000000000000       0.96875000000000000        0.0000000000000000     
  0.40625000000000000       0.96875000000000000        0.0000000000000000     
  0.43750000000000000       0.96875000000000000        0.0000000000000000     
  0.46875000000000000       0.96875000000000000        0.0000000000000000     
  0.50000000000000000       0.96875000000000000        0.0000000000000000     
  0.37500000000000000        1.0000000000000000        0.0000000000000000     
  0.40625000000000000        1.0000000000000000        0.0000000000000000     
  0.43750000000000000        1.0000000000000000        0.0000000000000000     
  0.46875000000000000        1.0000000000000000        0.0000000000000000     
  0.50000000000000000        1.0000000000000000        0.0000000000000000     
  0.50000000000000000       0.87500000000000000        0.0000000000000000     
  0.53125000000000000       0.87500000000000000        0.0000000000000000     
  0.56250000000000000       0.87500000000000000        0.0000000000000000     
  0.59375000000000000       0.87500000000000000        0.0000000000000000     
  0.62500000000000000       0.87500000000000000        0.0000000000000000     
  0.50000000000000000       0.90625000000000000        0.0000000000000000     
  0.53125000000000000       0.90625000000000000        0.0000000000000000     
  0.56250000000000000       0.90625000000000000        0.0000000000000000     
  0.59375000000000000       0.90625000000000000        0.0000000000000000     
  0.62500000000000000       0.90625000000000000        0.0000000000000000     
  0.50000000000000000       0.93750000000000000        0.0000000000000000     
  0.53125000000000000       0.93750000000000000        0.0000000000000000     
  0.56250000000000000       0.93750000000000000        0.0000000000000000     
  0.59375000000000000       0.93750000000000000        0.0000000000000000     
  0.62500000000000000       0.93750000000000000        0.0000000000000000     
  0.50000000000000000       0.96875000000000000        0.0000000000000000     
  0.53125000000000000       0.96875000000000000        0.0000000000000000     
  0.56250000000000000       0.96875000000000000        0.0000000000000000     
  0.59375000000000000       0.96875000000000000        0.0000000000000000     
  0.62500000000000000       0.96875000000000000        0.0000000000000000     
  0.50000000000000000        1.0000000000000000        0.0000000000000000     
  0.53125000000000000        1.0000000000000000        0.0000000000000000     
  0.56250000000000000        1.0000000000000000        0.0000000000000000     
  0.59375000000000000        1.0000000000000000        0.0000000000000000     
  0.62500000000000000        1.0000000000000000        0.0000000000000000     
  0.62500000000000000       0.87500000000000000        0.0000000000000000     
  0.65625000000000000       0.87500000000000000        0.0000000000000000     
  0.68750000000000000       0.87500000000000000        0.0000000000000000     
  0.71875000000000000       0.87500000000000000        0.0000000000000000     
  0.75000000000000000       0.87500000000000000        0.0000000000000000     
  0.62500000000000000       0.90625000000000000        0.0000000000000000     
  0.65625000000000000       0.90625000000000000        0.0000000000000000     
  0.68750000000000000       0.90625000000000000        0.0000000000000000     
  0.71875000000000000       0.90625000000000000        0.0000000000000000     
  0.75000000000000000       0.90625000000000000        0.0000000000000000     
  0.62500000000000000       0.93750000000000000        0.0000000000000000     
  0.65625000000000000       0.93750000000000000        0.0000000000000000     
  0.68750000000000000       0.93750000000000000        0.0000000000000000     
  0.71875000000000000       0.93750000000000000        0.0000000000000000     
  0.75000000000000000       0.93750000000000000        0.0000000000000000     
  0.62500000000000000       0.96875000000000000        0.0000000000000000     
  0.65625000000000000       0.96875000000000000        0.0000000000000000     
  0.68750000000000000       0.96875000000000000        0.0000000000000000     
  0.71875000000000000       0.96875000000000000        0.0000000000000000     
  0.75000000000000000       0.96875000000000000        0.0000000000000000     
  0.62500000000000000        1.0000000000000000        0.0000000000000000     
  0.65625000000000000        1.0000000000000000        0.0000000000000000     
  0.68750000000000000        1.0000000000000000        0.0000000000000000     
  0.71875000000000000        1.0000000000000000        0.0000000000000000     
  0.75000000000000000        1.0000000000000000        0.0000000000000000     
  0.75000000000000000       0.87500000000000000        0.0000000000000000     
  0.78125000000000000       0.87500000000000000        0.0000000000000000     
  0.81250000000000000       0.87500000000000000        0.0000000000000000     
  0.84375000000000000       0.87500000000000000        0.0000000000000000     
  0.87500000000000000       0.87500000000000000        0.0000000000000000     
  0.75000000000000000       0.90625000000000000        0.0000000000000000     
  0.78125000000000000       0.90625000000000000        0.0000000000000000     
  0.81250000000000000       0.90625000000000000        0.0000000000000000     
  0.84375000000000000       0.90625000000000000        0.0000000000000000     
  0.87500000000000000       0.90625000000000000        0.0000000000000000     
  0.75000000000000000       0.93750000000000000        0.0000000000000000     
  0.78125000000000000       0.93750000000000000        0.0000000000000000     
  0.81250000000000000       0.93750000000000000        0.0000000000000000     
  0.84375000000000000       0.93750000000000000        0.0000000000000000     
  0.87500000000000000       0.93750000000000000        0.0000000000000000     
  0.75000000000000000       0.96875000000000000        0.0000000000000000     
  0.78125000000000000       0.96875000000000000        0.0000000000000000     
  0.81250000000000000       0.96875000000000000        0.0000000000000000     
  0.84375000000000000       0.96875000000000000        0.0000000000000000     
  0.87500000000000000       0.96875000000000000        0.0000000000000000     
  0.75000000000000000        1.0000000000000000        0.0000000000000000     
  0.78125000000000000        1.0000000000000000        0.0000000000000000     
  0.81250000000000000        1.0000000000000000        0.0000000000000000     
  0.84375000000000000        1.0000000000000000        0.0000000000000000     
  0.87500000000000000        1.0000000000000000        0.0000000000000000     
  0.87500000000000000       0.87500000000000000        0.0000000000000000     
  0.90625000000000000       0.87500000000000000        0.0000000000000000     
  0.93750000000000000       0.87500000000000000        0.0000000000000000     
  0.96875000000000000       0.87500000000000000        0.0000000000000000     
   1.0000000000000000       0.87500000000000000        0.0000000000000000     
  0.87500000000000000       0.90625000000000000        0.0000000000000000     
  0.90625000000000000       0.90625000000000000        0.0000000000000000     
  0.93750000000000000       0.90625000000000000        0.0000000000000000     
  0.96875000000000000       0.90625000000000000        0.0000000000000000     
   1.0000000000000000       0.90625000000000000        0.0000000000000000     
  0.87500000000000000       0.93750000000000000        0.0000000000000000     
  0.90625000000000000       0.93750000000000000        0.0000000000000000     
  0.93750000000000000       0.93750000000000000        0.0000000000000000     
  0.96875000000000000       0.93750000000000000        0.0000000000000000     
   1.0000000000000000       0.93750000000000000        0.0000000000000000     
  0.87500000000000000       0.96875000000000000        0.0000000000000000     
  0.90625000000000000       0.96875000000000000        0.0000000000000000     
  0.93750000000000000       0.96875000000000000        0.0000000000000000     
  0.96875000000000000       0.96875000000000000        0.0000000000000000     
   1.0000000000000000       0.96875000000000000        0.0000000000000000     
  0.87500000000000000        1.0000000000000000        0.0000000000000000     
  0.90625000000000000        1.0000000000000000        0.0000000000000000     
  0.93750000000000000        1.0000000000000000        0.0000000000000000     
  0.96875000000000000        1.0000000000000000        0.0000000000000000     
   1.0000000000000000        1.0000000000000000        0.0000000000000000     
 </DataArray>
 </Points>
 <Cells>
 <DataArray  type="Int32"  Name="connectivity"  format="ascii">
           0           1           6           5
           1           2           7           6
           2           3           8           7
           3           4           9           8
           5           6          11          10
           6           7          12          11
           7           8          13          12
           8           9          14          13
          10          11          16          15
          11          12          17          16
          12          13          18          17
          13          14          19          18
          15          16          21          20
          16          17          22          21
          17          18          23          22
          18          19          24          23
          25          26          31          30
          26          27          32          31
          27          28          33          32
          28          29          34          33
          30          31          36          35
          31          32          37          36
          32          33          38          37
          33          34          39          38
          35          36          41          40
          36          37          42          41
          37          38          43          42
          38          39          44          43
          40          41          46          45
          41          42          47          46
          42          43          48          47
          43          44          49          48
          50          51          56          55
          51          52          57          56
          52          53          58          57
          53          54          59          58
          55          56          61          60
          56          57          62          61
          57          58          63          62
          58          59          64          63
          60          61          66          65
          61          62          67          66
          62          63          68          67
          63          64          69          68
          65          66          71          70
          66          67          72          71
          67          68          73          72
          68          69          74          73
          75          76          81          80
          76          77          82          81
          77          78          83          82
          78          79          84          83
          80          81          86          85
          81          82          87          86
          82          83          88          87
          83          84          89          88
          85          86          91          90
          86          87          92          91
          87          88          93          92
          88          89          94          93
          90          91          96          95
          91          92          97          96
          92          93          98          97
          93          94          99          98
         100         101         106         105
         101         102         107         106
         102         103         108         107
         103         104         109         108
         105         106         111         110
         106         107         112         111
         107         108         113         112
         108         109         114         113
         110         111         116         115
         111         112         117         116
         112         113         118         117
         113         114         119         118
         115         116         121         120
         116         117         122         121
         117         118         123         122
         118         119         124         123
         125         126         131         130
         126         127         132         131
         127         128         133         132
         128         129         134         133
         130         131         136         135
         131         132         137         136
         132         133         138         137
         133         134         139         138
         135         136         141         140
         136         137         142         141
         137         138         143         142
         138         139         144         143
         140         141         146         145
         141         142         147         146
         142         143         148         147
         143         144         149         148
         150         151         156         155
         151         152         157         156
         152         153         158         157
         153         154         159         158
         155         156         161         160
         156         157         162         161
         157         158         163         162
         158         159         164         163
         160         161         166         165
         161         162         167         166
         162         163         168         167
         163         164         169         168
         165         166         171         170
         166         167         172         171
         167         168         173         172
         168         169         174         173
         175         176         181         180
         176         177         182         181
         177         178         183         182
         178         179         184         183
         180         181         186         185
         181         182         187         186
         182         183         188         187
         183         184         189         188
         185         186         191         190
         186         187         192         191
         187         188         193         192
         188         189         194         193
         190         191         196         195
         191         192         197         196
         192         193         198         197
         193         194         199         198
         200         201         206         205
         201         202         207         206
         202         203         208         207
         203         204         209         208
         205         206         211         210
         206         207         212         211
         207         208         213         212
         208         209         214         213
         210         211         216         215
         211         212         217         216
         212         213         218         217
         213         214         219         218
         215         216         221         220
         216         217         222         221
         217         218         223         222
         218         219         224         223
         225         226         231         230
         226         227         232         231
         227         228         233         232
         228         229         234         233
         230         231         236         235
         231         232         237         236
         232         233         238         237
         233         234         239         238
         235         236         241         240
         236         237         242         241
         237         238         243         242
         238         239         244         243
         240         241         246         245
         241         242         247         246
         242         243         248         247
         243         244         249         248
         250         251         256         255
         251         252         257         256
         252         253         258         257
         253         254         259         258
         255         256         261         260
         256         257         262         261
         257         258         263         262
         258         259         264         263
         260         261         266         265
         261         262         267         266
         262         263         268         267
         263         264         269         268
         265         266         271         270
         266         267         272         271
         267         268         273         272
         268         269         274         273
         275         276         281         280
         276         277         282         281
         277         278         283         282
         278         279         284         283
         280         281         286         285
         281         282         287         286
         282         283         288         287
         283         284         289         288
         285         286         291         290
         286         287         292         291
         287         288         293         292
         288         289         294         293
         290         291         296         295
         291         292         297         296
         292         293         298         297
         293         294         299         298
         300         301         306         305
         301         302         307         306
         302         303         308         307
         303         304         309         308
         305         306         311         310
         306         307         312         311
         307         308         313         312
         308         309         314         313
         310         311         316         315
         311         312         317         316
         312         313         318         317
         313         314         319         318
         315         316         321         320
         316         317         322         321
         317         318         323         322
         318         319         324         323
         325         326         331         330
         326         327         332         331
         327         328         333         332
         328         329         334         333
         330         331         336         335
         331         332         337         336
         332         333         338         337
         333         334         339         338
         335         336         341         340
         336         337         342         341
         337         338         343         342
         338         339         344         343
         340         341         346         345
         341         342         347         346
         342         343         348         347
         343         344         349         348
         350         351         356         355
         351         352         357         356
         352         353         358         357
         353         354         359         358
         355         356         361         360
         356         357         362         361
         357         358         363         362
         358         359         364         363
         360         361         366         365
         361         362         367         366
         362         363         368         367
         363         364         369         368
         365         366         371         370
         366         367         372         371
         367         368         373         372
         368         369         374         373
         375         376         381         380
         376         377         382         381
         377         378         383         382
         378         379         384         383
         380         381         386         385
         381         382         387         386
         382         383         388         387
         383         384         389         388
         385         386         391         390
         386         387         392         391
         387         388         393         392
         388         389         394         393
         390         391         396         395
         391         392         397         396
         392         393         398         397
         393         394         399         398
         400         401         406         405
         401         402         407         406
         402         403         408         407
         403         404         409         408
         405         406         411         410
         406         407         412         411
         407         408         413         412
         408         409         414         413
         410         411         416         415
         411         412         417         416
         412         413         418         417
         413         414         419         418
         415         416         421         420
         416         417         422         421
         417         418         423         422
         418         419         424         423
         425         426         431         430
         426         427         432         431
         427         428         433         432
         428         429         434         433
         430         431         436         435
         431         432         437         436
         432         433         438         437
         433         434         439         438
         435         436         441         440
         436         437         442         441
         437         438         443         442
         438         439         444         443
         440         441         446         445
         441         442         447         446
         442         443         448         447
         443         444         449         448
         450         451         456         455
         451         452         457         456
         452         453         458         457
         453         454         459         458
         455         456         461         460
         456         457         462         461
         457         458         463         462
         458         459         464         463
         460         461         466         465
         461         462         467         466
         462         463         468         467
         463         464         469         468
         465         466         471         470
         466         467         472         471
         467         468         473         472
         468         469         474         473
         475         476         481         480
         476         477         482         481
         477         478         483         482
         478         479         484         483
         480         481         486         485
         481         482         487         486
         482         483         488         487
         483         484         489         488
         485         486         491         490
         486         487         492         491
         487         488         493         492
         488         489         494         493
         490         491         496         495
         491         492         497         496
         492         493         498         497
         493         494         499         498
         500         501         506         505
         501         502         507         506
         502         503         508         507
         503         504         509         508
         505         506         511         510
         506         507         512         511
         507         508         513         512
         508         509         514         513
         510         511         516         515
         511         512         517         516
         512         513         518         517
         513         514         519         518
         515         516         521         520
         516         517         522         521
         517         518         523         522
         518         519         524         523
         525         526         531         530
         526         527         532         531
         527         528         533         532
         528         529         534         533
         530         531         536         535
         531         532         537         536
         532         533         538         537
         533         534         539         538
         535         536         541         540
         536         537         542         541
         537         538         543         542
         538         539         544         543
         540         541         546         545
         541         542         547         546
         542         543         548         547
         543         544         549         548
         550         551         556         555
         551         552         557         556
         552         553         558         557
         553         554         559         558
         555         556         561         560
         556         557         562         561
         557         558         563         562
         558         559         564         563
         560         561         566         565
         561         562         567         566
         562         563         568         567
         563         564         569         568
         565         566         571         570
         566         567         572         571
         567         568         573         572
         568         569         574         573
         575         576         581         580
         576         577         582         581
         577         578         583         582
         578         579         584         583
         580         581         586         585
         581         582         587         586
         582         583         588         587
         583         584         589         588
         585         586         591         590
         586         587         592         591
         587         588         593         592
         588         589         594         593
         590         591         596         595
         591         592         597         596
         592         593         598         597
         593         594         599         598
         600         601         606         605
         601         602         607         606
         602         603         608         607
         603         604         609         608
         605         606         611         610
         606         607         612         611
         607         608         613         612
         608         609         614         613
         610         611         616         615
         611         612         617         616
         612         613         618         617
         613         614         619         618
         615         616         621         620
         616         617         622         621
         617         618         623         622
         618         619         624         623
         625         626         631         630
         626         627         632         631
         627         628         633         632
         628         629         634         633
         630         631         636         635
         631         632         637         636
         632         633         638         637
         633         634         639         638
         635         636         641         640
         636         637         642         641
         637         638         643         642
         638         639         644         643
         640         641         646         645
         641         642         647         646
         642         643         648         647
         643         644         649         648
         650         651         656         655
         651         652         657         656
         652         653         658         657
         653         654         659         658
         655         656         661         660
         656         657         662         661
         657         658         663         662
         658         659         664         663
         660         661         666         665
         661         662         667         666
         662         663         668         667
         663         664         669         668
         665         666         671         670
         666         667         672         671
         667         668         673         672
         668         669         674         673
         675         676         681         680
         676         677         682         681
         677         678         683         682
         678         679         684         683
         680         681         686         685
         681         682         687         686
         682         683         688         687
         683         684         689         688
         685         686         691         690
         686         687         692         691
         687         688         693         692
         688         689         694         693
         690         691         696         695
         691         692         697         696
         692         693         698         697
         693         694         699         698
         700         701         706         705
         701         702         707         706
         702         703         708         707
         703         704         709         708
         705         706         711         710
         706         707         712         711
         707         708         713         712
         708         709         714         713
         710         711         716         715
         711         712         717         716
         712         713         718         717
         713         714         719         718
         715         716         721         720
         716         717         722         721
         717         718         723         722
         718         719         724         723
         725         726         731         730
         726         727         732         731
         727         728         733         732
         728         729         734         733
         730         731         736         735
         731         732         737         736
         732         733         738         737
         733         734         739         738
         735         736         741         740
         736         737         742         741
         737         738         743         742
         738         739         744         743
         740         741         746         745
         741         742         747         746
         742         743         748         747
         743         744         749         748
         750         751         756         755
         751         752         757         756
         752         753         758         757
         753         754         759         758
         755         756         761         760
         756         757         762         761
         757         758         763         762
         758         759         764         763
         760         761         766         765
         761         762         767         766
         762         763         768         767
         763         764         769         768
         765         766         771         770
         766         767         772         771
         767         768         773         772
         768         769         774         773
         775         776         781         780
         776         777         782         781
         777         778         783         782
         778         779         784         783
         780         781         786         785
         781         782         787         786
         782         783         788         787
         783         784         789         788
         785         786         791         790
         786         787         792         791
         787         788         793         792
         788         789         794         793
         790         791         796         795
         791         792         797         796
         792         793         798         797
         793         794         799         798
         800         801         806         805
         801         802         807         806
         802         803         808         807
         803         804         809         808
         805         806         811         810
         806         807         812         811
         807         808         813         812
         808         809         814         813
         810         811         816         815
         811         812         817         816
         812         813         818         817
         813         814         819         818
         815         816         821         820
         816         817         822         821
         817         818         823         822
         818         819         824         823
         825         826         831         830
         826         827         832         831
         827         828         833         832
         828         829         834         833
         830         831         836         835
         831         832         837         836
         832         833         838         837
         833         834         839         838
         835         836         841         840
         836         837         842         841
         837         838         843         842
         838         839         844         843
         840         841         846         845
         841         842         847         846
         842         843         848         847
         843         844         849         848
         850         851         856         855
         851         852         857         856
         852         853         858         857
         853         854         859         858
         855         856         861         860
         856         857         862         861
         857         858         863         862
         858         859         864         863
         860         861         866         865
         861         862         867         866
         862         863         868         867
         863         864         869         868
         865         866         871         870
         866         867         872         871
         867         868         873         872
         868         869         874         873
         875         876         881         880
         876         877         882         881
         877         878         883         882
         878         879         884         883
         880         881         886         885
         881         882         887         886
         882         883         888         887
         883         884         889         888
         885         886         891         890
         886         887         892         891
         887         888         893         892
         888         889         894         893
         890         891         896         895
         891         892         897         896
         892         893         898         897
         893         894         899         898
         900         901         906         905
         901         902         907         906
         902         903         908         907
         903         904         909         908
         905         906         911         910
         906         907         912         911
         907         908         913         912
         908         909         914         913
         910         911         916         915
         911         912         917         916
         912         913         918         917
         913         914         919         918
         915         916         921         920
         916         917         922         921
         917         918         923         922
         918         919         924         923
         925         926         931         930
         926         927         932         931
         927         928         933         932
         928         929         934         933
         930         931         936         935
         931         932         937         936
         932         933         938         937
         933         934         939         938
         935         936         941         940
         936         937         942         941
         937         938         943         942
         938         939         944         943
         940         941         946         945
         941         942         947         946
         942         943         948         947
         943         944         949         948
         950         951         956         955
         951         952         957         956
         952         953         958         957
         953         954         959         958
         955         956         961         960
         956         957         962         961
         957         958         963         962
         958         959         964         963
         960         961         966         965
         961         962         967         966
         962         963         968         967
         963         964         969         968
         965         966         971         970
         966         967         972         971
         967         968         973         972
         968         969         974         973
         975         976         981         980
         976         977         982         981
         977         978         983         982
         978         979         984         983
         980         981         986         985
         981         982         987         986
         982         983         988         987
         983         984         989         988
         985         986         991         990
         986         987         992         991
         987         988         993         992
         988         989         994         993
         990         991         996         995
         991         992         997         996
         992         993         998         997
         993         994         999         998
        1000        1001        1006        1005
        1001        1002        1007        1006
        1002        1003        1008        1007
        1003        1004        1009        1008
        1005        1006        1011        1010
        1006        1007        1012        1011
        1007        1008        1013        1012
        1008        1009        1014        1013
        1010        1011        1016        1015
        1011        1012        1017        1016
        1012        1013        1018        1017
        1013        1014        1019        1018
        1015        1016        1021        1020
        1016        1017        1022        1021
        1017        1018        1023        1022
        1018        1019        1024        1023
        1025        1026        1031        1030
        1026        1027        1032        1031
        1027        1028        1033        1032
        1028        1029        1034        1033
        1030        1031        1036        1035
        1031        1032        1037        1036
        1032        1033        1038        1037
        1033        1034        1039        1038
        1035        1036        1041        1040
        1036        1037        1042        1041
        1037        1038        1043        1042
        1038        1039        1044        1043
        1040        1041        1046        1045
        1041        1042        1047        1046
        1042        1043        1048        1047
        1043        1044        1049        1048
        1050        1051        1056        1055
        1051        1052        1057        1056
        1052        1053        1058        1057
        1053        1054        1059        1058
        1055        1056        1061        1060
        1056        1057        1062        1061
        1057        1058        1063        1062
        1058        1059        1064        1063
        1060        1061        1066        1065
        1061        1062        1067        1066
        1062        1063        1068        1067
        1063        1064        1069        1068
        1065        1066        1071        1070
        1066        1067        1072        1071
        1067        1068        1073        1072
        1068        1069        1074        1073
        1075        1076        1081        1080
        1076        1077        1082        1081
        1077        1078        1083        1082
        1078        1079        1084        1083
        1080        1081        1086        1085
        1081        1082        1087        1086
        1082        1083        1088        1087
        1083        1084        1089        1088
        1085        1086        1091        1090
        1086        1087        1092        1091
        1087        1088        1093        1092
        1088        1089        1094        1093
        1090        1091        1096        1095
        1091        1092        1097        1096
        1092        1093        1098        1097
        1093        1094        1099        1098
        1100        1101        1106        1105
        1101        1102        1107        1106
        1102        1103        1108        1107
        1103        1104        1109        1108
        1105        1106        1111        1110
        1106        1107        1112        1111
        1107        1108        1113        1112
        1108        1109        1114        1113
        1110        1111        1116        1115
        1111        1112        1117        1116
        1112        1113        1118        1117
        1113        1114        1119        1118
        1115        1116        1121        1120
        1116        1117        1122        1121
        1117        1118        1123        1122
        1118        1119        1124        1123
        1125        1126        1131        1130
        1126        1127        1132        1131
        1127        1128        1133        1132
        1128        1129        1134        1133
        1130        1131        1136        1135
        1131        1132        1137        1136
        1132        1133        1138        1137
        1133        1134        1139        1138
        1135        1136        1141        1140
        1136        1137        1142        1141
        1137        1138        1143        1142
        1138        1139        1144        1143
        1140        1141        1146        1145
        1141        1142        1147        1146
        1142        1143        1148        1147
        1143        1144        1149        1148
        1150        1151        1156        1155
        1151        1152        1157        1156
        1152        1153        1158        1157
        1153        1154        1159        1158
        1155        1156        1161        1160
        1156        1157        1162        1161
        1157        1158        1163        1162
        1158        1159        1164        1163
        1160        1161        1166        1165
        1161        1162        1167        1166
        1162        1163        1168        1167
        1163        1164        1169        1168
        1165        1166        1171        1170
        1166        1167        1172        1171
        1167        1168        1173        1172
        1168        1169        1174        1173
        1175        1176        1181        1180
        1176        1177        1182        1181
        1177        1178        1183        1182
        1178        1179        1184        1183
        1180        1181        1186        1185
        1181        1182        1187        1186
        1182        1183        1188        1187
        1183        1184        1189        1188
        1185        1186        1191        1190
        1186        1187        1192        1191
        1187        1188        1193        1192
        1188        1189        1194        1193
        1190        1191        1196        1195
        1191        1192        1197        1196
        1192        1193        1198        1197
        1193        1194        1199        1198
        1200        1201        1206        1205
        1201        1202        1207        1206
        1202        1203        1208        1207
        1203        1204        1209        1208
        1205        1206        1211        1210
        1206        1207        1212        1211
        1207        1208        1213        1212
        1208        1209        1214        1213
        1210        1211        1216        1215
        1211        1212        1217        1216
        1212        1213        1218        1217
        1213        1214        1219        1218
        1215        1216        1221        1220
        1216        1217        1222        1221
        1217        1218        1223        1222
        1218        1219        1224        1223
        1225        1226        1231        1230
        1226        1227        1232        1231
        1227        1228        1233        1232
        1228        1229        1234        1233
        1230        1231        1236        1235
        1231        1232        1237        1236
        1232        1233        1238        1237
        1233        1234        1239        1238
        1235        1236        1241        1240
        1236        1237        1242        1241
        1237        1238        1243        1242
        1238        1239        1244        1243
        1240        1241        1246        1245
        1241        1242        1247        1246
        1242        1243        1248        1247
        1243        1244        1249        1248
        1250        1251        1256        1255
        1251        1252        1257        1256
        1252        1253        1258        1257
        1253        1254        1259        1258
        1255        1256        1261        1260
        1256        1257        1262        1261
        1257        1258        1263        1262
        1258        1259        1264        1263
        1260        1261        1266        1265
        1261        1262        1267        1266
        1262        1263        1268        1267
        1263        1264        1269        1268
        1265        1266        1271        1270
        1266        1267        1272        1271
        1267        1268        1273        1272
        1268        1269        1274        1273
        1275        1276        1281        1280
        1276        1277        1282        1281
        1277        1278        1283        1282
        1278        1279        1284        1283
        1280        1281        1286        1285
        1281        1282        1287        1286
        1282        1283        1288        1287
        1283        1284        1289        1288
        1285        1286        1291        1290
        1286        1287        1292        1291
        1287        1288        1293        1292
        1288        1289        1294        1293
        1290        1291        1296        1295
        1291        1292        1297        1296
        1292        1293        1298        1297
        1293        1294        1299        1298
        1300        1301        1306        1305
        1301        1302        1307        1306
        1302        1303        1308        1307
        1303        1304        1309        1308
        1305        1306        1311        1310
        1306        1307        1312        1311
        1307        1308        1313        1312
        1308        1309        1314        1313
        1310        1311        1316        1315
        1311        1312        1317        1316
        1312        1313        1318        1317
        1313        1314        1319        1318
        1315        1316        1321        1320
        1316        1317        1322        1321
        1317        1318        1323        1322
        1318        1319        1324        1323
        1325        1326        1331        1330
        1326        1327        1332        1331
        1327        1328        1333        1332
        1328        1329        1334        1333
        1330        1331        1336        1335
        1331        1332        1337        1336
        1332        1333        1338        1337
        1333        1334        1339        1338
        1335        1336        1341        1340
        1336        1337        1342        1341
        1337        1338        1343        1342
        1338        1339        1344        1343
        1340        1341        1346        1345
        1341        1342        1347        1346
        1342        1343        1348        1347
        1343        1344        1349        1348
        1350        1351        1356        1355
        1351        1352        1357        1356
        1352        1353        1358        1357
        1353        1354        1359        1358
        1355        1356        1361        1360
        1356        1357        1362        1361
        1357        1358        1363        1362
        1358        1359        1364        1363
        1360        1361        1366        1365
        1361        1362        1367        1366
        1362        1363        1368        1367
        1363        1364        1369        1368
        1365        1366        1371        1370
        1366        1367        1372        1371
        1367        1368        1373        1372
        1368        1369        1374        1373
        1375        1376        1381        1380
        1376        1377        1382        1381
        1377        1378        1383        1382
        1378        1379        1384        1383
        1380        1381        1386        1385
        1381        1382        1387        1386
        1382        1383        1388        1387
        1383        1384        1389        1388
        1385        1386        1391        1390
        1386        1387        1392        1391
        1387        1388        1393        1392
        1388        1389        1394        1393
        1390        1391        1396        1395
        1391        1392        1397        1396
        1392        1393        1398        1397
        1393        1394        1399        1398
        1400        1401        1406        1405
        1401        1402        1407        1406
        1402        1403        1408        1407
        1403        1404        1409        1408
        1405        1406        1411        1410
        1406        1407        1412        1411
        1407        1408        1413        1412
        1408        1409        1414        1413
        1410        1411        1416        1415
        1411        1412        1417        1416
        1412        1413        1418        1417
        1413        1414        1419        1418
        1415        1416        1421        1420
        1416        1417        1422        1421
        1417        1418        1423        1422
        1418        1419        1424        1423
        1425        1426        1431        1430
        1426        1427        1432        1431
        1427        1428        1433        1432
        1428        1429        1434        1433
        1430        1431        1436        1435
        1431        1432        1437        1436
        1432        1433        1438        1437
        1433        1434        1439        1438
        1435        1436        1441        1440
        1436        1437        1442        1441
        1437        1438        1443        1442
        1438        1439        1444        1443
        1440        1441        1446        1445
        1441        1442        1447        1446
        1442        1443        1448        1447
        1443        1444        1449        1448
        1450        1451        1456        1455
        1451        1452        1457        1456
        1452        1453        1458        1457
        1453        1454        1459        1458
        1455        1456        1461        1460
        1456        1457        1462        1461
        1457        1458        1463        1462
        1458        1459        1464        1463
        1460        1461        1466        1465
        1461        1462        1467        1466
        1462        1463        1468        1467
        1463        1464        1469        1468
        1465        1466        1471        1470
        1466        1467        1472        1471
        1467        1468        1473        1472
        1468        1469        1474        1473
        1475        1476        1481        1480
        1476        1477        1482        1481
        1477        1478        1483        1482
        1478        1479        1484        1483
        1480        1481        1486        1485
        1481        1482        1487        1486
        1482        1483        1488        1487
        1483        1484        1489        1488
        1485        1486        1491        1490
        1486        1487        1492        1491
        1487        1488        1493        1492
        1488        1489        1494        1493
        1490        1491        1496        1495
        1491        1492        1497        1496
        1492        1493        1498        1497
        1493        1494        1499        1498
        1500        1501        1506        1505
        1501        1502        1507        1506
        1502        1503        1508        1507
        1503        1504        1509        1508
        1505        1506        1511        1510
        1506        1507        1512        1511
        1507        1508        1513        1512
        1508        1509        1514        1513
        1510        1511        1516        1515
        1511        1512        1517        1516
        1512        1513        1518        1517
        1513        1514        1519        1518
        1515        1516        1521        1520
        1516        1517        1522        1521
        1517        1518        1523        1522
        1518        1519        1524        1523
        1525        1526        1531        1530
        1526        1527        1532        1531
        1527        1528        1533        1532
        1528        1529        1534        1533
        1530        1531        1536        1535
        1531        1532        1537        1536
        1532        1533        1538        1537
        1533        1534        1539        1538
        1535        1536        1541        1540
        1536        1537        1542        1541
        1537        1538        1543        1542
        1538        1539        1544        1543
        1540        1541        1546        1545
        1541        1542        1547        1546
        1542        1543        1548        1547
        1543        1544        1549        1548
        1550        1551        1556        1555
        1551        1552        1557        1556
        1552        1553        1558        1557
        1553        1554        1559        1558
        1555        1556        1561        1560
        1556        1557        1562        1561
        1557        1558        1563        1562
        1558        1559        1564        1563
        1560        1561        1566        1565
        1561        1562        1567        1566
        1562        1563        1568        1567
        1563        1564        1569        1568
        1565        1566        1571        1570
        1566        1567        1572        1571
        1567        1568        1573        1572
        1568        1569        1574        1573
        1575        1576        1581        1580
        1576        1577        1582        1581
        1577        1578        1583        1582
        1578        1579        1584        1583
        1580        1581        1586        1585
        1581        1582        1587        1586
        1582        1583        1588        1587
        1583        1584        1589        1588
        1585        1586        1591        1590
        1586        1587        1592        1591
        1587        1588        1593        1592
        1588        1589        1594        1593
        1590        1591        1596        1595
        1591        1592        1597        1596
        1592        1593        1598        1597
        1593        1594        1599        1598
 </DataArray>
 <DataArray  type="Int32"  Name="offsets"  format="ascii"> 
           4
           8
          12
          16
          20
          24
          28
          32
          36
          40
          44
          48
          52
          56
          60
          64
          68
          72
          76
          80
          84
          88
          92
          96
         100
         104
         108
         112
         116
         120
         124
         128
         132
         136
         140
         144
         148
         152
         156
         160
         164
         168
         172
         176
         180
         184
         188
         192
         196
         200
         204
         208
         212
         216
         220
         224
         228
         232
         236
         240
         244
         248
         252
         256
         260
         264
         268
         272
         276
         280
         284
         288
         292
         296
         300
         304
         308
         312
         316
         320
         324
         328
         332
         336
         340
         344
         348
         352
         356
         360
         364
         368
         372
         376
         380
         384
         388
         392
         396
         400
         404
         408
         412
         416
         420
         424
         428
         432
         436
         440
         444
         448
         452
         456
         460
         464
         468
         472
         476
         480
         484
         488
         492
         496
         500
         504
         508
         512
         516
         520
         524
         528
         532
         536
         540
         544
         548
         552
         556
         560
         564
         568
         572
         576
         580
         584
         588
         592
         596
         600
         604
         608
         612
         616
         620
         624
         628
         632
         636
         640
         644
         648
         652
         656
         660
         664
         668
         672
         676
         680
         684
         688
         692
         696
         700
         704
         708
         712
         716
         720
         724
         728
         732
         736
         740
         744
         748
         752
         756
         760
         764
         768
         772
         776
         780
         784
         788
         792
         796
         800
         804
         808
         812
         816
         820
         824
         828
         832
         836
         840
         844
         848
         852
         856
         860
         864
         868
         872
         876
         880
         884
         888
         892
         896
         900
         904
         908
         912
         916
         920
         924
         928
         932
         936
         940
         944
         948
         952
         956
         960
         964
         968
         972
         976
         980
         984
         988
         992
         996
        1000
        1004
        1008
        1012
        1016
        1020
        1024
        1028
        1032
        1036
        1040
        1044
        1048
        1052
        1056
        1060
        1064
        1068
        1072
        1076
        1080
        1084
        1088
        1092
        1096
        1100
        1104
        1108
        1112
        1116
        1120
        1124
        1128
        1132
        1136
        1140
        1144
        1148
        1152
        1156
        1160
        1164
        1168
        1172
        1176
        1180
        1184
        1188
        1192
        1196
        1200
        1204
        1208
        1212
        1216
        1220
        1224
        1228
        1232
        1236
        1240
        1244
        1248
        1252
        1256
        1260
        1264
        1268
        1272
        1276
        1280
        1284
        1288
        1292
        1296
        1300
        1304
        1308
        1312
        1316
        1320
        1324
        1328
        1332
        1336
        1340
        1344
        1348
        1352
        1356
        1360
        1364
        1368
        1372
        1376
        1380
        1384
        1388
        1392
        1396
        1400
        1404
        1408
        1412
        1416
        1420
        1424
        1428
        1432
        1436
        1440
        1444
        1448
        1452
        1456
        1460
        1464
        1468
        1472
        1476
        1480
        1484
        1488
        1492
        1496
        1500
        1504
        1508
        1512
        1516
        1520
        1524
        1528
        1532
        1536
        1540
        1544
        1548
        1552
        1556
        1560
        1564
        1568
        1572
        1576
        1580
        1584
        1588
        1592
        1596
        1600
        1604
        1608
        1612
        1616
        1620
        1624
        1628
        1632
        1636
        1640
        1644
        1648
        1652
        1656
        1660
        1664
        1668
        1672
        1676
        1680
        1684
        1688
        1692
        1696
        1700
        1704
        1708
        1712
        1716
        1720
        1724
        1728
        1732
        1736
        1740
        1744
        1748
        1752
        1756
        1760
        1764
        1768
        1772
        1776
        1780
        1784
        1788
        1792
        1796
        1800
        1804
        1808
        1812
        1816
        1820
        1824
        1828
        1832
        1836
        1840
        1844
        1848
        1852
        1856
        1860
        1864
        1868
        1872
        1876
        1880
        1884
        1888
        1892
        1896
        1900
        1904
        1908
        1912
        1916
        1920
        1924
        1928
        1932
        1936
        1940
        1944
        1948
        1952
        1956
        1960
        1964
        1968
        1972
        1976
        1980
        1984
        1988
        1992
        1996
        2000
        2004
        2008
        2012
        2016
        2020
        2024
        2028
        2032
        2036
        2040
        2044
        2048
        2052
        2056
        2060
        2064
        2068
        2072
        2076
        2080
        2084
        2088
        2092
        2096
        2100
        2104
        2108
        2112
        2116
        2120
        2124
        2128
        2132
        2136
        2140
        2144
        2148
        2152
        2156
        2160
        2164
        2168
        2172
        2176
        2180
        2184
        2188
        2192
        2196
        2200
        2204
        2208
        2212
        2216
        2220
        2224
        2228
        2232
        2236
        2240
        2244
        2248
        2252
        2256
        2260
        2264
        2268
        2272
        2276
        2280
        2284
        2288
        2292
        2296
        2300
        2304
        2308
        2312
        2316
        2320
        2324
        2328
        2332
        2336
        2340
        2344
        2348
        2352
        2356
        2360
        2364
        2368
        2372
        2376
        2380
        2384
        2388
        2392
        2396
        2400
        2404
        2408
        2412
        2416
        2420
        2424
        2428
        2432
        2436
        2440
        2444
        2448
        2452
        2456
        2460
        2464
        2468
        2472
        2476
        2480
        2484
        2488
        2492
        2496
        2500
        2504
        2508
        2512
        2516
        2520
        2524
        2528
        2532
        2536
        2540
        2544
        2548
        2552
        2556
        2560
        2564
        2568
        2572
        2576
        2580
        2584
        2588
        2592
        2596
        2600
        2604
        2608
        2612
        2616
        2620
        2624
        2628
        2632
        2636
        2640
        2644
        2648
        2652
        2656
        2660
        2664
        2668
        2672
        2676
        2680
        2684
        2688
        2692
        2696
        2700
        2704
        2708
        2712
        2716
        2720
        2724
        2728
        2732
        2736
        2740
        2744
        2748
        2752
        2756
        2760
        2764
        2768
        2772
        2776
        2780
        2784
        2788
        2792
        2796
        2800
        2804
        2808
        2812
        2816
        2820
        2824
        2828
        2832
        2836
        2840
        2844
        2848
        2852
        2856
        2860
        2864
        2868
        2872
        2876
        2880
        2884
        2888
        2892
        2896
        2900
        2904
        2908
        2912
        2916
        2920
        2924
        2928
        2932
        2936
        2940
        2944
        2948
        2952
        2956
        2960
        2964
        2968
        2972
        2976
        2980
        2984
        2988
        2992
        2996
        3000
        3004
        3008
        3012
        3016
        3020
        3024
        3028
        3032
        3036
        3040
        3044
        3048
        3052
        3056
        3060
        3064
        3068
        3072
        3076
        3080
        3084
        3088
        3092
        3096
        3100
        3104
        3108
        3112
        3116
        3120
        3124
        3128
        3132
        3136
        3140
        3144
        3148
        3152
        3156
        3160
        3164
        3168
        3172
        3176
        3180
        3184
        3188
        3192
        3196
        3200
        3204
        3208
        3212
        3216
        3220
        3224
        3228
        3232
        3236
        3240
        3244
        3248
        3252
        3256
        3260
        3264
        3268
        3272
        3276
        3280
        3284
        3288
        3292
        3296
        3300
        3304
        3308
        3312
        3316
        3320
        3324
        3328
        3332
        3336
        3340
        3344
        3348
        3352
        3356
        3360
        3364
        3368
        3372
        3376
        3380
        3384
        3388
        3392
        3396
        3400
        3404
        3408
        3412
        3416
        3420
        3424
        3428
        3432
        3436
        3440
        3444
        3448
        3452
        3456
        3460
        3464
        3468
        3472
        3476
        3480
        3484
        3488
        3492
        3496
        3500
        3504
        3508
        3512
        3516
        3520
        3524
        3528
        3532
        3536
        3540
        3544
        3548
        3552
        3556
        3560
        3564
        3568
        3572
        3576
        3580
        3584
        3588
        3592
        3596
        3600
        3604
        3608
        3612
        3616
        3620
        3624
        3628
        3632
        3636
        3640
        3644
        3648
        3652
        3656
        3660
        3664
        3668
        3672
        3676
        3680
        3684
        3688
        3692
        3696
        3700
        3704
        3708
        3712
        3716
        3720
        3724
        3728
        3732
        3736
        3740
        3744
        3748
        3752
        3756
        3760
        3764
        3768
        3772
        3776
        3780
        3784
        3788
        3792
        3796
        3800
        3804
        3808
        3812
        3816
        3820
        3824
        3828
        3832
        3836
        3840
        3844
        3848
        3852
        3856
        3860
        3864
        3868
        3872
        3876
        3880
        3884
        3888
        3892
        3896
        3900
        3904
        3908
        3912
        3916
        3920
        3924
        3928
        3932
        3936
        3940
        3944
        3948
        3952
        3956
        3960
        3964
        3968
        3972
        3976
        3980
        3984
        3988
        3992
        3996
        4000
        4004
        4008
        4012
        4016
        4020
        4024
        4028
        4032
        4036
        4040
        4044
        4048
        4052
        4056
        4060
        4064
        4068
        4072
        4076
        4080
        4084
        4088
        4092
        4096
 </DataArray>
 <DataArray  type="UInt8"  Name="types"  format="ascii">
 9
 9
 9
 9
 9
 9
 9
 9
 9
 9
 9
 9
 9
 9
 9
 9
 9
 9
 9
 9
 9
 9
 9
 9
 9
 9
 9
 9
 9
 9
 9
 9
 9
 9
 9
 9
 9
 9
 9
 9
 9
 9
 9
 9
 9
 9
 9
 9
 9
 9
 9
 9
 9
 9
 9
 9
 9
 9
 9
 9
 9
 9
 9
 9
 9
 9
 9
 9
 9
 9
 9
 9
 9
 9
 9
 9
 9
 9
 9
 9
 9
 9
 9
 9
 9
 9
 9
 9
 9
 9
 9
 9
 9
 9
 9
 9
 9
 9
 9
 9
 9
 9
 9
 9
 9
 9
 9
 9
 9
 9
 9
 9
 9
 9
 9
 9
 9
 9
 9
 9
 9
 9
 9
 9
 9
 9
 9
 9
 9
 9
 9
 9
 9
 9
 9
 9
 9
 9
 9
 9
 9
 9
 9
 9
 9
 9
 9
 9
 9
 9
 9
 9
 9
 9
 9
 9
 9
 9
 9
 9
 9
 9
 9
 9
 9
 9
 9
 9
 9
 9
 9
 9
 9
 9
 9
 9
 9
 9
 9
 9
 9
 9
 9
 9
 9
 9
 9
 9
 9
 9
 9
 9
 9
 9
 9
 9
 9
 9
 9
 9
 9
 9
 9
 9
 9
 9
 9
 9
 9
 9
 9
 9
 9
 9
 9
 9
 9
 9
 9
 9
 9
 9
 9
 9
 9
 9
 9
 9
 9
 9
 9
 9
 9
 9
 9
 9
 9
 9
 9
 9
 9
 9
 9
 9
 9
 9
 9
 9
 9
 9
 9
 9
 9
 9
 9
 9
 9
 9
 9
 9
 9
 9
 9
 9
 9
 9
 9
 9
 9
 9
 9
 9
 9
 9
 9
 9
 9
 9
 9
 9
 9
 9
 9
 9
 9
 9
 9
 9
 9
 9
 9
 9
 9
 9
 9
 9
 9
 9
 9
 9
 9
 9
 9
 9
 9
 9
 9
 9
 9
 9
 9
 9
 9
 9
 9
 9
 9
 9
 9
 9
 9
 9
 9
 9
 9
 9
 9
 9
 9
 9
 9
 9
 9
 9
 9
 9
 9
 9
 9
 9
 9
 9
 9
 9
 9
 9
 9
 9
 9
 9
 9
 9
 9
 9
 9
 9
 9
 9
 9
 9
 9
 9
 9
 9
 9
 9
 9
 9
 9
 9
 9
 9
 9
 9
 9
 9
 9
 9
 9
 9
 9
 9
 9
 9
 9
 9
 9
 9
 9
 9
 9
 9
 9
 9
 9
 9
 9
 9
 9
 9
 9
 9
 9
 9
 9
 9
 9
 9
 9
 9
 9
 9
 9
 9
 9
 9
 9
 9
 9
 9
 9
 9
 9
 9
 9
 9
 9
 9
 9
 9
 9
 9
 9
 9
 9
 9
 9
 9
 9
 9
 9
 9
 9
 9
 9
 9
 9
 9
 9
 9
 9
 9
 9
 9
 9
 9
 9
 9
 9
 9
 9
 9
 9
 9
 9
 9
 9
 9
 9
 9
 9
 9
 9
 9
 9
 9
 9
 9
 9
 9
 9
 9
 9
 9
 9
 9
 9
 9
 9
 9
 9
 9
 9
 9
 9
 9
 9
 9
 9
 9
 9
 9
 9
 9
 9
 9
 9
 9
 9
 9
 9
 9
 9
 9
 9
 9
 9
 9
 9
 9
 9
 9
 9
 9
 9
 9
 9
 9
 9
 9
 9
 9
 9
 9
 9
 9
 9
 9
 9
 9
 9
 9
 9
 9
 9
 9
 9
 9
 9
 9
 9
 9
 9
 9
 9
 9
 9
 9
 9
 9
 9
 9
 9
 9
 9
 9
 9
 9
 9
 9
 9
 9
 9
 9
 9
 9
 9
 9
 9
 9
 9
 9
 9
 9
 9
 9
 9
 9
 9
 9
 9
 9
 9
 9
 9
 9
 9
 9
 9
 9
 9
 9
 9
 9
 9
 9
 9
 9
 9
 9
 9
 9
 9
 9
 9
 9
 9
 9
 9
 9
 9
 9
 9
 9
 9
 9
 9
 9
 9
 9
 9
 9
 9
 9
 9
 9
 9
 9
 9
 9
 9
 9
 9
 9
 9
 9
 9
 9
 9
 9
 9
 9
 9
 9
 9
 9
 9
 9
 9
 9
 9
 9
 9
 9
 9
 9
 9
 9
 9
 9
 9
 9
 9
 9
 9
 9
 9
 9
 9
 9
 9
 9
 9
 9
 9
 9
 9
 9
 9
 9
 9
 9
 9
 9
 9
 9
 9
 9
 9
 9
 9
 9
 9
 9
 9
 9
 9
 9
 9
 9
 9
 9
 9
 9
 9
 9
 9
 9
 9
 9
 9
 9
 9
 9
 9
 9
 9
 9
 9
 9
 9
 9
 9
 9
 9
 9
 9
 9
 9
 9
 9
 9
 9
 9
 9
 9
 9
 9
 9
 9
 9
 9
 9
 9
 9
 9
 9
 9
 9
 9
 9
 9
 9
 9
 9
 9
 9
 9
 9
 9
 9
 9
 9
 9
 9
 9
 9
 9
 9
 9
 9
 9
 9
 9
 9
 9
 9
 9
 9
 9
 9
 9
 9
 9
 9
 9
 9
 9
 9
 9
 9
 9
 9
 9
 9
 9
 9
 9
 9
 9
 9
 9
 9
 9
 9
 9
 9
 9
 9
 9
 9
 9
 9
 9
 9
 9
 9
 9
 9
 9
 9
 9
 9
 9
 9
 9
 9
 9
 9
 9
 9
 9
 9
 9
 9
 9
 9
 9
 9
 9
 9
 9
 9
 9
 9
 9
 9
 9
 9
 9
 9
 9
 9
 9
 9
 9
 9
 9
 9
 9
 9
 9
 9
 9
 9
 9
 9
 9
 9
 9
 9
 9
 9
 9
 9
 9
 9
 9
 9
 9
 9
 9
 9
 9
 9
 9
 9
 9
 9
 9
 9
 9
 9
 9
 9
 9
 9
 9
 9
 9
 9
 9
 9
 9
 9
 9
 9
 9
 9
 9
 9
 9
 9
 9
 9
 9
 9
 9
 9
 9
 9
 9
 9
 9
 9
 9
 9
 9
 9
 9
 9
 9
 9
 9
 9
 9
 9
 9
 9
 9
 9
 9
 9
 9
 9
 9
 9
 9
 9
 9
 9
 9
 9
 9
 9
 9
 9
 9
 9
 9
 9
 9
 9
 9
 9
 9
 9
 9
 9
 9
 9
 9
 9
 9
 9
 9
 9
 9
 9
 9
 9
 9
 9
 9
 9
 9
 9
 9
 9
 9
 9
 9
 9
 9
 9
 9
 9
 9
 9
 9
 9
 9
 9
 9
 9
 9
 9
 9
 9
 9
 9
 9
 9
 9
 </DataArray>
 </Cells> 
 <PointData>
 <DataArray  type="Float64" Name="disp" NumberOfComponents="3" format="ascii">
   0.0000000000000000        0.0000000000000000        0.0000000000000000     
   6.0958785520415790E-003   3.7902711216040901E-003   0.0000000000000000     
   1.1665879808971616E-002   7.3236460938497505E-003   0.0000000000000000     
   1.6710003770790113E-002   1.0600124916736984E-002   0.0000000000000000     
   2.1228250437497070E-002   1.3619707590265786E-002   0.0000000000000000     
   0.0000000000000000        0.0000000000000000        0.0000000000000000     
   4.8910983894139923E-003   3.0220769905823733E-003   0.0000000000000000     
   9.5735506374571462E-003   6.0604410530798597E-003   0.0000000000000000     
   1.4047356744129458E-002   9.1150921874924590E-003   0.0000000000000000     
   1.8312516709430932E-002   1.2186030393820170E-002   0.0000000000000000     
   0.0000000000000000        0.0000000000000000        0.0000000000000000     
   3.9535383952679489E-003   2.4251094709120142E-003   0.0000000000000000     
   7.9105693733421776E-003   5.0628720484689159E-003   0.0000000000000000     
   1.1871092934222689E-002   7.9132877326707068E-003   0.0000000000000000     
   1.5835109077909477E-002   1.0976356523517384E-002   0.0000000000000000     
   0.0000000000000000        0.0000000000000000        0.0000000000000000     
   3.2831985696034479E-003   1.9993685625930135E-003   0.0000000000000000     
   6.6769360166267153E-003   4.3309390800169226E-003   0.0000000000000000     
   1.0181212341069798E-002   6.9947115522717256E-003   0.0000000000000000     
   1.3796027542932701E-002   9.9906859793574259E-003   0.0000000000000000     
   0.0000000000000000        0.0000000000000000        0.0000000000000000     
   2.8800789124204897E-003   1.7448542656253706E-003   0.0000000000000000     
   5.8726505673107540E-003   3.8646421477238767E-003   0.0000000000000000     
   8.9777149646707941E-003   6.3593636462955187E-003   0.0000000000000000     
   1.2195272104500610E-002   9.2290187613402949E-003   0.0000000000000000     
   2.1228250437497070E-002   1.3619707590265786E-002   0.0000000000000000     
   2.5433414916524733E-002   1.6612812534349885E-002   0.0000000000000000     
   2.9538292315305359E-002   1.9809858168903009E-002   0.0000000000000000     
   3.3542882633838936E-002   2.3210844493925152E-002   0.0000000000000000     
   3.7447185872125491E-002   2.6815771509416324E-002   0.0000000000000000     
   1.8312516709430932E-002   1.2186030393820170E-002   0.0000000000000000     
   2.2407215729871553E-002   1.5341529617330832E-002   0.0000000000000000     
   2.6369639001961334E-002   1.8649863803292276E-002   0.0000000000000000     
   3.0199786525700247E-002   2.2111032951704496E-002   0.0000000000000000     
   3.3897658301088318E-002   2.5725037062567499E-002   0.0000000000000000     
   1.5835109077909477E-002   1.0976356523517384E-002   0.0000000000000000     
   1.9730847930935842E-002   1.4210890385019622E-002   0.0000000000000000     
   2.3486539619835076E-002   1.7575701281188096E-002   0.0000000000000000     
   2.7102184144607182E-002   2.1070789212022805E-002   0.0000000000000000     
   3.0577781505252158E-002   2.4696154177523751E-002   0.0000000000000000     
   1.3796027542932701E-002   9.9906859793574259E-003   0.0000000000000000     
   1.7404311519717584E-002   1.3220894837416263E-002   0.0000000000000000     
   2.0888994168926589E-002   1.6587370602590485E-002   0.0000000000000000     
   2.4250075490559731E-002   2.0090113274880094E-002   0.0000000000000000     
   2.7487555484617014E-002   2.3729122854285075E-002   0.0000000000000000     
   1.2195272104500610E-002   9.2290187613402949E-003   0.0000000000000000     
   1.5427606496216779E-002   1.2371542974520753E-002   0.0000000000000000     
   1.8577002649235879E-002   1.5684871767499435E-002   0.0000000000000000     
   2.1643460563557908E-002   1.9169005140276339E-002   0.0000000000000000     
   2.4626980239182875E-002   2.2823943092851476E-002   0.0000000000000000     
   3.7447185872125491E-002   2.6815771509416324E-002   0.0000000000000000     
   4.1255768387106276E-002   3.0620369723579156E-002   0.0000000000000000     
   4.4973196535722570E-002   3.4620369644616289E-002   0.0000000000000000     
   4.8599470317974382E-002   3.8815771272527722E-002   0.0000000000000000     
   5.2134589733861703E-002   4.3206574607313461E-002   0.0000000000000000     
   3.3897658301088318E-002   2.5725037062567499E-002   0.0000000000000000     
   3.7486455532121842E-002   2.9520861523650486E-002   0.0000000000000000     
   4.0989379422797151E-002   3.3527491722722659E-002   0.0000000000000000     
   4.4406429973114246E-002   3.7744927659783989E-002   0.0000000000000000     
   4.7737607183073114E-002   4.2173169334834511E-002   0.0000000000000000     
   3.0577781505252158E-002   2.4696154177523751E-002   0.0000000000000000     
   3.3942665317943196E-002   2.8496368425515096E-002   0.0000000000000000     
   3.7226169198853513E-002   3.2516004203821010E-002   0.0000000000000000     
   4.0428293147983074E-002   3.6755061512441484E-002   0.0000000000000000     
   4.3549037165331914E-002   4.1213540351376518E-002   0.0000000000000000     
   2.7487555484617014E-002   2.3729122854285075E-002   0.0000000000000000     
   3.0624397744570330E-002   2.7546890429172986E-002   0.0000000000000000     
   3.3683565863891624E-002   3.1585907087911362E-002   0.0000000000000000     
   3.6665059842580873E-002   3.5846172830500185E-002   0.0000000000000000     
   3.9568879680638096E-002   4.0327687656939469E-002   0.0000000000000000     
   2.4626980239182875E-002   2.2823943092851476E-002   0.0000000000000000     
   2.7531652812003246E-002   2.6672427534624156E-002   0.0000000000000000     
   3.0361569417911499E-002   3.0737200374993699E-002   0.0000000000000000     
   3.3116730056907635E-002   3.5018261613960114E-002   0.0000000000000000     
   3.5797134728991667E-002   3.9515611251523391E-002   0.0000000000000000     
   5.2134589733861703E-002   4.3206574607313461E-002   0.0000000000000000     
   5.5575344306778421E-002   4.7796600559955799E-002   0.0000000000000000     
   5.8918523560118403E-002   5.2589670041437060E-002   0.0000000000000000     
   6.2164127493881650E-002   5.7585783051757232E-002   0.0000000000000000     
   6.5312156108068162E-002   6.2784939590916328E-002   0.0000000000000000     
   4.7737607183073114E-002   4.2173169334834511E-002   0.0000000000000000     
   5.0978960156024121E-002   4.6805629486397382E-002   0.0000000000000000     
   5.4126537995317629E-002   5.1635720852995760E-002   0.0000000000000000     
   5.7180340700953645E-002   5.6663443434629666E-002   0.0000000000000000     
   6.0140368272932149E-002   6.1888797231299093E-002   0.0000000000000000     
   4.3549037165331914E-002   4.1213540351376518E-002   0.0000000000000000     
   4.6584737225000485E-002   4.5879176104461607E-002   0.0000000000000000     
   4.9531729301089296E-002   5.0739704155532257E-002   0.0000000000000000     
   5.2390013393598327E-002   5.5795124504588456E-002   0.0000000000000000     
   5.5159589502527598E-002   6.1045437151630189E-002   0.0000000000000000     
   3.9568879680638096E-002   4.0327687656939469E-002   0.0000000000000000     
   4.2392675513707519E-002   4.5017240414148507E-002   0.0000000000000000     
   4.5134097477433396E-002   4.9901619949046544E-002   0.0000000000000000     
   4.7793145571815729E-002   5.4980826261633586E-002   0.0000000000000000     
   5.0369819796854502E-002   6.0254859351909634E-002   0.0000000000000000     
   3.5797134728991667E-002   3.9515611251523391E-002   0.0000000000000000     
   3.8402775022145209E-002   4.4219822415458049E-002   0.0000000000000000     
   4.0933642524349924E-002   4.9121468233538614E-002   0.0000000000000000     
   4.3389737235605810E-002   5.4220548705765079E-002   0.0000000000000000     
   4.5771059155912869E-002   5.9517063832137430E-002   0.0000000000000000     
   6.5312156108068162E-002   6.2784939590916328E-002   0.0000000000000000     
   6.8366022313363126E-002   6.8174822956576994E-002   0.0000000000000000     
   7.1329139020451682E-002   7.3743116446401899E-002   0.0000000000000000     
   7.4201506229333886E-002   7.9489820060391028E-002   0.0000000000000000     
   7.6983123940009696E-002   8.5414933798544396E-002   0.0000000000000000     
   6.0140368272932149E-002   6.1888797231299093E-002   0.0000000000000000     
   6.3010356592464262E-002   6.7303072297695402E-002   0.0000000000000000     
   6.5794041540761086E-002   7.2897558688510000E-002   0.0000000000000000     
   6.8491423117822622E-002   7.8672256403742882E-002   0.0000000000000000     
   7.1102501323648884E-002   8.4627165443394048E-002   0.0000000000000000     
   5.5159589502527598E-002   6.1045437151630189E-002   0.0000000000000000     
   5.7843978729318783E-002   6.6483810170703747E-002   0.0000000000000000     
   6.0446702175413598E-002   7.2103411635855402E-002   0.0000000000000000     
   6.2967759840812029E-002   7.7904241547085126E-002   0.0000000000000000     
   6.5407151725514076E-002   8.3886299904392961E-002   0.0000000000000000     
   5.0369819796854502E-002   6.0254859351909634E-002   0.0000000000000000     
   5.2866888723926676E-002   6.5717036575602031E-002   0.0000000000000000     
   5.5287120924409204E-002   7.1360675288438077E-002   0.0000000000000000     
   5.7630516398302072E-002   7.7185775490417746E-002   0.0000000000000000     
   5.9897075145605293E-002   8.3192337181541148E-002   0.0000000000000000     
   4.5771059155912869E-002   5.9517063832137430E-002   0.0000000000000000     
   4.8079086576287955E-002   6.5002751512390239E-002   0.0000000000000000     
   5.0315297787747917E-002   7.0669349646258039E-002   0.0000000000000000     
   5.2479692790292770E-002   7.6516858233740812E-002   0.0000000000000000     
   5.4572271583922513E-002   8.2545277274838597E-002   0.0000000000000000     
   7.6983123940009696E-002   8.5414933798544396E-002   0.0000000000000000     
   7.9667958836162289E-002   9.1508408979530442E-002   0.0000000000000000     
   8.2249977601474872E-002   9.7760196922017664E-002   0.0000000000000000     
   8.4729180235947457E-002  0.10417029762600602        0.0000000000000000     
   8.7105566739580004E-002  0.11073871109149552        0.0000000000000000     
   7.1102501323648884E-002   8.4627165443394048E-002   0.0000000000000000     
   7.3622145641031339E-002   9.0750921308542398E-002   0.0000000000000000     
   7.6045225552761511E-002   9.7032159500266835E-002   0.0000000000000000     
   7.8371741058839386E-002  0.10347088001856740        0.0000000000000000     
   8.0601692159264965E-002  0.11006708286344405        0.0000000000000000     
   6.5407151725514076E-002   8.3886299904392961E-002   0.0000000000000000     
   6.7760569863610690E-002   9.0037495081426069E-002   0.0000000000000000     
   7.0023706289192772E-002   9.6345735451831671E-002   0.0000000000000000     
   7.2196561002260337E-002  0.10281102101560979        0.0000000000000000     
   7.4279134002813371E-002  0.10943335177276038        0.0000000000000000     
   5.9897075145605293E-002   8.3192337181541148E-002   0.0000000000000000     
   6.2083231503900334E-002   8.9368130298181497E-002   0.0000000000000000     
   6.4185419810768654E-002   9.5700924776712173E-002   0.0000000000000000     
   6.6203640066210281E-002  0.10219072061713318        0.0000000000000000     
   6.8137892270225209E-002  0.10883751781944453        0.0000000000000000     
   5.4572271583922513E-002   8.2545277274838597E-002   0.0000000000000000     
   5.6590130561900279E-002   8.8742826958808654E-002   0.0000000000000000     
   5.8530366117489178E-002   9.5097727474908342E-002   0.0000000000000000     
   6.0392978250689240E-002  0.10160997882313763        0.0000000000000000     
   6.2177966961500450E-002  0.10827958100349652        0.0000000000000000     
   8.7105566739580004E-002  0.11073871109149552        0.0000000000000000     
   8.9387334817101302E-002  0.11745294375647737        0.0000000000000000     
   9.1582682173240074E-002  0.12430050205894277        0.0000000000000000     
   9.3691608807996360E-002  0.13128138599889169        0.0000000000000000     
   9.5714114721370119E-002  0.13839559557632419        0.0000000000000000     
   8.0601692159264965E-002  0.11006708286344405        0.0000000000000000     
   8.2743374845676343E-002  0.11680941897867020        0.0000000000000000     
   8.4805085109711589E-002  0.12368653930801930        0.0000000000000000     
   8.6786822951370718E-002  0.13069844385149132        0.0000000000000000     
   8.8688588370653743E-002  0.13784513260908626        0.0000000000000000     
   7.4279134002813371E-002  0.10943335177276038        0.0000000000000000     
   7.6279338464471991E-002  0.11620183272469550        0.0000000000000000     
   7.8205087560856396E-002  0.12310556887282711        0.0000000000000000     
   8.0056381291966475E-002  0.13014456021715526        0.0000000000000000     
   8.1833219657802325E-002  0.13731880675767996        0.0000000000000000     
   6.8137892270225209E-002  0.10883751781944453        0.0000000000000000     
   6.9995225673488273E-002  0.11563018499455320        0.0000000000000000     
   7.1782689526674423E-002  0.12255759075336621        0.0000000000000000     
   7.3500283829783603E-002  0.12961973509588354        0.0000000000000000     
   7.5148008582815881E-002  0.13681661802210521        0.0000000000000000     
   6.2177966961500450E-002  0.10827958100349652        0.0000000000000000     
   6.3891036472725163E-002  0.11509447578824340        0.0000000000000000     
   6.5537891007165727E-002  0.12204260494963659        0.0000000000000000     
   6.7118530564822129E-002  0.12912396848767616        0.0000000000000000     
   6.8632955145694396E-002  0.13633856640236200        0.0000000000000000     
   9.5714114721370119E-002  0.13839559557632419        0.0000000000000000     
   9.7638325410271731E-002  0.14562456511736524        0.0000000000000000     
   9.9452366371611561E-002  0.15294972894813988        0.0000000000000000     
  0.10115623760538962       0.16037108706864808        0.0000000000000000     
  0.10274993911160588       0.16788863947888988        0.0000000000000000     
   8.8688588370653743E-002  0.13784513260908626        0.0000000000000000     
   9.0499454998839407E-002  0.14511216099955124        0.0000000000000000     
   9.2208496467206497E-002  0.15248508444163320        0.0000000000000000     
   9.3815712775755053E-002  0.15996390293533219        0.0000000000000000     
   9.5321103924485034E-002  0.16754861648064823        0.0000000000000000     
   8.1833219657802325E-002  0.13731880675767996        0.0000000000000000     
   8.3525626805999231E-002  0.14461644656462708        0.0000000000000000     
   8.5123626884192574E-002  0.15202561770822259        0.0000000000000000     
   8.6627219892382326E-002  0.15954632018846651        0.0000000000000000     
   8.8036405830568515E-002  0.16717855400535878        0.0000000000000000     
   7.5148008582815881E-002  0.13681661802210521        0.0000000000000000     
   7.6716840831751232E-002  0.14413742181259281        0.0000000000000000     
   7.8197757622569739E-002  0.15157132874790810        0.0000000000000000     
   7.9590758955271443E-002  0.15911833882805096        0.0000000000000000     
   8.0895844829856275E-002  0.16677845205302150        0.0000000000000000     
   6.8632955145694396E-002  0.13633856640236200        0.0000000000000000     
   7.0073097076095395E-002  0.14367508674344842        0.0000000000000000     
   7.1430888682338059E-002  0.15112221756068964        0.0000000000000000     
   7.2706329964422389E-002  0.15867995885408565        0.0000000000000000     
   7.3899420922348372E-002  0.16634831062363642        0.0000000000000000     
   0.0000000000000000        0.0000000000000000        0.0000000000000000     
   2.8800789124204897E-003   1.7448542656253706E-003   0.0000000000000000     
   5.8726505673107540E-003   3.8646421477238767E-003   0.0000000000000000     
   8.9777149646707941E-003   6.3593636462955187E-003   0.0000000000000000     
   1.2195272104500610E-002   9.2290187613402949E-003   0.0000000000000000     
   0.0000000000000000        0.0000000000000000        0.0000000000000000     
   2.6103381130344883E-003   1.5889265245334068E-003   0.0000000000000000     
   5.2897368615245199E-003   3.5566892144002593E-003   0.0000000000000000     
   8.0381962454700966E-003   5.9032880696005575E-003   0.0000000000000000     
   1.0855716264871215E-002   8.6287230901343024E-003   0.0000000000000000     
   0.0000000000000000        0.0000000000000000        0.0000000000000000     
   2.3401348607608586E-003   1.4589452838414429E-003   0.0000000000000000     
   4.7202187353982327E-003   3.2997882428565488E-003   0.0000000000000000     
   7.1402516239121245E-003   5.5225288770453171E-003   0.0000000000000000     
   9.6002335263025308E-003   8.1271671864077480E-003   0.0000000000000000     
   0.0000000000000000        0.0000000000000000        0.0000000000000000     
   2.0694691555996009E-003   1.3549105435494795E-003   0.0000000000000000     
   4.1640961889318944E-003   3.0939392330927456E-003   0.0000000000000000     
   6.2838810999968795E-003   5.2170860686297990E-003   0.0000000000000000     
   8.4288238887945573E-003   7.7243510501606386E-003   0.0000000000000000     
   0.0000000000000000        0.0000000000000000        0.0000000000000000     
   1.7983409975507144E-003   1.2768223036575157E-003   0.0000000000000000     
   3.6213692221255022E-003   2.9391421851088489E-003   0.0000000000000000     
   5.4690846737243627E-003   4.9869596443540007E-003   0.0000000000000000     
   7.3414873523472979E-003   7.4202746813929700E-003   0.0000000000000000     
   1.2195272104500610E-002   9.2290187613402949E-003   0.0000000000000000     
   1.5427606496216779E-002   1.2371542974520753E-002   0.0000000000000000     
   1.8577002649235879E-002   1.5684871767499435E-002   0.0000000000000000     
   2.1643460563557908E-002   1.9169005140276339E-002   0.0000000000000000     
   2.4626980239182875E-002   2.2823943092851476E-002   0.0000000000000000     
   1.0855716264871215E-002   8.6287230901343024E-003   0.0000000000000000     
   1.3688970316977619E-002   1.1650714665731126E-002   0.0000000000000000     
   1.6484631799039053E-002   1.4886983186120670E-002   0.0000000000000000     
   1.9242700711055508E-002   1.8337528651302930E-002   0.0000000000000000     
   2.1963177053027000E-002   2.2002351061277913E-002   0.0000000000000000     
   9.6002335263025308E-003   8.1271671864077480E-003   0.0000000000000000     
   1.2076640438544289E-002   1.1046289780445421E-002   0.0000000000000000     
   1.4545948356612222E-002   1.4212483268659915E-002   0.0000000000000000     
   1.7008157280506336E-002   1.7625747651051227E-002   0.0000000000000000     
   1.9463267210226634E-002   2.1286082927619354E-002   0.0000000000000000     
   8.4288238887945573E-003   7.7243510501606386E-003   0.0000000000000000     
   1.0590616860916778E-002   1.0558268318663636E-002   0.0000000000000000     
   1.2760952321955390E-002   1.3661372015117161E-002   0.0000000000000000     
   1.4939830271910388E-002   1.7033662139521219E-002   0.0000000000000000     
   1.7127250710781781E-002   2.0675138691875802E-002   0.0000000000000000     
   7.3414873523472979E-003   7.4202746813929700E-003   0.0000000000000000     
   9.2308995840950959E-003   1.0186650280385770E-002   0.0000000000000000     
   1.1129643695068553E-002   1.3233649425492419E-002   0.0000000000000000     
   1.3037719685267663E-002   1.6561272116712916E-002   0.0000000000000000     
   1.4955127554692435E-002   2.0169518354047254E-002   0.0000000000000000     
   2.4626980239182875E-002   2.2823943092851476E-002   0.0000000000000000     
   2.7531652812003246E-002   2.6672427534624156E-002   0.0000000000000000     
   3.0361569417911499E-002   3.0737200374993699E-002   0.0000000000000000     
   3.3116730056907635E-002   3.5018261613960114E-002   0.0000000000000000     
   3.5797134728991667E-002   3.9515611251523391E-002   0.0000000000000000     
   2.1963177053027000E-002   2.2002351061277913E-002   0.0000000000000000     
   2.4629472364982849E-002   2.5879553715830839E-002   0.0000000000000000     
   2.7224998186952402E-002   2.9967239914746938E-002   0.0000000000000000     
   2.9749754518935658E-002   3.4265409658026214E-002   0.0000000000000000     
   3.2203741360932611E-002   3.8774062945668646E-002   0.0000000000000000     
   1.9463267210226634E-002   2.1286082927619354E-002   0.0000000000000000     
   2.1882898248250064E-002   2.5174842946755285E-002   0.0000000000000000     
   2.4238670497053593E-002   2.9273381556849970E-002   0.0000000000000000     
   2.6530583956637221E-002   3.3581698757903421E-002   0.0000000000000000     
   2.8758638627000944E-002   3.8099794549915647E-002   0.0000000000000000     
   1.7127250710781781E-002   2.0675138691875802E-002   0.0000000000000000     
   1.9291930461804895E-002   2.4558295227397477E-002   0.0000000000000000     
   2.1402586348215083E-002   2.8655625301302796E-002   0.0000000000000000     
   2.3459218370012334E-002   3.2967128913591763E-002   0.0000000000000000     
   2.5461826527196654E-002   3.7492806064264382E-002   0.0000000000000000     
   1.4955127554692435E-002   2.0169518354047254E-002   0.0000000000000000     
   1.6856569005647342E-002   2.4029910557757425E-002   0.0000000000000000     
   1.8716745740436861E-002   2.8113971148105415E-002   0.0000000000000000     
   2.0535657759060993E-002   3.2421700125091227E-002   0.0000000000000000     
   2.2313305061519746E-002   3.6953097488714851E-002   0.0000000000000000     
   3.5797134728991667E-002   3.9515611251523391E-002   0.0000000000000000     
   3.8402775022145209E-002   4.4219822415458049E-002   0.0000000000000000     
   4.0933642524349924E-002   4.9121468233538614E-002   0.0000000000000000     
   4.3389737235605810E-002   5.4220548705765079E-002   0.0000000000000000     
   4.5771059155912869E-002   5.9517063832137430E-002   0.0000000000000000     
   3.2203741360932611E-002   3.8774062945668646E-002   0.0000000000000000     
   3.4588907961305315E-002   4.3488414208383237E-002   0.0000000000000000     
   3.6907203568415814E-002   4.8403677876878923E-002   0.0000000000000000     
   3.9158628182264101E-002   5.3519853951155751E-002   0.0000000000000000     
   4.1343181802850182E-002   5.8836942431213672E-002   0.0000000000000000     
   2.8758638627000944E-002   3.8099794549915647E-002   0.0000000000000000     
   3.0924946542179577E-002   4.2824507892917023E-002   0.0000000000000000     
   3.3031619736207947E-002   4.7752677746937949E-002   0.0000000000000000     
   3.5078658209086053E-002   5.2884304111978427E-002   0.0000000000000000     
   3.7066061960813898E-002   5.8219386988038441E-002   0.0000000000000000     
   2.5461826527196654E-002   3.7492806064264382E-002   0.0000000000000000     
   2.7410890764768006E-002   4.2228103469059426E-002   0.0000000000000000     
   2.9306891027726354E-002   4.7168467843715658E-002   0.0000000000000000     
   3.1149827316071698E-002   5.2313899188233100E-002   0.0000000000000000     
   3.2939699629804045E-002   5.7664397502611750E-002   0.0000000000000000     
   2.2313305061519746E-002   3.6953097488714851E-002   0.0000000000000000     
   2.4046740629070591E-002   4.1699200936810420E-002   0.0000000000000000     
   2.5733017442971018E-002   4.6651048167212071E-002   0.0000000000000000     
   2.7372135503221019E-002   5.1808639179919784E-002   0.0000000000000000     
   2.8964094809820606E-002   5.7171973974933579E-002   0.0000000000000000     
   4.5771059155912869E-002   5.9517063832137430E-002   0.0000000000000000     
   4.8079086576287955E-002   6.5002751512390239E-002   0.0000000000000000     
   5.0315297787747917E-002   7.0669349646258039E-002   0.0000000000000000     
   5.2479692790292770E-002   7.6516858233740812E-002   0.0000000000000000     
   5.4572271583922513E-002   8.2545277274838597E-002   0.0000000000000000     
   4.1343181802850182E-002   5.8836942431213672E-002   0.0000000000000000     
   4.3461039297049711E-002   6.4344613048754745E-002   0.0000000000000000     
   4.5512375531738349E-002   7.0032535535481014E-002   0.0000000000000000     
   4.7497190506916108E-002   7.5900709891392443E-002   0.0000000000000000     
   4.9415484222582975E-002   8.1949136116489074E-002   0.0000000000000000     
   3.7066061960813898E-002   5.8219386988038441E-002   0.0000000000000000     
   3.8993213896859058E-002   6.3746279252381910E-002   0.0000000000000000     
   4.0859496922689115E-002   6.9453333782272725E-002   0.0000000000000000     
   4.2664911038304075E-002   7.5340550577710871E-002   0.0000000000000000     
   4.4409456243703925E-002   8.1407929638696391E-002   0.0000000000000000     
   3.2939699629804045E-002   5.7664397502611750E-002   0.0000000000000000     
   3.4675610375716009E-002   6.3207750123271719E-002   0.0000000000000000     
   3.6356661960600223E-002   6.8931744386633173E-002   0.0000000000000000     
   3.7982854384456671E-002   7.4836380292696097E-002   0.0000000000000000     
   3.9554187647285369E-002   8.0921657841460520E-002   0.0000000000000000     
   2.8964094809820606E-002   5.7171973974933579E-002   0.0000000000000000     
   3.0508228733620548E-002   6.2729025661424201E-002   0.0000000000000000     
   3.2003870645471652E-002   6.8467767348562372E-002   0.0000000000000000     
   3.3451020545373897E-002   7.4388199036348135E-002   0.0000000000000000     
   3.4849678433327300E-002   8.0490320724781475E-002   0.0000000000000000     
   5.4572271583922513E-002   8.2545277274838597E-002   0.0000000000000000     
   5.6590130561900279E-002   8.8742826958808654E-002   0.0000000000000000     
   5.8530366117489178E-002   9.5097727474908342E-002   0.0000000000000000     
   6.0392978250689240E-002  0.10160997882313763        0.0000000000000000     
   6.2177966961500450E-002  0.10827958100349652        0.0000000000000000     
   4.9415484222582975E-002   8.1949136116489074E-002   0.0000000000000000     
   5.1264863536952143E-002   8.8166593555104200E-002   0.0000000000000000     
   5.3042935308236762E-002   9.4541861551571113E-002   0.0000000000000000     
   5.4749699536436852E-002  0.10107494010588981        0.0000000000000000     
   5.6385156221552414E-002  0.10776582921806031        0.0000000000000000     
   4.4409456243703925E-002   8.1407929638696391E-002   0.0000000000000000     
   4.6091026928397560E-002   8.7644438578864753E-002   0.0000000000000000     
   4.7707517481893842E-002   9.4039045011851466E-002   0.0000000000000000     
   4.9258927904192770E-002  0.10059174893765650        0.0000000000000000     
   5.0745258195294352E-002  0.10730255035627992        0.0000000000000000     
   3.9554187647285369E-002   8.0921657841460520E-002   0.0000000000000000     
   4.1068620736236544E-002   8.7176362030090312E-002   0.0000000000000000     
   4.2524112638460412E-002   9.3589277855749345E-002   0.0000000000000000     
   4.3920663353956987E-002  0.10016040531843770        0.0000000000000000     
   4.5258272882726276E-002  0.10688974441815531        0.0000000000000000     
   3.4849678433327300E-002   8.0490320724781475E-002   0.0000000000000000     
   3.6197644960469080E-002   8.6762363908780879E-002   0.0000000000000000     
   3.7492720777936486E-002   9.3192560083264833E-002   0.0000000000000000     
   3.8734905885729524E-002   9.9780909248233365E-002   0.0000000000000000     
   3.9924200283848167E-002  0.10652741140368649        0.0000000000000000     
   6.2177966961500450E-002  0.10827958100349652        0.0000000000000000     
   6.3891036472725163E-002  0.11509447578824340        0.0000000000000000     
   6.5537891007165727E-002  0.12204260494963659        0.0000000000000000     
   6.7118530564822129E-002  0.12912396848767616        0.0000000000000000     
   6.8632955145694396E-002  0.13633856640236200        0.0000000000000000     
   5.6385156221552414E-002  0.10776582921806031        0.0000000000000000     
   5.7953661585053697E-002  0.11460149117395535        0.0000000000000000     
   5.9459571848410969E-002  0.12156888825944760        0.0000000000000000     
   6.0902887011624246E-002  0.12866802047453710        0.0000000000000000     
   6.2283607074693499E-002  0.13589888781922385        0.0000000000000000     
   5.0745258195294352E-002  0.10730255035627992        0.0000000000000000     
   5.2169991733344925E-002  0.11415801721987835        0.0000000000000000     
   5.3536611896490872E-002  0.12114471748060854        0.0000000000000000     
   5.4845118684732172E-002  0.12826265113847049        0.0000000000000000     
   5.6095512098068824E-002  0.13551181819346414        0.0000000000000000     
   4.5258272882726276E-002  0.10688974441815531        0.0000000000000000     
   4.6540026917598877E-002  0.11376405392601245        0.0000000000000000     
   4.7769011151405430E-002  0.12077009261311945        0.0000000000000000     
   4.8945225584145921E-002  0.12790786047947630        0.0000000000000000     
   5.0068670215820385E-002  0.13517735752508298        0.0000000000000000     
   3.9924200283848167E-002  0.10652741140368649        0.0000000000000000     
   4.1063767137815524E-002  0.11341960129235765        0.0000000000000000     
   4.2156769613154628E-002  0.12044501365698031        0.0000000000000000     
   4.3203207709865507E-002  0.12760364849755454        0.0000000000000000     
   4.4203081427948154E-002  0.13489550581408025        0.0000000000000000     
   6.8632955145694396E-002  0.13633856640236200        0.0000000000000000     
   7.0073097076095395E-002  0.14367508674344842        0.0000000000000000     
   7.1430888682338059E-002  0.15112221756068964        0.0000000000000000     
   7.2706329964422389E-002  0.15867995885408565        0.0000000000000000     
   7.3899420922348372E-002  0.16634831062363642        0.0000000000000000     
   6.2283607074693499E-002  0.13589888781922385        0.0000000000000000     
   6.3594507054945015E-002  0.14324935101649708        0.0000000000000000     
   6.4828361969705095E-002  0.15070727078934612        0.0000000000000000     
   6.5985171818973704E-002  0.15827264713777089        0.0000000000000000     
   6.7064936602750869E-002  0.16594548006177148        0.0000000000000000     
   5.6095512098068824E-002  0.13551181819346414        0.0000000000000000     
   5.7281182284213389E-002  0.14288012429104197        0.0000000000000000     
   5.8395519390878441E-002  0.15035547507665628        0.0000000000000000     
   5.9438523418063924E-002  0.15793787055030717        0.0000000000000000     
   6.0410194365769901E-002  0.16562731071199460        0.0000000000000000     
   5.0068670215820385E-002  0.13517735752508298        0.0000000000000000     
   5.1133122763900515E-002  0.14256740656708308        0.0000000000000000     
   5.2132360945858068E-002  0.15006683042262026        0.0000000000000000     
   5.3066384761693050E-002  0.15767562909169450        0.0000000000000000     
   5.3935194211405441E-002  0.16539380257430578        0.0000000000000000     
   4.4203081427948154E-002  0.13489550581408025        0.0000000000000000     
   4.5150328494006388E-002  0.14231119784462043        0.0000000000000000     
   4.6038886634644026E-002  0.14984133682723794        0.0000000000000000     
   4.6868755849861062E-002  0.15748592276193282        0.0000000000000000     
   4.7639936139657502E-002  0.16524495564870506        0.0000000000000000     
   0.0000000000000000        0.0000000000000000        0.0000000000000000     
   1.7983409975507144E-003   1.2768223036575157E-003   0.0000000000000000     
   3.6213692221255022E-003   2.9391421851088489E-003   0.0000000000000000     
   5.4690846737243627E-003   4.9869596443540007E-003   0.0000000000000000     
   7.3414873523472979E-003   7.4202746813929700E-003   0.0000000000000000     
   0.0000000000000000        0.0000000000000000        0.0000000000000000     
   1.5350302144054150E-003   1.2175594313060952E-003   0.0000000000000000     
   3.0993958352687006E-003   2.8208765241316820E-003   0.0000000000000000     
   4.6930968625898571E-003   4.8099512784767597E-003   0.0000000000000000     
   6.3161332963688841E-003   7.1847836943413285E-003   0.0000000000000000     
   0.0000000000000000        0.0000000000000000        0.0000000000000000     
   1.2878166339549166E-003   1.1700007936357609E-003   0.0000000000000000     
   2.6055340286511314E-003   2.7246216753880640E-003   0.0000000000000000     
   3.9531521840886451E-003   4.6638626452569099E-003   0.0000000000000000     
   5.3306711002674579E-003   6.9877237032422981E-003   0.0000000000000000     
   0.0000000000000000        0.0000000000000000        0.0000000000000000     
   1.0567002561992199E-003   1.1341463906465131E-003   0.0000000000000000     
   2.1397838022727965E-003   2.6503776388779971E-003   0.0000000000000000     
   3.2492506382207284E-003   4.5486937446944514E-003   0.0000000000000000     
   4.3851007640430166E-003   6.8290947080958770E-003   0.0000000000000000     
   0.0000000000000000        0.0000000000000000        0.0000000000000000     
   8.4168108113832495E-004   1.1099962223383515E-003   0.0000000000000000     
   1.7021451561336936E-003   2.5981444146014800E-003   0.0000000000000000     
   2.5813922249861058E-003   4.4644445767893851E-003   0.0000000000000000     
   3.4794222876955621E-003   6.7088967089020679E-003   0.0000000000000000     
   7.3414873523472979E-003   7.4202746813929700E-003   0.0000000000000000     
   9.2308995840950959E-003   1.0186650280385770E-002   0.0000000000000000     
   1.1129643695068553E-002   1.3233649425492419E-002   0.0000000000000000     
   1.3037719685267663E-002   1.6561272116712916E-002   0.0000000000000000     
   1.4955127554692435E-002   2.0169518354047254E-002   0.0000000000000000     
   6.3161332963688841E-003   7.1847836943413285E-003   0.0000000000000000     
   7.9557944579832125E-003   9.8958087971880056E-003   0.0000000000000000     
   9.5993696688102710E-003   1.2893461612479408E-002   0.0000000000000000     
   1.1246858928850063E-002   1.6177742140215536E-002   0.0000000000000000     
   1.2898262238102583E-002   1.9748650380396388E-002   0.0000000000000000     
   5.3306711002674579E-003   6.9877237032422981E-003   0.0000000000000000     
   6.7236073324851015E-003   9.6501170006465155E-003   0.0000000000000000     
   8.1174774360391073E-003   1.2604954688771854E-002   0.0000000000000000     
   9.5122814109294788E-003   1.5852236767618308E-002   0.0000000000000000     
   1.0908019257156209E-002   1.9391963237185880E-002   0.0000000000000000     
   4.3851007640430166E-003   6.8290947080958770E-003   0.0000000000000000     
   5.5343382076007601E-003   9.4495748907613020E-003   0.0000000000000000     
   6.6839669967550582E-003   1.2368128654369754E-002   0.0000000000000000     
   7.8339871315059074E-003   1.5584755998921233E-002   0.0000000000000000     
   8.9843986118533139E-003   1.9099456924415732E-002   0.0000000000000000     
   3.4794222876955621E-003   6.7088967089020679E-003   0.0000000000000000     
   4.3879870833301911E-003   9.2941824675323633E-003   0.0000000000000000     
   5.2988383509581221E-003   1.2182983509273109E-002   0.0000000000000000     
   6.2119760905793558E-003   1.5375299834124301E-002   0.0000000000000000     
   7.1274003021938922E-003   1.8871131442085951E-002   0.0000000000000000     
   1.4955127554692435E-002   2.0169518354047254E-002   0.0000000000000000     
   1.6856569005647342E-002   2.4029910557757425E-002   0.0000000000000000     
   1.8716745740436861E-002   2.8113971148105415E-002   0.0000000000000000     
   2.0535657759060993E-002   3.2421700125091227E-002   0.0000000000000000     
   2.2313305061519746E-002   3.6953097488714851E-002   0.0000000000000000     
   1.2898262238102583E-002   1.9748650380396388E-002   0.0000000000000000     
   1.4537274226719238E-002   2.3580098186639802E-002   0.0000000000000000     
   1.6147589524851420E-002   2.7645997412563617E-002   0.0000000000000000     
   1.7729208132499129E-002   3.1946348058167838E-002   0.0000000000000000     
   1.9282130049662373E-002   3.6481150123452447E-002   0.0000000000000000     
   1.0908019257156209E-002   1.9391963237185880E-002   0.0000000000000000     
   1.2294506471962428E-002   2.3199267362849271E-002   0.0000000000000000     
   1.3661558552591246E-002   2.7249282409983172E-002   0.0000000000000000     
   1.5009175499042666E-002   3.1542008378587595E-002   0.0000000000000000     
   1.6337357311316691E-002   3.6077445268662536E-002   0.0000000000000000     
   8.9843986118533139E-003   1.9099456924415732E-002   0.0000000000000000     
   1.0128265741376910E-002   2.2887418086385836E-002   0.0000000000000000     
   1.1258652823656342E-002   2.6923826140364100E-002   0.0000000000000000     
   1.2375559858691607E-002   3.1208681086350529E-002   0.0000000000000000     
   1.3478986846482700E-002   3.5741982924345113E-002   0.0000000000000000     
   7.1274003021938922E-003   1.8871131442085951E-002   0.0000000000000000     
   8.0385520349626899E-003   2.2644550357249490E-002   0.0000000000000000     
   8.9388723380467074E-003   2.6669628603706381E-002   0.0000000000000000     
   9.8283612114459448E-003   3.0946366181456617E-002   0.0000000000000000     
   1.0707018655160402E-002   3.5474763090500197E-002   0.0000000000000000     
   2.2313305061519746E-002   3.6953097488714851E-002   0.0000000000000000     
   2.4046740629070591E-002   4.1699200936810420E-002   0.0000000000000000     
   2.5733017442971018E-002   4.6651048167212071E-002   0.0000000000000000     
   2.7372135503221019E-002   5.1808639179919784E-002   0.0000000000000000     
   2.8964094809820606E-002   5.7171973974933579E-002   0.0000000000000000     
   1.9282130049662373E-002   3.6481150123452447E-002   0.0000000000000000     
   2.0800000608786246E-002   4.1236310802442049E-002   0.0000000000000000     
   2.2276465142315852E-002   4.6197737289161239E-002   0.0000000000000000     
   2.3711523650251198E-002   5.1365429583609998E-002   0.0000000000000000     
   2.5105176132592277E-002   5.6739387685788338E-002   0.0000000000000000     
   1.6337357311316691E-002   3.6077445268662536E-002   0.0000000000000000     
   1.7638175177613877E-002   4.0837943572226303E-002   0.0000000000000000     
   1.8903700286134785E-002   4.5805853781297201E-002   0.0000000000000000     
   2.0133932636879417E-002   5.0981175895875253E-002   0.0000000000000000     
   2.1328872229847775E-002   5.6363909915960436E-002   0.0000000000000000     
   1.3478986846482700E-002   3.5741982924345113E-002   0.0000000000000000     
   1.4561264335553483E-002   4.0504099246163168E-002   0.0000000000000000     
   1.5614722874427811E-002   4.5475397643619971E-002   0.0000000000000000     
   1.6639362463105677E-002   5.0655878116715528E-002   0.0000000000000000     
   1.7635183101587088E-002   5.6045540665449846E-002   0.0000000000000000     
   1.0707018655160402E-002   3.5474763090500197E-002   0.0000000000000000     
   1.1569268082605067E-002   4.0234777824252659E-002   0.0000000000000000     
   1.2409532907194924E-002   4.5206368876129548E-002   0.0000000000000000     
   1.3227813128929978E-002   5.0389536246130857E-002   0.0000000000000000     
   1.4024108747810224E-002   5.5784279934256581E-002   0.0000000000000000     
   2.8964094809820606E-002   5.7171973974933579E-002   0.0000000000000000     
   3.0508228733620548E-002   6.2729025661424201E-002   0.0000000000000000     
   3.2003870645471652E-002   6.8467767348562372E-002   0.0000000000000000     
   3.3451020545373897E-002   7.4388199036348135E-002   0.0000000000000000     
   3.4849678433327300E-002   8.0490320724781475E-002   0.0000000000000000     
   2.5105176132592277E-002   5.6739387685788338E-002   0.0000000000000000     
   2.6457099250966155E-002   6.2307922990981091E-002   0.0000000000000000     
   2.7766969666999892E-002   6.8059346894473058E-002   0.0000000000000000     
   2.9034787380693476E-002   7.3993659396264261E-002   0.0000000000000000     
   3.0260552392046922E-002   8.0110860496354699E-002   0.0000000000000000     
   2.1328872229847775E-002   5.6363909915960436E-002   0.0000000000000000     
   2.2488252208146296E-002   6.1942259236084200E-002   0.0000000000000000     
   2.3611805714881411E-002   6.7704427250778007E-002   0.0000000000000000     
   2.4699532750053130E-002   7.3650413960041822E-002   0.0000000000000000     
   2.5751433313661452E-002   7.9780219363875693E-002   0.0000000000000000     
   1.7635183101587088E-002   5.6045540665449846E-002   0.0000000000000000     
   1.8601687605160962E-002   6.1632034396733530E-002   0.0000000000000000     
   1.9538378789116229E-002   6.7403008417477192E-002   0.0000000000000000     
   2.0445256653452867E-002   7.3358462727680818E-002   0.0000000000000000     
   2.1322321198170895E-002   7.9498397327344456E-002   0.0000000000000000     
   1.4024108747810224E-002   5.5784279934256581E-002   0.0000000000000000     
   1.4797405442010169E-002   6.1377248472929059E-002   0.0000000000000000     
   1.5546688889704322E-002   6.7155090394570627E-002   0.0000000000000000     
   1.6271959090892681E-002   7.3117805699181262E-002   0.0000000000000000     
   1.6973216045575244E-002   7.9265394386760973E-002   0.0000000000000000     
   3.4849678433327300E-002   8.0490320724781475E-002   0.0000000000000000     
   3.6197644960469080E-002   8.6762363908780879E-002   0.0000000000000000     
   3.7492720777936486E-002   9.3192560083264833E-002   0.0000000000000000     
   3.8734905885729524E-002   9.9780909248233365E-002   0.0000000000000000     
   3.9924200283848167E-002  0.10652741140368649        0.0000000000000000     
   3.0260552392046922E-002   8.0110860496354699E-002   0.0000000000000000     
   3.1441902419315423E-002   8.6398540723851058E-002   0.0000000000000000     
   3.2576475180754190E-002   9.2844290607860036E-002   0.0000000000000000     
   3.3664270676363225E-002   9.9448110148381619E-002   0.0000000000000000     
   3.4705288906142509E-002  0.10620999934541579        0.0000000000000000     
   2.5751433313661452E-002   7.9780219363875693E-002   0.0000000000000000     
   2.6765195930995810E-002   8.6080988984215484E-002   0.0000000000000000     
   2.7738509127345646E-002   9.2539868342997059E-002   0.0000000000000000     
   2.8671372902710959E-002   9.9156857440220431E-002   0.0000000000000000     
   2.9563787257091748E-002  0.10593195627588559        0.0000000000000000     
   2.1322321198170895E-002   7.9498397327344456E-002   0.0000000000000000     
   2.2167525495510244E-002   8.5809708689874115E-002   0.0000000000000000     
   2.2978822617710865E-002   9.2279293288675915E-002   0.0000000000000000     
   2.3756212564772752E-002   9.8907151123749842E-002   0.0000000000000000     
   2.4499695336695895E-002  0.10569328219509587        0.0000000000000000     
   1.6973216045575244E-002   7.9265394386760973E-002   0.0000000000000000     
   1.7648891112858729E-002   8.5584699840827019E-002   0.0000000000000000     
   1.8297415651849839E-002   9.2062565444896632E-002   0.0000000000000000     
   1.8918789662548573E-002   9.8698991198969840E-002   0.0000000000000000     
   1.9513013144954943E-002  0.10549397710304662        0.0000000000000000     
   3.9924200283848167E-002  0.10652741140368649        0.0000000000000000     
   4.1063767137815524E-002  0.11341960129235765        0.0000000000000000     
   4.2156769613154628E-002  0.12044501365698031        0.0000000000000000     
   4.3203207709865507E-002  0.12760364849755454        0.0000000000000000     
   4.4203081427948154E-002  0.13489550581408025        0.0000000000000000     
   3.4705288906142509E-002  0.10620999934541579        0.0000000000000000     
   3.5702854356425388E-002  0.11311841452853355        0.0000000000000000     
   3.6660291513545162E-002  0.12016181202730583        0.0000000000000000     
   3.7577600377501845E-002  0.12734019184173265        0.0000000000000000     
   3.8454780948295429E-002  0.13465355397181394        0.0000000000000000     
   2.9563787257091748E-002  0.10593195627588559        0.0000000000000000     
   3.0418930535859003E-002  0.11285424884415993        0.0000000000000000     
   3.1239981084383712E-002  0.11991281913921076        0.0000000000000000     
   3.2026938902665870E-002  0.12710766716103811        0.0000000000000000     
   3.2779803990705479E-002  0.13443879290964200        0.0000000000000000     
   2.4499695336695895E-002  0.10569328219509587        0.0000000000000000     
   2.5211995676116379E-002  0.11262710423923672        0.0000000000000000     
   2.5895838325670276E-002  0.11969803499269509        0.0000000000000000     
   2.6551223285357580E-002  0.12690607445547097        0.0000000000000000     
   2.7178150555178297E-002  0.13425122262756434        0.0000000000000000     
   1.9513013144954943E-002  0.10549397710304662        0.0000000000000000     
   2.0082049777197512E-002  0.11243698071376394        0.0000000000000000     
   2.0627863237404859E-002  0.11951745958775882        0.0000000000000000     
   2.1150453525576984E-002  0.12673541372503119        0.0000000000000000     
   2.1649820641713887E-002  0.13409084312558106        0.0000000000000000     
   4.4203081427948154E-002  0.13489550581408025        0.0000000000000000     
   4.5150328494006388E-002  0.14231119784462043        0.0000000000000000     
   4.6038886634644026E-002  0.14984133682723794        0.0000000000000000     
   4.6868755849861062E-002  0.15748592276193282        0.0000000000000000     
   4.7639936139657502E-002  0.16524495564870506        0.0000000000000000     
   3.8454780948295429E-002  0.13465355397181394        0.0000000000000000     
   3.9285902915910303E-002  0.14209386577370464        0.0000000000000000     
   4.0065035970330849E-002  0.14965309460355958        0.0000000000000000     
   4.0792180111557060E-002  0.15733124046137878        0.0000000000000000     
   4.1467335339588941E-002  0.16512830334716222        0.0000000000000000     
   3.2779803990705479E-002  0.13443879290964200        0.0000000000000000     
   3.3492949470991552E-002  0.14189777800438641        0.0000000000000000     
   3.4160748466013101E-002  0.14947620406463535        0.0000000000000000     
   3.4783200975770132E-002  0.15717407109038889        0.0000000000000000     
   3.5360307000262638E-002  0.16499137908164702        0.0000000000000000     
   2.7178150555178297E-002  0.13425122262756434        0.0000000000000000     
   2.7771468159250128E-002  0.14172293453666568        0.0000000000000000     
   2.8326024121690781E-002  0.14931066521046529        0.0000000000000000     
   2.8841818442500264E-002  0.15701441464896326        0.0000000000000000     
   2.9318851121678570E-002  0.16483418285215948        0.0000000000000000     
   2.1649820641713887E-002  0.13409084312558106        0.0000000000000000     
   2.2121458980686036E-002  0.14156933537054250        0.0000000000000000     
   2.2560862937363896E-002  0.14915647804104940        0.0000000000000000     
   2.2968032511747474E-002  0.15685227113710176        0.0000000000000000     
   2.3342967703836759E-002  0.16465671465869963        0.0000000000000000     
   0.0000000000000000        0.0000000000000000        0.0000000000000000     
   8.4168108113832495E-004   1.1099962223383515E-003   0.0000000000000000     
   1.7021451561336936E-003   2.5981444146014800E-003   0.0000000000000000     
   2.5813922249861058E-003   4.4644445767893851E-003   0.0000000000000000     
   3.4794222876955621E-003   6.7088967089020679E-003   0.0000000000000000     
   0.0000000000000000        0.0000000000000000        0.0000000000000000     
   6.3384874716766553E-004   1.0939851991820483E-003   0.0000000000000000     
   1.2780746005257707E-003   2.5620705440346646E-003   0.0000000000000000     
   1.9326775600743155E-003   4.4042560345578484E-003   0.0000000000000000     
   2.5976576258132998E-003   6.6205416707516007E-003   0.0000000000000000     
   0.0000000000000000        0.0000000000000000        0.0000000000000000     
   4.2429289268267588E-004   1.0825482316483761E-003   0.0000000000000000     
   8.5302864574097418E-004   2.5363045686537032E-003   0.0000000000000000     
   1.2862072591748948E-003   4.3612690110159807E-003   0.0000000000000000     
   1.7238287329844379E-003   6.5574415587352098E-003   0.0000000000000000     
   0.0000000000000000        0.0000000000000000        0.0000000000000000     
   2.1301351768335594E-004   1.0756853197373348E-003   0.0000000000000000     
   4.2700729177930398E-004   2.5208464884585950E-003   0.0000000000000000     
   6.4198132228784400E-004   4.3354835061637812E-003   0.0000000000000000     
   8.5793560920897633E-004   6.5195963728528952E-003   0.0000000000000000     
   0.0000000000000000        0.0000000000000000        0.0000000000000000     
   1.0622169705805243E-008   1.0733964634489243E-003   0.0000000000000000     
   1.0538640760190607E-008   2.5156963034493416E-003   0.0000000000000000     
  -2.5058683697943424E-010   4.3268995200012516E-003   0.0000000000000000     
  -2.1745513085298304E-008   6.5070061131046525E-003   0.0000000000000000     
   3.4794222876955621E-003   6.7088967089020679E-003   0.0000000000000000     
   4.3879870833301911E-003   9.2941824675323633E-003   0.0000000000000000     
   5.2988383509581221E-003   1.2182983509273109E-002   0.0000000000000000     
   6.2119760905793558E-003   1.5375299834124301E-002   0.0000000000000000     
   7.1274003021938922E-003   1.8871131442085951E-002   0.0000000000000000     
   2.5976576258132998E-003   6.6205416707516007E-003   0.0000000000000000     
   3.2700659554387884E-003   9.1779738140728914E-003   0.0000000000000000     
   3.9469537066468465E-003   1.2043598825978691E-002   0.0000000000000000     
   4.6283208794374725E-003   1.5217416706469001E-002   0.0000000000000000     
   5.3141674738106685E-003   1.8699427455543819E-002   0.0000000000000000     
   1.7238287329844379E-003   6.5574415587352098E-003   0.0000000000000000     
   2.1660868196919491E-003   9.0949830134960767E-003   0.0000000000000000     
   2.6131752718197739E-003   1.1944054176983271E-002   0.0000000000000000     
   3.0650940893679111E-003   1.5104655049196787E-002   0.0000000000000000     
   3.5218432723363624E-003   1.8576785630136632E-002   0.0000000000000000     
   8.5793560920897633E-004   6.5195963728528952E-003   0.0000000000000000     
   1.0760496760896722E-003   9.0452100658019209E-003   0.0000000000000000     
   1.2975030464769039E-003   1.1884349562286843E-002   0.0000000000000000     
   1.5222957203706708E-003   1.5037014862307669E-002   0.0000000000000000     
   1.7504276977709735E-003   1.8503205965864401E-002   0.0000000000000000     
  -2.1745513085298304E-008   6.5070061131046525E-003   0.0000000000000000     
  -4.5475368041917371E-008   9.0286549709904188E-003   0.0000000000000000     
  -6.2969381762497225E-008   1.1864484981889417E-002   0.0000000000000000     
  -7.4227554247776478E-008   1.5014496145801646E-002   0.0000000000000000     
  -7.9249885497436647E-008   1.8478688462727110E-002   0.0000000000000000     
   7.1274003021938922E-003   1.8871131442085951E-002   0.0000000000000000     
   8.0385520349626899E-003   2.2644550357249490E-002   0.0000000000000000     
   8.9388723380467074E-003   2.6669628603706381E-002   0.0000000000000000     
   9.8283612114459448E-003   3.0946366181456617E-002   0.0000000000000000     
   1.0707018655160402E-002   3.5474763090500197E-002   0.0000000000000000     
   5.3141674738106685E-003   1.8699427455543819E-002   0.0000000000000000     
   5.9975475150339441E-003   2.2462222467764095E-002   0.0000000000000000     
   6.6715150283748106E-003   2.6478393137690799E-002   0.0000000000000000     
   7.3360700138332671E-003   3.0747939465323913E-002   0.0000000000000000     
   7.9912124714093171E-003   3.5270861450663445E-002   0.0000000000000000     
   3.5218432723363624E-003   1.8576785630136632E-002   0.0000000000000000     
   3.9774343439048553E-003   2.2331992710253511E-002   0.0000000000000000     
   4.4258788272531196E-003   2.6341823079998123E-002   0.0000000000000000     
   4.8671767223811540E-003   3.0606276739370469E-002   0.0000000000000000     
   5.3013280292889603E-003   3.5125353688370553E-002   0.0000000000000000     
   1.7504276977709735E-003   1.8503205965864401E-002   0.0000000000000000     
   1.9782125215754239E-003   2.2253861084717722E-002   0.0000000000000000     
   2.2019637346816345E-003   2.6259918430628356E-002   0.0000000000000000     
   2.4216813370896051E-003   3.0521378003596278E-002   0.0000000000000000     
   2.6373653287993363E-003   3.5038239803621508E-002   0.0000000000000000     
  -7.9249885497436647E-008   1.8478688462727110E-002   0.0000000000000000     
  -1.1795195435014517E-007   2.2227827591156744E-002   0.0000000000000000     
  -2.3024933964432555E-007   2.6232679189581491E-002   0.0000000000000000     
  -4.1614204138021494E-007   3.0493243258001346E-002   0.0000000000000000     
  -6.7563005955802342E-007   3.5009519796416311E-002   0.0000000000000000     
   1.0707018655160402E-002   3.5474763090500197E-002   0.0000000000000000     
   1.1569268082605067E-002   4.0234777824252659E-002   0.0000000000000000     
   1.2409532907194924E-002   4.5206368876129548E-002   0.0000000000000000     
   1.3227813128929978E-002   5.0389536246130857E-002   0.0000000000000000     
   1.4024108747810224E-002   5.5784279934256581E-002   0.0000000000000000     
   7.9912124714093171E-003   3.5270861450663445E-002   0.0000000000000000     
   8.6339688195654699E-003   4.0027438267617482E-002   0.0000000000000000     
   9.2613654767642415E-003   4.4997949090094094E-002   0.0000000000000000     
   9.8734024430056321E-003   5.0182393918093281E-002   0.0000000000000000     
   1.0470079718289640E-002   5.5580772751615055E-002   0.0000000000000000     
   5.3013280292889603E-003   3.5125353688370553E-002   0.0000000000000000     
   5.7271489472315315E-003   3.9879539537380333E-002   0.0000000000000000     
   6.1434556754638636E-003   4.4849319896781779E-002   0.0000000000000000     
   6.5502482139859529E-003   5.0034694766574885E-002   0.0000000000000000     
   6.9475265627978056E-003   5.5435664146759663E-002   0.0000000000000000     
   2.6373653287993363E-003   3.5038239803621508E-002   0.0000000000000000     
   2.8488084656032552E-003   3.9791081633541232E-002   0.0000000000000000     
   3.0558035032937922E-003   4.4760481296192610E-002   0.0000000000000000     
   3.2583504418709467E-003   4.9946438791575655E-002   0.0000000000000000     
   3.4564492813347189E-003   5.5348954119690374E-002   0.0000000000000000     
  -6.7563005955802342E-007   3.5009519796416311E-002   0.0000000000000000     
  -1.0526253193606123E-006   3.9762064556100138E-002   0.0000000000000000     
  -1.5910397459718731E-006   4.4731433288326565E-002   0.0000000000000000     
  -2.2908733393916836E-006   4.9917625993095599E-002   0.0000000000000000     
  -3.1521260996200846E-006   5.5320642670407226E-002   0.0000000000000000     
   1.4024108747810224E-002   5.5784279934256581E-002   0.0000000000000000     
   1.4797405442010169E-002   6.1377248472929059E-002   0.0000000000000000     
   1.5546688889704322E-002   6.7155090394570627E-002   0.0000000000000000     
   1.6271959090892681E-002   7.3117805699181262E-002   0.0000000000000000     
   1.6973216045575244E-002   7.9265394386760973E-002   0.0000000000000000     
   1.0470079718289640E-002   5.5580772751615055E-002   0.0000000000000000     
   1.1049963142414049E-002   6.1178668335187376E-002   0.0000000000000000     
   1.1611618555176631E-002   6.6961663413338202E-002   0.0000000000000000     
   1.2155045956577395E-002   7.2929757986067545E-002   0.0000000000000000     
   1.2680245346616334E-002   7.9082952053375399E-002   0.0000000000000000     
   6.9475265627978056E-003   5.5435664146759663E-002   0.0000000000000000     
   7.3339181300927404E-003   6.1037060854024994E-002   0.0000000000000000     
   7.7080503240640830E-003   6.6823717705059807E-002   0.0000000000000000     
   8.0699231447118325E-003   7.2795634699864095E-002   0.0000000000000000     
   8.4195365920359932E-003   7.8952811838437872E-002   0.0000000000000000     
   3.4564492813347189E-003   5.5348954119690374E-002   0.0000000000000000     
   3.6492704050462479E-003   6.0952426029441918E-002   0.0000000000000000     
   3.8359841963666740E-003   6.6741253269735429E-002   0.0000000000000000     
   4.0165906552959976E-003   7.2715435840570913E-002   0.0000000000000000     
   4.1910897818342192E-003   7.8874973741948393E-002   0.0000000000000000     
  -3.1521260996200846E-006   5.5320642670407226E-002   0.0000000000000000     
  -3.9800327254292450E-006   6.0924763861438157E-002   0.0000000000000000     
  -4.5798279155943693E-006   6.6714270107365095E-002   0.0000000000000000     
  -4.9515116701128554E-006   7.2689161408188013E-002   0.0000000000000000     
  -5.0950839889864381E-006   7.8849437763906932E-002   0.0000000000000000     
   1.6973216045575244E-002   7.9265394386760973E-002   0.0000000000000000     
   1.7648891112858729E-002   8.5584699840827019E-002   0.0000000000000000     
   1.8297415651849839E-002   9.2062565444896632E-002   0.0000000000000000     
   1.8918789662548573E-002   9.8698991198969840E-002   0.0000000000000000     
   1.9513013144954943E-002  0.10549397710304662        0.0000000000000000     
   1.2680245346616334E-002   7.9082952053375399E-002   0.0000000000000000     
   1.3186172486303532E-002   8.5408144818896956E-002   0.0000000000000000     
   1.3671783136649062E-002   9.1892235486267390E-002   0.0000000000000000     
   1.4137077297652930E-002   9.8535224055486717E-002   0.0000000000000000     
   1.4582054969315127E-002  0.10533711052655492        0.0000000000000000     
   8.4195365920359932E-003   7.8952811838437872E-002   0.0000000000000000     
   8.7562493191069343E-003   8.5282226005906750E-002   0.0000000000000000     
   9.0794199789950309E-003   9.1770854087396381E-002   0.0000000000000000     
   9.3890485717002849E-003   9.8418696082906737E-002   0.0000000000000000     
   9.6851350972226927E-003  0.10522575199243787        0.0000000000000000     
   4.1910897818342192E-003   7.8874973741948393E-002   0.0000000000000000     
   4.3591216112689362E-003   8.5206943401856403E-002   0.0000000000000000     
   4.5203261788877430E-003   9.1698421248283576E-002   0.0000000000000000     
   4.6747034846906449E-003   9.8349407281229956E-002   0.0000000000000000     
   4.8222535286776367E-003  0.10515990150069547        0.0000000000000000     
  -5.0950839889864381E-006   7.8849437763906932E-002   0.0000000000000000     
  -5.2106372104654495E-006   8.5182297006745927E-002   0.0000000000000000     
  -5.4982636728001131E-006   9.1674936968929061E-002   0.0000000000000000     
  -5.9579633759923535E-006   9.8327357650456318E-002   0.0000000000000000     
  -6.5897363200396498E-006  0.10513955905132771        0.0000000000000000     
   1.9513013144954943E-002  0.10549397710304662        0.0000000000000000     
   2.0082049777197512E-002  0.11243698071376394        0.0000000000000000     
   2.0627863237404859E-002  0.11951745958775882        0.0000000000000000     
   2.1150453525576984E-002  0.12673541372503119        0.0000000000000000     
   2.1649820641713887E-002  0.13409084312558106        0.0000000000000000     
   1.4582054969315127E-002  0.10533711052655492        0.0000000000000000     
   1.5007869792868365E-002  0.11228716971669166        0.0000000000000000     
   1.5415675409545339E-002  0.11937467644311661        0.0000000000000000     
   1.5805471819346054E-002  0.12659963070582975        0.0000000000000000     
   1.6177259022270511E-002  0.13396203250483107        0.0000000000000000     
   9.6851350972226927E-003  0.10522575199243787        0.0000000000000000     
   9.9682326768949173E-003  0.11218096269696996        0.0000000000000000     
   1.0238894432049611E-002  0.11927326907748322        0.0000000000000000     
   1.0497120362686782E-002  0.12650267113397762        0.0000000000000000     
   1.0742910468806422E-002  0.13386916886645323        0.0000000000000000     
   4.8222535286776367E-003  0.10515990150069547        0.0000000000000000     
   4.9631384292771656E-003  0.11211835965459879        0.0000000000000000     
   5.0975203049176722E-003  0.11921323749085860        0.0000000000000000     
   5.2253991555991581E-003  0.12644453500947486        0.0000000000000000     
   5.3467749813216215E-003  0.13381225221044757        0.0000000000000000     
  -6.5897363200396498E-006  0.10513955905132771        0.0000000000000000     
  -7.4129499848872397E-006  0.11209936058957820        0.0000000000000000     
  -8.4469718504784092E-006  0.11919458168324276        0.0000000000000000     
  -9.6918019168129956E-006  0.12642522233232137        0.0000000000000000     
  -1.1147440183891053E-005  0.13379128253681410        0.0000000000000000     
   2.1649820641713887E-002  0.13409084312558106        0.0000000000000000     
   2.2121458980686036E-002  0.14156933537054250        0.0000000000000000     
   2.2560862937363896E-002  0.14915647804104940        0.0000000000000000     
   2.2968032511747474E-002  0.15685227113710176        0.0000000000000000     
   2.3342967703836759E-002  0.16465671465869963        0.0000000000000000     
   1.6177259022270511E-002  0.13396203250483107        0.0000000000000000     
   1.6527362414407647E-002  0.14144404128735158        0.0000000000000000     
   1.6852107391846401E-002  0.14902781650062233        0.0000000000000000     
   1.7151493954586771E-002  0.15671335814464327        0.0000000000000000     
   1.7425522102628759E-002  0.16450066621941439        0.0000000000000000     
   1.0742910468806422E-002  0.13386916886645323        0.0000000000000000     
   1.0973618939523314E-002  0.14135411306842771        0.0000000000000000     
   1.1186599963952232E-002  0.14893885453341876        0.0000000000000000     
   1.1381853542093175E-002  0.15662339326142641        0.0000000000000000     
   1.1559379673946147E-002  0.16440772925245067        0.0000000000000000     
   5.3467749813216215E-003  0.13381225221044757        0.0000000000000000     
   5.4602285560330418E-003  0.14129955071377087        0.0000000000000000     
   5.5643406536813990E-003  0.14888959213943875        0.0000000000000000     
   5.6591112742666906E-003  0.15658237648745130        0.0000000000000000     
   5.7445404177889174E-003  0.16437790375780847        0.0000000000000000     
  -1.1147440183891053E-005  0.13379128253681410        0.0000000000000000     
  -1.2808736063167668E-005  0.14128035422338101        0.0000000000000000     
  -1.4670538966098687E-005  0.14888002931868227        0.0000000000000000     
  -1.6732848892685490E-005  0.15659030782271788        0.0000000000000000     
  -1.8995665842925884E-005  0.16441118973548785        0.0000000000000000     
   0.0000000000000000        0.0000000000000000        0.0000000000000000     
   1.0622169705805243E-008   1.0733964634489243E-003   0.0000000000000000     
   1.0538640760190607E-008   2.5156963034493416E-003   0.0000000000000000     
  -2.5058683697943424E-010   4.3268995200012516E-003   0.0000000000000000     
  -2.1745513085298304E-008   6.5070061131046525E-003   0.0000000000000000     
   0.0000000000000000        0.0000000000000000        0.0000000000000000     
  -2.1299316741286832E-004   1.0756830339136683E-003   0.0000000000000000     
  -4.2698632359603893E-004   2.5208539151488542E-003   0.0000000000000000     
  -6.4197946854951189E-004   4.3355126437055590E-003   0.0000000000000000     
  -8.5797260227328726E-004   6.5196592195837814E-003   0.0000000000000000     
   0.0000000000000000        0.0000000000000000        0.0000000000000000     
  -4.2427522461896015E-004   1.0825464022620902E-003   0.0000000000000000     
  -8.5300800485247502E-004   2.5363192250800479E-003   0.0000000000000000     
  -1.2861983407005447E-003   4.3613184684538750E-003   0.0000000000000000     
  -1.7238462321631696E-003   6.5575441323835687E-003   0.0000000000000000     
   0.0000000000000000        0.0000000000000000        0.0000000000000000     
  -6.3383554944856967E-004   1.0939865684941898E-003   0.0000000000000000     
  -1.2780545051285482E-003   2.5620922332429226E-003   0.0000000000000000     
  -1.9326568670399360E-003   4.4043169942461994E-003   0.0000000000000000     
  -2.5976426351827322E-003   6.6206608515040188E-003   0.0000000000000000     
   0.0000000000000000        0.0000000000000000        0.0000000000000000     
  -8.4167414190169693E-004   1.1100035326099670E-003   0.0000000000000000     
  -1.7021258244242588E-003   2.5981729396374774E-003   0.0000000000000000     
  -2.5813550475676851E-003   4.4645082210825306E-003   0.0000000000000000     
  -3.4793618113319758E-003   6.7090093769451272E-003   0.0000000000000000     
  -2.1745513085298304E-008   6.5070061131046525E-003   0.0000000000000000     
  -4.5475368041917371E-008   9.0286549709904188E-003   0.0000000000000000     
  -6.2969381762497225E-008   1.1864484981889417E-002   0.0000000000000000     
  -7.4227554247776478E-008   1.5014496145801646E-002   0.0000000000000000     
  -7.9249885497436647E-008   1.8478688462727110E-002   0.0000000000000000     
  -8.5797260227328726E-004   6.5196592195837814E-003   0.0000000000000000     
  -1.0761295894246923E-003   9.0453002758115585E-003   0.0000000000000000     
  -1.2976142946610559E-003   1.1884442445416936E-002   0.0000000000000000     
  -1.5224267179823772E-003   1.5037085728399910E-002   0.0000000000000000     
  -1.7505668593886560E-003   1.8503230124760475E-002   0.0000000000000000     
  -1.7238462321631696E-003   6.5575441323835687E-003   0.0000000000000000     
  -2.1661336208237797E-003   9.0951285270153299E-003   0.0000000000000000     
  -2.6132424482658060E-003   1.1944203962495355E-002   0.0000000000000000     
  -3.0651727144892491E-003   1.5104770438823646E-002   0.0000000000000000     
  -3.5219244194941075E-003   1.8576827956000207E-002   0.0000000000000000     
  -2.5976426351827322E-003   6.6206608515040188E-003   0.0000000000000000     
  -3.2700575695653040E-003   9.1781397246017294E-003   0.0000000000000000     
  -3.9469474301960135E-003   1.2043769533124681E-002   0.0000000000000000     
  -4.6283122170748632E-003   1.5217550277072870E-002   0.0000000000000000     
  -5.3141519302018518E-003   1.8699481956446301E-002   0.0000000000000000     
  -3.4793618113319758E-003   6.7090093769451272E-003   0.0000000000000000     
  -4.3879014356492637E-003   9.2943338685707554E-003   0.0000000000000000     
  -5.2987292404516771E-003   1.2183139157304901E-002   0.0000000000000000     
  -6.2118452257392204E-003   1.5375425243147573E-002   0.0000000000000000     
  -7.1272493915118902E-003   1.8871192126098758E-002   0.0000000000000000     
  -7.9249885497436647E-008   1.8478688462727110E-002   0.0000000000000000     
  -1.1795195435014517E-007   2.2227827591156744E-002   0.0000000000000000     
  -2.3024933964432555E-007   2.6232679189581491E-002   0.0000000000000000     
  -4.1614204138021494E-007   3.0493243258001346E-002   0.0000000000000000     
  -6.7563005955802342E-007   3.5009519796416311E-002   0.0000000000000000     
  -1.7505668593886560E-003   1.8503230124760475E-002   0.0000000000000000     
  -1.9784211437659984E-003   2.2253887861451962E-002   0.0000000000000000     
  -2.2023759960005085E-003   2.6260071165427699E-002   0.0000000000000000     
  -2.4224314160921868E-003   3.0521780036687672E-002   0.0000000000000000     
  -2.6385874040410324E-003   3.5039014475231889E-002   0.0000000000000000     
  -3.5219244194941075E-003   1.8576827956000207E-002   0.0000000000000000     
  -3.9775611209410524E-003   2.2332037527484784E-002   0.0000000000000000     
  -4.4261463764907472E-003   2.6342060166737135E-002   0.0000000000000000     
  -4.8676801861431982E-003   3.0606895873757263E-002   0.0000000000000000     
  -5.3021625498984029E-003   3.5126544648545165E-002   0.0000000000000000     
  -5.3141519302018518E-003   1.8699481956446301E-002   0.0000000000000000     
  -5.9975378834795116E-003   2.2462276589255200E-002   0.0000000000000000     
  -6.6715413908103637E-003   2.6478646193509814E-002   0.0000000000000000     
  -7.3361624521944158E-003   3.0748590769210122E-002   0.0000000000000000     
  -7.9914010676316611E-003   3.5272110316356138E-002   0.0000000000000000     
  -7.1272493915118902E-003   1.8871192126098758E-002   0.0000000000000000     
  -8.0383514313813742E-003   2.2644605046763220E-002   0.0000000000000000     
  -8.9385610389593560E-003   2.6669829245745718E-002   0.0000000000000000     
  -9.8278782142458363E-003   3.0946864723046245E-002   0.0000000000000000     
  -1.0706302957240817E-002   3.5475711478664809E-002   0.0000000000000000     
  -6.7563005955802342E-007   3.5009519796416311E-002   0.0000000000000000     
  -1.0526253193606123E-006   3.9762064556100138E-002   0.0000000000000000     
  -1.5910397459718731E-006   4.4731433288326565E-002   0.0000000000000000     
  -2.2908733393916836E-006   4.9917625993095599E-002   0.0000000000000000     
  -3.1521260996200846E-006   5.5320642670407226E-002   0.0000000000000000     
  -2.6385874040410324E-003   3.5039014475231889E-002   0.0000000000000000     
  -2.8507102673181552E-003   3.9792210923690542E-002   0.0000000000000000     
  -3.0586663133946638E-003   4.4761805824693794E-002   0.0000000000000000     
  -3.2624555422705566E-003   4.9947799178241652E-002   0.0000000000000000     
  -3.4620779539458347E-003   5.5350190984334122E-002   0.0000000000000000     
  -5.3021625498984029E-003   3.5126544648545165E-002   0.0000000000000000     
  -5.7284404021749700E-003   3.9881243354945875E-002   0.0000000000000000     
  -6.1453606773915169E-003   4.4851228856804419E-002   0.0000000000000000     
  -6.5529233755480445E-003   5.0036501154120790E-002   0.0000000000000000     
  -6.9511284966445493E-003   5.5437060246895001E-002   0.0000000000000000     
  -7.9914010676316611E-003   3.5272110316356138E-002   0.0000000000000000     
  -8.6342430298898005E-003   4.0029161849866150E-002   0.0000000000000000     
  -9.2616741317365341E-003   4.4999702384658433E-002   0.0000000000000000     
  -9.8736943731718534E-003   5.0183731920732992E-002   0.0000000000000000     
  -1.0470303754195765E-002   5.5581250458089843E-002   0.0000000000000000     
  -1.0706302957240817E-002   3.5475711478664809E-002   0.0000000000000000     
  -1.1568118150462655E-002   4.0235966408451354E-002   0.0000000000000000     
  -1.2407606676429712E-002   4.5207226408255842E-002   0.0000000000000000     
  -1.3224768535141986E-002   5.0389491478078287E-002   0.0000000000000000     
  -1.4019603726599482E-002   5.5782761617918654E-002   0.0000000000000000     
  -3.1521260996200846E-006   5.5320642670407226E-002   0.0000000000000000     
  -3.9800327254292450E-006   6.0924763861438157E-002   0.0000000000000000     
  -4.5798279155943693E-006   6.6714270107365095E-002   0.0000000000000000     
  -4.9515116701128554E-006   7.2689161408188013E-002   0.0000000000000000     
  -5.0950839889864381E-006   7.8849437763906932E-002   0.0000000000000000     
  -3.4620779539458347E-003   5.5350190984334122E-002   0.0000000000000000     
  -3.6563554741811956E-003   6.0953469553535172E-002   0.0000000000000000     
  -3.8441100287373380E-003   6.6742123196408723E-002   0.0000000000000000     
  -4.0253416176142635E-003   7.2716151912954843E-002   0.0000000000000000     
  -4.2000502408119705E-003   7.8875555703173464E-002   0.0000000000000000     
  -6.9511284966445493E-003   5.5437060246895001E-002   0.0000000000000000     
  -7.3383782102799527E-003   6.1037938309254407E-002   0.0000000000000000     
  -7.7130746860531755E-003   6.6824167515326341E-002   0.0000000000000000     
  -8.0752179239642202E-003   7.2795747865110824E-002   0.0000000000000000     
  -8.4248079240130790E-003   7.8952679358607863E-002   0.0000000000000000     
  -1.0470303754195765E-002   5.5581250458089843E-002   0.0000000000000000     
  -1.1050048241021704E-002   6.1178170128595846E-002   0.0000000000000000     
  -1.1611473799863109E-002   6.6960403064117893E-002   0.0000000000000000     
  -1.2154580430719977E-002   7.2927949264655983E-002   0.0000000000000000     
  -1.2679368133592316E-002   7.9080808730210131E-002   0.0000000000000000     
  -1.4019603726599482E-002   5.5782761617918654E-002   0.0000000000000000     
  -1.4791365566406445E-002   6.1374165011559526E-002   0.0000000000000000     
  -1.5539307370167132E-002   6.7150829842783394E-002   0.0000000000000000     
  -1.6263429137881542E-002   7.3112756111590321E-002   0.0000000000000000     
  -1.6963730869549675E-002   7.9259943817980266E-002   0.0000000000000000     
  -5.0950839889864381E-006   7.8849437763906932E-002   0.0000000000000000     
  -5.2106372104654495E-006   8.5182297006745927E-002   0.0000000000000000     
  -5.4982636728001131E-006   9.1674936968929061E-002   0.0000000000000000     
  -5.9579633759923535E-006   9.8327357650456318E-002   0.0000000000000000     
  -6.5897363200396498E-006  0.10513955905132771        0.0000000000000000     
  -4.2000502408119705E-003   7.8875555703173464E-002   0.0000000000000000     
  -4.3682433846693363E-003   8.5207603082036829E-002   0.0000000000000000     
  -4.5299285355252412E-003   9.1699562564517154E-002   0.0000000000000000     
  -4.6851056933796828E-003   9.8351434150614439E-002   0.0000000000000000     
  -4.8337748582326654E-003  0.10516321784032870        0.0000000000000000     
  -8.4248079240130790E-003   7.8952679358607863E-002   0.0000000000000000     
  -8.7614725894457485E-003   8.5282177889190638E-002   0.0000000000000000     
  -9.0848398235082208E-003   9.1771459350232343E-002   0.0000000000000000     
  -9.3949096262004907E-003   9.8420523741732976E-002   0.0000000000000000     
  -9.6916819975225669E-003  0.10522937106369259        0.0000000000000000     
  -1.2679368133592316E-002   7.9080808730210131E-002   0.0000000000000000     
  -1.3184898251539706E-002   8.5406021428207329E-002   0.0000000000000000     
  -1.3670232127621737E-002   9.1890627326074587E-002   0.0000000000000000     
  -1.4135369761838421E-002   9.8534626423811944E-002   0.0000000000000000     
  -1.4580311154189745E-002  0.10533801872141936        0.0000000000000000     
  -1.6963730869549675E-002   7.9259943817980266E-002   0.0000000000000000     
  -1.7638520370951198E-002   8.5579133699086915E-002   0.0000000000000000     
  -1.8286105447865797E-002   9.2057066492043926E-002   0.0000000000000000     
  -1.8906486100293461E-002   9.8693742196851272E-002   0.0000000000000000     
  -1.9499662328234198E-002  0.10548916081350902        0.0000000000000000     
  -6.5897363200396498E-006  0.10513955905132771        0.0000000000000000     
  -7.4129499848872397E-006  0.11209936058957820        0.0000000000000000     
  -8.4469718504784092E-006  0.11919458168324276        0.0000000000000000     
  -9.6918019168129956E-006  0.12642522233232137        0.0000000000000000     
  -1.1147440183891053E-005  0.13379128253681410        0.0000000000000000     
  -4.8337748582326654E-003  0.10516321784032870        0.0000000000000000     
  -4.9761258360776755E-003  0.11212221614594925        0.0000000000000000     
  -5.1123484329082085E-003  0.11921573157976546        0.0000000000000000     
  -5.2424426487242643E-003  0.12644376414177730        0.0000000000000000     
  -5.3664084835258396E-003  0.13380631383198477        0.0000000000000000     
  -9.6916819975225669E-003  0.10522937106369259        0.0000000000000000     
  -9.9757046041876324E-003  0.11218517696775310        0.0000000000000000     
  -1.0247525112908886E-002  0.11927511710555642        0.0000000000000000     
  -1.0507143523686325E-002  0.12649919147710259        0.0000000000000000     
  -1.0754559836519949E-002  0.13385740008239164        0.0000000000000000     
  -1.4580311154189745E-002  0.10533801872141936        0.0000000000000000     
  -1.5006149254314760E-002  0.11228824305498965        0.0000000000000000     
  -1.5413977011852511E-002  0.11937273826061562        0.0000000000000000     
  -1.5803794426802995E-002  0.12659150433829727        0.0000000000000000     
  -1.6175601499166220E-002  0.13394454128803457        0.0000000000000000     
  -1.9499662328234198E-002  0.10548916081350902        0.0000000000000000     
  -2.0067459786459053E-002  0.11243141440765898        0.0000000000000000     
  -2.0611704129739082E-002  0.11950859504494310        0.0000000000000000     
  -2.1132395358074284E-002  0.12672070272536132        0.0000000000000000     
  -2.1629533471464651E-002  0.13406773744891365        0.0000000000000000     
  -1.1147440183891053E-005  0.13379128253681410        0.0000000000000000     
  -1.2808736063167668E-005  0.14128035422338101        0.0000000000000000     
  -1.4670538966098687E-005  0.14888002931868227        0.0000000000000000     
  -1.6732848892685490E-005  0.15659030782271788        0.0000000000000000     
  -1.8995665842925884E-005  0.16441118973548785        0.0000000000000000     
  -5.3664084835258396E-003  0.13380631383198477        0.0000000000000000     
  -5.4828288465432386E-003  0.14129544977342587        0.0000000000000000     
  -5.5902866470067579E-003  0.14890324108913849        0.0000000000000000     
  -5.6887818849163966E-003  0.15662968777912262        0.0000000000000000     
  -5.7783145602721582E-003  0.16447478984337829        0.0000000000000000     
  -1.0754559836519949E-002  0.13385740008239164        0.0000000000000000     
  -1.0987167685185087E-002  0.14134376354007305        0.0000000000000000     
  -1.1202360703457067E-002  0.14895230246879648        0.0000000000000000     
  -1.1400138891335888E-002  0.15668301686856193        0.0000000000000000     
  -1.1580502248821551E-002  0.16453590673936935        0.0000000000000000     
  -1.6175601499166220E-002  0.13394454128803457        0.0000000000000000     
  -1.6525825251988719E-002  0.14142529552332259        0.0000000000000000     
  -1.6850892708317033E-002  0.14902721345765632        0.0000000000000000     
  -1.7150803868151158E-002  0.15675029509103575        0.0000000000000000     
  -1.7425558731491108E-002  0.16459454042346094        0.0000000000000000     
  -2.1629533471464651E-002  0.13406773744891365        0.0000000000000000     
  -2.2098801546954122E-002  0.14154004572317444        0.0000000000000000     
  -2.2535882661586643E-002  0.14912797405571795        0.0000000000000000     
  -2.2940776815362211E-002  0.15683152244654419        0.0000000000000000     
  -2.3313484008280823E-002  0.16465069089565315        0.0000000000000000     
   0.0000000000000000        0.0000000000000000        0.0000000000000000     
  -8.4167414190169693E-004   1.1100035326099670E-003   0.0000000000000000     
  -1.7021258244242588E-003   2.5981729396374774E-003   0.0000000000000000     
  -2.5813550475676851E-003   4.4645082210825306E-003   0.0000000000000000     
  -3.4793618113319758E-003   6.7090093769451272E-003   0.0000000000000000     
   0.0000000000000000        0.0000000000000000        0.0000000000000000     
  -1.0566991150160754E-003   1.1341605721557370E-003   0.0000000000000000     
  -2.1397655528215065E-003   2.6504123655915926E-003   0.0000000000000000     
  -3.2491993134162937E-003   4.5487553803075665E-003   0.0000000000000000     
  -4.3850003968004363E-003   6.8291896163036577E-003   0.0000000000000000     
   0.0000000000000000        0.0000000000000000        0.0000000000000000     
  -1.2878185818294384E-003   1.1700209646778143E-003   0.0000000000000000     
  -2.6055172804021927E-003   2.7246615324331464E-003   0.0000000000000000     
  -3.9530960957182629E-003   4.6639217032659981E-003   0.0000000000000000     
  -5.3305550277776489E-003   6.9878014771763688E-003   0.0000000000000000     
   0.0000000000000000        0.0000000000000000        0.0000000000000000     
  -1.5350325423417860E-003   1.2175847101761983E-003   0.0000000000000000     
  -3.0993810071663175E-003   2.8209204401621409E-003   0.0000000000000000     
  -4.6930453944735934E-003   4.8100071899578279E-003   0.0000000000000000     
  -6.3160257042636156E-003   7.1848449595632597E-003   0.0000000000000000     
   0.0000000000000000        0.0000000000000000        0.0000000000000000     
  -1.7983409965531179E-003   1.2768518086508900E-003   0.0000000000000000     
  -3.6213567331138800E-003   2.9391890887785752E-003   0.0000000000000000     
  -5.4690472096822857E-003   4.9870118403830552E-003   0.0000000000000000     
  -7.3414124262583362E-003   7.4203200634643321E-003   0.0000000000000000     
  -3.4793618113319758E-003   6.7090093769451272E-003   0.0000000000000000     
  -4.3879014356492637E-003   9.2943338685707554E-003   0.0000000000000000     
  -5.2987292404516771E-003   1.2183139157304901E-002   0.0000000000000000     
  -6.2118452257392204E-003   1.5375425243147573E-002   0.0000000000000000     
  -7.1272493915118902E-003   1.8871192126098758E-002   0.0000000000000000     
  -4.3850003968004363E-003   6.8291896163036577E-003   0.0000000000000000     
  -5.5341852977630994E-003   9.4496960603080819E-003   0.0000000000000000     
  -6.6837705110934465E-003   1.2368255699049058E-002   0.0000000000000000     
  -7.8337560367914803E-003   1.5584868532526577E-002   0.0000000000000000     
  -8.9841418748571981E-003   1.9099534560740650E-002   0.0000000000000000     
  -5.3305550277776489E-003   6.9878014771763688E-003   0.0000000000000000     
  -6.7234292345942515E-003   9.6502114011993833E-003   0.0000000000000000     
  -8.1172538741819678E-003   1.2605062022370167E-002   0.0000000000000000     
  -9.5120289465407994E-003   1.5852353340688720E-002   0.0000000000000000     
  -1.0907754451670745E-002   1.9392085356155039E-002   0.0000000000000000     
  -6.3160257042636156E-003   7.1848449595632597E-003   0.0000000000000000     
  -7.9556332461427209E-003   9.8958798912446525E-003   0.0000000000000000     
  -9.5991793297172407E-003   1.2893558127268234E-002   0.0000000000000000     
  -1.1246663954987180E-002   1.6177879667633992E-002   0.0000000000000000     
  -1.2898087121952537E-002   1.9748844512341931E-002   0.0000000000000000     
  -7.3414124262583362E-003   7.4203200634643321E-003   0.0000000000000000     
  -9.2307973324085076E-003   1.0186701530443900E-002   0.0000000000000000     
  -1.1129546877699268E-002   1.3233744013743252E-002   0.0000000000000000     
  -1.3037661062130623E-002   1.6561447513362398E-002   0.0000000000000000     
  -1.4955139885702575E-002   2.0169812029301327E-002   0.0000000000000000     
  -7.1272493915118902E-003   1.8871192126098758E-002   0.0000000000000000     
  -8.0383514313813742E-003   2.2644605046763220E-002   0.0000000000000000     
  -8.9385610389593560E-003   2.6669829245745718E-002   0.0000000000000000     
  -9.8278782142458363E-003   3.0946864723046245E-002   0.0000000000000000     
  -1.0706302957240817E-002   3.5475711478664809E-002   0.0000000000000000     
  -8.9841418748571981E-003   1.9099534560740650E-002   0.0000000000000000     
  -1.0127917366327925E-002   2.2887487681620064E-002   0.0000000000000000     
  -1.1258071852240986E-002   2.6923961793093608E-002   0.0000000000000000     
  -1.2374605332596385E-002   3.1208956895161288E-002   0.0000000000000000     
  -1.3477517807394118E-002   3.5742472987823112E-002   0.0000000000000000     
  -1.0907754451670745E-002   1.9392085356155039E-002   0.0000000000000000     
  -1.2294151290000442E-002   2.3199389275436941E-002   0.0000000000000000     
  -1.3660940361958515E-002   2.7249396305202230E-002   0.0000000000000000     
  -1.5008121667544977E-002   3.1542106445450920E-002   0.0000000000000000     
  -1.6335695206759815E-002   3.6077519696182989E-002   0.0000000000000000     
  -1.2898087121952537E-002   1.9748844512341931E-002   0.0000000000000000     
  -1.4537053202398923E-002   2.3580309828213866E-002   0.0000000000000000     
  -1.6147166568111947E-002   2.7646132782071599E-002   0.0000000000000000     
  -1.7728427219091614E-002   3.1946313373915118E-002   0.0000000000000000     
  -1.9280835155337919E-002   3.6480851603744445E-002   0.0000000000000000     
  -1.4955139885702575E-002   2.0169812029301327E-002   0.0000000000000000     
  -1.6856623103523372E-002   2.4030249339950831E-002   0.0000000000000000     
  -1.8716750470701281E-002   2.8114171223701693E-002   0.0000000000000000     
  -2.0535521987236294E-002   3.2421577680553912E-002   0.0000000000000000     
  -2.2312937653128410E-002   3.6952468710507475E-002   0.0000000000000000     
  -1.0706302957240817E-002   3.5475711478664809E-002   0.0000000000000000     
  -1.1568118150462655E-002   4.0235966408451354E-002   0.0000000000000000     
  -1.2407606676429712E-002   4.5207226408255842E-002   0.0000000000000000     
  -1.3224768535141986E-002   5.0389491478078287E-002   0.0000000000000000     
  -1.4019603726599482E-002   5.5782761617918654E-002   0.0000000000000000     
  -1.3477517807394118E-002   3.5742472987823112E-002   0.0000000000000000     
  -1.4558932763684643E-002   4.0504542407834958E-002   0.0000000000000000     
  -1.5610973688518423E-002   4.5475197491952751E-002   0.0000000000000000     
  -1.6633640581895443E-002   5.0654438240176444E-002   0.0000000000000000     
  -1.7626933443815725E-002   5.6042264652506092E-002   0.0000000000000000     
  -1.6335695206759815E-002   3.6077519696182989E-002   0.0000000000000000     
  -1.7635553869346888E-002   4.0837775225150433E-002   0.0000000000000000     
  -1.8899590545050027E-002   4.5805012200105202E-002   0.0000000000000000     
  -2.0127805233869239E-002   5.0979230621047332E-002   0.0000000000000000     
  -2.1320197935804520E-002   5.6360430487976808E-002   0.0000000000000000     
  -1.9280835155337919E-002   3.6480851603744445E-002   0.0000000000000000     
  -2.0797981467449374E-002   4.1235664860397751E-002   0.0000000000000000     
  -2.2273457246024527E-002   4.6196670532713251E-002   0.0000000000000000     
  -2.3707262491063353E-002   5.1363868620690929E-002   0.0000000000000000     
  -2.5099397202565873E-002   5.6737259124330794E-002   0.0000000000000000     
  -2.2312937653128410E-002   3.6952468710507475E-002   0.0000000000000000     
  -2.4046215557992124E-002   4.1698211313576948E-002   0.0000000000000000     
  -2.5732573791441921E-002   4.6650172489776875E-002   0.0000000000000000     
  -2.7372012353477804E-002   5.1808352239107236E-002   0.0000000000000000     
  -2.8964531244099766E-002   5.7172750561568050E-002   0.0000000000000000     
  -1.4019603726599482E-002   5.5782761617918654E-002   0.0000000000000000     
  -1.4791365566406445E-002   6.1374165011559526E-002   0.0000000000000000     
  -1.5539307370167132E-002   6.7150829842783394E-002   0.0000000000000000     
  -1.6263429137881542E-002   7.3112756111590321E-002   0.0000000000000000     
  -1.6963730869549675E-002   7.9259943817980266E-002   0.0000000000000000     
  -1.7626933443815725E-002   5.6042264652506092E-002   0.0000000000000000     
  -1.8590845463891472E-002   6.1626871973798694E-002   0.0000000000000000     
  -1.9525369831734894E-002   6.7396455448911249E-002   0.0000000000000000     
  -2.0430506547345999E-002   7.3351015077843792E-002   0.0000000000000000     
  -2.1306255610724776E-002   7.9490550860596310E-002   0.0000000000000000     
  -2.1320197935804520E-002   5.6360430487976808E-002   0.0000000000000000     
  -2.2477003210934057E-002   6.1937240030966630E-002   0.0000000000000000     
  -2.3598455619336028E-002   6.7698287480089811E-002   0.0000000000000000     
  -2.4684555161010428E-002   7.3643572835346352E-002   0.0000000000000000     
  -2.5735301835957257E-002   7.9773096096736246E-002   0.0000000000000000     
  -2.5099397202565873E-002   5.6737259124330794E-002   0.0000000000000000     
  -2.6449838807534213E-002   6.2305269183063339E-002   0.0000000000000000     
  -2.7758564732970534E-002   6.8056325936319065E-002   0.0000000000000000     
  -2.9025574978874830E-002   7.3990429384097958E-002   0.0000000000000000     
  -3.0250869545247111E-002   8.0107579526400033E-002   0.0000000000000000     
  -2.8964531244099766E-002   5.7172750561568050E-002   0.0000000000000000     
  -3.0509352253691929E-002   6.2730959430088815E-002   0.0000000000000000     
  -3.2005697172638417E-002   6.8470570817599025E-002   0.0000000000000000     
  -3.3453566000939211E-002   7.4391584724098681E-002   0.0000000000000000     
  -3.4852958738594321E-002   8.0494001149587768E-002   0.0000000000000000     
  -1.6963730869549675E-002   7.9259943817980266E-002   0.0000000000000000     
  -1.7638520370951198E-002   8.5579133699086915E-002   0.0000000000000000     
  -1.8286105447865797E-002   9.2057066492043926E-002   0.0000000000000000     
  -1.8906486100293461E-002   9.8693742196851272E-002   0.0000000000000000     
  -1.9499662328234198E-002  0.10548916081350902        0.0000000000000000     
  -2.1306255610724776E-002   7.9490550860596310E-002   0.0000000000000000     
  -2.2150249661246534E-002   8.5801632215986606E-002   0.0000000000000000     
  -2.2960121338286538E-002   9.2270828562832544E-002   0.0000000000000000     
  -2.3735870641844809E-002   9.8898139901134136E-002   0.0000000000000000     
  -2.4477497571921327E-002  0.10568356623089133        0.0000000000000000     
  -2.5735301835957257E-002   7.9773096096736246E-002   0.0000000000000000     
  -2.6747996835991997E-002   8.6073634493063642E-002   0.0000000000000000     
  -2.7719941352930128E-002   9.2531965253132772E-002   0.0000000000000000     
  -2.8651135386771637E-002   9.9148088376943597E-002   0.0000000000000000     
  -2.9541578937516536E-002  0.10592200386449613        0.0000000000000000     
  -3.0250869545247111E-002   8.0107579526400033E-002   0.0000000000000000     
  -3.1431761895187600E-002   8.6395140530318021E-002   0.0000000000000000     
  -3.2565565491796553E-002   9.2840476562944529E-002   0.0000000000000000     
  -3.3652280335073954E-002   9.9443587624279697E-002   0.0000000000000000     
  -3.4691906425019813E-002  0.10620447371432337        0.0000000000000000     
  -3.4852958738594321E-002   8.0494001149587768E-002   0.0000000000000000     
  -3.6201544838833338E-002   8.6766150327749716E-002   0.0000000000000000     
  -3.7496993754885820E-002   9.3196362492267926E-002   0.0000000000000000     
  -3.8739305486751752E-002   9.9784637643142368E-002   0.0000000000000000     
  -3.9928480034431169E-002  0.10653097578037310        0.0000000000000000     
  -1.9499662328234198E-002  0.10548916081350902        0.0000000000000000     
  -2.0067459786459053E-002  0.11243141440765898        0.0000000000000000     
  -2.0611704129739082E-002  0.11950859504494310        0.0000000000000000     
  -2.1132395358074284E-002  0.12672070272536132        0.0000000000000000     
  -2.1629533471464651E-002  0.13406773744891365        0.0000000000000000     
  -2.4477497571921327E-002  0.10568356623089133        0.0000000000000000     
  -2.5187552467164462E-002  0.11261585917205164        0.0000000000000000     
  -2.5868585666222559E-002  0.11968377034456243        0.0000000000000000     
  -2.6520597169095619E-002  0.12688729974842378        0.0000000000000000     
  -2.7143586975783646E-002  0.13422644738363565        0.0000000000000000     
  -2.9541578937516536E-002  0.10592200386449613        0.0000000000000000     
  -3.0394343562974921E-002  0.11284274549445811        0.0000000000000000     
  -3.1212500820956897E-002  0.11989934704549728        0.0000000000000000     
  -3.1996050711462463E-002  0.12709180851761365        0.0000000000000000     
  -3.2744993234491628E-002  0.13442012991080723        0.0000000000000000     
  -3.4691906425019813E-002  0.10620447371432337        0.0000000000000000     
  -3.5687833073890431E-002  0.11311207337487844        0.0000000000000000     
  -3.6643449593942092E-002  0.12015532514774764        0.0000000000000000     
  -3.7558755985174823E-002  0.12733422903293098        0.0000000000000000     
  -3.8433752247588597E-002  0.13464878503042849        0.0000000000000000     
  -3.9928480034431169E-002  0.10653097578037310        0.0000000000000000     
  -4.1068020999910991E-002  0.11342384281331264        0.0000000000000000     
  -4.2161431985178160E-002  0.12045170465131350        0.0000000000000000     
  -4.3208712990232670E-002  0.12761456129437573        0.0000000000000000     
  -4.4209864015074540E-002  0.13491241274249932        0.0000000000000000     
  -2.1629533471464651E-002  0.13406773744891365        0.0000000000000000     
  -2.2098801546954122E-002  0.14154004572317444        0.0000000000000000     
  -2.2535882661586643E-002  0.14912797405571795        0.0000000000000000     
  -2.2940776815362211E-002  0.15683152244654419        0.0000000000000000     
  -2.3313484008280823E-002  0.16465069089565315        0.0000000000000000     
  -2.7143586975783646E-002  0.13422644738363565        0.0000000000000000     
  -2.7732623306395306E-002  0.14168807033854439        0.0000000000000000     
  -2.8282774381039256E-002  0.14925902570149641        0.0000000000000000     
  -2.8794040199715494E-002  0.15693931347249165        0.0000000000000000     
  -2.9266420762424021E-002  0.16472893365153013        0.0000000000000000     
  -3.2744993234491628E-002  0.13442012991080723        0.0000000000000000     
  -3.3453817266626253E-002  0.14186942556834820        0.0000000000000000     
  -3.4117011684448188E-002  0.14942480983350664        0.0000000000000000     
  -3.4734576487957455E-002  0.15708628270628255        0.0000000000000000     
  -3.5306511677154019E-002  0.16485384418667604        0.0000000000000000     
  -3.8433752247588597E-002  0.13464878503042849        0.0000000000000000     
  -3.9262383427646964E-002  0.14208411141258578        0.0000000000000000     
  -4.0038594571813448E-002  0.14962532645174861        0.0000000000000000     
  -4.0762385680088067E-002  0.15727243014791700        0.0000000000000000     
  -4.1433756752470817E-002  0.16502542250109087        0.0000000000000000     
  -4.4209864015074540E-002  0.13491241274249932        0.0000000000000000     
  -4.5158321789457438E-002  0.14233212787125724        0.0000000000000000     
  -4.6047523043135044E-002  0.14986057555622240        0.0000000000000000     
  -4.6877467776107372E-002  0.15749775579739486        0.0000000000000000     
  -4.7648155988374408E-002  0.16524366859477463        0.0000000000000000     
   0.0000000000000000        0.0000000000000000        0.0000000000000000     
  -1.7983409965531179E-003   1.2768518086508900E-003   0.0000000000000000     
  -3.6213567331138800E-003   2.9391890887785752E-003   0.0000000000000000     
  -5.4690472096822857E-003   4.9870118403830552E-003   0.0000000000000000     
  -7.3414124262583362E-003   7.4203200634643321E-003   0.0000000000000000     
   0.0000000000000000        0.0000000000000000        0.0000000000000000     
  -2.0694662990415938E-003   1.3549418944228003E-003   0.0000000000000000     
  -4.1640871486210238E-003   3.0939875462427900E-003   0.0000000000000000     
  -6.2838625487382904E-003   5.2171369554599679E-003   0.0000000000000000     
  -8.4287924993933956E-003   7.7243901220743379E-003   0.0000000000000000     
   0.0000000000000000        0.0000000000000000        0.0000000000000000     
  -2.3401308043853731E-003   1.4589746018128407E-003   0.0000000000000000     
  -4.7202149440638925E-003   3.2998358805151262E-003   0.0000000000000000     
  -7.1402524190355612E-003   5.5225838361068567E-003   0.0000000000000000     
  -9.6002432293003752E-003   8.1272184685880315E-003   0.0000000000000000     
   0.0000000000000000        0.0000000000000000        0.0000000000000000     
  -2.6103345125844560E-003   1.5889499308210115E-003   0.0000000000000000     
  -5.2897401194424874E-003   3.5567340915955846E-003   0.0000000000000000     
  -8.0382168205740956E-003   5.9033524823237198E-003   0.0000000000000000     
  -1.0855764615979280E-002   8.6288051030054182E-003   0.0000000000000000     
   0.0000000000000000        0.0000000000000000        0.0000000000000000     
  -2.8800774236388419E-003   1.7448678814473129E-003   0.0000000000000000     
  -5.8726626747568076E-003   3.8646821794841657E-003   0.0000000000000000     
  -8.9777557533538953E-003   6.3594428941105580E-003   0.0000000000000000     
  -1.2195356659430109E-002   9.2291500253264894E-003   0.0000000000000000     
  -7.3414124262583362E-003   7.4203200634643321E-003   0.0000000000000000     
  -9.2307973324085076E-003   1.0186701530443900E-002   0.0000000000000000     
  -1.1129546877699268E-002   1.3233744013743252E-002   0.0000000000000000     
  -1.3037661062130623E-002   1.6561447513362398E-002   0.0000000000000000     
  -1.4955139885702575E-002   2.0169812029301327E-002   0.0000000000000000     
  -8.4287924993933956E-003   7.7243901220743379E-003   0.0000000000000000     
  -1.0590588641399917E-002   1.0558315042843155E-002   0.0000000000000000     
  -1.2760962615571442E-002   1.3661479714523677E-002   0.0000000000000000     
  -1.4939914421907967E-002   1.7033884137115901E-002   0.0000000000000000     
  -1.7127444060409495E-002   2.0675528310619841E-002   0.0000000000000000     
  -9.6002432293003752E-003   8.1272184685880315E-003   0.0000000000000000     
  -1.2076674321125264E-002   1.1046359152488460E-002   0.0000000000000000     
  -1.4546032640777157E-002   1.4212625262337944E-002   0.0000000000000000     
  -1.7008318188256055E-002   1.7626016798136482E-002   0.0000000000000000     
  -1.9463530963561949E-002   2.1286533759884079E-002   0.0000000000000000     
  -1.0855764615979280E-002   8.6288051030054182E-003   0.0000000000000000     
  -1.3689054371584550E-002   1.1650833859379813E-002   0.0000000000000000     
  -1.6484756953316415E-002   1.4887180657186054E-002   0.0000000000000000     
  -1.9242872361174879E-002   1.8337845496424126E-002   0.0000000000000000     
  -2.1963400595159936E-002   2.2002828377094046E-002   0.0000000000000000     
  -1.2195356659430109E-002   9.2291500253264894E-003   0.0000000000000000     
  -1.5427728792777774E-002   1.2371739163517219E-002   0.0000000000000000     
  -1.8577135553189218E-002   1.5685145899068005E-002   0.0000000000000000     
  -2.1643576940664447E-002   1.9169370231978847E-002   0.0000000000000000     
  -2.4627052955203451E-002   2.2824412162249747E-002   0.0000000000000000     
  -1.4955139885702575E-002   2.0169812029301327E-002   0.0000000000000000     
  -1.6856623103523372E-002   2.4030249339950831E-002   0.0000000000000000     
  -1.8716750470701281E-002   2.8114171223701693E-002   0.0000000000000000     
  -2.0535521987236294E-002   3.2421577680553912E-002   0.0000000000000000     
  -2.2312937653128410E-002   3.6952468710507475E-002   0.0000000000000000     
  -1.7127444060409495E-002   2.0675528310619841E-002   0.0000000000000000     
  -1.9292246930000052E-002   2.4558758233142835E-002   0.0000000000000000     
  -2.1403018429603668E-002   2.8655919902792232E-002   0.0000000000000000     
  -2.3459758559220330E-002   3.2967013319568042E-002   0.0000000000000000     
  -2.5462467318850053E-002   3.7492038483470269E-002   0.0000000000000000     
  -1.9463530963561949E-002   2.1286533759884079E-002   0.0000000000000000     
  -2.1883310618455231E-002   2.5175386930284857E-002   0.0000000000000000     
  -2.4239296804696261E-002   2.9273787092042938E-002   0.0000000000000000     
  -2.6531489522285047E-002   3.3581734245158326E-002   0.0000000000000000     
  -2.8759888771221587E-002   3.8099228389631028E-002   0.0000000000000000     
  -2.1963400595159936E-002   2.2002828377094046E-002   0.0000000000000000     
  -2.4629814168888892E-002   2.5880135431376902E-002   0.0000000000000000     
  -2.7225585595979061E-002   2.9967772791453809E-002   0.0000000000000000     
  -2.9750714876430433E-002   3.4265740457324750E-002   0.0000000000000000     
  -3.2205202010243017E-002   3.8774038428989736E-002   0.0000000000000000     
  -2.4627052955203451E-002   2.2824412162249747E-002   0.0000000000000000     
  -2.7531757581301053E-002   2.6673003736418979E-002   0.0000000000000000     
  -3.0361884803452067E-002   3.0737877001024837E-002   0.0000000000000000     
  -3.3117434621656498E-002   3.5019031956067315E-002   0.0000000000000000     
  -3.5798407035914338E-002   3.9516468601546402E-002   0.0000000000000000     
  -2.2312937653128410E-002   3.6952468710507475E-002   0.0000000000000000     
  -2.4046215557992124E-002   4.1698211313576948E-002   0.0000000000000000     
  -2.5732573791441921E-002   4.6650172489776875E-002   0.0000000000000000     
  -2.7372012353477804E-002   5.1808352239107236E-002   0.0000000000000000     
  -2.8964531244099766E-002   5.7172750561568050E-002   0.0000000000000000     
  -2.5462467318850053E-002   3.7492038483470269E-002   0.0000000000000000     
  -2.7411971109942933E-002   4.2227027473871415E-002   0.0000000000000000     
  -2.9309096333949066E-002   4.7168012370144001E-002   0.0000000000000000     
  -3.1153842990868454E-002   5.2314993172288014E-002   0.0000000000000000     
  -3.2946211080701102E-002   5.7667969880303462E-002   0.0000000000000000     
  -2.8759888771221587E-002   3.8099228389631028E-002   0.0000000000000000     
  -3.0926963092269600E-002   4.2823726230464584E-002   0.0000000000000000     
  -3.3035181026192802E-002   4.7752684472662586E-002   0.0000000000000000     
  -3.5084542572991179E-002   5.2886103116225019E-002   0.0000000000000000     
  -3.7075047732664762E-002   5.8223982161151884E-002   0.0000000000000000     
  -3.2205202010243017E-002   3.8774038428989736E-002   0.0000000000000000     
  -3.4591191504972148E-002   4.3488307583356464E-002   0.0000000000000000     
  -3.6910827868173138E-002   4.8404188797332624E-002   0.0000000000000000     
  -3.9164111099846008E-002   5.3521682070918244E-002   0.0000000000000000     
  -4.1351041199990730E-002   5.8840787404113318E-002   0.0000000000000000     
  -3.5798407035914338E-002   3.9516468601546402E-002   0.0000000000000000     
  -3.8404656348050542E-002   4.4220771532547040E-002   0.0000000000000000     
  -4.0936036859890057E-002   4.9122525344154143E-002   0.0000000000000000     
  -4.3392548571432890E-002   5.4221730036367724E-002   0.0000000000000000     
  -4.5774191482679041E-002   5.9518385609187777E-002   0.0000000000000000     
  -2.8964531244099766E-002   5.7172750561568050E-002   0.0000000000000000     
  -3.0509352253691929E-002   6.2730959430088815E-002   0.0000000000000000     
  -3.2005697172638417E-002   6.8470570817599025E-002   0.0000000000000000     
  -3.3453566000939211E-002   7.4391584724098681E-002   0.0000000000000000     
  -3.4852958738594321E-002   8.0494001149587768E-002   0.0000000000000000     
  -3.2946211080701102E-002   5.7667969880303462E-002   0.0000000000000000     
  -3.4684811064692449E-002   6.3213928944792872E-002   0.0000000000000000     
  -3.6368253404087961E-002   6.8939856816358808E-002   0.0000000000000000     
  -3.7996538098887617E-002   7.4845753495001263E-002   0.0000000000000000     
  -3.9569665149091438E-002   8.0931618980720224E-002   0.0000000000000000     
  -3.7075047732664762E-002   5.8223982161151884E-002   0.0000000000000000     
  -3.9005482755821018E-002   6.3753795899925345E-002   0.0000000000000000     
  -4.0874633893067461E-002   6.9463018625027545E-002   0.0000000000000000     
  -4.2682501144404111E-002   7.5351650336458506E-002   0.0000000000000000     
  -4.4429084509830942E-002   8.1419691034218242E-002   0.0000000000000000     
  -4.1351041199990730E-002   5.8840787404113318E-002   0.0000000000000000     
  -4.3471367327077626E-002   6.4350560295486192E-002   0.0000000000000000     
  -4.5524838639576938E-002   7.0040056243605237E-002   0.0000000000000000     
  -4.7511455137488681E-002   7.5909275248470451E-002   0.0000000000000000     
  -4.9431216820812855E-002   8.1958217310081835E-002   0.0000000000000000     
  -4.5774191482679041E-002   5.9518385609187777E-002   0.0000000000000000     
  -4.8082464778462272E-002   6.5004222131475442E-002   0.0000000000000000     
  -5.0318867643616365E-002   7.0670969672091868E-002   0.0000000000000000     
  -5.2483400078141333E-002   7.6518628231037056E-002   0.0000000000000000     
  -5.4576062082037170E-002   8.2547197808310990E-002   0.0000000000000000     
  -3.4852958738594321E-002   8.0494001149587768E-002   0.0000000000000000     
  -3.6201544838833338E-002   8.6766150327749716E-002   0.0000000000000000     
  -3.7496993754885820E-002   9.3196362492267926E-002   0.0000000000000000     
  -3.8739305486751752E-002   9.9784637643142368E-002   0.0000000000000000     
  -3.9928480034431169E-002  0.10653097578037310        0.0000000000000000     
  -3.9569665149091438E-002   8.0931618980720224E-002   0.0000000000000000     
  -4.1085667451816223E-002   8.7186640040042299E-002   0.0000000000000000     
  -4.2542577904178820E-002   9.3600003439494150E-002   0.0000000000000000     
  -4.3940396506179223E-002  0.10017170917907575        0.0000000000000000     
  -4.5279123257817439E-002  0.10690175725878708        0.0000000000000000     
  -4.4429084509830942E-002   8.1419691034218242E-002   0.0000000000000000     
  -4.6112451519023295E-002   8.7656585821879379E-002   0.0000000000000000     
  -4.7730669701656507E-002   9.4051779803014560E-002   0.0000000000000000     
  -4.9283739057730550E-002  0.10060527297762381        0.0000000000000000     
  -5.0771659587245457E-002  0.10731706534570710        0.0000000000000000     
  -4.9431216820812855E-002   8.1958217310081835E-002   0.0000000000000000     
  -5.1281897040454542E-002   8.8175987673260889E-002   0.0000000000000000     
  -5.3061269147318839E-002   9.4551691582829153E-002   0.0000000000000000     
  -5.4769333141405731E-002  0.10108532903878659        0.0000000000000000     
  -5.6406089022715218E-002  0.10777690004113320        0.0000000000000000     
  -5.4576062082037170E-002   8.2547197808310990E-002   0.0000000000000000     
  -5.6594004016109957E-002   8.8744845594186897E-002   0.0000000000000000     
  -5.8534376241165829E-002   9.5099738778937917E-002   0.0000000000000000     
  -6.0397178757204746E-002  0.10161187736256405        0.0000000000000000     
  -6.2182411564226742E-002  0.10828126134506534        0.0000000000000000     
  -3.9928480034431169E-002  0.10653097578037310        0.0000000000000000     
  -4.1068020999910991E-002  0.11342384281331264        0.0000000000000000     
  -4.2161431985178160E-002  0.12045170465131350        0.0000000000000000     
  -4.3208712990232670E-002  0.12761456129437573        0.0000000000000000     
  -4.4209864015074540E-002  0.13491241274249932        0.0000000000000000     
  -4.5279123257817439E-002  0.10690175725878708        0.0000000000000000     
  -4.6562407313683239E-002  0.11377812124283161        0.0000000000000000     
  -4.7793897828366398E-002  0.12078877469541270        0.0000000000000000     
  -4.8973594801866922E-002  0.12793371761653041        0.0000000000000000     
  -5.0101498234184819E-002  0.13521295000618469        0.0000000000000000     
  -5.0771659587245457E-002  0.10731706534570710        0.0000000000000000     
  -5.2198491987853791E-002  0.11417497609650626        0.0000000000000000     
  -5.3568296957208113E-002  0.12116682441926302        0.0000000000000000     
  -5.4881074495308435E-002  0.12829261031397743        0.0000000000000000     
  -5.6136824602154772E-002  0.13555233378064943        0.0000000000000000     
  -5.6406089022715218E-002  0.10777690004113320        0.0000000000000000     
  -5.7976275022422655E-002  0.11461440737433663        0.0000000000000000     
  -5.9484629371703318E-002  0.12158585382286451        0.0000000000000000     
  -6.0931152070557243E-002  0.12869123938671681        0.0000000000000000     
  -6.2315843118984415E-002  0.13593056406589357        0.0000000000000000     
  -6.2182411564226742E-002  0.10828126134506534        0.0000000000000000     
  -6.3895756417389829E-002  0.11509641507632272        0.0000000000000000     
  -6.5542895071852000E-002  0.12204586290621712        0.0000000000000000     
  -6.7123827527613311E-002  0.12912960483474858        0.0000000000000000     
  -6.8638553784673734E-002  0.13634764086191709        0.0000000000000000     
  -4.4209864015074540E-002  0.13491241274249932        0.0000000000000000     
  -4.5158321789457438E-002  0.14233212787125724        0.0000000000000000     
  -4.6047523043135044E-002  0.14986057555622240        0.0000000000000000     
  -4.6877467776107372E-002  0.15749775579739486        0.0000000000000000     
  -4.7648155988374408E-002  0.16524366859477463        0.0000000000000000     
  -5.0101498234184819E-002  0.13521295000618469        0.0000000000000000     
  -5.1170575115844490E-002  0.14261529596893180        0.0000000000000000     
  -5.2173792437370338E-002  0.15012957960932799        0.0000000000000000     
  -5.3111150198762384E-002  0.15775580092737321        0.0000000000000000     
  -5.3982648400020615E-002  0.16549395992306754        0.0000000000000000     
  -5.6136824602154772E-002  0.13555233378064943        0.0000000000000000     
  -5.7328086170594927E-002  0.14293543673017883        0.0000000000000000     
  -5.8447398093476724E-002  0.15043136107346530        0.0000000000000000     
  -5.9494760370800169E-002  0.15804010681050901        0.0000000000000000     
  -6.0470173002565270E-002  0.16576167394130975        0.0000000000000000     
  -6.2315843118984415E-002  0.13593056406589357        0.0000000000000000     
  -6.3630854953708751E-002  0.14329255015499825        0.0000000000000000     
  -6.4868340011454181E-002  0.15076591994863450        0.0000000000000000     
  -6.6028298292220719E-002  0.15835067344680218        0.0000000000000000     
  -6.7110729796008350E-002  0.16604681064950144        0.0000000000000000     
  -6.8638553784673734E-002  0.13634764086191709        0.0000000000000000     
  -7.0078881465185969E-002  0.14368663624339018        0.0000000000000000     
  -7.1436618191302731E-002  0.15113325623483545        0.0000000000000000     
  -7.2711763963024048E-002  0.15868750083625283        0.0000000000000000     
  -7.3904318780349879E-002  0.16634937004764244        0.0000000000000000     
   0.0000000000000000        0.0000000000000000        0.0000000000000000     
  -2.8800774236388419E-003   1.7448678814473129E-003   0.0000000000000000     
  -5.8726626747568076E-003   3.8646821794841657E-003   0.0000000000000000     
  -8.9777557533538953E-003   6.3594428941105580E-003   0.0000000000000000     
  -1.2195356659430109E-002   9.2291500253264894E-003   0.0000000000000000     
   0.0000000000000000        0.0000000000000000        0.0000000000000000     
  -3.2832064103718766E-003   1.9993828720593935E-003   0.0000000000000000     
  -6.6769648079817254E-003   4.3309864510502078E-003   0.0000000000000000     
  -1.0181275192829549E-002   6.9948107369724446E-003   0.0000000000000000     
  -1.3796137564915344E-002   9.9908557298261039E-003   0.0000000000000000     
   0.0000000000000000        0.0000000000000000        0.0000000000000000     
  -3.9535683456069053E-003   2.4251493210249021E-003   0.0000000000000000     
  -7.9106287170921195E-003   5.0629532131630543E-003   0.0000000000000000     
  -1.1871181114455643E-002   7.9134116764144561E-003   0.0000000000000000     
  -1.5835225537697471E-002   1.0976524710779107E-002   0.0000000000000000     
   0.0000000000000000        0.0000000000000000        0.0000000000000000     
  -4.8911632293439297E-003   3.0221672283438396E-003   0.0000000000000000     
  -9.5736544020879888E-003   6.0605824658227043E-003   0.0000000000000000     
  -1.4047473518232179E-002   9.1152457124365933E-003   0.0000000000000000     
  -1.8312620577776498E-002   1.2186156968185508E-002   0.0000000000000000     
   0.0000000000000000        0.0000000000000000        0.0000000000000000     
  -6.0959910615829473E-003   3.7904365940162046E-003   0.0000000000000000     
  -1.1666041862969332E-002   7.3238742090291561E-003   0.0000000000000000     
  -1.6710152404159153E-002   1.0600312845038855E-002   0.0000000000000000     
  -2.1228322685152408E-002   1.3619752502045302E-002   0.0000000000000000     
  -1.2195356659430109E-002   9.2291500253264894E-003   0.0000000000000000     
  -1.5427728792777774E-002   1.2371739163517219E-002   0.0000000000000000     
  -1.8577135553189218E-002   1.5685145899068005E-002   0.0000000000000000     
  -2.1643576940664447E-002   1.9169370231978847E-002   0.0000000000000000     
  -2.4627052955203451E-002   2.2824412162249747E-002   0.0000000000000000     
  -1.3796137564915344E-002   9.9908557298261039E-003   0.0000000000000000     
  -1.7404451894477039E-002   1.3221143792232553E-002   0.0000000000000000     
  -2.0889118151752557E-002   1.6587697286813169E-002   0.0000000000000000     
  -2.4250136336741907E-002   2.0090516213567944E-002   0.0000000000000000     
  -2.7487506449445080E-002   2.3729600572496883E-002   0.0000000000000000     
  -1.5835225537697471E-002   1.0976524710779107E-002   0.0000000000000000     
  -1.9730977986454460E-002   1.4211116472857697E-002   0.0000000000000000     
  -2.3486654460363448E-002   1.7576011119250900E-002   0.0000000000000000     
  -2.7102254959424435E-002   2.1071208649958730E-002   0.0000000000000000     
  -3.0577779483637421E-002   2.4696709064981174E-002   0.0000000000000000     
  -1.8312620577776498E-002   1.2186156968185508E-002   0.0000000000000000     
  -2.2407307068710032E-002   1.5341657205392647E-002   0.0000000000000000     
  -2.6369744479021868E-002   1.8650087396381212E-002   0.0000000000000000     
  -3.0199932808712016E-002   2.2111447541151203E-002   0.0000000000000000     
  -3.3897872057780470E-002   2.5725737639702616E-002   0.0000000000000000     
  -2.1228322685152408E-002   1.3619752502045302E-002   0.0000000000000000     
  -2.5433439141243755E-002   1.6612765989837412E-002   0.0000000000000000     
  -2.9538388207727841E-002   1.9809926118204098E-002   0.0000000000000000     
  -3.3543169884604665E-002   2.3211232887145366E-002   0.0000000000000000     
  -3.7447784171874221E-002   2.6816686296661212E-002   0.0000000000000000     
  -2.4627052955203451E-002   2.2824412162249747E-002   0.0000000000000000     
  -2.7531757581301053E-002   2.6673003736418979E-002   0.0000000000000000     
  -3.0361884803452067E-002   3.0737877001024837E-002   0.0000000000000000     
  -3.3117434621656498E-002   3.5019031956067315E-002   0.0000000000000000     
  -3.5798407035914338E-002   3.9516468601546402E-002   0.0000000000000000     
  -2.7487506449445080E-002   2.3729600572496883E-002   0.0000000000000000     
  -3.0624302211720252E-002   2.7547496014275037E-002   0.0000000000000000     
  -3.3683597345425580E-002   3.1586748189577456E-002   0.0000000000000000     
  -3.6665391850561078E-002   3.5847357098404135E-002   0.0000000000000000     
  -3.9569685727126720E-002   4.0329322740755069E-002   0.0000000000000000     
  -3.0577779483637421E-002   2.4696709064981174E-002   0.0000000000000000     
  -3.3942609416175037E-002   2.8497116433809030E-002   0.0000000000000000     
  -3.7226126140209891E-002   3.2517034825933086E-002   0.0000000000000000     
  -4.0428329655741994E-002   3.6756464241353329E-002   0.0000000000000000     
  -4.3549219962771335E-002   4.1215404680069775E-002   0.0000000000000000     
  -3.3897872057780470E-002   2.5725737639702616E-002   0.0000000000000000     
  -3.7486679194665404E-002   2.9521864995020956E-002   0.0000000000000000     
  -4.0989471187805007E-002   3.3528736910091728E-002   0.0000000000000000     
  -4.4406248037199267E-002   3.7746353384914902E-002   0.0000000000000000     
  -4.7737009742848190E-002   4.2174714419490521E-002   0.0000000000000000     
  -3.7447784171874221E-002   2.6816686296661212E-002   0.0000000000000000     
  -4.1256511547191364E-002   3.0621741697910820E-002   0.0000000000000000     
  -4.4973632488210916E-002   3.4621854442053374E-002   0.0000000000000000     
  -4.8599146994932889E-002   3.8817024529088875E-002   0.0000000000000000     
  -5.2133055067357270E-002   4.3207251959017312E-002   0.0000000000000000     
  -3.5798407035914338E-002   3.9516468601546402E-002   0.0000000000000000     
  -3.8404656348050542E-002   4.4220771532547040E-002   0.0000000000000000     
  -4.0936036859890057E-002   4.9122525344154143E-002   0.0000000000000000     
  -4.3392548571432890E-002   5.4221730036367724E-002   0.0000000000000000     
  -4.5774191482679041E-002   5.9518385609187777E-002   0.0000000000000000     
  -3.9569685727126720E-002   4.0329322740755069E-002   0.0000000000000000     
  -4.2393730133382337E-002   4.5019076264129543E-002   0.0000000000000000     
  -4.5134776227587714E-002   4.9903048816026842E-002   0.0000000000000000     
  -4.7792824009742850E-002   5.4981240396446973E-002   0.0000000000000000     
  -5.0367873479847752E-002   6.0253651005389916E-002   0.0000000000000000     
  -4.3549219962771335E-002   4.1215404680069775E-002   0.0000000000000000     
  -4.6584785372845036E-002   4.5881179964197223E-002   0.0000000000000000     
  -4.9531014197510215E-002   5.0741113915850483E-002   0.0000000000000000     
  -5.2387906436766843E-002   5.5795206535029562E-002   0.0000000000000000     
  -5.5155462090614955E-002   6.1043457821734433E-002   0.0000000000000000     
  -4.7737009742848190E-002   4.2174714419490521E-002   0.0000000000000000     
  -5.0977822066438666E-002   4.6807082632750081E-002   0.0000000000000000     
  -5.4124750769657559E-002   5.1636720643625053E-002   0.0000000000000000     
  -5.7177795852504897E-002   5.6663628452115478E-002   0.0000000000000000     
  -6.0136957314980657E-002   6.1887806058221327E-002   0.0000000000000000     
  -5.2133055067357270E-002   4.3207251959017312E-002   0.0000000000000000     
  -5.5572840214163192E-002   4.7796784269788083E-002   0.0000000000000000     
  -5.8915985944029768E-002   5.2589868999350552E-002   0.0000000000000000     
  -6.2162492256956990E-002   5.7586506147704726E-002   0.0000000000000000     
  -6.5312359152944865E-002   6.2786695714850599E-002   0.0000000000000000     
  -4.5774191482679041E-002   5.9518385609187777E-002   0.0000000000000000     
  -4.8082464778462272E-002   6.5004222131475442E-002   0.0000000000000000     
  -5.0318867643616365E-002   7.0670969672091868E-002   0.0000000000000000     
  -5.2483400078141333E-002   7.6518628231037056E-002   0.0000000000000000     
  -5.4576062082037170E-002   8.2547197808310990E-002   0.0000000000000000     
  -5.0367873479847752E-002   6.0253651005389916E-002   0.0000000000000000     
  -5.2863103832093111E-002   6.5714134037826444E-002   0.0000000000000000     
  -5.5281694260669589E-002   7.1356542888727323E-002   0.0000000000000000     
  -5.7623644765577235E-002   7.7180877558092498E-002   0.0000000000000000     
  -5.9888955346816007E-002   8.3187138045922038E-002   0.0000000000000000     
  -5.5155462090614955E-002   6.1043457821734433E-002   0.0000000000000000     
  -5.7837613210088248E-002   6.6479648644472589E-002   0.0000000000000000     
  -6.0438291846220432E-002   7.2097559871751440E-002   0.0000000000000000     
  -6.2957497999011500E-002   7.7897191503571023E-002   0.0000000000000000     
  -6.5395231668461479E-002   8.3878543539931294E-002   0.0000000000000000     
  -6.0136957314980657E-002   6.1887806058221327E-002   0.0000000000000000     
  -6.3005992912447698E-002   6.7300765951413863E-002   0.0000000000000000     
  -6.5788660400268886E-002   7.2894020621164263E-002   0.0000000000000000     
  -6.8484959778444168E-002   7.8667570067472561E-002   0.0000000000000000     
  -7.1094891046973585E-002   8.4621414290338731E-002   0.0000000000000000     
  -6.5312359152944865E-002   6.2786695714850599E-002   0.0000000000000000     
  -6.8368242939171486E-002   6.8177485958650252E-002   0.0000000000000000     
  -7.1332799922814924E-002   7.3745925136965776E-002   0.0000000000000000     
  -7.4206030103875206E-002   7.9492013249797155E-002   0.0000000000000000     
  -7.6987933482352333E-002   8.5415750297144377E-002   0.0000000000000000     
  -5.4576062082037170E-002   8.2547197808310990E-002   0.0000000000000000     
  -5.6594004016109957E-002   8.8744845594186897E-002   0.0000000000000000     
  -5.8534376241165829E-002   9.5099738778937917E-002   0.0000000000000000     
  -6.0397178757204746E-002  0.10161187736256405        0.0000000000000000     
  -6.2182411564226742E-002  0.10828126134506534        0.0000000000000000     
  -5.9888955346816007E-002   8.3187138045922038E-002   0.0000000000000000     
  -6.2074023611063005E-002   8.9362733239326517E-002   0.0000000000000000     
  -6.4175247164995369E-002   9.5695072025416508E-002   0.0000000000000000     
  -6.6192626008613045E-002  0.10218415440419203        0.0000000000000000     
  -6.8126160141916067E-002  0.10882998037565307        0.0000000000000000     
  -6.5395231668461479E-002   8.3878543539931294E-002   0.0000000000000000     
  -6.7747206990387165E-002   9.0029224263348917E-002   0.0000000000000000     
  -7.0009138100605356E-002   9.6336841956340569E-002   0.0000000000000000     
  -7.2181024999116078E-002  0.10280139661890619        0.0000000000000000     
  -7.4262867685919276E-002  0.10942288825104583        0.0000000000000000     
  -7.1094891046973585E-002   8.4621414290338731E-002   0.0000000000000000     
  -7.3613554154082370E-002   9.0744318666254140E-002   0.0000000000000000     
  -7.6036049047995768E-002   9.7025048571710099E-002   0.0000000000000000     
  -7.8362375728713768E-002  0.10346360400670662        0.0000000000000000     
  -8.0592534196236382E-002  0.11005998497124374        0.0000000000000000     
  -7.6987933482352333E-002   8.5415750297144377E-002   0.0000000000000000     
  -7.9673065102148666E-002   9.1508016448042157E-002   0.0000000000000000     
  -8.2255980007166621E-002   9.7759691871525140E-002   0.0000000000000000     
  -8.4736678197406184E-002  0.10417077656759330        0.0000000000000000     
  -8.7115159672867357E-002  0.11074127053624669        0.0000000000000000     
  -6.2182411564226742E-002  0.10828126134506534        0.0000000000000000     
  -6.3895756417389829E-002  0.11509641507632272        0.0000000000000000     
  -6.5542895071852000E-002  0.12204586290621712        0.0000000000000000     
  -6.7123827527613311E-002  0.12912960483474858        0.0000000000000000     
  -6.8638553784673734E-002  0.13634764086191709        0.0000000000000000     
  -6.8126160141916067E-002  0.10882998037565307        0.0000000000000000     
  -6.9982466727799203E-002  0.11562142725451607        0.0000000000000000     
  -7.1768162929157248E-002  0.12254737235549755        0.0000000000000000     
  -7.3483248745990146E-002  0.12960781567859744        0.0000000000000000     
  -7.5127724178297967E-002  0.13680275722381582        0.0000000000000000     
  -7.4262867685919276E-002  0.10942288825104583        0.0000000000000000     
  -7.6261936508694714E-002  0.11618987196096832        0.0000000000000000     
  -7.8185501815122044E-002  0.12309090285688243        0.0000000000000000     
  -8.0033563605201266E-002  0.13012598093878819        0.0000000000000000     
  -8.1806121878932367E-002  0.13729510620668559        0.0000000000000000     
  -8.0592534196236382E-002  0.11005998497124374        0.0000000000000000     
  -8.2734165760076347E-002  0.11680174919567941        0.0000000000000000     
  -8.4794911729746444E-002  0.12367645441037177        0.0000000000000000     
  -8.6774772105246617E-002  0.13068410061532076        0.0000000000000000     
  -8.8673746886576935E-002  0.13782468781052634        0.0000000000000000     
  -8.7115159672867357E-002  0.11074127053624669        0.0000000000000000     
  -8.9399154481944118E-002  0.11745705895864940        0.0000000000000000     
  -9.1596392673030408E-002  0.12430402701596555        0.0000000000000000     
  -9.3706874246126268E-002  0.13128217470819514        0.0000000000000000     
  -9.5730599201231656E-002  0.13839150203533818        0.0000000000000000     
  -6.8638553784673734E-002  0.13634764086191709        0.0000000000000000     
  -7.0078881465185969E-002  0.14368663624339018        0.0000000000000000     
  -7.1436618191302731E-002  0.15113325623483545        0.0000000000000000     
  -7.2711763963024048E-002  0.15868750083625283        0.0000000000000000     
  -7.3904318780349879E-002  0.16634937004764244        0.0000000000000000     
  -7.5127724178297967E-002  0.13680275722381582        0.0000000000000000     
  -7.6693011457629814E-002  0.14411728646182828        0.0000000000000000     
  -7.8170532815534863E-002  0.15153649286331053        0.0000000000000000     
  -7.9560288252013098E-002  0.15906037642826254        0.0000000000000000     
  -8.0862277767064533E-002  0.16668893715668434        0.0000000000000000     
  -8.1806121878932367E-002  0.13729510620668559        0.0000000000000000     
  -8.3494090683643565E-002  0.14458409227678631        0.0000000000000000     
  -8.5088384066663067E-002  0.15197875276530204        0.0000000000000000     
  -8.6589002027990886E-002  0.15947908767223287        0.0000000000000000     
  -8.7995944567626994E-002  0.16708509699757870        0.0000000000000000     
  -8.8673746886576935E-002  0.13782468781052634        0.0000000000000000     
  -9.0482119143227221E-002  0.14508705368826424        0.0000000000000000     
  -9.2190171944687371E-002  0.15246003594081006        0.0000000000000000     
  -9.3797905290957398E-002  0.15994363456816385        0.0000000000000000     
  -9.5305319182037287E-002  0.16753784957032547        0.0000000000000000     
  -9.5730599201231656E-002  0.13839150203533818        0.0000000000000000     
  -9.7657096836380769E-002  0.14562617069626216        0.0000000000000000     
  -9.9475896449607762E-002  0.15298034238983457        0.0000000000000000     
 -0.10118699804091263       0.16045401711605542        0.0000000000000000     
 -0.10279040161029539       0.16804719487492473        0.0000000000000000     
 </DataArray>
 <DataArray  type="Float64" Name="stress" NumberOfComponents="3" format="ascii">
   13416405520.029573        4024921656.0088720        2893823406.4861326     
   11766430256.126431        1890618798.3789287        1715765760.0417366     
   10313682338.572922        413740428.58109331        810774478.04471862     
   9058161767.3690434       -405713453.38463545        178849560.49508026     
   7999868542.5147972       -567742847.51825571       -180008992.60718071     
   10539790333.396564        3161937100.0189691        2225673935.7229419     
   9667518743.4720249        1589700438.3772142        1446683407.8669152     
   8943851753.2496338        512812442.40928793        863152527.24208486     
   8368789362.7293911       -68726887.884808064        475081293.84844977     
   7942331571.9112968       -154917552.50507641        282469707.68600988     
   8337847076.2861900        2501354122.8858571        1712332000.6815288     
   8021545682.5797310        1424663613.9041338        1275682053.6584754     
   7805226141.9279375        681245948.43796158        956885036.65043473     
   7688888454.3308086        271101126.48733950        755940949.65740657     
   7672532619.7883453        194229148.05226755        672849792.67938936     
   6810575748.6984549        2043172724.6095366        1353797601.3618944     
   6828511073.4495535        1395508324.9596879        1202761697.4164164     
   6897805504.6078300        919040946.66711044        1091972006.2697687     
   7018459042.1732903        613770589.73180699        1021428527.9219487     
   7190471686.1459322        479697254.15377426        991131262.37295854     
   5957976350.6333570        1787392905.1900072        1150070737.7640388     
   6088414916.0814867        1502234571.5438755        1227922339.1407392     
   6221589841.2893133        1226197437.0967379        1268413436.1000857     
   6357501126.2568398        959281501.84859431        1271544028.6420777     
   6496148770.9840631        701486765.79944372        1237314116.7667158     
   7999868542.5147972       -567742847.51825571       -180008992.60718071     
   7917446001.4254074       -200647337.56849813       -78306159.650431231     
   7793640311.0988636        28504341.590741158       -9167482.4605129287     
   7628451471.5351677        119712189.95946980        27407038.962578163     
   7421879482.7343130        72976207.537682056        31417404.618835483     
   7942331571.9112968       -154917552.50507641        282469707.68600988     
   7739652551.4528217        16050502.078795433        281082987.27995324     
   7513660198.1688480        109307447.24433994        265015620.51817209     
   7264354512.0593758        124853282.99155855        234267607.40066344     
   6991735493.1244049        62688009.320447922        188838947.92743254     
   7672532619.7883453        194229148.05226755        672849792.67938936     
   7400692861.1353636        184398469.62262583        589454971.39079523     
   7123609586.0685415        157089403.14684677        509263013.15757930     
   6841282794.5878811        112301948.62493205        432273917.97974443     
   6553712486.6933784        50036106.056885719        358487685.85728580     
   7190471686.1459322        479697254.15377426        991131262.37295854     
   6900566930.4730320        304396565.06299448        846809792.68209147     
   6623488474.7979488        171850209.29826903        723574695.45770931     
   6359236319.1206818        82058186.859598398        621425970.69980967     
   6107810463.4412327        35020497.746983767        540363618.40839458     
   6496148770.9840631        701486765.79944372        1237314116.7667158     
   6239274759.4658289        376044788.39990187        1053147451.1538440     
   6013296864.3570681        153589865.69860435        907950667.41856170     
   5818215085.6577797        34121997.695551157        801723765.56086564     
   5654029423.3679667        17641184.390746832        734466745.58076119     
   7421879482.7343130        72976207.537682056        31417404.618835483     
   7219834246.7888107       -17119967.547952652        14935305.018587206     
   7029687620.3966522       -67554110.789108753        2643852.5966683021     
   6851439603.5578365       -78326222.185783386       -5456952.6469149832     
   6685090196.2723694       -49436301.737976074       -9367110.7121730596     
   6991735493.1244049        62688009.320447922        188838947.92743254     
   6809164728.5692692        3708172.4292826653        180683664.36630479     
   6634195842.2018251       -29932070.502927303        176137402.80533510     
   6466828834.0220661       -38232719.476171732        175200163.24451762     
   6307063704.0299988       -21193774.490463734        177871945.68384701     
   6553712486.6933784        50036106.056885719        358487685.85728580     
   6388954407.3052473        21674071.493173599        353646365.07534939     
   6227501474.7391510        4329193.0029017925        351832441.11538905     
   6069353688.9950867       -1998529.4139273167        353045913.97740752     
   5914511050.0730562        2690904.2426850796        357286783.66139948     
   6107810463.4412327        35020497.746983767        540363618.40839458     
   5959203282.9967432        36777729.643719196        533823407.14571697     
   5809604518.0086336        35229679.728375435        529728967.52684021     
   5659014168.4768963        30376348.000956535        528080299.55176067     
   5507432234.4015408        22217734.461458206        528877403.22047877     
   5654029423.3679667        17641184.390746832        734466745.58076119     
   5519911355.6437559        49019146.880919218        721214790.57741058     
   5380504972.0102663        62769389.673496962        709826982.03968108     
   5235810272.4674950        58891912.768474102        700303319.96757627     
   5085827257.0154505        37386716.165860653        692643804.36108887     
   6685090196.2723694       -49436301.737976074       -9367110.7121730596     
   6509006636.9774227       -11899454.096688509       -4369509.0888618855     
   6328651175.4673748        11397719.494246721        2966581.5239825733     
   6144023811.7422190        20455219.034836292        12641161.126352632     
   5955124545.8019619        15273044.525079012        24654229.718254697     
   6307063704.0299988       -21193774.490463734        177871945.68384701     
   6133137732.4971514       -786157.52527713776        174256407.27999455     
   5956632030.7601681        11022358.759440899        173914962.16732424     
   5777546598.8190413        14231774.363687038        176847610.34584251     
   5595881436.6737642        8842089.2874357700        183054351.81555000     
   5914511050.0730562        2690904.2426850796        357286783.66139948     
   5745415821.4499035        6771237.0760512352        347032305.90983343     
   5575433034.6335735        7893042.5988183022        340987525.75111341     
   5404562689.6240597        6056320.8109829426        339152443.18523443     
   5232804786.4213638        1261071.7125401497        341527058.21220118     
   5507432234.4015408        22217734.461458206        528877403.22047877     
   5345840903.8356743        10772729.707284927        513958186.80065906     
   5185054187.0875893        2009771.0123775005        504184272.27533984     
   5025072084.1572847       -4071141.6232526302        499555659.64452213     
   4865894595.0447655       -7470008.1996090412        500072348.90820473     
   5085827257.0154505        37386716.165860653        692643804.36108887     
   4934412979.6544609        11218320.368417978        675034049.95247030     
   4785495488.1222172       -6627455.9998772144        663505201.74000907     
   4639074782.4187136       -16150612.939027548        658057259.72370839     
   4495150862.5439548       -17351150.449033260        658690223.90356302     
   5955124545.8019619        15273044.525079012        24654229.718254697     
   5779185185.9209795        9605300.1093101501        21252020.652729336     
   5604634074.3712788        8565050.1311583519        21062411.110052947     
   5431471211.1528664        12152294.590629578        24085401.090223931     
   5259696596.2657499        20367033.487753630        30320990.593235563     
   5595881436.6737642        8842089.2874357700        183054351.81555000     
   5429136983.2794371        5368820.5455141068        179711214.70765969     
   5263284482.3149881        4868726.5698580742        179722065.60346368     
   5098323933.7804203        7341807.3604633808        183086904.50295928     
   4934255337.6757336        12788062.917335510        189805731.40614948     
   5232804786.4213638        1261071.7125401497        341527058.21220118     
   5075659206.6018314        103468.77090787888        337663981.17696661     
   4918909283.3107700        264720.92417979240        337296280.62627500     
   4762555016.5481739        1744828.1723468304        340423956.56012619     
   4606596406.3140593        4543790.5154342651        347047008.97852147     
   4865894595.0447655       -7470008.1996090412        500072348.90820473     
   4718751855.8881626       -6190755.2145154476        495110320.06065059     
   4571508477.3586159       -5246966.8058860302        493785056.17848849     
   4424164459.4561415       -4638642.9736971855        496096557.26171279     
   4276719802.1807241       -4365783.7179725170        502044823.31033403     
   4495150862.5439548       -17351150.449033260        658690223.90356302     
   4358414931.1384192       -13513851.410764933        652050231.35871136     
   4221082064.4585352       -11666336.620315552        649188392.26010323     
   4083152262.5043025       -11808606.077692509        650104706.60772967     
   3944625525.2757292       -13940659.782873631        654799174.40159094     
   5259696596.2657499        20367033.487753630        30320990.593235563     
   5062831780.9696751        22174219.876951218        25624362.646546710     
   4865316854.2311773        21814368.124752760        25532958.980011117     
   4667151816.0502548        19287478.231133461        30046779.593623657     
   4468336666.4269114        14593550.196109056        39165824.487384327     
   4934255337.6757336        12788062.917335510        189805731.40614948     
   4748782480.5429316        12557401.982674837        183731108.05705625     
   4562908458.9913816        10989526.318861246        182284577.62813771     
   4376633273.0211039        8084435.9259455204        185466140.11941078     
   4189956922.6320820        3842130.8038887978        193275795.53085914     
   4606596406.3140593        4543790.5154342651        347047008.97852147     
   4432580846.3160458        2294883.9483520985        339884828.42130965     
   4258413068.9229841       -461413.93557691574        337373609.42432022     
   4084093074.1348610       -3725103.1363623142        339513351.98753816     
   3909620861.9516802       -7496183.6540162563        346304056.11098385     
   4276719802.1807241       -4365783.7179725170        502044823.31033403     
   4114226878.2890310       -8613334.2260041237        494085523.73930597     
   3951830684.0259686       -12538452.638611078        490800054.36853206     
   3789531219.3915248       -16141138.955808878        492188415.19800496     
   3627328484.3857117       -19421393.177584648        498250606.22772592     
   3944625525.2757292       -13940659.782873631        654799174.40159094     
   3793720576.4618807       -20167252.540399551        646333194.01105058     
   3643161304.3003364       -25241589.790244102        642563912.46078622     
   3492947708.7911057       -29163671.532377481        643491329.75080788     
   3343079789.9341812       -31933497.766821861        649115445.88110995     
   4468336666.4269114        14593550.196109056        39165824.487384327     
   4304406867.5087824        21253503.983716011        34688283.462178327     
   4141712856.9194751        32032752.200732470        35316406.406444587     
   3980254634.6590190        46931294.847251415        41050193.320169657     
   3820032200.7273726        65949131.923134804        51889644.203360572     
   4189956922.6320820        3842130.8038887978        193275795.53085914     
   4038392588.2149210        10451185.953873158        188846803.18005046     
   3887438927.3245082        19095819.526334047        188835788.46920383     
   3737095939.9608326        29776031.521260738        193242751.39832762     
   3587363626.1239166        42491821.938720226        202067691.96740711     
   3909620861.9516802       -7496183.6540162563        346304056.11098385     
   3768457173.9512115       -1527472.5669395924        341194311.83212316     
   3627279044.6753912        4393100.9356498718        339814858.86373323     
   3486086474.1242456        10265536.853816271        342165697.20581174     
   3344879462.2977490        16089835.187475204        348246826.85835117     
   3627328484.3857117       -19421393.177584648        498250606.22772592     
   3494600624.7176442       -14682471.578702211        491730809.41839629     
   3361233208.9721484       -12075403.571248293        488253617.59002882     
   3227226237.1492314       -11600189.155202985        487819030.74263251     
   3092579709.2488875       -13256828.330569625        490427048.87619960     
   3343079789.9341812       -31933497.766821861        649115445.88110995     
   3216822940.5142312       -29013811.081416607        640456295.93887293     
   3089301420.2147689       -30309693.994395733        634152064.64809692     
   2960515229.0358043       -35821146.505714655        630202752.00878835     
   2830464366.9773231       -45548168.615425348        628608358.02094853     
   3820032200.7273726        65949131.923134804        51889644.203360572     
   3614033168.8996086        84371948.892702341        41113968.132492438     
   3415460739.4655528        127550107.17463183        36842518.553204402     
   3224314912.4251919        195483606.76890075        39075295.465493903     
   3040595687.7785373        288172447.67547822        47812298.869358391     
   3587363626.1239166        42491821.938720226        202067691.96740711     
   3394256735.7165680        50483210.086347222        194678115.05516097     
   3206003767.8492894        74654340.034220934        193108596.31826353     
   3022604722.5220814        115005211.78230000        197359135.75669110     
   2844059599.7349396        171535825.33062351        207429733.37048656     
   3344879462.2977490        16089835.187475204        348246826.85835117     
   3162709946.6929870        13063364.527826548        341241889.27549726     
   2982821673.7746553        17641036.156286001        339372841.55175400     
   2805214643.5427523        29822850.072857022        342639683.68708521     
   2629888855.9972863        49608806.277525544        351042415.68153763     
   3092579709.2488875       -13256828.330569625        490427048.87619960     
   2919392801.8288741       -27887587.782845497        480805290.79350030     
   2745914457.2416520       -43489804.459146619        475635254.25366002     
   2572144675.4872360       -60063478.359453559        474916939.25666320     
   2398083456.5656104       -77608609.483765841        478650345.80254036     
   2830464366.9773231       -45548168.615425348        628608358.02094853     
   2664305301.1242208       -72369646.845699310        613368319.60915673     
   2495282118.2502890       -108738181.81209219        601895834.42398345     
   2323394818.3555131       -154653773.51461911        594190902.46542120     
   2148643401.4398985       -210116421.95326793        590253523.73348010     
   5957976350.6333570        1787392905.1900072        1150070737.7640388     
   6088414916.0814867        1502234571.5438755        1227922339.1407392     
   6221589841.2893133        1226197437.0967379        1268413436.1000857     
   6357501126.2568398        959281501.84859431        1271544028.6420777     
   6496148770.9840631        701486765.79944372        1237314116.7667158     
   5434671392.2954903        1630401417.6886470        1033483157.0707818     
   5489896264.0766687        1372496256.7104301        1113875137.0119245     
   5547325145.6443872        1121937795.0206814        1167481740.2417095     
   5606958036.9986467        878726032.61940086        1194302966.7601371     
   5668794938.1394463        642860969.50658846        1194338816.5672078     
   4895283383.8894424        1468585015.1668329        936366606.46494389     
   4905509212.5922327        1246997422.0330997        1018677890.0018442     
   4917406701.1084070        1030982028.2773091        1084778924.5333838     
   4930975849.4379635        820538833.89946067        1134669710.0595632     
   4946216657.5809021        615667838.89955449        1168350246.5803823     
   4339812325.4152174        1301943697.6245654        858721085.94652498     
   4335253761.6281843        1125738067.5118849        942330598.11049914     
   4331834507.6813736        953330136.86662078        1020304988.9751093     
   4329554563.5747900        784719905.68877327        1092644258.5403562     
   4328413929.3084297        619907373.97834170        1159348406.8062396     
   3768258216.8728147        1130477465.0618443        800546595.51552498     
   3779129911.1845179        1008718193.1467853        884833261.33788848     
   3790608565.3632874        888982120.78861642        974059933.56688559     
   3802694179.4091249        771269247.98733830        1068226612.2025161     
   3815386753.3220286        655579574.74295080        1167333297.2447798     
   6496148770.9840631        701486765.79944372        1237314116.7667158     
   6239274759.4658289        376044788.39990187        1053147451.1538440     
   6013296864.3570681        153589865.69860435        907950667.41856170     
   5818215085.6577797        34121997.695551157        801723765.56086564     
   5654029423.3679667        17641184.390746832        734466745.58076119     
   5668794938.1394463        642860969.50658846        1194338816.5672078     
   5518775816.3817892        383389678.60221720        1073462414.1466628     
   5392893725.9879055        204375158.91042972        980588194.31931627     
   5291148666.9577951        105817410.43122411        915716157.08516991     
   5213540639.2914639        87716433.164604902        878846302.44422269     
   4946216657.5809021        615667838.89955449        1168350246.5803823     
   4871716141.9141388        412766349.38945055        1102878508.1321807     
   4814593572.5654488        267791347.60626674        1054441252.9927900     
   4774848949.5348358        180742833.55000496        1023038481.1622102     
   4752482272.8223000        151620807.22066426        1008670192.6404419     
   4328413929.3084297        619907373.97834170        1159348406.8062396     
   4298095736.0628777        464174800.76160002        1141395733.1104004     
   4278396404.0897017        343838431.78611755        1129509843.4389839     
   4269315933.3889027        258898267.05189204        1123690737.7919884     
   4270854323.9604831        209354306.55892754        1123938416.1694150     
   3815386753.3220286        655579574.74295080        1167333297.2447798     
   3797914598.8280044        537615032.71866620        1189014089.0813210     
   3784302220.5606599        432516411.44997823        1205793965.6578948     
   3774549618.5199938        340283710.93688715        1217672926.9745042     
   3768656792.7060065        260916931.17939305        1224650973.0311453     
   5654029423.3679667        17641184.390746832        734466745.58076119     
   5519911355.6437559        49019146.880919218        721214790.57741058     
   5380504972.0102663        62769389.673496962        709826982.03968108     
   5235810272.4674950        58891912.768474102        700303319.96757627     
   5085827257.0154505        37386716.165860653        692643804.36108887     
   5213540639.2914639        87716433.164604902        878846302.44422269     
   5076971348.6397285        85410200.237799883        855188045.43354392     
   4938341811.1750565        76236477.934538126        835553361.72460151     
   4797652026.8974466        60195266.254816294        819942251.31740141     
   4654901995.8068981        37286565.198633909        808354714.21194041     
   4752482272.8223000        151620807.22066426        1008670192.6404419     
   4619631550.2033815        117481316.16498518        978371714.23483002     
   4487948649.8678646        87234566.053984165        954256235.96707368     
   4357433571.8157501        60880556.887661457        936323757.83717656     
   4228086316.0470414        38419288.666013479        924574279.84513843     
   4270854323.9604831        209354306.55892754        1123938416.1694150     
   4147891960.3347139        145232494.66247535        1090765796.9812679     
   4029325488.0886908        95763654.031836033        1065935604.7670963     
   3915154907.2224121        60947784.667012215        1049447839.5269032     
   3805380217.7358761        40784886.568002701        1041302501.2606825     
   3768656792.7060065        260916931.17939305        1224650973.0311453     
   3661752579.0337291        168663735.73026824        1192370293.6728597     
   3562472325.8375378        101823741.86809576        1170591468.1246703     
   3470816033.1174316        60396949.592875481        1159314496.3865740     
   3386783700.8734074        44383358.904597759        1158539378.4585717     
   5085827257.0154505        37386716.165860653        692643804.36108887     
   4934412979.6544609        11218320.368417978        675034049.95247030     
   4785495488.1222172       -6627455.9998772144        663505201.74000907     
   4639074782.4187136       -16150612.939027548        658057259.72370839     
   4495150862.5439548       -17351150.449033260        658690223.90356302     
   4654901995.8068981        37286565.198633909        808354714.21194041     
   4520300150.2110462        16588103.423921824        794505766.61340976     
   4387604123.0543280        2242369.7796595097        786246260.17127383     
   4256813914.3367443       -5750635.7341670990        783576194.88553345     
   4127929524.0582876       -7390913.1175503731        786495570.75618398     
   4228086316.0470414        38419288.666013479        924574279.84513843     
   4108892716.3884282        22769505.165666819        913796677.10215068     
   3991013967.7793374        11502558.497058630        908117050.47579396     
   3874450070.2197671        4618448.6601891518        907535399.96606612     
   3759201023.7097216        2117175.6550619602        912051725.57296920     
   3805380217.7358761        40784886.568002701        1041302501.2606825     
   3700190678.1866083        29762525.593652010        1032906781.4186918     
   3595725022.2972450        21153110.152329445        1029117572.6535677     
   3491983250.0677967        14956640.244050741        1029934874.9653080     
   3388965361.4982595        11173115.868807077        1035358688.3539132     
   3386783700.8734074        44383358.904597759        1158539378.4585717     
   3294194035.6055822        37567164.707871199        1151836079.5630338     
   3201737286.6080537        31194024.745472908        1149247826.7045956     
   3109413453.8808250        25263939.017405868        1150774619.8832586     
   3017222537.4238977        19776907.523679018        1156416459.0990233     
   4495150862.5439548       -17351150.449033260        658690223.90356302     
   4358414931.1384192       -13513851.410764933        652050231.35871136     
   4221082064.4585352       -11666336.620315552        649188392.26010323     
   4083152262.5043025       -11808606.077692509        650104706.60772967     
   3944625525.2757292       -13940659.782873631        654799174.40159094     
   4127929524.0582876       -7390913.1175503731        786495570.75618398     
   4000617548.1870861       -6028105.1518740654        778973695.32496572     
   3873068783.1252475       -5454594.4883236885        775493899.41375208     
   3745283228.8727665       -5670381.1269090176        776056183.02254224     
   3617260885.4296546       -6675465.0676107407        780660546.15133023     
   3759201023.7097216        2117175.6550619602        912051725.57296920     
   3642067077.8693399        1231714.8970966339        904068137.68636918     
   3525056488.9220209        757443.78268980980        900390555.39353895     
   3408169256.8677711        694362.31184172630        901018978.69448578     
   3291405381.7065930        1042470.4845612049        905953407.58920193     
   3388965361.4982595        11173115.868807077        1035358688.3539132     
   3282763520.1851683        8265608.7361388206        1027333558.4429256     
   3177045181.8488531        6969778.1927213669        1023878360.1994774     
   3071810346.4893103        7285624.2385504246        1024993093.6235687     
   2967059014.1065469        9213146.8736369610        1030677758.7151988     
   3017222537.4238977        19776907.523679018        1156416459.0990233     
   2922706875.1345806        15073576.365256906        1148769957.5946374     
   2829034861.9057426        13182408.741766691        1145957313.8315589     
   2736206497.7373862        14103404.653215051        1147978527.8097866     
   2644221782.6295152        17836564.099617004        1154833599.5293226     
   3944625525.2757292       -13940659.782873631        654799174.40159094     
   3793720576.4618807       -20167252.540399551        646333194.01105058     
   3643161304.3003364       -25241589.790244102        642563912.46078622     
   3492947708.7911057       -29163671.532377481        643491329.75080788     
   3343079789.9341812       -31933497.766821861        649115445.88110995     
   3617260885.4296546       -6675465.0676107407        780660546.15133023     
   3479139767.9162469       -10710914.371278763        773029588.27544117     
   3341254956.2032371       -13958677.673637390        770029999.45487225     
   3203606450.2906184       -16418754.974687099        771661779.68962789     
   3066194250.1783895       -18091146.274429083        777924928.97970402     
   3291405381.7065930        1042470.4845612049        905953407.58920193     
   3165881438.9651785       -857832.32378113270        899029872.90072584     
   3040484431.1722398       -2335018.6372059584        896672377.48261392     
   2915214358.3277755       -3389088.4557099342        898880921.33486617     
   2790071220.4317932       -4020041.7792845964        905655504.45748031     
   2967059014.1065469        9213146.8736369610        1030677758.7151988     
   2853945589.6086683        9391993.6020770073        1024334047.8869015     
   2740849729.2073512        9629387.3190592527        1022491046.5440143     
   2627771432.9025898        9925328.0245659351        1025148754.6865304     
   2514710700.6943965        10279815.718623400        1032307172.3144491     
   2644221782.6295152        17836564.099617004        1154833599.5293226     
   2543332219.8467188        20038563.406310081        1148942113.2339721     
   2442350850.3085670        21934540.195162058        1147486006.6390715     
   2341277674.0150561        23524494.466142893        1150465279.7446158     
   2240112690.9661932        24808426.219286084        1157879932.5506017     
   3343079789.9341812       -31933497.766821861        649115445.88110995     
   3216822940.5142312       -29013811.081416607        640456295.93887293     
   3089301420.2147689       -30309693.994395733        634152064.64809692     
   2960515229.0358043       -35821146.505714655        630202752.00878835     
   2830464366.9773231       -45548168.615425348        628608358.02094853     
   3066194250.1783895       -18091146.274429083        777924928.97970402     
   2946965861.6429582       -14910467.137547731        768743742.27952921     
   2827104196.0743346       -13840711.444623351        762553916.27332187     
   2706609253.4725232       -14881879.195656180        759355450.96109188     
   2585481033.8375192       -18033970.390669465        759148346.34282970     
   2790071220.4317932       -4020041.7792845964        905655504.45748031     
   2679689698.6166124       -32848.440178275108        896688907.15340972     
   2569306293.6145530        3948067.6093490124        891350112.58581507     
   2458921005.4256253        7922706.3693143129        889639120.75469685     
   2348533834.0498300        11891067.839707732        891555931.66005301     
   2514710700.6943965        10279815.718623400        1032307172.3144491     
   2414994451.4351883        15619045.010649800        1024291790.5605174     
   2315907712.8354273        23056643.167514324        1020540653.5855702     
   2217450484.8951163        32592610.189203143        1021053761.3896073     
   2119622767.6142533        44226946.075721979        1025831113.9726212     
   2240112690.9661932        24808426.219286084        1157879932.5506017     
   2152880120.0986924        32045213.214971423        1151552392.5008528     
   2066908453.7369592        43485015.229882002        1150125539.2725904     
   1982197691.8809934        59127832.264019608        1153599372.8658183     
   1898747834.5307941        78973664.317374706        1161973893.2805312     
   2830464366.9773231       -45548168.615425348        628608358.02094853     
   2664305301.1242208       -72369646.845699310        613368319.60915673     
   2495282118.2502890       -108738181.81209219        601895834.42398345     
   2323394818.3555131       -154653773.51461911        594190902.46542120     
   2148643401.4398985       -210116421.95326793        590253523.73348010     
   2585481033.8375192       -18033970.390669465        759148346.34282970     
   2432984080.1297474       -33268730.271281600        744542096.58101702     
   2279358613.2592793       -52265200.694212794        734003752.54677677     
   2124604633.2261105       -75023381.659477949        727533314.24009275     
   1968722140.0302415       -101543273.16706562        725130781.66096961     
   2348533834.0498300        11891067.839707732        891555931.66005301     
   2210557142.4900908        8500471.3095812798        879608341.71606040     
   2073187541.6257915        7133510.4309189320        872029010.00056577     
   1936425031.4569318        7790185.2037348747        868817936.51358354     
   1800269611.9835126        10470495.628008246        869975121.25510788     
   2119622767.6142533        44226946.075721979        1025831113.9726212     
   1997024488.2052493        52937957.896885157        1018567055.0142649     
   1876768903.3498242        69457951.563318729        1015971606.7853582     
   1758856013.0479741        93786927.075011671        1018044769.2859151     
   1643285817.2997096        125924884.43196332        1024786542.5159096     
   1898747834.5307941        78973664.317374706        1161973893.2805312     
   1792386117.2752225        100043729.49063033        1161418236.4756413     
   1690102698.4313736        134708122.70296448        1165831542.9011548     
   1591897577.9992452        182966843.95435494        1175213812.5570674     
   1497770755.9788284        244819893.24479499        1189565045.4433689     
   3768258216.8728147        1130477465.0618443        800546595.51552498     
   3779129911.1845179        1008718193.1467853        884833261.33788848     
   3790608565.3632874        888982120.78861642        974059933.56688559     
   3802694179.4091249        771269247.98733830        1068226612.2025161     
   3815386753.3220286        655579574.74295080        1167333297.2447798     
   3207797825.7789454        962339347.73368359        756687212.71115053     
   3235885062.6062493        868216869.16099048        853053105.42863405     
   3263694588.4148111        773168687.19248986        951343995.21093917     
   3291226403.2046318        677194801.82818222        1051559882.0580660     
   3318480506.9757094        580295213.06806743        1153700765.9700150     
   2685607919.6503224        805682375.89509666        721987015.07260799     
   2722296386.5880513        736612396.94321644        829400018.65176725     
   2757822471.6212292        663667811.64283144        935723009.95393646     
   2792186174.7498550        586848619.99394107        1040955988.9791155     
   2825387495.9739294        506154821.99654567        1145098955.7273047     
   2201688498.4869456        660506549.54608369        696446002.59989738     
   2238363883.1299238        613904776.49346387        813874001.00728810     
   2272992214.9825401        560479494.13964105        927196977.79587686     
   2305573494.0447969        500230702.48461550        1036414932.9656641     
   2336107720.3166914        433158401.52838665        1141527866.5166500     
   1756039562.2888153        526811868.68664461        680064175.29301870     
   1784087552.2318654        500094007.81173205        806475052.49519658     
   1809203818.4987454        463603734.68291879        925765898.73676085     
   1831388361.0894549        417341049.30020452        1037936714.0177122     
   1850641180.0039947        361305951.66358995        1142987498.3380497     
   3815386753.3220286        655579574.74295080        1167333297.2447798     
   3797914598.8280044        537615032.71866620        1189014089.0813210     
   3784302220.5606599        432516411.44997823        1205793965.6578948     
   3774549618.5199938        340283710.93688715        1217672926.9745042     
   3768656792.7060065        260916931.17939305        1224650973.0311453     
   3318480506.9757094        580295213.06806743        1153700765.9700150     
   3293830036.2404699        473077062.32245588        1182050092.2565229     
   3272920667.9743438        378329253.14055836        1207298615.6300616     
   3255752402.1773334        296051785.52237868        1229446336.0906308     
   3242325238.8494363        226244659.46791363        1248493253.6382296     
   2825387495.9739294        506154821.99654567        1145098955.7273047     
   2798701887.1317506        411226015.96988946        1179978363.7466226     
   2775638707.0011220        328371972.31506753        1213557081.1999669     
   2756197955.5820432        257592691.03208005        1245835108.0873382     
   2740379632.8745155        198888172.12092805        1276812444.4087362     
   2336107720.3166914        433158401.52838665        1141527866.5166500     
   2312530151.5018497        352061893.66096860        1182798903.5516181     
   2292456337.6409941        282644568.97350538        1224569362.3676097     
   2275886278.7341232        224906427.46599412        1266839242.9646256     
   2262819974.7812400        178847469.13843703        1309608545.3426642     
   1850641180.0039947        361305951.66358995        1142987498.3380497     
   1835314829.3507669        295584695.39569420        1190511711.6715102     
   1823373559.8939593        241147043.11586934        1240335459.1329913     
   1814817371.6335745        197992994.82411796        1292458740.7224925     
   1809646264.5696115        166122550.52043962        1346881556.4400146     
   3768656792.7060065        260916931.17939305        1224650973.0311453     
   3661752579.0337291        168663735.73026824        1192370293.6728597     
   3562472325.8375378        101823741.86809576        1170591468.1246703     
   3470816033.1174316        60396949.592875481        1159314496.3865740     
   3386783700.8734074        44383358.904597759        1158539378.4585717     
   3242325238.8494363        226244659.46791363        1248493253.6382296     
   3164976873.7860794        152075595.02399421        1231489660.9780862     
   3093655157.1093321        97995358.535448432        1222546221.6673529     
   3028360088.8191972        64003950.002273679        1221662935.7060311     
   2969091668.9156728        50101369.424472690        1228839803.0941188     
   2740379632.8745155        198888172.12092805        1276812444.4087362     
   2685610829.3895512        140710352.57305574        1273222407.6756804     
   2635271362.2017231        97296987.348978639        1275250823.8313534     
   2589361231.3110356        68648076.448697329        1282897692.8757527     
   2547880436.7174859        54763619.872209549        1296163014.8088791     
   2262819974.7812400        178847469.13843703        1309608545.3426642     
   2223654445.8441439        134568008.37745380        1317568533.7656457     
   2187320941.1147122        99728628.308689952        1328705274.6166720     
   2153819460.5929470        74329328.932142019        1343018767.8957405     
   2123150004.2788455        58370110.247810006        1360509013.6028519     
   1809646264.5696115        166122550.52043962        1346881556.4400146     
   1779107723.1498587        133648562.43718851        1364528039.2479808     
   1749803893.8482985        105290281.41457844        1382909574.0233066     
   1721734776.6649289        81047707.452606857        1402026160.7659924     
   1694900371.5997531        60920840.551276565        1421877799.4760382     
   3386783700.8734074        44383358.904597759        1158539378.4585717     
   3294194035.6055822        37567164.707871199        1151836079.5630338     
   3201737286.6080537        31194024.745472908        1149247826.7045956     
   3109413453.8808250        25263939.017405868        1150774619.8832586     
   3017222537.4238977        19776907.523679018        1156416459.0990233     
   2969091668.9156728        50101369.424472690        1228839803.0941188     
   2886285239.5023222        39078501.849930048        1221423402.1853807     
   2804006743.5855746        29815412.597394109        1218388292.0609424     
   2722256181.1654291        22312101.666867256        1219734472.7208009     
   2641033552.2418833        16568569.058342576        1225461944.1649616     
   2547880436.7174859        54763619.872209549        1296163014.8088791     
   2475617942.4363241        39762288.703171492        1288494365.3176258     
   2404278398.8780637        27837459.943807364        1285473251.3578718     
   2333861806.0427079        18989133.594126344        1287099672.9296157     
   2264368163.9302564        13217309.654121876        1293373630.0328569     
   2123150004.2788455        58370110.247810006        1360509013.6028519     
   2062192144.4075799        39618525.267584562        1353048968.9597704     
   2002552252.4855201        25260166.784710884        1350502704.5953867     
   1944230328.5126653        15295034.799187183        1352870220.5096986     
   1887226372.4890163        9723129.3110159636        1360151516.7027068     
   1694900371.5997531        60920840.551276565        1421877799.4760382     
   1646007845.4160964        38647211.543180883        1415087213.1118143     
   1598828304.4079449        22083533.120103419        1413476651.7734845     
   1553361748.5753036        11229805.282057106        1417046115.4610505     
   1509608177.9181671        6086028.0290287733        1425795604.1745129     
   3017222537.4238977        19776907.523679018        1156416459.0990233     
   2922706875.1345806        15073576.365256906        1148769957.5946374     
   2829034861.9057426        13182408.741766691        1145957313.8315589     
   2736206497.7373862        14103404.653215051        1147978527.8097866     
   2644221782.6295152        17836564.099617004        1154833599.5293226     
   2641033552.2418833        16568569.058342576        1225461944.1649616     
   2559047321.4652576        12418428.113184214        1218455144.5700190     
   2477734787.2267342        10513942.295021653        1216124852.1943197     
   2397095949.5263033        10855111.603840709        1218471067.0378618     
   2317130808.3639698        13441936.039650202        1225493789.1006491     
   2264368163.9302564        13217309.654121876        1293373630.0328569     
   2194461791.7461467        9485487.0461840630        1286808254.4045734     
   2125059163.5777504        7432811.1572841406        1284762035.4734662     
   2056160279.4250622        7059281.9874173403        1287234973.2395403     
   1987765139.2880852        8364899.5365865231        1294227067.7027934     
   1887226372.4890163        9723129.3110159636        1360151516.7027068     
   1828950285.9772425        6274753.1642463207        1353829287.0982964     
   1771007990.9587941        3939015.3285582066        1351868863.6690004     
   1713399487.4336681        2715915.8039489985        1354270246.4148238     
   1656124775.4018686        2605454.5904240608        1361033435.3357615     
   1509608177.9181671        6086028.0290287733        1425795604.1745129     
   1462512804.1585419        2786226.4673606753        1419518242.6511934     
   1415581269.3698614        32554.808835685253        1417445336.7809255     
   1368813573.5521169       -2174986.9465683699        1419576886.5637119     
   1322209716.7053103       -3836398.7988442183        1425912891.9995508     
   2644221782.6295152        17836564.099617004        1154833599.5293226     
   2543332219.8467188        20038563.406310081        1148942113.2339721     
   2442350850.3085670        21934540.195162058        1147486006.6390715     
   2341277674.0150561        23524494.466142893        1150465279.7446158     
   2240112690.9661932        24808426.219286084        1157879932.5506017     
   2317130808.3639698        13441936.039650202        1225493789.1006491     
   2227527361.4111471        14138280.840565920        1218823784.1349127     
   2137910225.8997338        14788997.112836599        1216747485.7623529     
   2048279401.8297327        15394084.856482506        1219264893.9829724     
   1958634889.2011361        15953544.071486831        1226376008.7967708     
   1987765139.2880852        8364899.5365865231        1294227067.7027934     
   1909900170.7159038        7691298.5969218016        1286869681.9628959     
   1832099631.7818913        7232463.1178289652        1284264329.7089057     
   1754363522.4860542        6988393.0993154049        1286411010.9408247     
   1676691842.8283892        6959088.5413789749        1293309725.6586549     
   1656124775.4018686        2605454.5904240608        1361033435.3357615     
   1590450647.7609811        697616.67536979914        1353079806.7179263     
   1524919067.9550333       -735061.78989195824        1350036538.4787304     
   1459530035.9840212       -1692580.8053612709        1351903630.6181762     
   1394283551.8479490       -2174940.3710359335        1358681083.1362591     
   1322209716.7053103       -3836398.7988442183        1425912891.9995508     
   1269178792.5463860       -6842764.9240738153        1417454158.4000001     
   1216368534.4191573       -9113577.6103197932        1414064112.0718255     
   1163778942.3236377       -10648836.857536077        1415742753.0150194     
   1111410016.2598150       -11448542.665762484        1422490081.2295856     
   2240112690.9661932        24808426.219286084        1157879932.5506017     
   2152880120.0986924        32045213.214971423        1151552392.5008528     
   2066908453.7369592        43485015.229882002        1150125539.2725904     
   1982197691.8809934        59127832.264019608        1153599372.8658183     
   1898747834.5307941        78973664.317374706        1161973893.2805312     
   1958634889.2011361        15953544.071486831        1226376008.7967708     
   1883495602.2259426        22310330.397984743        1221037321.8216109     
   1809323251.7755744        31890238.473908544        1220303551.1734734     
   1736117837.8500376        44693268.299263775        1224174696.8523602     
   1663879360.4493337        60719419.874065280        1232650758.8582613     
   1676691842.8283892        6959088.5413789749        1293309725.6586549     
   1612800781.1898777        12182356.631986201        1288616929.1136582     
   1549582688.0952652        19648853.202256799        1288233278.4012218     
   1487037563.5445428        29358578.252155900        1292158773.5213425     
   1425165407.5377142        41311531.781710088        1300393414.4740140     
   1394283551.8479490       -2174940.3710359335        1358681083.1362591     
   1340795656.9905097        1661291.9170102477        1354291214.3770037     
   1287686762.6960297        6760859.4149242640        1353914720.9558406     
   1234956868.9645057        13123762.122687221        1357551602.8727643     
   1182605975.7959406        20750000.040314317        1365201860.1277771     
   1111410016.2598150       -11448542.665762484        1422490081.2295856     
   1067480229.6278300       -9252863.7469657660        1418060177.6116407     
   1023635475.5778714       -6773742.8880791664        1417347878.8373208     
   979875754.10992360       -4011180.0891535282        1420353184.9066255     
   936201065.22400260       -965175.35014408827        1427076095.8195529     
   1898747834.5307941        78973664.317374706        1161973893.2805312     
   1792386117.2752225        100043729.49063033        1161418236.4756413     
   1690102698.4313736        134708122.70296448        1165831542.9011548     
   1591897577.9992452        182966843.95435494        1175213812.5570674     
   1497770755.9788284        244819893.24479499        1189565045.4433689     
   1663879360.4493337        60719419.874065280        1232650758.8582613     
   1567890007.8753819        73483955.737945914        1234028901.6852164     
   1473481178.2322428        91516901.371190429        1240333483.9544120     
   1380652871.5199161        114818256.77381623        1251564505.6658556     
   1289405087.7383919        143388021.94578132        1267721966.8195374     
   1425165407.5377142        41311531.781710088        1300393414.4740140     
   1339426923.1077979        45734089.374930084        1300791285.5384161     
   1252771186.1277823        47099138.467820287        1306073072.2569065     
   1165198196.5976675        45406679.060383201        1316238774.6294887     
   1076707954.5174627        40656711.152626395        1331288392.6561453     
   1182605975.7959406        20750000.040314317        1365201860.1277771     
   1106996862.9724643        16794130.401586890        1361705388.0352330     
   1027972722.1179873        1454833.9928516746        1363050307.8086295     
   945533553.23249936       -25267889.185919702        1369236619.4479527     
   859679356.31601024       -63374039.134688735        1380264322.9532092     
   936201065.22400260       -965175.35014408827        1427076095.8195529     
   870599827.46938825       -13335921.182075739        1416771209.1756775     
   799085786.20285606       -45416012.053734392        1411265190.6095769     
   721658941.42441523       -97205447.965094924        1410558040.1212564     
   638319293.13406467       -168704228.91615182        1414649757.7107115     
   1756039562.2888153        526811868.68664461        680064175.29301870     
   1784087552.2318654        500094007.81173205        806475052.49519658     
   1809203818.4987454        463603734.68291879        925765898.73676085     
   1831388361.0894549        417341049.30020452        1037936714.0177122     
   1850641180.0039947        361305951.66358995        1142987498.3380497     
   1326403925.9550502        397921177.78651506        669736708.68684125     
   1339611643.0615680        375533421.85609412        791882715.90609789     
   1350621741.4916749        345820270.33763677        908733904.60913754     
   1359434221.2453713        308781723.23114330        1020290274.7959603     
   1366049082.3226562        264417780.53661287        1126551826.4665658     
   890524404.38476920        267157321.31543076        662358778.31623423     
   894106741.35303044        250664138.13898411        781096371.38562226     
   896225564.64463973        229292576.04036549        896364358.38318944     
   896880874.25959778        203042635.01957506        1008162739.3089361     
   896072670.19790411        171914315.07661229        1116491514.1628625     
   448400997.57797247        134520299.27339175        657930384.18119764     
   447572847.10625243        125486156.66040209        774116018.93376911     
   446015287.95764011        114020651.79110497        888657260.05891681     
   443728320.13213551        100123784.66550013        1001554107.5566401     
   440711943.62973851        83795555.283587366        1112806561.4269392     
   33705.534659900164        10111.660397970050        656451526.28173137     
   9960.3212341559010       -522.57965209026861        770941658.55053926     
  -9088.5693245259081        4497.5898547242623        885612609.63631940     
  -23441.137016133820        25172.168918365038        1000464379.5390719     
  -33097.381840948074        61501.157538331638        1115496968.2587965     
   1850641180.0039947        361305951.66358995        1142987498.3380497     
   1835314829.3507669        295584695.39569420        1190511711.6715102     
   1823373559.8939593        241147043.11586934        1240335459.1329913     
   1814817371.6335745        197992994.82411796        1292458740.7224925     
   1809646264.5696115        166122550.52043962        1346881556.4400146     
   1366049082.3226562        264417780.53661287        1126551826.4665658     
   1360389884.4370923        216885489.45629299        1181965621.5097287     
   1357267120.1530366        177807977.04766595        1238318700.2797883     
   1356680789.4704885        147185243.31073105        1295611062.7767437     
   1358630892.3894486        125017288.24549121        1353842709.0005960     
   896072670.19790411        171914315.07661229        1116491514.1628625     
   896194195.36250770        141405060.26861867        1178804802.0549943     
   898003506.53370535        116521758.81593910        1240697123.2728996     
   901500603.71149671        97264410.718573272        1302168477.8165758     
   906685486.89588320        83633015.976521790        1363218865.6860249     
   440711943.62973851        83795555.283587366        1112806561.4269392     
   442727762.12701184        69143407.832671627        1181029253.3073082     
   445582719.03596562        57288388.420690164        1247470728.1123254     
   449276814.35659981        48230497.047643080        1312130985.8419907     
   453810048.08891428        41969733.713530645        1375010026.4963057     
  -33097.381840948074        61501.157538331638        1115496968.2587965     
  -9415.2693949107852        100532.14845084073        1188638975.2666698     
   4757.6598177181113        107865.86191848171        1258639514.7980671     
   9421.4057970154572        83502.297941684199        1325498586.8529880     
   4575.9685427307013        27441.456519959956        1389216191.4314339     
   1809646264.5696115        166122550.52043962        1346881556.4400146     
   1779107723.1498587        133648562.43718851        1364528039.2479808     
   1749803893.8482985        105290281.41457844        1382909574.0233066     
   1721734776.6649289        81047707.452606857        1402026160.7659924     
   1694900371.5997531        60920840.551276565        1421877799.4760382     
   1358630892.3894486        125017288.24549121        1353842709.0005960     
   1333007747.3041022        99846983.075086534        1372743873.6329150     
   1308322646.1751339        77803491.092610359        1393005595.1136851     
   1284575589.0025442        58886812.298062563        1414627873.4429033     
   1261766575.7863340        43096946.691443682        1437610708.6205719     
   906685486.89588320        83633015.976521790        1363218865.6860249     
   887764894.94805622        66302540.759897560        1383028599.2872496     
   869485678.79479432        51109984.858490497        1404824394.6180127     
   851847838.43609762        38055348.272299677        1428606251.6783152     
   834851373.87196589        27138631.001326829        1454374170.4681573     
   453810048.08891428        41969733.713530645        1375010026.4963057     
   443379166.08172053        33015235.491620108        1395382216.2109854     
   433292991.70727932        25209762.712217674        1418365972.5362930     
   423551524.96558881        18553315.375318199        1443961295.4722302     
   414154765.85665089        13045893.480925545        1472168185.0187969     
   4575.9685427307013        27441.456519959956        1389216191.4314339     
  -149439.29490367166       -14932.729741413823        1409804724.4041190     
  -255415.08741155919        102824.65379156802        1433630328.8685238     
  -313351.40898138081        380713.60711853660        1460693004.8246469     
  -323248.25961291051        818734.13023963780        1490992752.2724888     
   1694900371.5997531        60920840.551276565        1421877799.4760382     
   1646007845.4160964        38647211.543180883        1415087213.1118143     
   1598828304.4079449        22083533.120103419        1413476651.7734845     
   1553361748.5753036        11229805.282057106        1417046115.4610505     
   1509608177.9181671        6086028.0290287733        1425795604.1745129     
   1261766575.7863340        43096946.691443682        1437610708.6205719     
   1227514569.8038447        27225615.543723226        1434449909.1903181     
   1194534255.4399984        15593256.458143711        1435893569.9980583     
   1162825632.6947954        8199869.4347084165        1441941691.0437927     
   1132388701.5682337        5045454.4734117985        1452594272.3275180     
   834851373.87196589        27138631.001326829        1454374170.4681573     
   813595417.26806998        17176256.467211127        1454328315.4888666     
   793169858.72595227        9981875.4723556936        1458311355.9596682     
   773574698.24561214        5555488.0167596042        1466323291.8805614     
   754809935.82705009        3897094.1004238427        1478364123.2515466     
   414154765.85665089        13045893.480925545        1472168185.0187969     
   404250387.80877054        8499134.3136403114        1474722432.0074604     
   394735114.26580405        5249390.1627345979        1480730009.6583133     
   385608945.22775096        3296661.0282061994        1490190917.9713576     
   376871880.69461137        2640946.9100572318        1503105156.9465899     
  -323248.25961291051        818734.13023963780        1490992752.2724888     
  -520518.57405361609        1194249.0830120919        1495632258.7460971     
  -769977.94044386304        1395800.5292860742        1503149531.0939946     
  -1071626.3587866826        1423388.4690513080        1513544569.3161809     
  -1425463.8290801188        1277012.9023148329        1526817373.4126544     
   1509608177.9181671        6086028.0290287733        1425795604.1745129     
   1462512804.1585419        2786226.4673606753        1419518242.6511934     
   1415581269.3698614        32554.808835685253        1417445336.7809255     
   1368813573.5521169       -2174986.9465683699        1419576886.5637119     
   1322209716.7053103       -3836398.7988442183        1425912891.9995508     
   1132388701.5682337        5045454.4734117985        1452594272.3275180     
   1096596977.1067441        2398978.9841068983        1446425852.2359564     
   1060927656.0634016        160514.88862800598        1444597323.7808986     
   1025380738.4382085       -1669937.8130211234        1447108686.9623442     
   989956224.23116434       -3092379.1208392382        1453959941.7802982     
   754809935.82705009        3897094.1004238427        1478364123.2515466     
   730708820.61641335        2020032.6692895293        1472256303.1134832     
   706688673.27113533        412864.12268349528        1470623810.5953774     
   682749493.79121614       -924411.53939232230        1473466645.6972296     
   658891282.17665482       -1991794.3169416785        1480784808.4190409     
   376871880.69461137        2640946.9100572318        1503105156.9465899     
   364848334.68755114        1649387.5229120553        1497009595.2837729     
   352864320.99305826        789602.51099322736        1495524797.2243650     
   340919839.61113393        61591.874302789569        1498650762.7683680     
   329014890.54177952       -534644.38715632260        1506387491.9157839     
  -1425463.8290801188        1277012.9023148329        1526817373.4126544     
  -984480.67984145554        1287043.5449788321        1520685728.7468262     
  -545400.77082844591        1290730.0535583599        1519300283.6678622     
  -108224.10203242028        1288072.4280805802        1522661038.1757610     
   327049.32653845486        1279070.6685193125        1530767992.2705226     
   1322209716.7053103       -3836398.7988442183        1425912891.9995508     
   1269178792.5463860       -6842764.9240738153        1417454158.4000001     
   1216368534.4191573       -9113577.6103197932        1414064112.0718255     
   1163778942.3236377       -10648836.857536077        1415742753.0150194     
   1111410016.2598150       -11448542.665762484        1422490081.2295856     
   989956224.23116434       -3092379.1208392382        1453959941.7802982     
   950289905.46635330       -5287909.8835500479        1446144605.2209983     
   910830492.23664439       -6793755.5292537212        1443353931.2252135     
   871577984.54203796       -7609916.0579475760        1445587919.7929506     
   832532382.38253546       -7736391.4696310163        1452846570.9242015     
   658891282.17665482       -1991794.3169416785        1480784808.4190409     
   632463783.92637372       -3414225.1810103655        1473596814.9872906     
   606229430.71459663       -4192839.2500646710        1471389459.4112077     
   580188222.54132712       -4327636.5240924358        1474162741.6907871     
   554340159.40656245       -3818617.0031059980        1481916661.8260322     
   329014890.54177952       -534644.38715632260        1506387491.9157839     
   315700427.92644674       -1221710.8164549172        1499810787.6988864     
   302565349.85302311       -1310828.7727250457        1498170696.6298018     
   289609656.32150662       -801998.25597016513        1501467218.7085266     
   276833347.33189702        304780.73380719125        1509700353.9350619     
   327049.32653845486        1279070.6685193125        1530767992.2705226     
  -162.53342664428055        1289633.2101166805        1524786523.3557804     
  -161750.34807898768        1852275.9027551797        1523697642.8809988     
  -157714.11742333346        2966998.7464206847        1527501350.8461752     
   11946.158542331541        4633801.7411202528        1536197647.2513053     
   1111410016.2598150       -11448542.665762484        1422490081.2295856     
   1067480229.6278300       -9252863.7469657660        1418060177.6116407     
   1023635475.5778714       -6773742.8880791664        1417347878.8373208     
   979875754.10992360       -4011180.0891535282        1420353184.9066255     
   936201065.22400260       -965175.35014408827        1427076095.8195529     
   832532382.38253546       -7736391.4696310163        1452846570.9242015     
   798398278.88388348       -6257812.4570703506        1448768793.6956663     
   764144042.26287305       -5179677.1857045293        1448674037.0890422     
   729769672.51949632       -4501985.6555597782        1452562301.1043401     
   695275169.65375650       -4224737.8666249514        1460433585.7415547     
   554340159.40656245       -3818617.0031059980        1481916661.8260322     
   530760069.83636689       -2829638.6582509875        1477951650.9984512     
   506854681.43943042       -2924989.7358660102        1478235076.5710795     
   482623994.21574479       -4104670.2359764874        1482766938.5439186     
   458068008.16531819       -6368680.1585567892        1491547236.9169722     
   276833347.33189702        304780.73380719125        1509700353.9350619     
   264565602.48528525        1031657.6495046765        1505608749.5199945     
   251767393.10754877       -9680.5385461300611        1506030997.2834332     
   238438719.19867951       -2819233.8303707838        1510967097.2253721     
   224579580.75868475       -7397002.2259505391        1520417049.3458207     
   11946.158542331541        4633801.7411202528        1536197647.2513053     
  -185123.16936717858        5326076.4661807958        1531740089.2603037     
  -1117822.7327841497        3566250.4062150791        1532061799.2260983     
  -2786152.5317116939       -645676.43878449150        1537162777.1486919     
  -5190112.5661466988       -7309704.0688103214        1547043023.0280855     
   936201065.22400260       -965175.35014408827        1427076095.8195529     
   870599827.46938825       -13335921.182075739        1416771209.1756775     
   799085786.20285606       -45416012.053734392        1411265190.6095769     
   721658941.42441523       -97205447.965094924        1410558040.1212564     
   638319293.13406467       -168704228.91615182        1414649757.7107115     
   695275169.65375650       -4224737.8666249514        1460433585.7415547     
   643813639.32284677       -13469318.233350158        1446625460.1705325     
   589550228.98279047       -32053498.630562156        1438173741.7403057     
   532484938.63358700       -59977279.058261842        1435078430.4508684     
   472617768.27524108       -97240659.516440928        1437339526.3022282     
   458068008.16531819       -6368680.1585567892        1491547236.9169722     
   422339154.00958413       -12009204.434642583        1477865283.1720388     
   386919343.34747493       -16619583.731974900        1470097275.6309130     
   351808576.17898685       -20199818.050570339        1468243214.2935958     
   317006852.50412637       -22749907.390410662        1472303099.1600883     
   224579580.75868475       -7397002.2259505391        1520417049.3458207     
   206176371.52960172       -8955579.7859467864        1510490678.1801970     
   191193129.29691657        885732.64204782993        1507035792.2813995     
   179629854.06061828        22126935.057999000        1510052391.6494291     
   171486545.82071355        54768027.461930148        1519540476.2842867     
  -5190112.5661466988       -7309704.0688103214        1547043023.0280855     
  -4674708.1171003291       -4308444.2872668793        1544501645.1950078     
   2371586.8311073841        20462450.491480343        1548989291.6917722     
   15948772.278474312        67002980.267425291        1560505962.5183821     
   36056848.225002632        135313145.04057488        1579051657.6748288     
   33705.534659900164        10111.660397970050        656451526.28173137     
   9960.3212341559010       -522.57965209026861        770941658.55053926     
  -9088.5693245259081        4497.5898547242623        885612609.63631940     
  -23441.137016133820        25172.168918365038        1000464379.5390719     
  -33097.381840948074        61501.157538331638        1115496968.2587965     
  -448337244.19034833       -134501173.25710449        657924266.03291762     
  -447551305.79561055       -125481450.47804406        774117440.62530029     
  -446030162.26542228       -114011043.91414802        888668701.40258026     
  -443773813.59978330       -100089953.56541619        1001578048.3647575     
  -440782259.79869372       -83718179.431849390        1112845481.5118320     
  -890471624.04223144       -267141487.21266943        662350664.84983826     
  -894083809.55954492       -250653749.67056292        781099142.04714346     
  -896230281.12882400       -229280298.96834183        896382972.79727089     
  -896911038.75006855       -203021135.10600626        1008202157.1002202     
  -896126082.42327905       -171876258.08355623        1116556694.9559922     
  -1326369434.0209904       -397910830.20629710        669730722.73249340     
  -1339587550.9705689       -375517420.15720862        791886762.81606853     
  -1350609445.1595297       -345803267.57272696        908755423.82039082     
  -1359435116.5878723       -308768372.45285195        1020336705.7454603     
  -1366064565.2555969       -264412734.79758349        1126630608.5912771     
  -1756030674.1266241       -526809202.23798722        680064439.68088281     
  -1784062530.0286827       -500072461.93798137        806480302.93207562     
  -1809167654.3575394       -463579949.72730321        925786054.47194076     
  -1831346047.1131940       -417331665.60595274        1037981694.3004779     
  -1850597708.2956479       -361327609.57393020        1143067222.4176872     
  -33097.381840948074        61501.157538331638        1115496968.2587965     
  -9415.2693949107852        100532.14845084073        1188638975.2666698     
   4757.6598177181113        107865.86191848171        1258639514.7980671     
   9421.4057970154572        83502.297941684199        1325498586.8529880     
   4575.9685427307013        27441.456519959956        1389216191.4314339     
  -440782259.79869372       -83718179.431849390        1112845481.5118320     
  -442760044.56822354       -69013399.586551726        1181056645.0624306     
  -445589205.49545741       -57146540.266934752        1247485282.5985124     
  -449269742.58039469       -48117601.472994462        1312131394.1200757     
  -453801655.82303619       -41926583.204736501        1374994979.6271217     
  -896126082.42327905       -171876258.08355623        1116556694.9559922     
  -896222644.18347549       -141340922.41648069        1178854836.9124348     
  -898012449.07584667       -116449730.52332059        1240729394.3163180     
  -901495497.10039151       -97202682.404072732        1302180367.1676416     
  -906671788.25711107       -83599778.058741570        1363207755.4664063     
  -1366064565.2555969       -264412734.79758349        1126630608.5912771     
  -1360397214.1151505       -216882036.34133670        1182033550.8166814     
  -1357264973.0813501       -177801704.90724099        1238371849.9514840     
  -1356667842.1541929       -147171740.49529260        1295645505.9956858     
  -1358605821.3336813       -124992143.10549372        1353854518.9492865     
  -1850597708.2956479       -361327609.57393020        1143067222.4176872     
  -1835283754.3632498       -295636741.36112064        1190592786.7751706     
  -1823346777.5119677       -241202463.41869628        1240412649.5040112     
  -1814786777.7417998       -198024775.74665248        1292526810.6042089     
  -1809603755.0527480       -166103678.34499723        1346935270.0757635     
   4575.9685427307013        27441.456519959956        1389216191.4314339     
  -149439.29490367166       -14932.729741413823        1409804724.4041190     
  -255415.08741155919        102824.65379156802        1433630328.8685238     
  -313351.40898138081        380713.60711853660        1460693004.8246469     
  -323248.25961291051        818734.13023963780        1490992752.2724888     
  -453801655.82303619       -41926583.204736501        1374994979.6271217     
  -443653087.34604585       -33054387.328892320        1395469983.3897297     
  -433789164.84869695       -25131011.385186881        1418575771.6004691     
  -424209888.33098793       -18156455.373614728        1444312344.2593398     
  -414915257.79291952       -12130719.294176951        1472679701.3663411     
  -906671788.25711107       -83599778.058741570        1363207755.4664063     
  -887952884.73565042       -66332686.729585290        1383181096.9932618     
  -869851312.64440894       -51123366.834493250        1405178935.9246614     
  -852367071.98338568       -37971818.373463660        1429201272.2606046     
  -835500162.75258231       -26878041.346498728        1455248106.0010896     
  -1358605821.3336813       -124992143.10549372        1353854518.9492865     
  -1333048831.4637148       -99849830.931813657        1372938065.2147155     
  -1308441858.4745469       -77874241.694127440        1393439821.8410995     
  -1284784902.3661757       -59065375.392430365        1415359788.8284385     
  -1262077963.1386018       -43423232.026725829        1438697966.1767344     
  -1809603755.0527480       -166103678.34499723        1346935270.0757635     
  -1778940927.5302420       -133605819.93558252        1364740888.0540893     
  -1749560802.3391118       -105383635.96408921        1383358429.3497834     
  -1721463379.4793580       -81437126.430517018        1402787893.9628448     
  -1694648658.9509799       -61766291.334864795        1423029281.8932736     
  -323248.25961291051        818734.13023963780        1490992752.2724888     
  -520518.57405361609        1194249.0830120919        1495632258.7460971     
  -769977.94044386304        1395800.5292860742        1503149531.0939946     
  -1071626.3587866826        1423388.4690513080        1513544569.3161809     
  -1425463.8290801188        1277012.9023148329        1526817373.4126544     
  -414915257.79291952       -12130719.294176951        1472679701.3663411     
  -405442042.76034498       -7220965.9361983538        1475225934.5007854     
  -396455318.93701464       -3932849.9423668534        1481286873.9343657     
  -387955086.32293117       -2266371.3126910776        1490862519.6670830     
  -379941344.91809243       -2221530.0471656024        1503952871.6989377     
  -835500162.75258231       -26878041.346498728        1455248106.0010896     
  -814536632.58771229       -16888100.647733241        1455194379.9461911     
  -794493895.78937924       -9967471.1707595885        1459292300.6152787     
  -775371952.35758698       -6116152.9155885577        1467541868.0083528     
  -757170802.29233396       -5334145.8822131455        1479943082.1254115     
  -1262077963.1386018       -43423232.026725829        1438697966.1767344     
  -1227804288.0561528       -27807155.051586807        1435537595.0823171     
  -1194885708.4975376       -16708063.155892909        1437165811.1367354     
  -1163322224.4627535       -10125956.339636683        1443582614.3399878     
  -1133113835.9518034       -8060834.6028290987        1454788004.6920750     
  -1694648658.9509799       -61766291.334864795        1423029281.8932736     
  -1645245009.1656699       -39978129.147768676        1416255579.9091625     
  -1597630757.0614865       -24154625.897756159        1414907405.4987352     
  -1551805902.6384325       -14295781.584843457        1418984758.6619906     
  -1507770445.8965032       -10401596.209014058        1428487639.3989289     
  -1425463.8290801188        1277012.9023148329        1526817373.4126544     
  -984480.67984145554        1287043.5449788321        1520685728.7468262     
  -545400.77082844591        1290730.0535583599        1519300283.6678622     
  -108224.10203242028        1288072.4280805802        1522661038.1757610     
   327049.32653845486        1279070.6685193125        1530767992.2705226     
  -379941344.91809243       -2221530.0471656024        1503952871.6989377     
  -367205000.91073269       -1514030.3696281612        1498166412.7458773     
  -354479389.23395967       -842305.12738151848        1496930769.7041535     
  -341764509.88777757       -206354.32043720782        1500245942.5737650     
  -329060362.87218082        393822.05122315884        1508111931.3547130     
  -757170802.29233396       -5334145.8822131455        1479943082.1254115     
  -732697336.49978614       -4096648.8916796744        1474491508.2796905     
  -708243432.12819409       -2924356.6376656592        1473395366.6697803     
  -683809089.17755234       -1817269.1201539040        1476654657.2956781     
  -659394307.64786661       -775386.33916130662        1484269380.1573844     
  -1133113835.9518034       -8060834.6028290987        1454788004.6920750     
  -1097461487.4470031       -6460812.0211806297        1449661015.3482690     
  -1061837529.4535220       -4955424.4772645831        1448694074.5647454     
  -1026241961.9713616       -3544671.9710809588        1451887182.3415027     
  -990674785.00052071       -2228554.5026320219        1459240338.6785419     
  -1507770445.8965032       -10401596.209014058        1428487639.3989289     
  -1461497453.7523859       -8606519.7581338882        1423674933.9516087     
  -1415261681.2099547       -6935508.6462103128        1422826893.3890440     
  -1369063128.2692060       -5388562.8732265234        1425943517.7112334     
  -1322901794.9301450       -3965682.4392039180        1433024806.9181790     
   327049.32653845486        1279070.6685193125        1530767992.2705226     
  -162.53342664428055        1289633.2101166805        1524786523.3557804     
  -161750.34807898768        1852275.9027551797        1523697642.8809988     
  -157714.11742333346        2966998.7464206847        1527501350.8461752     
   11946.158542331541        4633801.7411202528        1536197647.2513053     
  -329060362.87218082        393822.05122315884        1508111931.3547130     
  -316392822.83589870        967800.29613979161        1501936581.8246450     
  -303724583.01822853        1544111.1456832439        1500734587.8432753     
  -291055643.41916770        2122754.5998629034        1504505949.4106016     
  -278386004.03871590        2703730.6586782038        1513250666.5266240     
  -659394307.64786661       -775386.33916130662        1484269380.1573844     
  -633501252.54751229        431236.55941379070        1477707738.3707497     
  -607772421.92968392        1090444.5162333250        1476200219.2415519     
  -582207815.79439199        1202237.5312645733        1479746822.7697940     
  -556807434.14162719        766615.60454019904        1488347548.9554677     
  -990674785.00052071       -2228554.5026320219        1459240338.6785419     
  -951325451.66826200       -320058.00004482269        1452099992.9940984     
  -912305267.08245385        491276.01437717676        1450094537.0758302     
  -873614231.24309933        205447.54061961174        1453223970.9237425     
  -835252344.15018845       -1177543.4212860465        1461488294.5378301     
  -1322901794.9301450       -3965682.4392039180        1433024806.9181790     
  -1269865420.1981559       -1286083.3822581172        1425113345.6946871     
  -1217323118.4765298       -253394.35985833406        1422417541.3461120     
  -1165274889.7652869       -867615.37206876278        1424937393.8724539     
  -1113720734.0644059       -3128746.4188193083        1432672903.2737162     
   11946.158542331541        4633801.7411202528        1536197647.2513053     
  -185123.16936717858        5326076.4661807958        1531740089.2603037     
  -1117822.7327841497        3566250.4062150791        1532061799.2260983     
  -2786152.5317116939       -645676.43878449150        1537162777.1486919     
  -5190112.5661466988       -7309704.0688103214        1547043023.0280855     
  -278386004.03871590        2703730.6586782038        1513250666.5266240     
  -266720345.90566522        2367619.2761878669        1508020462.2402489     
  -255461470.89493677        675564.15262363851        1507373484.8380175     
  -244609379.00653291       -2372434.7120231241        1511309734.3199303     
  -234164070.24044520       -6776377.3177227974        1519829210.6859860     
  -556807434.14162719        766615.60454019904        1488347548.9554677     
  -533839165.89805698       -765917.09063568711        1482728353.3391047     
  -510948833.66362315       -2558236.4829312563        1481496343.5342317     
  -488136437.43832147       -4610342.5723353028        1484651519.5408471     
  -465401977.22215402       -6922235.3588550389        1492193881.3589554     
  -835252344.15018845       -1177543.4212860465        1461488294.5378301     
  -801541583.14654112       -4074532.6342873573        1455863762.5568643     
  -767579911.03884220       -6135151.5004492700        1454430375.3147345     
  -733367327.82708514       -7359400.0197483003        1457188132.8114412     
  -698903833.51127601       -7747278.1922129095        1464137035.0469854     
  -1113720734.0644059       -3128746.4188193083        1432672903.2737162     
  -1069827597.6511182       -7558227.3547669053        1427426689.8935330     
  -1025354703.0205920       -10055180.899919093        1426175580.1795328     
  -980302050.17282212       -10619607.054259002        1428919574.1317158     
  -934669639.10781038       -9251505.8177944422        1435658671.7500789     
  -5190112.5661466988       -7309704.0688103214        1547043023.0280855     
  -4674708.1171003291       -4308444.2872668793        1544501645.1950078     
   2371586.8311073841        20462450.491480343        1548989291.6917722     
   15948772.278474312        67002980.267425291        1560505962.5183821     
   36056848.225002632        135313145.04057488        1579051657.6748288     
  -234164070.24044520       -6776377.3177227974        1519829210.6859860     
  -216111157.94985911       -3960403.3605966792        1522179067.5809581     
  -194395878.68718848        11063460.503480472        1531033049.0605979     
  -169018232.45242769        38295214.274524070        1546391155.1249053     
  -139978219.24557453        77734857.952536881        1568253385.7738895     
  -465401977.22215402       -6922235.3588550389        1492193881.3589554     
  -431311270.64766812       -4741461.2934481800        1496088362.2003908     
  -396426720.62816733        85457.588673189282        1505962067.8813257     
  -360748327.16364676        7558521.2875279337        1521814998.4017541     
  -324276090.25410753        17677729.803112105        1543647153.7616868     
  -698903833.51127601       -7747278.1922129095        1464137035.0469854     
  -650275046.21052539       -6651618.0858209133        1466229529.0533032     
  -603720938.99182773       -12471558.252937287        1473776348.1539500     
  -559241511.85518670       -25207098.693577915        1486777492.3489144     
  -516836764.80058932       -44858239.407697320        1505232961.6382110     
  -934669639.10781038       -9251505.8177944422        1435658671.7500789     
  -873002484.63842499       -9690873.7376929522        1432602568.1397007     
  -816278533.77817154       -26607587.021359473        1434475889.8784752     
  -764497786.52704012       -60001645.668759465        1441278636.9664047     
  -717660242.88502359       -109873049.67989244        1453010809.4034784     
  -1756030674.1266241       -526809202.23798722        680064439.68088281     
  -1784062530.0286827       -500072461.93798137        806480302.93207562     
  -1809167654.3575394       -463579949.72730321        925786054.47194076     
  -1831346047.1131940       -417331665.60595274        1037981694.3004779     
  -1850597708.2956479       -361327609.57393020        1143067222.4176872     
  -2201702935.1132779       -660510880.53398347        696454125.42696214     
  -2238340560.7396774       -613885433.43676996        813883541.78357565     
  -2272935687.6253371       -560451657.20375836        927213545.41805327     
  -2305488315.7702570       -500209551.83494848        1036444136.3303953     
  -2335998445.1744366       -433159117.33034009        1141575314.5206013     
  -2685633807.7350974       -805690142.32052910        722002089.70268667     
  -2722275205.9738593       -736595389.29251480        829413454.19351482     
  -2757758338.3043442       -663639749.90357649        935736104.95139945     
  -2792083204.7265520       -586823224.15371382        1040970041.9763397     
  -2825249805.2404833       -506145812.04292715        1145115265.2683368     
  -3207823291.9920797       -962346987.59762394        756708332.50805640     
  -3235866465.7312298       -868202329.50521624        853070040.16189349     
  -3263635606.3945627       -773144227.82675803        951353733.07197881     
  -3291130713.9820824       -677172682.56224966        1051559411.2383121     
  -3318351788.4937863       -580287693.71169162        1153687074.6608937     
  -3768271387.8842287       -1130481416.3652687        800572853.84307122     
  -3779114340.0117869       -1008706254.0748736        884853299.68871129     
  -3790567491.8959923       -888965090.97330236        974066429.77979147     
  -3802630843.5368443       -771257927.06055474        1068212244.1163116     
  -3815304394.9343438       -655584762.33663166        1167290742.6982720     
  -1850597708.2956479       -361327609.57393020        1143067222.4176872     
  -1835283754.3632498       -295636741.36112064        1190592786.7751706     
  -1823346777.5119677       -241202463.41869628        1240412649.5040112     
  -1814786777.7417998       -198024775.74665248        1292526810.6042089     
  -1809603755.0527480       -166103678.34499723        1346935270.0757635     
  -2335998445.1744366       -433159117.33034009        1141575314.5206013     
  -2312446791.5651054       -352091606.14605021        1182844904.7878437     
  -2292389147.6136813       -282670793.82145321        1224608432.6725683     
  -2275825513.3201647       -224896680.35654753        1266865898.1747742     
  -2262755888.6845560       -178769265.75133574        1309617301.2944617     
  -2825249805.2404833       -506145812.04292715        1145115265.2683368     
  -2798604339.8224325       -411244824.24762076        1179992343.4390802     
  -2775569916.6390810       -328380643.90131617        1213562998.4734304     
  -2756146535.6904297       -257553271.00401247        1245827230.3713870     
  -2740334196.9764805       -198762705.55571055        1276785039.1329496     
  -3318351788.4937863       -580287693.71169162        1153687074.6608937     
  -3293756399.1352296       -473096395.66583276        1182035102.7288806     
  -3272889084.5881681       -378332013.65828514        1207276346.9065983     
  -3255749844.8525991       -295994547.68904817        1229410807.1940472     
  -3242338679.9285235       -226083997.75812101        1248438483.5912263     
  -3815304394.9343438       -655584762.33663166        1167290742.6982720     
  -3797902969.5035005       -537646320.40068650        1188973182.6572440     
  -3784346651.4609418       -432524903.09236050        1205748477.9720716     
  -3774635440.8066702       -340220510.41165459        1217616628.6427543     
  -3768769337.5406833       -260733142.35856557        1224577634.6692929     
  -1809603755.0527480       -166103678.34499723        1346935270.0757635     
  -1778940927.5302420       -133605819.93558252        1364740888.0540893     
  -1749560802.3391118       -105383635.96408921        1383358429.3497834     
  -1721463379.4793580       -81437126.430517018        1402787893.9628448     
  -1694648658.9509799       -61766291.334864795        1423029281.8932736     
  -2262755888.6845560       -178769265.75133574        1309617301.2944617     
  -2223291121.3520956       -134394476.87885702        1317647030.3017452     
  -2186708939.0046649       -99628304.623144269        1328894728.8155327     
  -2153009341.6422648       -74470748.984196067        1343360396.8358264     
  -2122192329.2648938       -58921809.962014318        1361044034.3626223     
  -2740334196.9764805       -198762705.55571055        1276785039.1329496     
  -2685193072.1508188       -140448660.91519392        1273172349.4065945     
  -2634534414.9638395       -97076175.070284486        1275183675.3758814     
  -2588358225.4155436       -68645248.020986915        1282819017.0408092     
  -2546664503.5059299       -55155879.767297626        1296078374.4013801     
  -3242338679.9285235       -226083997.75812101        1248438483.5912263     
  -3164646779.9264102       -151768372.04458916        1231316845.3686376     
  -3093037230.2166338       -97727247.305513859        1222225269.0308278     
  -3027510030.7991953       -63960623.540890217        1221163754.5777965     
  -2968065181.6740894       -50468500.750718474        1228132302.0095429     
  -3768769337.5406833       -260733142.35856557        1224577634.6692929     
  -3661652244.6788726       -168353610.26704860        1192080518.1878753     
  -3562217384.7630486       -101581521.32882500        1170019509.7803721     
  -3470464757.7932162       -60416875.543903351        1158394609.4467857     
  -3386394363.7693720       -44859672.912277222        1157205817.1871154     
  -1694648658.9509799       -61766291.334864795        1423029281.8932736     
  -1645245009.1656699       -39978129.147768676        1416255579.9091625     
  -1597630757.0614865       -24154625.897756159        1414907405.4987352     
  -1551805902.6384325       -14295781.584843457        1418984758.6619906     
  -1507770445.8965032       -10401596.209014058        1428487639.3989289     
  -2122192329.2648938       -58921809.962014318        1361044034.3626223     
  -2060216161.1758220       -40328384.321636915        1353337397.6290720     
  -1999513403.7689610       -25979660.955296874        1350613648.1432061     
  -1940084057.0443130       -15875639.862999201        1352872785.9050245     
  -1881928121.0018764       -10016321.044741750        1360114810.9145298     
  -2546664503.5059299       -55155879.767297626        1296078374.4013801     
  -2473380503.7588067       -40136596.667357206        1288040787.7504573     
  -2400853927.6949782       -27642059.178402066        1284543448.0212204     
  -2329084775.3144474       -17672267.300436020        1285586355.2136710     
  -2258073046.6172113       -10227221.033452272        1291169509.3278067     
  -2968065181.6740894       -50468500.750718474        1228132302.0095429     
  -2884738036.9146242       -39402766.184928536        1220365750.2733185     
  -2801652328.8395391       -29141820.567071199        1216696805.1327803     
  -2718808057.4488330       -19685663.897144079        1217125466.5879300     
  -2636205222.7425065       -11034296.175154567        1221651734.6387694     
  -3386394363.7693720       -44859672.912277222        1157205817.1871154     
  -3294288760.6432734       -38126892.874345660        1150312285.1976547     
  -3201908607.2026410       -30478945.121299386        1147073719.4778838     
  -3109253903.4474688       -21915829.653128028        1147490120.0278025     
  -3016324649.3777647       -12437546.469842553        1151561486.8474114     
  -1507770445.8965032       -10401596.209014058        1428487639.3989289     
  -1461497453.7523859       -8606519.7581338882        1423674933.9516087     
  -1415261681.2099547       -6935508.6462103128        1422826893.3890440     
  -1369063128.2692060       -5388562.8732265234        1425943517.7112334     
  -1322901794.9301450       -3965682.4392039180        1433024806.9181790     
  -1881928121.0018764       -10016321.044741750        1360114810.9145298     
  -1824542117.3770905       -6810616.5823030472        1354542702.2317119     
  -1767480044.5847306       -4684681.5612828732        1353228869.4927554     
  -1710741902.6247909       -3638515.9816621542        1356173312.6976604     
  -1654327691.4972768       -3672119.8434627056        1363376031.8464253     
  -2258073046.6172113       -10227221.033452272        1291169509.3278067     
  -2188735142.7714567       -5359221.9373747110        1284503500.9736340     
  -2120007880.9888651       -2526696.3851677179        1282389379.6224275     
  -2051891261.2694314       -1729644.3768225908        1284827145.2741868     
  -1984385283.6131582       -2968065.9123463631        1291816797.9289155     
  -2636205222.7425065       -11034296.175154567        1221651734.6387694     
  -2554076529.9354811       -4252335.8233449459        1213557330.1773777     
  -2472845190.4223514       -461553.11785411835        1210308423.7780581     
  -2392511204.2031202        338051.94130301476        1211905015.4408135     
  -2313074571.2777872       -1853520.6458560228        1218347105.1656404     
  -3016324649.3777647       -12437546.469842553        1151561486.8474114     
  -2920566278.8691607       -3489958.2402044535        1141704189.8429418     
  -2825991972.8851957        1510748.2406482697        1136986001.9596512     
  -2732601731.4258633        2564572.9727175236        1137406923.1975420     
  -2640395554.4911656       -328484.04399061203        1142966953.5566096     
  -1322901794.9301450       -3965682.4392039180        1433024806.9181790     
  -1269865420.1981559       -1286083.3822581172        1425113345.6946871     
  -1217323118.4765298       -253394.35985833406        1422417541.3461120     
  -1165274889.7652869       -867615.37206876278        1424937393.8724539     
  -1113720734.0644059       -3128746.4188193083        1432672903.2737162     
  -1654327691.4972768       -3672119.8434627056        1363376031.8464253     
  -1588236120.6527333       -1750073.9781467319        1355372764.5029359     
  -1522445382.6162069       -830804.13954818249        1352371118.7999461     
  -1456955477.3877001       -914310.32768326998        1354371094.7374558     
  -1391766404.9672053       -2000592.5425268412        1361372692.3154657     
  -1984385283.6131582       -2968065.9123463631        1291816797.9289155     
  -1905850045.8972633       -1987032.0110352039        1283947171.3681757     
  -1827422400.7870283       -1364640.1285841465        1280865131.2135174     
  -1749102348.2824545       -1100890.2650134563        1282570677.4649391     
  -1670889888.3835392       -1195782.4202964306        1289063810.1224408     
  -2313074571.2777872       -1853520.6458560228        1218347105.1656404     
  -2222707195.9317341       -1996957.4808987379        1210836566.2904015     
  -2132254172.9889867       -1854902.3269598484        1207899578.5868227     
  -2041715502.4495463       -1427355.1840380430        1209536142.0549064     
  -1951091184.3134077       -714316.05212903023        1215746256.6946509     
  -2640395554.4911656       -328484.04399061203        1142966953.5566096     
  -2538807570.7561498       -1779850.3877440691        1136040949.2696168     
  -2436940699.2220888       -2301590.7346779108        1133474460.9198644     
  -2334794939.8889761       -1893705.0847706795        1135267488.5073559     
  -2232370292.7568078       -556193.43801438808        1141420032.0320904     
  -1113720734.0644059       -3128746.4188193083        1432672903.2737162     
  -1069827597.6511182       -7558227.3547669053        1427426689.8935330     
  -1025354703.0205920       -10055180.899919093        1426175580.1795328     
  -980302050.17282212       -10619607.054259002        1428919574.1317158     
  -934669639.10781038       -9251505.8177944422        1435658671.7500789     
  -1391766404.9672053       -2000592.5425268412        1361372692.3154657     
  -1337341997.2868516       -6324755.8589010835        1356302893.7188561     
  -1282622349.1146235       -9664784.2023615241        1355314665.2877550     
  -1227607460.4505169       -12020677.572896063        1358408007.0221598     
  -1172297331.2945404       -13392435.970529616        1365582918.9220672     
  -1670889888.3835392       -1195782.4202964306        1289063810.1224408     
  -1605687162.2951903       -5340513.9748052955        1283838488.9631472     
  -1540473713.4403372       -9449502.9743024707        1282781204.4686816     
  -1475249541.8189745       -13522749.418768644        1285891956.6390464     
  -1410014647.4311080       -17560253.308216155        1293170745.4742396     
  -1951091184.3134077       -714316.05212903023        1215746256.6946509     
  -1874863092.6761413       -4605501.7025005817        1210033475.6264076     
  -1798908795.9977422       -9409337.2157571316        1208575197.7223172     
  -1723228294.2781987       -15125822.591867924        1211371422.9823799     
  -1647821587.5175183       -21754957.830855429        1218422151.4065952     
  -2232370292.7568078       -556193.43801438808        1141420032.0320904     
  -2144869788.4297011       -4119719.0419720411        1134887853.7086394     
  -2057927596.7868285       -9544286.9267046452        1132696645.0486600     
  -1971543717.8281825       -16829897.092195511        1134846406.0521555     
  -1885718151.5537643       -25976549.538445473        1141337136.7191305     
  -934669639.10781038       -9251505.8177944422        1435658671.7500789     
  -873002484.63842499       -9690873.7376929522        1432602568.1397007     
  -816278533.77817154       -26607587.021359473        1434475889.8784752     
  -764497786.52704012       -60001645.668759465        1441278636.9664047     
  -717660242.88502359       -109873049.67989244        1453010809.4034784     
  -1172297331.2945404       -13392435.970529616        1365582918.9220672     
  -1097536828.1707077       -13056397.084424019        1357869267.0234926     
  -1025792872.0706004       -22775514.944072843        1355119056.4008763     
  -957065462.99420619       -42549789.549427688        1357332287.0542181     
  -891354600.94152653       -72379220.900502712        1364508958.9835296     
  -1410014647.4311080       -17560253.308216155        1293170745.4742396     
  -1322063607.2905207       -16419651.107417703        1283047311.3037713     
  -1235202457.5882466       -18912017.034338117        1277921334.3360720     
  -1149431198.3242879       -25037351.088962197        1277792814.5711424     
  -1064749829.4986354       -34795653.271294773        1282661752.0089827     
  -1647821587.5175183       -21754957.830855429        1218422151.4065952     
  -1546582821.9978619       -19780635.806661367        1208136700.9805422     
  -1444507290.3311205       -15017093.292181671        1202882723.6840651     
  -1341594992.5172796       -7464330.2873772979        1202660219.5171642     
  -1237845928.5563521        2877653.2077274919        1207469188.4798458     
  -1885718151.5537643       -25976549.538445473        1141337136.7191305     
  -1771094472.2927339       -23139351.182167649        1133137436.0537980     
  -1653707370.2992113       -11090743.717580259        1130003224.4448481     
  -1533556845.5731864        10169272.855340600        1131934501.8922844     
  -1410642898.1146688        40640698.536576390        1138931268.3961055     
  -3768271387.8842287       -1130481416.3652687        800572853.84307122     
  -3779114340.0117869       -1008706254.0748736        884853299.68871129     
  -3790567491.8959923       -888965090.97330236        974066429.77979147     
  -3802630843.5368443       -771257927.06055474        1068212244.1163116     
  -3815304394.9343438       -655584762.33663166        1167290742.6982720     
  -4339809808.3994913       -1301942942.5198474        858749550.07325935     
  -4335244283.7863092       -1125735403.7004197        942349934.18235135     
  -4331817718.3392334       -953324395.43468082        1020308990.8014112     
  -4329530112.0582657       -784709917.72262955        1092626719.9304390     
  -4328381464.9434023       -619891970.56426680        1159303121.5694354     
  -4895270266.5258188       -1468581079.9577456        936392317.56414890     
  -4905507727.2732439       -1247004603.2396903        1018695753.9589896     
  -4917412906.5962362       -1030987188.4401876        1084783851.1283274     
  -4930985804.4947939       -820528835.55923772        1134656609.0721607     
  -4946226420.9689169       -615629544.59683907        1168314027.7904899     
  -5434652762.2632113       -1630395828.6789634        1033501156.3157394     
  -5489904670.4725933       -1372513852.6926847        1113890759.0186276     
  -5547353056.6670017       -1121953469.9898229        1167491010.7605398     
  -5606997920.8464346       -878714680.57037807        1194301911.5414755     
  -5668839263.0108929       -642797484.43435025        1194323461.3614364     
  -5957957295.6116676       -1787387188.6835003        1150076066.3280318     
  -6088435113.3843565       -1502263152.0594034        1227934949.3612642     
  -6221638168.5515280       -1226223240.0835869        1268430469.6980484     
  -6357566461.1131849       -959267452.75605226        1271562627.3383849     
  -6496219991.0693254       -701395790.07679725        1237331422.2822733     
  -3815304394.9343438       -655584762.33663166        1167290742.6982720     
  -3797902969.5035005       -537646320.40068650        1188973182.6572440     
  -3784346651.4609418       -432524903.09236050        1205748477.9720716     
  -3774635440.8066702       -340220510.41165459        1217616628.6427543     
  -3768769337.5406833       -260733142.35856557        1224577634.6692929     
  -4328381464.9434023       -619891970.56426680        1159303121.5694354     
  -4298133974.0462542       -464168875.05109727        1141370807.5320289     
  -4278499944.7169871       -343823984.76419568        1129507691.5181022     
  -4269479376.9556017       -258857299.70355916        1123713773.5276551     
  -4271072270.7620935       -209268819.86918759        1123989053.5606880     
  -4946226420.9689169       -615629544.59683907        1168314027.7904899     
  -4871771885.5551128       -412713501.79134059        1102870546.5471785     
  -4814699165.8887815       -267736844.81075430        1054472605.9949715     
  -4775008261.9699268       -180699573.65508270        1023120206.1338680     
  -4752699173.7985439       -151601688.32432294        1008813346.9638690     
  -5668839263.0108929       -642797484.43435025        1194323461.3614364     
  -5518816704.0300751       -383280200.62141418        1073472399.7026935     
  -5392944314.9763250       -204263483.23203850        980643221.40267873     
  -5291222095.8496466       -105747332.26622462        915835926.46139288     
  -5213650046.6500311       -87731747.723968983        879050514.87883401     
  -6496219991.0693254       -701395790.07679725        1237331422.2822733     
  -6239268429.4711418       -375868971.54131961        1053176366.9985728     
  -6013235391.9796171       -153403900.02804661        908019537.74122488     
  -5818120878.5947561       -34000575.536983013        801860934.51022911     
  -5653924889.3165579       -17658998.068126202        734700557.30558538     
  -3768769337.5406833       -260733142.35856557        1224577634.6692929     
  -3661652244.6788726       -168353610.26704860        1192080518.1878753     
  -3562217384.7630486       -101581521.32882500        1170019509.7803721     
  -3470464757.7932162       -60416875.543903351        1158394609.4467857     
  -3386394363.7693720       -44859672.912277222        1157205817.1871154     
  -4271072270.7620935       -209268819.86918759        1123989053.5606880     
  -4148078866.3848381       -145091573.19478917        1090598428.5195849     
  -4029496476.8892150       -95617709.459163189        1065492462.4357798     
  -3915325102.2752271       -60847228.662319183        1048671155.3092740     
  -3805564742.5428700       -40780130.804252386        1040134507.1400673     
  -4752699173.7985439       -151601688.32432294        1008813346.9638690     
  -4619976455.3818932       -117470826.30985618        978345634.43816197     
  -4488393533.7825193       -87139287.019645452        954011131.75313711     
  -4357950409.0004253       -60607070.453692675        935809838.90879345     
  -4228647081.0356040       -37874176.611995459        923741755.90513241     
  -5213650046.6500311       -87731747.723968983        879050514.87883401     
  -5077345011.6700354       -85491369.612249374        855322135.94360602     
  -4938908555.4429598       -76146254.010268211        835575517.73244381     
  -4798340677.9688044       -59696400.918020010        819810660.24534619     
  -4655641379.2475710       -36141810.335510969        808027563.48231280     
  -5653924889.3165579       -17658998.068126202        734700557.30558538     
  -5520184535.2492647       -49153203.101969004        721527933.03591764     
  -5381041541.8705339       -62638610.431029320        710185620.37370026     
  -5236495909.1803694       -58115220.055301905        700673619.31892860     
  -5086547637.1787701       -35583031.974793434        692991929.87160528     
  -3386394363.7693720       -44859672.912277222        1157205817.1871154     
  -3294288760.6432734       -38126892.874345660        1150312285.1976547     
  -3201908607.2026410       -30478945.121299386        1147073719.4778838     
  -3109253903.4474688       -21915829.653128028        1147490120.0278025     
  -3016324649.3777647       -12437546.469842553        1151561486.8474114     
  -3805564742.5428700       -40780130.804252386        1040134507.1400673     
  -3701775338.9356122       -30038281.468545675        1032083576.2693850     
  -3598542367.7114439       -21151206.743140221        1028440048.1227262     
  -3495865828.8703694       -14118906.628037930        1029203922.7000901     
  -3393745722.4123812       -8941381.1232390404        1034375200.0014789     
  -4228647081.0356040       -37874176.611995459        923741755.90513241     
  -4111024058.5062284       -22478312.446223259        913563946.33933032     
  -3994788451.0575747       -11707165.216179132        908545975.95188642     
  -3879940258.6896367       -5560734.9218587875        908687844.74279892     
  -3766479481.4024148       -4039021.5632598400        913989552.71206987     
  -4655641379.2475710       -36141810.335510969        808027563.48231280     
  -4522034919.3551273       -15446985.807388544        794753395.40749300     
  -4390646857.2410288       -2146820.5404129028        787391502.96536565     
  -4261477192.9052763        3758685.4654140472        785941886.15592682     
  -4134525926.3478632        2269532.2100949287        790404544.97918403     
  -5086547637.1787701       -35583031.974793434        692991929.87160528     
  -4934807921.4823065       -8944301.5520374775        675651923.47387040     
  -4786117586.2618122        7529827.2841506004        664976629.16316199     
  -4640476631.5172882        13839354.533767223        660966046.93947923     
  -4497885057.2487335        9984280.1968233585        663620176.80282021     
  -3016324649.3777647       -12437546.469842553        1151561486.8474114     
  -2920566278.8691607       -3489958.2402044535        1141704189.8429418     
  -2825991972.8851957        1510748.2406482697        1136986001.9596512     
  -2732601731.4258633        2564572.9727175236        1137406923.1975420     
  -2640395554.4911656       -328484.04399061203        1142966953.5566096     
  -3393745722.4123812       -8941381.1232390404        1034375200.0014789     
  -3286355744.1082039       -3983712.1894006729        1024894683.2958518     
  -3179596686.0307097       -1129110.6778287888        1020143198.6877486     
  -3073468548.1798897       -377576.58851587772        1020120746.1771706     
  -2967971330.5557508       -1729109.9214707613        1024827325.7641144     
  -3766479481.4024148       -4039021.5632598400        913989552.71206987     
  -3648629543.9416795       -3422766.5169255733        905531151.31956828     
  -3530857382.4096699       -3065764.5663361549        901391705.00093460     
  -3413162996.8063836       -2968015.7114958763        901571213.75616992     
  -3295546387.1318202       -3129519.9523944855        906069677.58527148     
  -4134525926.3478632        2269532.2100949287        790404544.97918403     
  -4007387678.3695908       -1807121.2227849960        783613593.91408813     
  -3879774062.0220809       -4299213.4248836040        780731520.89920533     
  -3751685077.3053422       -5206744.3962168694        781758325.93453574     
  -3623120724.2193699       -4529714.1367633343        786694009.02007759     
  -4497885057.2487335        9984280.1968233585        663620176.80282021     
  -4362630147.3919306        863223.69303512573        659142011.07941473     
  -4226346724.8679419       -4829457.2534630299        658162646.38256669     
  -4089034789.6767650       -7093762.6426701546        660682082.71227407     
  -3950694341.8183966       -5929692.4745714664        666700320.06853878     
  -2640395554.4911656       -328484.04399061203        1142966953.5566096     
  -2538807570.7561498       -1779850.3877440691        1136040949.2696168     
  -2436940699.2220888       -2301590.7346779108        1133474460.9198644     
  -2334794939.8889761       -1893705.0847706795        1135267488.5073559     
  -2232370292.7568078       -556193.43801438808        1141420032.0320904     
  -2967971330.5557508       -1729109.9214707613        1024827325.7641144     
  -2854451453.3786316       -1517361.6491183043        1018145641.3233118     
  -2740856820.5422516       -1056427.8458926678        1015899024.8354748     
  -2627187432.0466175       -346308.51182353497        1018087476.3006053     
  -2513443287.8917150        612996.35313415527        1024710995.7187024     
  -3295546387.1318202       -3129519.9523944855        906069677.58527148     
  -3169878753.6105261       -1189898.1933070421        899394158.82757139     
  -3044340496.5697670        318468.63066625595        897229260.03855801     
  -2918931616.0095372        1395580.5195502043        899574981.21823633     
  -2793652111.9298344        2041437.4733256102        906431322.36660421     
  -3623120724.2193699       -4529714.1367633343        786694009.02007759     
  -3485089471.4518366       -797460.02032852173        779786501.78239143     
  -3347391727.3046284        1823098.6950316429        777465166.52911556     
  -3210027491.7777386        3331962.0093276501        779730003.26025724     
  -3072996764.8711691        3729129.9225524664        786581011.97580791     
  -3950694341.8183966       -5929692.4745714664        666700320.06853878     
  -3800083606.9025607       -340047.13016581535        659322670.18777430     
  -3650010512.7468367        3457462.3471913338        656606744.30714834     
  -3500475059.3512206        5462835.9575257301        658552542.42665768     
  -3351477246.7157207        5676073.7008111477        665160064.54630435     
  -2232370292.7568078       -556193.43801438808        1141420032.0320904     
  -2144869788.4297011       -4119719.0419720411        1134887853.7086394     
  -2057927596.7868285       -9544286.9267046452        1132696645.0486600     
  -1971543717.8281825       -16829897.092195511        1134846406.0521555     
  -1885718151.5537643       -25976549.538445473        1141337136.7191305     
  -2513443287.8917150        612996.35313415527        1024710995.7187024     
  -2415227694.6892653       -3480356.5408904552        1017801765.6675036     
  -2317346698.3372297       -8689032.2696346045        1014916209.8469588     
  -2219800298.8356047       -15013030.833072662        1016054328.2570637     
  -2122588496.1843879       -22452352.231211185        1021216120.8978221     
  -2793652111.9298344        2041437.4733256102        906431322.36660421     
  -2685627988.2315397       -2853710.2246202230        899406042.39378428     
  -2577714745.5498333       -8118461.3112145662        896087141.21879423     
  -2469912383.8847260       -13752815.786456108        896474618.84163260     
  -2362220903.2362061       -19756773.650335193        900568475.26229906     
  -3072996764.8711691        3729129.9225524664        786581011.97580791     
  -2956070669.0565214       -2239780.0931649208        779700683.88748491     
  -2839031738.4246488       -7832574.0514701605        776209439.16416895     
  -2721879972.9755526       -13049251.952356100        776107277.80585349     
  -2604615372.7092261       -17889813.795816183        779394199.81254947     
  -3351477246.7157207        5676073.7008111477        665160064.54630435     
  -3226555737.1642132       -1638566.1465158463        658685690.14860058     
  -3101297676.9616647       -7831370.4903699160        655283103.68308055     
  -2975703066.1080775       -12902339.330766797        654952305.14973962     
  -2849771904.6034422       -16851472.667663097        657693294.54857802     
  -1885718151.5537643       -25976549.538445473        1141337136.7191305     
  -1771094472.2927339       -23139351.182167649        1133137436.0537980     
  -1653707370.2992113       -11090743.717580259        1130003224.4448481     
  -1533556845.5731864        10169272.855340600        1131934501.8922844     
  -1410642898.1146688        40640698.536576390        1138931268.3961055     
  -2122588496.1843879       -22452352.231211185        1021216120.8978221     
  -1995219212.8447070       -19389259.288675189        1014227158.8944519     
  -1866555879.8189235       -12012667.392455220        1011924889.1445184     
  -1736598497.1070328       -322576.54254567623        1014309311.6480204     
  -1605347064.7090371        15681013.261052608        1021380426.4049720     
  -2362220903.2362061       -19756773.650335193        900568475.26229906     
  -2223188292.3977180       -16792469.095492482        893075983.36676276     
  -2084331004.9195180       -14412575.741595030        889891386.92172134     
  -1945649040.8015990       -12617093.588643074        891014685.92718375     
  -1807142400.0439627       -11406022.636638522        896445880.38312578     
  -2604615372.7092261       -17889813.795816183        779394199.81254947     
  -2455001710.9517713       -15348980.602613449        769683909.47073054     
  -2307032745.6009951       -18290468.765002728        763902717.77646279     
  -2160708476.6568904       -26714278.282957196        762050624.72974241     
  -2016028904.1194596       -40620409.156500936        764127630.33057964     
  -2849771904.6034422       -16851472.667663097        657693294.54857802     
  -2690659468.5068650       -15058793.810053110        644050937.20635724     
  -2534661101.8633542       -23646346.462673545        633958881.70873880     
  -2381776804.6729007       -42614130.625494719        627417128.05572069     
  -2232006576.9355202       -71962146.298532367        624425676.24731648     
  -5957957295.6116676       -1787387188.6835003        1150076066.3280318     
  -6088435113.3843565       -1502263152.0594034        1227934949.3612642     
  -6221638168.5515280       -1226223240.0835869        1268430469.6980484     
  -6357566461.1131849       -959267452.75605226        1271562627.3383849     
  -6496219991.0693254       -701395790.07679725        1237331422.2822733     
  -6810578461.7203827       -2043173538.5161150        1353801244.4999504     
  -6828533144.0264959       -1395489761.2134628        1202767579.9687917     
  -6897850520.2855444       -919014963.75392962        1091985903.7210112     
  -7018530590.4975271       -613749146.13751411        1021456215.7566080     
  -7190573354.6624470       -479692308.36421871        991178516.07558334     
  -8337910855.7385530       -2501373256.7215657        1712360887.7304204     
  -8021584256.9214439       -1424602295.0433652        1275690976.3166776     
  -7805257808.6157227       -681165168.40312099        956888404.16613853     
  -7688931510.8213892       -271061876.80083418        755953171.27880383     
  -7672605363.5384417       -194292420.23650265        672885277.65467191     
  -10539954477.666176       -3161986343.2998528        2225754996.0194411     
  -9667588452.0692005       -1589600753.5491102        1446705138.4049211     
  -8943860033.5420666       -512673854.03116226        863137971.03343058     
  -8368769222.0847664        68794355.253992081        475053493.90497029     
  -7942316017.6973095        154803874.30635309        282451707.01953888     
  -13416709327.503254       -4025012798.2509761        2893983569.3670139     
  -11766545729.469767       -1890485136.7306979        1715810066.2335234     
  -10313657195.064571       -413541020.63805151        810734604.32288837     
  -9058043724.2876663        405819550.02696276        178757183.63510874     
  -7999705317.1390486        567596575.26434565       -180122195.82981521     
  -6496219991.0693254       -701395790.07679725        1237331422.2822733     
  -6239268429.4711418       -375868971.54131961        1053176366.9985728     
  -6013235391.9796171       -153403900.02804661        908019537.74122488     
  -5818120878.5947561       -34000575.536983013        801860934.51022911     
  -5653924889.3165579       -17658998.068126202        734700557.30558538     
  -7190573354.6624470       -479692308.36421871        991178516.07558334     
  -6900572195.9051323       -304369441.80468082        846864872.60690832     
  -6623393276.0017586       -171787371.42494559        723638220.61335242     
  -6359036594.9523239       -81946097.225008965        621498560.09491503     
  -6107502152.7568302       -34845619.204876661        540445891.05159581     
  -7672605363.5384417       -194292420.23650265        672885277.65467191     
  -7400729563.4826651       -184525992.41110754        589525378.79586506     
  -7123579717.0281086       -157179409.92310810        509341236.86094278     
  -6841155824.1747694       -112252672.77250338        432332851.84990710     
  -6553457884.9226484       -49745780.959290266        358500223.76275462     
  -7942316017.6973095        154803874.30635309        282451707.01953888     
  -7739740532.2037392       -16338623.360593796        281157885.56544203     
  -7513794715.0586691       -109580015.52253389        265128586.48399734     
  -7264478566.2620897       -124920302.17945147        234363809.77520394     
  -6991792085.8140116       -62359483.331367493        188863555.43906057     
  -7999705317.1390486        567596575.26434565       -180122195.82981521     
  -7917605102.0683537        200192665.34685516       -78237607.084358275     
  -7794038270.0934362       -28989188.223218441       -8999730.5174833238     
  -7629004821.2142925       -119948985.44587374        27591433.870806493     
  -7422504755.4309216       -72686726.321109295        31535886.080513079     
  -5653924889.3165579       -17658998.068126202        734700557.30558538     
  -5520184535.2492647       -49153203.101969004        721527933.03591764     
  -5381041541.8705339       -62638610.431029320        710185620.37370026     
  -5236495909.1803694       -58115220.055301905        700673619.31892860     
  -5086547637.1787701       -35583031.974793434        692991929.87160528     
  -6107502152.7568302       -34845619.204876661        540445891.05159581     
  -5959233849.7724638       -36621965.437292814        534016904.19935560     
  -5809943516.1688051       -34991542.938724518        530074983.64477521     
  -5659631151.9458504       -29954351.709172726        528620129.38785791     
  -5508296757.1035995       -21510391.748641491        529652341.42860293     
  -6553457884.9226484       -49745780.959290266        358500223.76275462     
  -6388785191.0491734       -21241335.798671007        353704164.18710709     
  -6227471075.2485409       -3932150.8808662891        352051925.59933943     
  -6069515537.5207539        2181773.7941215038        353543507.99944466     
  -5914918577.8658123       -2899561.7737064362        358178911.38743120     
  -6991792085.8140116       -62359483.331367493        188863555.43906057     
  -6808838559.0793829       -3011314.1860961914        180589712.99918047     
  -6633624219.1097393        30539565.742556572        176116446.23738971     
  -6466149065.9050789        38293156.454598904        175443755.15368998     
  -6306413099.4654093        20249457.950013161        178571639.74808073     
  -7422504755.4309216       -72686726.321109295        31535886.080513079     
  -7219393953.8630972        18068099.400424480        14673550.635567680     
  -7028402947.7524014        68423606.931542873        2268545.5589294243     
  -6849531737.0988302        78379796.272244453       -5679129.1494071744     
  -6682780321.9023838        47936667.422521591       -9169473.4894394334     
  -5086547637.1787701       -35583031.974793434        692991929.87160528     
  -4934807921.4823065       -8944301.5520374775        675651923.47387040     
  -4786117586.2618122        7529827.2841506004        664976629.16316199     
  -4640476631.5172882        13839354.533767223        660966046.93947923     
  -4497885057.2487335        9984280.1968233585        663620176.80282021     
  -5508296757.1035995       -21510391.748641491        529652341.42860293     
  -5345372804.5354900       -9619746.9764671326        514558910.94545698     
  -5183490783.1401625       -1202206.1135635376        504807431.88822436     
  -5022650692.9176140        3742230.8400769234        500397904.25690317     
  -4862852533.8678455        5213563.8844494820        501330328.05149370     
  -5914918577.8658123       -2899561.7737064362        358178911.38743120     
  -5744589704.6006689       -6890797.5045001507        347674081.00592631     
  -5573295313.2051125       -7663639.4672589302        341188441.38922322     
  -5401035403.6791458       -5218087.6619822979        338721992.53731859     
  -5227809976.0227728        445857.91132354736        340274734.45021451     
  -6306413099.4654093        20249457.950013161        178571639.74808073     
  -6132458621.6778402       -757453.13613271713        174997433.65527743     
  -5955531176.4566679       -11854472.776936531        174119657.66615981     
  -5775630763.8018951       -13041600.972406149        175938311.78072944     
  -5592757383.7135239       -4318837.7225456238        180453395.99898493     
  -6682780321.9023838        47936667.422521591       -9169473.4894394334     
  -6508979555.7669954        8780286.1286509037       -3471031.1064927853     
  -6330198372.8948193       -13774706.042592287        3601080.7190358141     
  -6146436773.2858467       -19728309.091184378        12046861.987133553     
  -5957694756.9400911       -9080523.0171566010        21866312.697804276     
  -4497885057.2487335        9984280.1968233585        663620176.80282021     
  -4362630147.3919306        863223.69303512573        659142011.07941473     
  -4226346724.8679419       -4829457.2534630299        658162646.38256669     
  -4089034789.6767650       -7093762.6426701546        660682082.71227407     
  -3950694341.8183966       -5929692.4745714664        666700320.06853878     
  -4862852533.8678455        5213563.8844494820        501330328.05149370     
  -4716862762.4679060        1350623.7368924618        497628351.40113914     
  -4570616833.6734095       -1658458.4288241863        497471748.05982035     
  -4424114747.4843645       -3813682.6127002239        500860518.02753627     
  -4277356503.9007683       -5115048.8147506714        507794661.30428386     
  -5227809976.0227728        445857.91132354736        340274734.45021451     
  -5070952279.4154673        1880953.2192695141        336447865.72150141     
  -4914610780.6862478        1595388.9336044788        336212942.58430052     
  -4758785479.8351116       -410834.94568705559        339569965.03861666     
  -4603476376.8620644       -4137718.4185986519        346518933.08444381     
  -5592757383.7135239       -4318837.7225456238        180453395.99898493     
  -5424898698.2346306        2454212.1401736736        175600554.04050389     
  -5258328565.9064550        4932084.8338205814        174386229.95601025     
  -5093046986.7290058        3114780.3583881855        176810423.74551904     
  -4929053960.7022724       -2997701.2861044407        182873135.40901202     
  -5957694756.9400911       -9080523.0171566010        21866312.697804276     
  -5778702018.9253855        3070400.4995894432        15086416.358143954     
  -5601770189.3340321        8351629.2718355656        11991610.174956160     
  -5426899268.1660433        6763163.2995278835        12581894.148232402     
  -5254089255.4214182       -1694997.4173247814        16857268.277986616     
  -3950694341.8183966       -5929692.4745714664        666700320.06853878     
  -3800083606.9025607       -340047.13016581535        659322670.18777430     
  -3650010512.7468367        3457462.3471913338        656606744.30714834     
  -3500475059.3512206        5462835.9575257301        658552542.42665768     
  -3351477246.7157207        5676073.7008111477        665160064.54630435     
  -4277356503.9007683       -5115048.8147506714        507794661.30428386     
  -4115317679.9269438       -1591781.5825145245        500208371.15714639     
  -3953376468.7429304        1606109.6836733818        497228051.23420823     
  -3791532870.3487253        4478624.9838435650        498853701.53547466     
  -3629786884.7443256        7025764.3179876804        505085322.06093967     
  -4603476376.8620644       -4137718.4185986519        346518933.08444381     
  -4430168760.3329239       -2728618.2493481636        339237368.63628036     
  -4256518728.6232834       -178134.14511585236        336506020.63638830     
  -4082526281.7331533        3513733.8940880299        338324889.08476162     
  -3908191419.6625271        8346985.8682837486        344693973.98140669     
  -4929053960.7022724       -2997701.2861044407        182873135.40901202     
  -4744636848.1204891       -3750557.1306598186        176409662.62518185     
  -4559437292.3879032       -1895269.1392033100        174440652.51368362     
  -4373455293.5045137        2568162.6882646084        176966105.07452351     
  -4186690851.4703331        9639738.3516960144        183986020.30769053     
  -5254089255.4214182       -1694997.4173247814        16857268.277986616     
  -5058721943.2896557       -4657598.2264451981        11725253.123836458     
  -4862132160.0367765       -3545295.2985420227        11031946.866096128     
  -4664319905.6628075        1641911.3663346767        14777349.504753696     
  -4465285180.1677351        10904021.768242359        22961461.039804600     
  -3351477246.7157207        5676073.7008111477        665160064.54630435     
  -3226555737.1642132       -1638566.1465158463        658685690.14860058     
  -3101297676.9616647       -7831370.4903699160        655283103.68308055     
  -2975703066.1080775       -12902339.330766797        654952305.14973962     
  -2849771904.6034422       -16851472.667663097        657693294.54857802     
  -3629786884.7443256        7025764.3179876804        505085322.06093967     
  -3496051750.5204172        903084.10365033150        498909004.99923217     
  -3362394760.0787930       -5480075.3849456310        496165543.68418777     
  -3228815913.4194527       -12123714.147830486        496854938.11581153     
  -3095315210.5423889       -19027832.184970021        500977188.29410154     
  -3908191419.6625271        8346985.8682837486        344693973.98140669     
  -3764611038.4391260        3725751.9850699902        338331904.08347738     
  -3621523495.4313250       -2538275.9501519203        335763757.74670392     
  -3478928790.6391301       -10445097.937388182        336989534.97107852     
  -3336826924.0625377       -19994713.976637602        342009235.75660503     
  -4186690851.4703331        9639738.3516960144        183986020.30769053     
  -4032233600.9203320        6829437.4977414608        176954387.40134013     
  -3878683883.0192614        994027.81400847435        174077745.87062511     
  -3726041697.7671103       -7866490.6994485855        175356095.71554896     
  -3574307045.1638904       -19752118.042679787        180789436.93610296     
  -4465285180.1677351        10904021.768242359        22961461.039804600     
  -4298919437.9640369        10214140.641663313        14776454.952809719     
  -4133875922.8425860        5116835.9075925350        11107508.055954088     
  -3970154634.8033895       -4387892.4339935780        11954620.349200238     
  -3807755573.8464346       -18300044.383052826        17317791.832581155     
  -2849771904.6034422       -16851472.667663097        657693294.54857802     
  -2690659468.5068650       -15058793.810053110        644050937.20635724     
  -2534661101.8633542       -23646346.462673545        633958881.70873880     
  -2381776804.6729007       -42614130.625494719        627417128.05572069     
  -2232006576.9355202       -71962146.298532367        624425676.24731648     
  -3095315210.5423889       -19027832.184970021        500977188.29410154     
  -2925965883.6586199       -16231973.037316799        486840524.69062209     
  -2757233760.2566638       -15493458.829040885        476796587.47344899     
  -2589118840.3365221       -16812289.560150862        470845376.64257210     
  -2421621123.8981919       -20188465.230634093        468986892.19800037     
  -3336826924.0625377       -19994713.976637602        342009235.75660503     
  -3155690921.9867239       -15730739.217465401        330291276.19166768     
  -2972675257.4214749       -5201222.8268529177        323208467.55472684     
  -2787779930.3667951        11593835.195192337        320760809.84578252     
  -2601004940.8226876        34654434.848697186        322948303.06483501     
  -3574307045.1638904       -19752118.042679787        180789436.93610296     
  -3379834583.4911847       -13555092.350531101        174403191.70949042     
  -3180985593.3578215        7230361.5438317060        173194521.95258030     
  -2977760074.7637458        42604243.640531540        177163427.66535279     
  -2770158027.7090025        92566553.939499021        186309908.84782070     
  -3807755573.8464346       -18300044.383052826        17317791.832581155     
  -3598396868.1720185       -9705032.4365217686        19176271.244092379     
  -3382164768.0656528        21801294.283127308        26754750.666989025     
  -3159059273.5273657        76218935.775860906        40053230.101281978     
  -2929080384.5571404        153547892.04174089        59071709.546959080     
 </DataArray>
 <DataArray  type="Float64" Name="VM" NumberOfComponents="1" format="ascii">
   12935323421.364702     
   11340592692.228163     
   10210196028.234184     
   9272857035.3428497     
   8304174040.6125517     
   10130140463.948044     
   9321925015.9199677     
   8826326482.6834373     
   8443555313.8715782     
   8035820071.5196514     
   7982280425.8573885     
   7734917672.1755533     
   7669110730.9234009     
   7669574650.5674334     
   7666383294.6214399     
   6491657572.5372076     
   6586855852.1871996     
   6757381144.1710863     
   6961156989.4033356     
   7171524701.1185408     
   5657826352.8851252     
   5890896140.5160360     
   6116327388.6016445     
   6331657049.4675455     
   6536658841.9842196     
   8304174040.6125517     
   8020799247.2076283     
   7779443510.8698978     
   7569454251.6411991     
   7385862246.5888433     
   8035820071.5196514     
   7746952746.9628706     
   7473716512.7667551     
   7214159704.7152853     
   6968283680.8881464     
   7666383294.6214399     
   7381189109.6631985     
   7101372648.0795946     
   6827009215.9568195     
   6558297719.6703606     
   7171524701.1185408     
   6910950212.1693611     
   6658270436.7769985     
   6409625840.6771364     
   6161871067.3227291     
   6536658841.9842196     
   6328591558.3100672     
   6142708751.9535599     
   5965110641.1157827     
   5786790160.1130352     
   7385862246.5888433     
   7228455724.5934629     
   7063708435.6896563     
   6890943067.0961132     
   6709964548.6846104     
   6968283680.8881464     
   6814501321.0159512     
   6656207536.8194923     
   6493124567.8557596     
   6325194662.2846346     
   6558297719.6703606     
   6407490209.4347916     
   6255093245.0159359     
   6101074678.3036098     
   5945459978.5770321     
   6161871067.3227291     
   6012419869.9269896     
   5864291399.3587732     
   5717523091.8764257     
   5572169658.2402306     
   5786790160.1130352     
   5635751522.8988504     
   5488861974.0501366     
   5346036363.9522753     
   5207317984.6999693     
   6709964548.6846104     
   6514968910.1901875     
   6322962108.0390129     
   6133860860.7695513     
   5947656028.4443712     
   6325194662.2846346     
   6140952414.9467487     
   5958747330.5407572     
   5778567965.9593897     
   5600447717.7904139     
   5945459978.5770321     
   5773407962.5838118     
   5602707039.5933771     
   5433385309.2489519     
   5265507646.5119724     
   5572169658.2402306     
   5414148204.0161276     
   5257088122.8909111     
   5101028462.6280251     
   4946064227.8542538     
   5207317984.6999693     
   5065591217.6807318     
   4924778584.7695141     
   4784905187.3159227     
   4646105553.2087355     
   5947656028.4443712     
   5774505850.0278721     
   5600475280.8452663     
   5425565655.0506124     
   5249805403.2052183     
   5600447717.7904139     
   5435374642.7768402     
   5270053302.9435978     
   5104516859.3621035     
   4938827629.2304554     
   5265507646.5119724     
   5109191923.6412420     
   4953349655.7460546     
   4798050531.2583418     
   4643397954.8345003     
   4946064227.8542538     
   4799090823.0255070     
   4653404655.4723196     
   4509114123.9814053     
   4366368007.1598415     
   4646105553.2087355     
   4508921247.9883671     
   4373928573.7772846     
   4241272989.0040350     
   4111148432.6720347     
   5249805403.2052183     
   5051976129.9115028     
   4854647870.0111399     
   4657828777.3077364     
   4461573548.2261419     
   4938827629.2304554     
   4753181221.6160231     
   4568346875.3966560     
   4384380756.8167410     
   4201395245.9077768     
   4643397954.8345003     
   4470365875.0441418     
   4298547408.9066782     
   4128056653.0805769     
   3959075423.7337656     
   4366368007.1598415     
   4206511110.2970996     
   4048373363.4603977     
   3892136053.2829213     
   3738060713.3441935     
   4111148432.6720347     
   3965157152.5376000     
   3821503075.3592291     
   3680440825.5178657     
   3542317186.1645107     
   4461573548.2261419     
   4294239897.2357006     
   4126243178.7811222     
   3957636460.6225758     
   3788554486.9469266     
   4201395245.9077768     
   4046419068.4056501     
   3891694887.4296184     
   3737315222.5792561     
   3583440215.9027314     
   3959075423.7337656     
   3815267840.5728579     
   3672554966.1272273     
   3531055059.0689206     
   3390941830.5358806     
   3738060713.3441935     
   3604047175.3840504     
   3471857936.7873459     
   3341625712.9119706     
   3213530592.7698421     
   3542317186.1645107     
   3416529924.6389990     
   3293142002.1745977     
   3172293988.8288960     
   3054172725.9539485     
   3788554486.9469266     
   3573304132.7279110     
   3354112523.8759198     
   3131884484.2539082     
   2908420128.2083688     
   3583440215.9027314     
   3386129511.9983268     
   3186936479.5097189     
   2986402869.0888195     
   2785556087.8116889     
   3390941830.5358806     
   3211063267.2781520     
   3031573527.9637251     
   2852834548.5688720     
   2675444470.4745774     
   3213530592.7698421     
   3049355350.7128792     
   2887913353.5572748     
   2729590831.3705626     
   2574928687.1718264     
   3054172725.9539485     
   2902625884.1978178     
   2756161292.2652116     
   2615452452.8969297     
   2481427070.8060474     
   5657826352.8851252     
   5890896140.5160360     
   6116327388.6016445     
   6331657049.4675455     
   6536658841.9842196     
   5151449144.6788664     
   5311308535.1345673     
   5467801001.0076971     
   5618027821.8773232     
   5760520366.5295267     
   4643463017.8229523     
   4755520980.3194180     
   4868705230.0892992     
   4980379070.4095268     
   5088615380.1734276     
   4134131446.3874936     
   4224371201.8445592     
   4320535496.8207722     
   4420967634.7736692     
   4524212944.6377306     
   3624974875.2381425     
   3719683841.9719672     
   3825649948.4286551     
   3942811494.3498478     
   4071077512.3536673     
   6536658841.9842196     
   6328591558.3100672     
   6142708751.9535599     
   5965110641.1157827     
   5786790160.1130352     
   5760520366.5295267     
   5651990546.2036676     
   5559456632.9506330     
   5473861902.8156004     
   5389665986.9710894     
   5088615380.1734276     
   5053922907.0609217     
   5029737174.2374926     
   5010853613.4732037     
   4994071294.7182846     
   4524212944.6377306     
   4538983380.5347404     
   4558420889.6103411     
   4580044866.3433332     
   4602131769.8197231     
   4071077512.3536673     
   4112497143.3650875     
   4151271876.0984330     
   4186499987.6451664     
   4217446540.0763960     
   5786790160.1130352     
   5635751522.8988504     
   5488861974.0501366     
   5346036363.9522753     
   5207317984.6999693     
   5389665986.9710894     
   5248175646.5348806     
   5109892202.2792807     
   4974857624.7569103     
   4843165246.3773575     
   4994071294.7182846     
   4866591287.3603401     
   4742320486.0139694     
   4621228984.9142704     
   4503361263.0854177     
   4602131769.8197231     
   4493662377.9182549     
   4389467823.6549702     
   4289237095.9697738     
   4192888348.7847242     
   4217446540.0763960     
   4133341903.1349669     
   4055821253.4561768     
   3984045096.4896188     
   3917728596.6282611     
   5207317984.6999693     
   5065591217.6807318     
   4924778584.7695141     
   4784905187.3159227     
   4646105553.2087355     
   4843165246.3773575     
   4717215666.7169905     
   4593014901.2249966     
   4470676919.3138552     
   4350412830.7683353     
   4503361263.0854177     
   4392611233.9328623     
   4284442514.5320082     
   4179037237.7537999     
   4076659536.9941044     
   4192888348.7847242     
   4096688797.1153030     
   4003857397.2611227     
   3914618745.5027261     
   3829262147.9788585     
   3917728596.6282611     
   3835303269.4583249     
   3756931107.8385348     
   3682849567.8229084     
   3613343149.4855676     
   4646105553.2087355     
   4508921247.9883671     
   4373928573.7772846     
   4241272989.0040350     
   4111148432.6720347     
   4350412830.7683353     
   4224866069.1425209     
   4101949528.5950913     
   3981859540.2972493     
   3864849342.3063984     
   4076659536.9941044     
   3963859952.2793894     
   3854278563.9360347     
   3748167186.9350028     
   3645843388.1169577     
   3829262147.9788585     
   3730377103.1658702     
   3635450736.0911441     
   3544788337.1409855     
   3458768285.3462553     
   3613343149.4855676     
   3529504822.4650064     
   3450503300.5716801     
   3376684642.9253254     
   3308471712.9268875     
   4111148432.6720347     
   3965157152.5376000     
   3821503075.3592291     
   3680440825.5178657     
   3542317186.1645107     
   3864849342.3063984     
   3732896629.9069600     
   3604116761.1740308     
   3478843026.0508327     
   3357506071.9931040     
   3645843388.1169577     
   3528496273.7681632     
   3415218100.4947114     
   3306406945.9865594     
   3202556081.7811413     
   3458768285.3462553     
   3356496704.0432806     
   3259205590.3790874     
   3167331626.1446662     
   3081395643.8998356     
   3308471712.9268875     
   3221518204.0880594     
   3140407515.5076966     
   3065577964.2163301     
   2997533064.1100049     
   3542317186.1645107     
   3416529924.6389990     
   3293142002.1745977     
   3172293988.8288960     
   3054172725.9539485     
   3357506071.9931040     
   3240628268.2894368     
   3126708214.6928091     
   3015973583.4327984     
   2908708050.6810236     
   3202556081.7811413     
   3097253282.2185693     
   2995783986.2562051     
   2898490515.1854177     
   2805787221.0595908     
   3081395643.8998356     
   2990358383.9769721     
   2904319672.8810039     
   2823743753.0477304     
   2749181820.3033915     
   2997533064.1100049     
   2923208672.4615865     
   2855256245.1294155     
   2794239659.8781824     
   2740817230.4405966     
   3054172725.9539485     
   2902625884.1978178     
   2756161292.2652116     
   2615452452.8969297     
   2481427070.8060474     
   2908708050.6810236     
   2768481431.1168108     
   2633177358.3785048     
   2503374232.8271694     
   2379817712.0448999     
   2805787221.0595908     
   2681226746.3062401     
   2562161616.2173929     
   2449336910.3154130     
   2343672487.1058612     
   2749181820.3033915     
   2645302888.5712447     
   2548200211.4068522     
   2458995367.7274890     
   2379049631.7627683     
   2740817230.4405966     
   2662708528.8116803     
   2593147201.2124810     
   2533719164.5397739     
   2486315533.6827068     
   3624974875.2381425     
   3719683841.9719672     
   3825649948.4286551     
   3942811494.3498478     
   4071077512.3536673     
   3137961194.4045277     
   3255518618.3337150     
   3382494924.8524976     
   3518422541.6436963     
   3662844991.1003847     
   2694747255.1781745     
   2830535522.8410339     
   2973633198.3991046     
   3122958924.9315095     
   3277602562.2951183     
   2298821997.6031623     
   2449526961.8979244     
   2604946842.6029215     
   2763159239.6054401     
   2922734747.7849474     
   1955393835.9232090     
   2119447321.1869702     
   2284845887.6728258     
   2448628433.8766713     
   2608836591.1218276     
   4071077512.3536673     
   4112497143.3650875     
   4151271876.0984330     
   4186499987.6451664     
   4217446540.0763960     
   3662844991.1003847     
   3702243919.4375615     
   3740268831.6001134     
   3776018264.2687416     
   3808740873.8335843     
   3277602562.2951183     
   3320841290.8543458     
   3364330363.5857010     
   3407245231.2772050     
   3448906782.7029295     
   2922734747.7849474     
   2975672910.9591694     
   3030842135.2267265     
   3087559684.4631786     
   3145292459.5312681     
   2608836591.1218276     
   2676791786.2768555     
   2749261363.7862368     
   2825737245.6270180     
   2905867001.9267750     
   4217446540.0763960     
   4133341903.1349669     
   4055821253.4561768     
   3984045096.4896188     
   3917728596.6282611     
   3808740873.8335843     
   3756140334.4619823     
   3709582087.9766293     
   3668598548.6134729     
   3633098087.3200178     
   3448906782.7029295     
   3423112265.4392471     
   3402427351.5897565     
   3386625008.4729137     
   3375689307.5382819     
   3145292459.5312681     
   3141890420.8791633     
   3142061950.6937699     
   3145706501.8183293     
   3152808087.8640590     
   2905867001.9267750     
   2920808338.2644162     
   2937001708.4876518     
   2954391440.2102036     
   2972936812.8337994     
   3917728596.6282611     
   3835303269.4583249     
   3756931107.8385348     
   3682849567.8229084     
   3613343149.4855676     
   3633098087.3200178     
   3563004812.2648988     
   3497592064.4937129     
   3437105445.1278081     
   3381840552.7969537     
   3375689307.5382819     
   3318506017.7036719     
   3266760624.7986698     
   3220687846.9421692     
   3180574643.7546282     
   3152808087.8640590     
   3108814821.3797135     
   3071130323.0938120     
   3039950976.3303123     
   3015527253.9588833     
   2972936812.8337994     
   2941876490.0766239     
   2918078235.2301044     
   2901667444.8537793     
   2892826591.3360605     
   3613343149.4855676     
   3529504822.4650064     
   3450503300.5716801     
   3376684642.9253254     
   3308471712.9268875     
   3381840552.7969537     
   3312249520.1362619     
   3248093044.6363130     
   3189699249.8120060     
   3137456649.2567239     
   3180574643.7546282     
   3124510112.2912841     
   3074406771.2826014     
   3030553009.2570133     
   2993279785.3098321     
   3015527253.9588833     
   2971898976.2985835     
   2934647690.2571149     
   2904003345.7218356     
   2880221716.8997111     
   2892826591.3360605     
   2860065156.1040363     
   2833950969.1522474     
   2814645287.0586128     
   2802321984.2456074     
   3308471712.9268875     
   3221518204.0880594     
   3140407515.5076966     
   3065577964.2163301     
   2997533064.1100049     
   3137456649.2567239     
   3063850335.7252297     
   2996779043.0078325     
   2936660474.7544293     
   2883964687.9940219     
   2993279785.3098321     
   2932778365.4305196     
   2879478317.6768384     
   2833750146.3507571     
   2796001762.7282591     
   2880221716.8997111     
   2832119191.4858708     
   2791826566.8825331     
   2759643354.2631693     
   2735892303.0561509     
   2802321984.2456074     
   2765334554.1727281     
   2736686477.6608024     
   2716591677.9230962     
   2705276586.9595990     
   2997533064.1100049     
   2923208672.4615865     
   2855256245.1294155     
   2794239659.8781824     
   2740817230.4405966     
   2883964687.9940219     
   2824682008.4926372     
   2772073256.2055283     
   2726595114.7992058     
   2688760916.2054100     
   2796001762.7282591     
   2750132328.6929183     
   2711047768.0510626     
   2679087199.1782579     
   2654617941.0029526     
   2735892303.0561509     
   2701448200.6368995     
   2673711325.8039579     
   2652908306.8477950     
   2639275798.2320695     
   2705276586.9595990     
   2679955392.7696266     
   2661096455.0182858     
   2648832299.4852114     
   2643296334.8931727     
   2740817230.4405966     
   2662708528.8116803     
   2593147201.2124810     
   2533719164.5397739     
   2486315533.6827068     
   2688760916.2054100     
   2630008783.1011028     
   2580688890.2841711     
   2541673181.8498893     
   2513880927.0878220     
   2654617941.0029526     
   2609803158.1447735     
   2574903908.9442306     
   2550351810.7934666     
   2536565381.8585720     
   2639275798.2320695     
   2601895028.4722228     
   2574675305.5778413     
   2557927005.1486630     
   2552045262.3993669     
   2643296334.8931727     
   2606041852.0259991     
   2579127820.0661778     
   2563086354.6090751     
   2558769550.3825221     
   1955393835.9232090     
   2119447321.1869702     
   2284845887.6728258     
   2448628433.8766713     
   2608836591.1218276     
   1653942623.8450158     
   1820370969.9213343     
   1988489451.9102602     
   2155601040.9091749     
   2319947465.9293714     
   1393791264.2621753     
   1571137646.2715607     
   1749486972.9890389     
   1926834939.7477505     
   2101930766.2815545     
   1207251962.2859607     
   1399167918.7577455     
   1590663562.7471137     
   1780961461.3064680     
   1969602584.2212861     
   1137007396.6207669     
   1335310122.3201504     
   1533926035.7606108     
   1732855137.0361831     
   1932097426.5023634     
   2608836591.1218276     
   2676791786.2768555     
   2749261363.7862368     
   2825737245.6270180     
   2905867001.9267750     
   2319947465.9293714     
   2407027070.5936337     
   2496548898.2974977     
   2588124213.8355627     
   2681478158.8452930     
   2101930766.2815545     
   2205714241.8516378     
   2309402244.1127810     
   2412759418.7899466     
   2515619454.3262277     
   1969602584.2212861     
   2086783953.2380843     
   2201101736.7584195     
   2312481386.8906059     
   2420871010.6727586     
   1932097426.5023634     
   2058783099.7244205     
   2180027590.6001353     
   2295830899.1566629     
   2406193026.3913112     
   2905867001.9267750     
   2920808338.2644162     
   2937001708.4876518     
   2954391440.2102036     
   2972936812.8337994     
   2681478158.8452930     
   2703157320.6545019     
   2727152952.1512084     
   2753447584.3742452     
   2782032997.7111368     
   2515619454.3262277     
   2544005854.3211346     
   2575805294.5525990     
   2611019542.2893300     
   2649654558.9089336     
   2420871010.6727586     
   2454447272.0071349     
   2492537107.3344760     
   2535143882.1607804     
   2582272030.8679962     
   2406193026.3913112     
   2441853415.5800743     
   2483120589.4252820     
   2529994570.2431989     
   2582475401.9073772     
   2972936812.8337994     
   2941876490.0766239     
   2918078235.2301044     
   2901667444.8537793     
   2892826591.3360605     
   2782032997.7111368     
   2765330547.9452162     
   2755703102.8684411     
   2753231409.2095609     
   2758025846.9431353     
   2649654558.9089336     
   2644517073.2926536     
   2646000146.0003438     
   2654140742.5344009     
   2668987280.5934749     
   2582272030.8679962     
   2585434893.2787480     
   2594504833.7619128     
   2609490528.9432812     
   2630402902.3988638     
   2582475401.9073772     
   2590511509.1435409     
   2603532053.6427145     
   2621536989.9503422     
   2644526301.3078418     
   2892826591.3360605     
   2860065156.1040363     
   2833950969.1522474     
   2814645287.0586128     
   2802321984.2456074     
   2758025846.9431353     
   2734290257.1320477     
   2717716229.8712239     
   2708411236.3461142     
   2706489007.1024327     
   2668987280.5934749     
   2652372385.5336328     
   2643354017.5045805     
   2641986134.5711427     
   2648324944.4541669     
   2630402902.3988638     
   2618325502.4208789     
   2614195571.7365627     
   2618027438.5843945     
   2629835891.7256293     
   2644526301.3078418     
   2633905683.5041752     
   2631505790.0888190     
   2637326624.0227008     
   2651368187.0203571     
   2802321984.2456074     
   2765334554.1727281     
   2736686477.6608024     
   2716591677.9230962     
   2705276586.9595990     
   2706489007.1024327     
   2679945255.3055878     
   2661889932.5000124     
   2652453963.9388695     
   2651773046.8176193     
   2648324944.4541669     
   2629951366.1114106     
   2620121056.1568303     
   2618895819.3720040     
   2626338779.5023236     
   2629835891.7256293     
   2616935448.9730310     
   2612563956.9761057     
   2616738062.7881160     
   2629474833.0475593     
   2651368187.0203571     
   2641008044.0592518     
   2639122444.5748634     
   2645711705.0811796     
   2660776400.0694413     
   2705276586.9595990     
   2679955392.7696266     
   2661096455.0182858     
   2648832299.4852114     
   2643296334.8931727     
   2651773046.8176193     
   2634249086.8169599     
   2623713087.0298076     
   2620244486.9077024     
   2623921024.0344253     
   2626338779.5023236     
   2614620310.0769048     
   2610350473.2541418     
   2613564072.7886214     
   2624294882.1903262     
   2629474833.0475593     
   2621124987.6916957     
   2620644453.5467672     
   2628040694.5268435     
   2643322895.7542830     
   2660776400.0694413     
   2653057196.9866686     
   2653612259.5528393     
   2662445227.7831721     
   2679565034.8806076     
   2643296334.8931727     
   2606041852.0259991     
   2579127820.0661778     
   2563086354.6090751     
   2558769550.3825221     
   2623921024.0344253     
   2588730349.3302708     
   2563693659.7455244     
   2549004665.7998843     
   2544919587.3054767     
   2624294882.1903262     
   2595350443.5542903     
   2576814162.2353072     
   2568754208.7765770     
   2571235505.8894629     
   2643322895.7542830     
   2624725051.1509657     
   2617223125.5414166     
   2620983880.9477835     
   2636290001.0388770     
   2679565034.8806076     
   2675159111.3238354     
   2682998189.5546317     
   2703555385.8935294     
   2737689389.0300980     
   1137007396.6207669     
   1335310122.3201504     
   1533926035.7606108     
   1732855137.0361831     
   1932097426.5023634     
   1207223253.7033632     
   1399164684.5027394     
   1590687034.5625753     
   1781014221.4320867     
   1969688158.8130460     
   1393753056.7243078     
   1571131856.4891145     
   1749519227.4645579     
   1926912002.2201126     
   2102060219.1724324     
   1653913499.7225344     
   1820363593.8217418     
   1988514489.4710445     
   2155669769.4475069     
   2320071379.8943882     
   1955387805.9989963     
   2119439188.4766471     
   2284850011.9420462     
   2448659502.7403474     
   2608908871.1691546     
   1932097426.5023634     
   2058783099.7244205     
   2180027590.6001353     
   2295830899.1566629     
   2406193026.3913112     
   1969688158.8130460     
   2086846263.3960786     
   2201138381.9614491     
   2312489396.5268016     
   2420847167.8990822     
   2102060219.1724324     
   2205814028.5647068     
   2309467878.2122726     
   2412785908.0689359     
   2515601567.8031516     
   2320071379.8943882     
   2407131617.8386106     
   2496628154.8227153     
   2588172293.1737666     
   2681489126.5477819     
   2608908871.1691546     
   2676868279.3560338     
   2749335735.8039742     
   2825804095.1519856     
   2905921232.1605988     
   2406193026.3913112     
   2441853415.5800743     
   2483120589.4252820     
   2529994570.2431989     
   2582475401.9073772     
   2420847167.8990822     
   2454641602.5704789     
   2492985099.4637713     
   2535881697.0952578     
   2583336043.4574070     
   2515601567.8031516     
   2544313245.5623021     
   2576503192.8753748     
   2612174264.2176909     
   2651333153.9446378     
   2681489126.5477819     
   2703472076.4426184     
   2727858901.8268275     
   2754633307.1497869     
   2783788492.6002836     
   2905921232.1605988     
   2921019950.6513414     
   2937470896.0735326     
   2955218903.5527854     
   2974224941.1615911     
   2582475401.9073772     
   2590511509.1435409     
   2603532053.6427145     
   2621536989.9503422     
   2644526301.3078418     
   2583336043.4574070     
   2586577349.0614977     
   2595816922.7845449     
   2611062655.8565683     
   2632325783.5105572     
   2651333153.9446378     
   2646274968.2184105     
   2648018667.1984773     
   2656601999.0722284     
   2672076308.1229019     
   2783788492.6002836     
   2767027181.6724758     
   2757608292.6995573     
   2755618565.0668244     
   2761177740.5393457     
   2974224941.1615911     
   2942786974.3510265     
   2918956355.7900343     
   2902873556.7594905     
   2894741352.7144542     
   2644526301.3078418     
   2633905683.5041752     
   2631505790.0888190     
   2637326624.0227008     
   2651368187.0203571     
   2632325783.5105572     
   2620647562.3971462     
   2616823065.2689748     
   2620867444.7298713     
   2632796091.8422432     
   2672076308.1229019     
   2656357692.3451529     
   2648061153.7886677     
   2647240532.8012972     
   2653951195.3806672     
   2761177740.5393457     
   2738964064.0965343     
   2723674944.7282414     
   2715414629.2665339     
   2714291955.8179879     
   2894741352.7144542     
   2864266297.9341192     
   2840159726.7773662     
   2822575127.4607496     
   2811675473.6239238     
   2651368187.0203571     
   2641008044.0592518     
   2639122444.5748634     
   2645711705.0811796     
   2660776400.0694413     
   2632796091.8422432     
   2620658704.8901300     
   2617123019.7623610     
   2622203308.0588565     
   2635913787.9316158     
   2653951195.3806672     
   2636751351.9418468     
   2628222309.8319798     
   2628425254.1638317     
   2637422462.0124569     
   2714291955.8179879     
   2688958703.1168542     
   2672278397.6909137     
   2664387561.5489078     
   2665428375.3886938     
   2811675473.6239238     
   2775566758.4913530     
   2747977831.4173374     
   2729138149.7525830     
   2719292933.1179199     
   2660776400.0694413     
   2653057196.9866686     
   2653612259.5528393     
   2662445227.7831721     
   2679565034.8806076     
   2635913787.9316158     
   2625672101.4588389     
   2623348636.4738045     
   2628959945.7034941     
   2642524254.5623083     
   2637422462.0124569     
   2622980380.1252480     
   2616154119.1154666     
   2616986504.3671546     
   2625519574.1828241     
   2665428375.3886938     
   2645342603.4012442     
   2632605266.8005290     
   2627294505.3772483     
   2629487356.6109538     
   2719292933.1179199     
   2692423272.8797460     
   2672652914.8292346     
   2660099229.5532880     
   2654881030.9201245     
   2679565034.8806076     
   2675159111.3238354     
   2682998189.5546317     
   2703555385.8935294     
   2737689389.0300980     
   2642524254.5623083     
   2645175073.8606896     
   2659370121.0779490     
   2685234270.9177833     
   2723008234.0983419     
   2625519574.1828241     
   2626565820.7023945     
   2638361855.2986302     
   2660955820.5252719     
   2694390386.6916304     
   2629487356.6109538     
   2620699065.9159522     
   2621670334.7708030     
   2632643452.0629110     
   2653889018.4347558     
   2654881030.9201245     
   2628843367.1652517     
   2611218612.4874535     
   2602698266.3983870     
   2604223114.1885700     
   1955387805.9989963     
   2119439188.4766471     
   2284850011.9420462     
   2448659502.7403474     
   2608908871.1691546     
   2298840303.2653179     
   2449522072.7088819     
   2604927446.9198308     
   2763133734.7129841     
   2922710921.1065345     
   2694779753.9896307     
   2830533471.5337648     
   2973599988.3207679     
   3122897170.1123705     
   3277514088.5149732     
   3137997039.0126920     
   3255519274.3634591     
   3382459181.3981099     
   3518347906.3853393     
   3662727848.4925480     
   3625003088.6333594     
   3719687260.8014455     
   3825623465.1604080     
   3942748170.4958968     
   4070968756.4000793     
   2608908871.1691546     
   2676868279.3560338     
   2749335735.8039742     
   2825804095.1519856     
   2905921232.1605988     
   2922710921.1065345     
   2975659887.2042661     
   3030834334.2702322     
   3087552799.9975119     
   3145282798.2406645     
   3277514088.5149732     
   3320774427.4790878     
   3364280640.3172317     
   3407209902.8052702     
   3448884166.4488907     
   3662727848.4925480     
   3702162623.1236725     
   3740220299.4105935     
   3776001644.6421323     
   3808756902.2574263     
   4070968756.4000793     
   4112441326.2739439     
   4151267442.3510170     
   4186548109.5350385     
   4217550493.9367518     
   2905921232.1605988     
   2921019950.6513414     
   2937470896.0735326     
   2955218903.5527854     
   2974224941.1615911     
   3145282798.2406645     
   3141793807.3470230     
   3141917770.9686809     
   3145554063.5588799     
   3152689524.7350974     
   3448884166.4488907     
   3422829149.0633607     
   3401870817.8199301     
   3385779950.3579669     
   3374542369.1368527     
   3808756902.2574263     
   3755815904.9175715     
   3708862323.2498121     
   3667422700.6292701     
   3631403454.0522137     
   4217550493.9367518     
   4133129033.7523780     
   4055205666.8355875     
   3982930505.3151798     
   3916011049.9980965     
   2974224941.1615911     
   2942786974.3510265     
   2918956355.7900343     
   2902873556.7594905     
   2894741352.7144542     
   3152689524.7350974     
   3107667639.1922569     
   3069080284.7077332     
   3037132271.2506719     
   3012082449.0158038     
   3374542369.1368527     
   3316186997.1110477     
   3263227655.0646477     
   3215895648.3463621     
   3174470156.2946210     
   3631403454.0522137     
   3560544502.5378108     
   3494211372.3701034     
   3432632581.7428584     
   3376079078.6263380     
   3916011049.9980965     
   3833777010.2363267     
   3755381638.6623344     
   3681032326.3292174     
   3610974242.3592529     
   2894741352.7144542     
   2864266297.9341192     
   2840159726.7773662     
   2822575127.4607496     
   2811675473.6239238     
   3012082449.0158038     
   2970005364.0168653     
   2934180071.6312032     
   2904831268.1912661     
   2882207716.0425534     
   3174470156.2946210     
   3119087696.9253182     
   3069633650.1780276     
   3026392915.2147231     
   2989694950.1834512     
   3376079078.6263380     
   3306150086.2612319     
   3241660321.7214179     
   3182932620.8585606     
   3130357660.4525437     
   3610974242.3592529     
   3525619418.7745161     
   3445099966.8412390     
   3369749290.8204417     
   3299991187.1149650     
   2811675473.6239238     
   2775566758.4913530     
   2747977831.4173374     
   2729138149.7525830     
   2719292933.1179199     
   2882207716.0425534     
   2833870762.6262808     
   2793438509.8389883     
   2761222768.3391376     
   2737560993.4797659     
   2989694950.1834512     
   2928146577.1519022     
   2873817525.9185791     
   2827082824.2302089     
   2788356675.1664543     
   3130357660.4525437     
   3055219826.0879555     
   2986573346.0799379     
   2924828715.3079705     
   2870449530.3004308     
   3299991187.1149650     
   3211354148.4565611     
   3128477183.7722254     
   3051777579.6715508     
   2981736888.4927831     
   2719292933.1179199     
   2692423272.8797460     
   2672652914.8292346     
   2660099229.5532880     
   2654881030.9201245     
   2737560993.4797659     
   2701617640.8110743     
   2672723471.6889162     
   2651079938.5911903     
   2636894119.7380071     
   2788356675.1664543     
   2741242124.7947478     
   2700958107.7063189     
   2667798533.9886055     
   2642075166.4062352     
   2870449530.3004308     
   2810523292.5861640     
   2757026818.5332484     
   2710339733.7788782     
   2670879740.9176979     
   2981736888.4927831     
   2907844294.6587973     
   2839809976.8620267     
   2778077769.7624979     
   2723155275.8167419     
   2654881030.9201245     
   2628843367.1652517     
   2611218612.4874535     
   2602698266.3983870     
   2604223114.1885700     
   2636894119.7380071     
   2592653953.1980000     
   2557039254.8114815     
   2530635229.2361474     
   2514138087.3202872     
   2642075166.4062352     
   2581674877.4046855     
   2530211733.4237952     
   2488233041.1508155     
   2456322002.7545867     
   2670879740.9176979     
   2596247324.9044380     
   2530990925.5039511     
   2475700616.5659971     
   2431003586.6742435     
   2723155275.8167419     
   2635968594.1504607     
   2558759873.1255617     
   2492252459.2101417     
   2437291092.0805130     
   3625003088.6333594     
   3719687260.8014455     
   3825623465.1604080     
   3942748170.4958968     
   4070968756.4000793     
   4134147096.5589280     
   4224376335.1125269     
   4320524962.3755465     
   4420935972.7888479     
   4524154554.0155830     
   4643467647.4830284     
   4755529302.0969915     
   4868712620.4698420     
   4980382454.7242880     
   5088613310.8395710     
   5151444450.9238653     
   5311321419.9110088     
   5467827657.6323013     
   5618067724.3146210     
   5760576114.3307552     
   5657813750.2682247     
   5890914844.3152409     
   6116374350.1035461     
   6331733831.6009502     
   6536771069.8217554     
   4070968756.4000793     
   4112441326.2739439     
   4151267442.3510170     
   4186548109.5350385     
   4217550493.9367518     
   4524154554.0155830     
   4539001030.2624788     
   4558518255.4457388     
   4580226335.4170103     
   4602401949.5190411     
   5088613310.8395710     
   5053990307.8610916     
   5029878342.7706070     
   5011071656.7677364     
   4994369669.6099710     
   5760576114.3307552     
   5652080796.4966927     
   5559583954.5251169     
   5474024796.9311333     
   5389863677.4045630     
   6536771069.8217554     
   6328676164.1768503     
   6142766259.4097691     
   5965132857.9958687     
   5786768577.7352171     
   4217550493.9367518     
   4133129033.7523780     
   4055205666.8355875     
   3982930505.3151798     
   3916011049.9980965     
   4602401949.5190411     
   4493770505.3517132     
   4389363956.5150309     
   4288865809.9653811     
   4192187254.8348050     
   4994369669.6099710     
   4866903526.1492290     
   4742632821.0786390     
   4621525996.9645815     
   4503624158.1237803     
   5389863677.4045630     
   5248561691.6896935     
   5110488814.5003061     
   4975687069.0624380     
   4844250737.2078829     
   5786768577.7352171     
   5636073656.6702280     
   5489586646.7481375     
   5347221450.0628805     
   5209025981.3942108     
   3916011049.9980965     
   3833777010.2363267     
   3755381638.6623344     
   3681032326.3292174     
   3610974242.3592529     
   4192187254.8348050     
   4097369584.7404580     
   4005859187.4797082     
   3917869520.1945758     
   3833672047.2522912     
   4503624158.1237803     
   4394588997.0553198     
   4288131475.2786274     
   4184439366.3945227     
   4083785231.0176721     
   4844250737.2078829     
   4719542932.3773603     
   4596554648.8436642     
   4475414337.3544130     
   4356364454.4911165     
   5209025981.3942108     
   5067325465.9026470     
   4926418439.2527313     
   4786341446.4830637     
   4647273720.7912111     
   3610974242.3592529     
   3525619418.7745161     
   3445099966.8412390     
   3369749290.8204417     
   3299991187.1149650     
   3833672047.2522912     
   3733401316.0794268     
   3637076117.1063800     
   3544994724.9310470     
   3457533514.3778677     
   4083785231.0176721     
   3969884237.0086131     
   3859230427.6773810     
   3752073039.1220398     
   3648727050.2709007     
   4356364454.4911165     
   4230138086.2585187     
   4106654404.9894423     
   3986109908.7599273     
   3868756258.9155965     
   4647273720.7912111     
   4509957100.2510328     
   4375060366.3141823     
   4242729267.0721798     
   4113157241.2879138     
   3299991187.1149650     
   3211354148.4565611     
   3128477183.7722254     
   3051777579.6715508     
   2981736888.4927831     
   3457533514.3778677     
   3354612616.6450429     
   3256616986.2713289     
   3163970675.2534575     
   3077179900.9843698     
   3648727050.2709007     
   3531443112.1351328     
   3418192464.2468805     
   3309371960.2346921     
   3205472286.9754343     
   3868756258.9155965     
   3737281231.7956796     
   3608946325.5505147     
   3484095280.4916139     
   3363169887.5776548     
   4113157241.2879138     
   3967803230.7345228     
   3824736032.8697038     
   3684230225.9968934     
   3546656019.3126316     
   2981736888.4927831     
   2907844294.6587973     
   2839809976.8620267     
   2778077769.7624979     
   2723155275.8167419     
   3077179900.9843698     
   2988761010.7130322     
   2905202309.3693161     
   2826926249.7252192     
   2754428438.7947989     
   3205472286.9754343     
   3103503748.6796174     
   3005439840.5855713     
   2911647008.2526631     
   2822565995.3316603     
   3363169887.5776548     
   3248928644.6760306     
   3137742646.3965669     
   3029902620.9929781     
   2925766763.9898634     
   3546656019.3126316     
   3421546170.9796004     
   3298789026.0366688     
   3178595482.8133707     
   3061232176.1214371     
   2723155275.8167419     
   2635968594.1504607     
   2558759873.1255617     
   2492252459.2101417     
   2437291092.0805130     
   2754428438.7947989     
   2651143152.9704614     
   2556115956.9787164     
   2470158779.7869768     
   2394203936.0269032     
   2822565995.3316603     
   2701530952.2525535     
   2586565855.2377419     
   2478483902.8321557     
   2378261359.4039960     
   2925766763.9898634     
   2786902793.3954434     
   2651637231.3777113     
   2520677779.9195867     
   2394953808.9976530     
   3061232176.1214371     
   2905815184.3736567     
   2751516339.6774960     
   2598872086.3606930     
   2448700512.8486710     
   5657813750.2682247     
   5890914844.3152409     
   6116374350.1035461     
   6331733831.6009502     
   6536771069.8217554     
   6491662100.3866186     
   6586885306.4552584     
   6757440499.1611376     
   6961247080.0280924     
   7171644978.7140512     
   7982351646.3319607     
   7734979039.9719992     
   7669176745.2608442     
   7669638955.3055239     
   7666434460.3089113     
   10130328810.854263     
   9322036173.4073620     
   8826392527.9814110     
   8443564561.5429983     
   8035744281.3575897     
   12935679848.793486     
   11340770044.130297     
   10210254276.267527     
   9272790261.7663956     
   8303938125.4160576     
   6536771069.8217554     
   6328676164.1768503     
   6142766259.4097691     
   5965132857.9958687     
   5786768577.7352171     
   7171644978.7140512     
   6910987948.0411100     
   6658227308.5083075     
   6409504249.8095016     
   6161673664.8627224     
   7666434460.3089113     
   7381181576.3566599     
   7101316693.5432787     
   6826918099.0718031     
   6558189174.0801916     
   8035744281.3575897     
   7746905383.4956074     
   7473729762.3374939     
   7214260339.7646627     
   6968504076.3495531     
   8303938125.4160576     
   8020720509.6294985     
   7779599801.5150099     
   7569893975.1243029     
   7386631584.7709255     
   5786768577.7352171     
   5636073656.6702280     
   5489586646.7481375     
   5347221450.0628805     
   5209025981.3942108     
   6161673664.8627224     
   6012577862.3198977     
   5864836540.4322748     
   5718488365.0117502     
   5573589960.5640650     
   6558189174.0801916     
   6407545628.9765882     
   6255297416.9057913     
   6101413358.1024637     
   5945922629.5105534     
   6968504076.3495531     
   6814515828.2007761     
   6655940351.0166636     
   6492495737.3758154     
   6324130071.4087286     
   7386631584.7709255     
   7228489619.8393326     
   7062864426.3861198     
   6889063076.3279819     
   6706895944.5014744     
   5209025981.3942108     
   5067325465.9026470     
   4926418439.2527313     
   4786341446.4830637     
   4647273720.7912111     
   5573589960.5640650     
   5414424664.1379280     
   5256123871.2342215     
   5098727693.5950909     
   4942338619.8450556     
   5945922629.5105534     
   5772642839.5236225     
   5600731765.6938200     
   5430214116.2865658     
   5261149008.4718847     
   6324130071.4087286     
   6139566481.0855122     
   5957251497.5973616     
   5777163681.2541571     
   5599329413.2656889     
   6706895944.5014744     
   6513376912.0091009     
   6323325348.6038408     
   6136631876.7185745     
   5953280162.6744499     
   4647273720.7912111     
   4509957100.2510328     
   4375060366.3141823     
   4242729267.0721798     
   4113157241.2879138     
   4942338619.8450556     
   4795630175.4103336     
   4650311304.9648037     
   4506497248.3239222     
   4364343271.5608463     
   5261149008.4718847     
   5105261039.4723520     
   4949783814.9599428     
   4794789632.5041914     
   4640386847.7751522     
   5599329413.2656889     
   5434643725.6960487     
   5269460107.7012253     
   5103801211.9830751     
   4937725574.9275351     
   5953280162.6744499     
   5780296893.7878122     
   5605989146.2483253     
   5430327736.4575996     
   5253323101.7817745     
   4113157241.2879138     
   3967803230.7345228     
   3824736032.8697038     
   3684230225.9968934     
   3546656019.3126316     
   4364343271.5608463     
   4204749302.5537019     
   4046880878.4335122     
   3890923729.0730505     
   3737142994.9745183     
   4640386847.7751522     
   4467612385.5923290     
   4296149717.2818899     
   4126108249.9202662     
   3957662601.9084344     
   4937725574.9275351     
   4752594971.4720068     
   4568492013.5881214     
   4385464690.4839582     
   4203615632.0142388     
   5253323101.7817745     
   5056435537.3200216     
   4860398042.1411724     
   4665211290.8505793     
   4470924053.3475323     
   3546656019.3126316     
   3421546170.9796004     
   3298789026.0366688     
   3178595482.8133707     
   3061232176.1214371     
   3737142994.9745183     
   3601703273.7924395     
   3467829741.6814809     
   3335693096.5865803     
   3205522672.2330537     
   3957662601.9084344     
   3811789814.6379089     
   3666668562.5869050     
   3522414330.8976884     
   3379201941.5577908     
   4203615632.0142388     
   4047274503.4928155     
   3890880923.0003858     
   3734486179.3461890     
   3578200012.0342007     
   4470924053.3475323     
   4304111692.4847040     
   4136481454.3803430     
   3968016532.8801355     
   3798757036.6533937     
   3061232176.1214371     
   2905815184.3736567     
   2751516339.6774960     
   2598872086.3606930     
   2448700512.8486710     
   3205522672.2330537     
   3037282785.5493336     
   2870864665.1658778     
   2706543203.5963268     
   2544722724.2152214     
   3379201941.5577908     
   3199416865.8844714     
   3022375693.5391455     
   2848303865.3982005     
   2677583016.0163035     
   3578200012.0342007     
   3386576590.3369575     
   3198704476.2664323     
   3014945445.6868472     
   2836001092.0813088     
   3798757036.6533937     
   3593707672.9105520     
   3393434371.5842500     
   3198602466.6150384     
   3010533403.5057359     
 </DataArray>
 <DataArray  type="Float64" Name="strain" NumberOfComponents="3" format="ascii">
  0.20348215038711520        0.0000000000000000       0.12539901428106576     
  0.18665407694354585       -2.7321837974316671E-002   7.4349849601808585E-002
  0.16982600349997656       -4.4672737883179721E-002   3.5133560715271142E-002
  0.15299793005640724       -5.2052699726589144E-002   7.7501476214534779E-003
  0.13616985661283790       -4.9461723504544919E-002  -7.8003896796444983E-003
  0.15985348672318123        0.0000000000000000        9.6445870547994139E-002
  0.15317681019931434       -2.1842586411073221E-002   6.2689614340899660E-002
  0.14650013367544745       -3.6172384726093368E-002   3.7403276180490344E-002
  0.13982345715158057       -4.2989394945060426E-002   2.0586856066766156E-002
  0.13314678062771368       -4.2293617067974430E-002   1.2240353999727095E-002
  0.12645734732367389        0.0000000000000000        7.4201053362866254E-002
  0.12656910997347484       -1.6363334847829758E-002   5.5279555658533937E-002
  0.12668087262327582       -2.7672031569006994E-002   4.1465018254852173E-002
  0.12679263527307677       -3.3926090163531715E-002   3.2757441151820950E-002
  0.12690439792287775       -3.5125510631403928E-002   2.9156824349440204E-002
  0.10329373218859324        0.0000000000000000        5.8664562725682087E-002
  0.10683097626602744       -1.0884083284586300E-002   5.2119673554711379E-002
  0.11036822034346161       -1.9171678411920638E-002   4.7318786938356644E-002
  0.11390546442089582       -2.4862785382003007E-002   4.4261902876617777E-002
  0.11744270849833000       -2.7957404194833418E-002   4.2949021369494869E-002
   9.0362641317939252E-002   0.0000000000000000        4.9836398636441681E-002
   9.3962409076972064E-002  -5.4048317213428411E-003   5.3209968029432037E-002
   9.7562176836004877E-002  -1.0671325254834274E-002   5.4964582231003714E-002
  0.10116194459503769       -1.5799480600474293E-002   5.5100241241156700E-002
  0.10476171235407050       -2.0789297758262919E-002   5.3616945059891022E-002
  0.13616985661283790       -4.9461723504544919E-002  -7.8003896796444983E-003
  0.13296067004493262       -4.2931352299935339E-002  -3.3932669181853531E-003
  0.12975148347702736       -3.8493129195648630E-002  -3.9725757328889361E-004
  0.12654229690912211       -3.6147054191684673E-002   1.1876383550450537E-003
  0.12333311034121680       -3.5893127288043530E-002   1.3614208668162042E-003
  0.13314678062771368       -4.2293617067974430E-002   1.2240353999727095E-002
  0.12891395668048639       -3.8430754389284186E-002   1.2180262782131308E-002
  0.12468113273325909       -3.5746510203438567E-002   1.1484010222454124E-002
  0.12044830878603180       -3.4240884510437566E-002   1.0151596320695415E-002
  0.11621548483880451       -3.3913877310281226E-002   8.1830210768554096E-003
  0.12690439792287775       -3.5125510631403928E-002   2.9156824349440204E-002
  0.12242288867080960       -3.3930156478633053E-002   2.5543048760267792E-002
  0.11794137941874146       -3.2999891211228594E-002   2.2068063903495104E-002
  0.11345987016667336       -3.2334714829190536E-002   1.8731869779122258E-002
  0.10897836091460521       -3.1934627332518797E-002   1.5534466387149053E-002
  0.11744270849833000       -2.7957404194833418E-002   4.2949021369494869E-002
  0.11348746601590223       -2.9429558567981920E-002   3.6695091016223966E-002
  0.10953222353347447       -3.0253272219018593E-002   3.1354903469834071E-002
  0.10557698105104671       -3.0428545147943437E-002   2.6928458730325087E-002
  0.10162173856861895       -2.9955377354756431E-002   2.3415756797697099E-002
  0.10476171235407050       -2.0789297758262919E-002   5.3616945059891022E-002
  0.10210768871576431       -2.4928960657330780E-002   4.5636389549999906E-002
   9.9453665077458120E-002  -2.7506653226808602E-002   3.9344528921471007E-002
   9.6799641439151915E-002  -2.8522375466696382E-002   3.4741363174304180E-002
   9.4145617800845710E-002  -2.7976127376994050E-002   3.1826892308499652E-002
  0.12333311034121680       -3.5893127288043530E-002   1.3614208668162042E-003
  0.12041617061755328       -3.6384504026409928E-002   6.4719655080544558E-004
  0.11749923089388975       -3.6274339948468411E-002   1.1456694585562643E-004
  0.11458229117022621       -3.5562635054218916E-002  -2.3646794803298260E-004
  0.11166535144656270       -3.4249389343661452E-002  -4.0590813086083255E-004
  0.11621548483880451       -3.3913877310281226E-002   8.1830210768554096E-003
  0.11346753794734142       -3.3984020769024972E-002   7.8296254558732070E-003
  0.11071959105587839       -3.3669847052724584E-002   7.6326207882311883E-003
  0.10797164416441531       -3.2971356161379861E-002   7.5920070739290968E-003
  0.10522369727295230       -3.1888548094991059E-002   7.7077843129667034E-003
  0.10897836091460521       -3.1934627332518797E-002   1.5534466387149053E-002
  0.10637420309762159       -3.1583537511640010E-002   1.5324675819931806E-002
  0.10377004528063802       -3.1065354156980727E-002   1.5246072448333526E-002
  0.10116588746365442       -3.0380077268540889E-002   1.5298656272354326E-002
   9.8561729646670843E-002  -2.9527706846320528E-002   1.5482427291993978E-002
  0.10162173856861895       -2.9955377354756431E-002   2.3415756797697099E-002
   9.9136166068393788E-002  -2.9183054254255065E-002   2.3132347642981069E-002
   9.6650593568168686E-002  -2.8460861261236911E-002   2.2954921926163076E-002
   9.4165021067943500E-002  -2.7788798375701876E-002   2.2883479647242962E-002
   9.1679448567718397E-002  -2.7166865597650067E-002   2.2918020806220747E-002
   9.4145617800845710E-002  -2.7976127376994050E-002   3.1826892308499652E-002
   9.1753426859658010E-002  -2.6782570996870127E-002   3.1252640925021127E-002
   8.9361235918470297E-002  -2.5856368365493054E-002   3.0759169221719514E-002
   8.6969044977282556E-002  -2.5197519482862907E-002   3.0346477198594974E-002
   8.4576854036094884E-002  -2.4806024348979577E-002   3.0014564855647186E-002
  0.11166535144656270       -3.4249389343661452E-002  -4.0590813086083255E-004
  0.10854294122010716       -3.2743357419831920E-002  -1.8934539385068172E-004
  0.10542053099365167       -3.1453293885766093E-002   1.2855186603924484E-004
  0.10229812076719613       -3.0379198741463824E-002   5.4778364880861408E-004
   9.9175710540740647E-002  -2.9521071986925163E-002   1.0683499544577035E-003
  0.10522369727295230       -3.1888548094991059E-002   7.7077843129667034E-003
  0.10222289299591225       -3.0678791287907042E-002   7.5511109821330968E-003
   9.9222088718872267E-002  -2.9599454174476826E-002   7.5363150272507173E-003
   9.6221284441832255E-002  -2.8650536754700424E-002   7.6633964483198425E-003
   9.3220480164792230E-002  -2.7832039028578226E-002   7.9323552453405000E-003
   9.8561729646670843E-002  -2.9527706846320528E-002   1.5482427291993978E-002
   9.5723074172118144E-002  -2.8614225155981998E-002   1.5038066589426115E-002
   9.2884418697565460E-002  -2.7745614463187560E-002   1.4776126115881583E-002
   9.0045763223012748E-002  -2.6921874767937250E-002   1.4696605871360159E-002
   8.7207107748460036E-002  -2.6143006070231151E-002   1.4799505855862052E-002
   9.1679448567718397E-002  -2.7166865597650067E-002   2.2918020806220747E-002
   8.9043484748724810E-002  -2.6549659024056954E-002   2.2271521428028559E-002
   8.6407520929731266E-002  -2.5891774751898321E-002   2.1847985131931393E-002
   8.3771557110737666E-002  -2.5193212781173965E-002   2.1647411917929293E-002
   8.1135593291744135E-002  -2.4453973111883978E-002   2.1669801786022205E-002
   8.4576854036094884E-002  -2.4806024348979577E-002   3.0014564855647186E-002
   8.2184124725732263E-002  -2.4485092892132007E-002   2.9251475497940382E-002
   7.9791395415369670E-002  -2.4037935040609040E-002   2.8751892075400395E-002
   7.7398666105007036E-002  -2.3464550794410694E-002   2.8515814588027363E-002
   7.5005936794644429E-002  -2.2764940153537000E-002   2.8543243035821064E-002
   9.9175710540740647E-002  -2.9521071986925163E-002   1.0683499544577035E-003
   9.6271726598136431E-002  -2.8735837594449726E-002   9.2092089495160456E-004
   9.3367742655532188E-002  -2.7880419536337089E-002   9.1270448143562777E-004
   9.0463758712927958E-002  -2.6954817812587174E-002   1.0437007139097038E-003
   8.7559774770323728E-002  -2.5959032423199524E-002   1.3139095923735411E-003
   9.3220480164792230E-002  -2.7832039028578226E-002   7.9323552453405000E-003
   9.0458772285263056E-002  -2.7056204573971954E-002   7.7874859706652533E-003
   8.7697064405733854E-002  -2.6235276968743976E-002   7.7879561761500932E-003
   8.4935356526204694E-002  -2.5369256212894382E-002   7.9337658617949017E-003
   8.2173648646675534E-002  -2.4458142306423070E-002   8.2249150275998106E-003
   8.7207107748460036E-002  -2.6143006070231151E-002   1.4799505855862052E-002
   8.4593802766175993E-002  -2.5376571553494029E-002   1.4632105851001886E-002
   8.1980497783891937E-002  -2.4590134401150855E-002   1.4616172160471917E-002
   7.9367192801607825E-002  -2.3783694613201754E-002   1.4751704784272134E-002
   7.6753887819323824E-002  -2.2957252189646393E-002   1.5038703722402597E-002
   8.1135593291744135E-002  -2.4453973111883978E-002   2.1669801786022205E-002
   7.8676818040875285E-002  -2.3696938533016070E-002   2.1454780535961525E-002
   7.6218042790006366E-002  -2.2944991833557849E-002   2.1397352434401169E-002
   7.3759267539137502E-002  -2.2198133013508991E-002   2.1497517481340888E-002
   7.1300492288268597E-002  -2.1456362072869828E-002   2.1755275676781143E-002
   7.5005936794644429E-002  -2.2764940153537000E-002   2.8543243035821064E-002
   7.2707818109360806E-002  -2.2017305512538179E-002   2.8255510025544162E-002
   7.0409699424077168E-002  -2.1299849265964600E-002   2.8131496997937808E-002
   6.8111580738793503E-002  -2.0612571413816387E-002   2.8171203953001621E-002
   6.5813462053509852E-002  -1.9955471956093207E-002   2.8374630890735608E-002
   8.7559774770323728E-002  -2.5959032423199524E-002   1.3139095923735411E-003
   8.4269658583443152E-002  -2.4944588573565851E-002   1.1103890480170242E-003
   8.0979542396562521E-002  -2.3963011469076673E-002   1.1064282224671484E-003
   7.7689426209681917E-002  -2.3014301109732384E-002   1.3020271157236918E-003
   7.4399310022801313E-002  -2.2098457495532742E-002   1.6971857277866542E-003
   8.2173648646675534E-002  -2.4458142306423070E-002   8.2249150275998106E-003
   7.9083587665802146E-002  -2.3534622369670077E-002   7.9616813491391047E-003
   7.5993526684928731E-002  -2.2631383522975890E-002   7.8989983638859673E-003
   7.2903465704055329E-002  -2.1748425766339757E-002   8.0368660718411339E-003
   6.9813404723181927E-002  -2.0885749099762263E-002   8.3752844730038967E-003
   7.6753887819323824E-002  -2.2957252189646393E-002   1.5038703722402597E-002
   7.3864873018858995E-002  -2.2124656165774359E-002   1.4728342564923419E-002
   7.0975858218394292E-002  -2.1299755576874538E-002   1.4619523075053875E-002
   6.8086843417929505E-002  -2.0482550422947016E-002   1.4712245252793320E-002
   6.5197828617464759E-002  -1.9673040703992006E-002   1.5006509098142634E-002
   7.1300492288268597E-002  -2.1456362072869828E-002   2.1755275676781143E-002
   6.8613514642613879E-002  -2.0714689961878557E-002   2.1410372695369925E-002
   6.5926536996959190E-002  -1.9968127630773359E-002   2.1268002355969724E-002
   6.3239559351304458E-002  -1.9216675079554442E-002   2.1328164658580215E-002
   6.0552581705649783E-002  -1.8460332308221639E-002   2.1590859603201458E-002
   6.5813462053509852E-002  -1.9955471956093207E-002   2.8374630890735608E-002
   6.3329512537066673E-002  -1.9304723757982728E-002   2.8007771740478860E-002
   6.0845563020623494E-002  -1.8636499684672417E-002   2.7844436206634071E-002
   5.8361613504180315E-002  -1.7950799736161819E-002   2.7884624289201673E-002
   5.5877663987737136E-002  -1.7247623912451271E-002   2.8128335988181430E-002
   7.4399310022801313E-002  -2.2098457495532742E-002   1.6971857277866542E-003
   7.1633846938561119E-002  -2.1167809271148641E-002   1.5031589500277276E-003
   6.8868383854320925E-002  -2.0174685081251836E-002   1.5303776109459322E-003
   6.6102920770080731E-002  -1.9119084925840905E-002   1.7788417105406851E-003
   6.3337457685840537E-002  -1.8001008804917951E-002   2.2485512488122916E-003
   6.9813404723181927E-002  -2.0885749099762263E-002   8.3752844730038967E-003
   6.7254287207145991E-002  -2.0017776508510055E-002   8.1833614711355196E-003
   6.4695169691110138E-002  -1.9118930977850307E-002   8.1828841669988328E-003
   6.2136052175074244E-002  -1.8189212507783152E-002   8.3738525605941971E-003
   5.9576934659038350E-002  -1.7228621098307584E-002   8.7562666519209742E-003
   6.5197828617464759E-002  -1.9673040703992006E-002   1.5006509098142634E-002
   6.2815256928688223E-002  -1.8867743745871718E-002   1.4785086846058670E-002
   6.0432685239911604E-002  -1.8063176874449458E-002   1.4725310550761775E-002
   5.8050113551135013E-002  -1.7259340089724292E-002   1.4827180212251843E-002
   5.5667541862358449E-002  -1.6456233391697495E-002   1.5090695830528550E-002
   6.0552581705649783E-002  -1.8460332308221639E-002   2.1590859603201458E-002
   5.8316756103187581E-002  -1.7717710983233256E-002   2.1308335074797173E-002
   5.6080930500725379E-002  -1.7007422771048213E-002   2.1157656762234581E-002
   5.3845104898263205E-002  -1.6329467671666209E-002   2.1138824665514075E-002
   5.1609279295800975E-002  -1.5683845685087267E-002   2.1251838784635317E-002
   5.5877663987737136E-002  -1.7247623912451271E-002   2.8128335988181430E-002
   5.3758784730644271E-002  -1.6567678220594767E-002   2.7753106157351159E-002
   5.1639905473551462E-002  -1.5951668667647106E-002   2.7479922801417533E-002
   4.9521026216458652E-002  -1.5399595253607602E-002   2.7308785920380829E-002
   4.7402146959365843E-002  -1.4911457978477038E-002   2.7239695514241102E-002
   6.3337457685840537E-002  -1.8001008804917951E-002   2.2485512488122916E-003
   5.9812026403863294E-002  -1.6663966696286336E-002   1.7816052857413389E-003
   5.6286595121886052E-002  -1.4951468577750565E-002   1.5965091373055240E-003
   5.2761163839908698E-002  -1.2863514449310949E-002   1.6932628035047359E-003
   4.9235732557931566E-002  -1.0400104310968050E-002   2.0718662843388636E-003
   5.9576934659038350E-002  -1.7228621098307584E-002   8.7562666519209742E-003
   5.6318529544844398E-002  -1.6129896843810387E-002   8.4360516523903084E-003
   5.3060124430650391E-002  -1.4785779838676100E-002   8.3680391737914195E-003
   4.9801719316456522E-002  -1.3196270082905408E-002   8.5522292161232805E-003
   4.6543314202262542E-002  -1.1361367576497639E-002   8.9886217793877510E-003
   5.5667541862358449E-002  -1.6456233391697495E-002   1.5090695830528550E-002
   5.2646515622243983E-002  -1.5595826991334494E-002   1.4787148535271549E-002
   4.9625489382129490E-002  -1.4620091099601842E-002   1.4706156467242673E-002
   4.6604463142014912E-002  -1.3529025716499474E-002   1.4847719626440360E-002
   4.3583436901900474E-002  -1.2322630842027671E-002   1.5211838012866630E-002
   5.1609279295800975E-002  -1.5683845685087267E-002   2.1251838784635317E-002
   4.8795984636062127E-002  -1.5061757138858461E-002   2.0834895934385013E-002
   4.5982689976323265E-002  -1.4454402360527370E-002   2.0610861017658601E-002
   4.3169395316584529E-002  -1.3861781350093737E-002   2.0579734034455406E-002
   4.0356100656845667E-002  -1.3283894107557481E-002   2.0741514984776749E-002
   4.7402146959365843E-002  -1.4911457978477038E-002   2.7239695514241102E-002
   4.4766936586298850E-002  -1.4527687286382762E-002   2.6579293849730123E-002
   4.2131726213231940E-002  -1.4288713621452981E-002   2.6082152825039284E-002
   3.9496515840164975E-002  -1.4194536983687882E-002   2.5748272440168252E-002
   3.6861305467097982E-002  -1.4245157373087292E-002   2.5577652695117470E-002
   9.0362641317939252E-002   0.0000000000000000        4.9836398636441681E-002
   9.3962409076972064E-002  -5.4048317213428411E-003   5.3209968029432037E-002
   9.7562176836004877E-002  -1.0671325254834274E-002   5.4964582231003714E-002
  0.10116194459503769       -1.5799480600474293E-002   5.5100241241156700E-002
  0.10476171235407050       -2.0789297758262919E-002   5.3616945059891022E-002
   8.2425849449814931E-002   0.0000000000000000        4.4784270139733878E-002
   8.4635789784392318E-002  -4.5745437085428393E-003   4.8267922603850058E-002
   8.6845730118969719E-002  -9.0376624778772483E-003   5.0590875410474079E-002
   8.9055670453547120E-002  -1.3389356308003222E-002   5.1753128559605940E-002
   9.1265610788124507E-002  -1.7629625198920758E-002   5.1754682051245671E-002
   7.4245131322323216E-002   0.0000000000000000        4.0575886280147570E-002
   7.5523499766371724E-002  -3.7442556957428381E-003   4.4142708566746583E-002
   7.6801868210420246E-002  -7.4039997009202191E-003   4.7007086729779969E-002
   7.8080236654468754E-002  -1.0979232015532140E-002   4.9169020769247743E-002
   7.9358605098517276E-002  -1.4469952639578605E-002   5.0628510685149904E-002
   6.5820486935464134E-002   0.0000000000000000        3.7211247057682750E-002
   6.6625539022910310E-002  -2.9139676829428376E-003   4.0834325918121632E-002
   6.7430591110356458E-002  -5.7703369239631907E-003   4.4213216188921406E-002
   6.8235643197802634E-002  -8.5691077230610618E-003   4.7347917870082100E-002
   6.9040695285248782E-002  -1.1310280080236452E-002   5.0238430961603721E-002
   5.7151916289237686E-002   0.0000000000000000        3.4690352472339418E-002
   5.7941907554008035E-002  -2.0836796701428351E-003   3.8342774657975170E-002
   5.8731898818778383E-002  -4.1366741470061641E-003   4.2209263787898375E-002
   5.9521890083548717E-002  -6.1589834305899854E-003   4.6289819862109033E-002
   6.0311881348319052E-002  -8.1506075208942954E-003   5.0584442880607129E-002
  0.10476171235407050       -2.0789297758262919E-002   5.3616945059891022E-002
  0.10210768871576431       -2.4928960657330780E-002   4.5636389549999906E-002
   9.9453665077458120E-002  -2.7506653226808602E-002   3.9344528921471007E-002
   9.6799641439151915E-002  -2.8522375466696382E-002   3.4741363174304180E-002
   9.4145617800845710E-002  -2.7976127376994050E-002   3.1826892308499652E-002
   9.1265610788124507E-002  -1.7629625198920758E-002   5.1754682051245671E-002
   9.0062648546685400E-002  -2.1204051105205329E-002   4.6516704613022056E-002
   8.8859686305246280E-002  -2.3558215981432366E-002   4.2492155087170372E-002
   8.7656724063807132E-002  -2.4692119827601909E-002   3.9681033473690695E-002
   8.6453761822368039E-002  -2.4605762643713905E-002   3.8083339772582984E-002
   7.9358605098517276E-002  -1.4469952639578605E-002   5.0628510685149904E-002
   7.9131437284955058E-002  -1.7479141553079853E-002   4.7791402019061166E-002
   7.8904269471392813E-002  -1.9609778736056131E-002   4.5692454296354233E-002
   7.8677101657830581E-002  -2.0861864188507433E-002   4.4331667517029112E-002
   7.8449933844268349E-002  -2.1235397910433766E-002   4.3709041681085817E-002
   6.9040695285248782E-002  -1.1310280080236452E-002   5.0238430961603721E-002
   6.9314054930573285E-002  -1.3754232000954386E-002   4.9460481768117348E-002
   6.9587414575897774E-002  -1.5661341490679881E-002   4.8945426549022633E-002
   6.9860774221222249E-002  -1.7031608549412981E-002   4.8693265304319500E-002
   7.0134133866546752E-002  -1.7865033177153624E-002   4.8703998034007982E-002
   6.0311881348319052E-002  -8.1506075208942954E-003   5.0584442880607129E-002
   6.0610501483540080E-002  -1.0029322448828920E-002   5.1523943860190574E-002
   6.0909121618761108E-002  -1.1712904245303661E-002   5.2251071845175447E-002
   6.1207741753982123E-002  -1.3201352910318515E-002   5.2765826835561851E-002
   6.1506361889203144E-002  -1.4494668443873482E-002   5.3068208831349634E-002
   9.4145617800845710E-002  -2.7976127376994050E-002   3.1826892308499652E-002
   9.1753426859658010E-002  -2.6782570996870127E-002   3.1252640925021127E-002
   8.9361235918470297E-002  -2.5856368365493054E-002   3.0759169221719514E-002
   8.6969044977282556E-002  -2.5197519482862907E-002   3.0346477198594974E-002
   8.4576854036094884E-002  -2.4806024348979577E-002   3.0014564855647186E-002
   8.6453761822368039E-002  -2.4605762643713905E-002   3.8083339772582984E-002
   8.4189138142806472E-002  -2.3961353405901976E-002   3.7058148635453571E-002
   8.1924514463244918E-002  -2.3421101090299649E-002   3.6207312341399400E-002
   7.9659890783683351E-002  -2.2985005696906959E-002   3.5530830890420730E-002
   7.7395267104121798E-002  -2.2653067225723925E-002   3.5028704282517420E-002
   7.8449933844268349E-002  -2.1235397910433766E-002   4.3709041681085817E-002
   7.6406452589231427E-002  -2.1140135814933823E-002   4.2396107616842635E-002
   7.4362971334194478E-002  -2.0985833815106249E-002   4.1351103558573195E-002
   7.2319490079157528E-002  -2.0772491910951062E-002   4.0574029506277649E-002
   7.0276008824120620E-002  -2.0500110102468314E-002   4.0064885459955998E-002
   7.0134133866546752E-002  -1.7865033177153624E-002   4.8703998034007982E-002
   6.8405370198932863E-002  -1.8318918223965648E-002   4.7266517869188278E-002
   6.6676606531319002E-002  -1.8550566539912852E-002   4.6190542873240842E-002
   6.4947842863705141E-002  -1.8559978124995193E-002   4.5476073046165806E-002
   6.3219079196091252E-002  -1.8347152979212668E-002   4.5123108387962907E-002
   6.1506361889203144E-002  -1.4494668443873482E-002   5.3068208831349634E-002
   6.0185890971910808E-002  -1.5497700632997508E-002   5.1669379392490583E-002
   5.8865420054618478E-002  -1.6115299264719427E-002   5.0725630285402376E-002
   5.7544949137326155E-002  -1.6347464339039237E-002   5.0236961510084874E-002
   5.6224478220033805E-002  -1.6194195855957078E-002   5.0203373066538104E-002
   8.4576854036094884E-002  -2.4806024348979577E-002   3.0014564855647186E-002
   8.2184124725732263E-002  -2.4485092892132007E-002   2.9251475497940382E-002
   7.9791395415369670E-002  -2.4037935040609040E-002   2.8751892075400395E-002
   7.7398666105007036E-002  -2.3464550794410694E-002   2.8515814588027363E-002
   7.5005936794644429E-002  -2.2764940153537000E-002   2.8543243035821064E-002
   7.7395267104121798E-002  -2.2653067225723925E-002   3.5028704282517420E-002
   7.5255395319731161E-002  -2.2325032360656534E-002   3.4428583219914426E-002
   7.3115523535340510E-002  -2.1900647785610652E-002   3.4070671274088533E-002
   7.0975651750949900E-002  -2.1379913500586503E-002   3.3954968445039785E-002
   6.8835779966559221E-002  -2.0762829505583946E-002   3.4081474732767972E-002
   7.0276008824120620E-002  -2.0500110102468314E-002   4.0064885459955998E-002
   6.8367697747312134E-002  -2.0164971829181026E-002   3.9597856007759863E-002
   6.6459386670503662E-002  -1.9763360530612374E-002   3.9351738853951074E-002
   6.4551075593695176E-002  -1.9295276206762350E-002   3.9326533998529534E-002
   6.2642764516886718E-002  -1.8760718857630906E-002   3.9522241441495333E-002
   6.3219079196091252E-002  -1.8347152979212668E-002   4.5123108387962907E-002
   6.1521032008475210E-002  -1.8004911297705508E-002   4.4759293861476646E-002
   5.9822984820859106E-002  -1.7626073275614069E-002   4.4595094814987933E-002
   5.8124937633243022E-002  -1.7210638912938139E-002   4.4630511248496679E-002
   5.6426890445626959E-002  -1.6758608209677846E-002   4.4865543162002905E-002
   5.6224478220033805E-002  -1.6194195855957078E-002   5.0203373066538104E-002
   5.4715398103220347E-002  -1.5844850766230059E-002   4.9912896781064794E-002
   5.3206317986406869E-002  -1.5488786020615722E-002   4.9800739157199139E-002
   5.1697237869593390E-002  -1.5126001619114027E-002   4.9866900194941208E-002
   5.0188157752779905E-002  -1.4756497561724841E-002   5.0111379894291014E-002
   7.5005936794644429E-002  -2.2764940153537000E-002   2.8543243035821064E-002
   7.2707818109360806E-002  -2.2017305512538179E-002   2.8255510025544162E-002
   7.0409699424077168E-002  -2.1299849265964600E-002   2.8131496997937808E-002
   6.8111580738793503E-002  -2.0612571413816387E-002   2.8171203953001621E-002
   6.5813462053509852E-002  -1.9955471956093207E-002   2.8374630890735608E-002
   6.8835779966559221E-002  -2.0762829505583946E-002   3.4081474732767972E-002
   6.6707099662210806E-002  -2.0103556160133332E-002   3.3755526797415183E-002
   6.4578419357862404E-002  -1.9456253823764966E-002   3.3604735641262588E-002
   6.2449739053513989E-002  -1.8820922496478983E-002   3.3629101264310166E-002
   6.0321058749165629E-002  -1.8197562178275117E-002   3.3828623666557645E-002
   6.2642764516886718E-002  -1.8760718857630906E-002   3.9522241441495333E-002
   6.0694959390003515E-002  -1.8189806807728422E-002   3.9176285966409333E-002
   5.8747154263120230E-002  -1.7612658381565272E-002   3.9016924067053357E-002
   5.6799349136236979E-002  -1.7029273579141493E-002   3.9044155743427719E-002
   5.4851544009353742E-002  -1.6439652400456944E-002   3.9257980995532085E-002
   5.6426890445626959E-002  -1.6758608209677846E-002   4.4865543162002905E-002
   5.4671397292738781E-002  -1.6276057455323529E-002   4.4517787532526776E-002
   5.2915904139850617E-002  -1.5769062939365579E-002   4.4368062275310691E-002
   5.1160410986962425E-002  -1.5237624661804046E-002   4.4416367390354643E-002
   4.9404917834074268E-002  -1.4681742622638785E-002   4.4662702877658611E-002
   5.0188157752779905E-002  -1.4756497561724841E-002   5.0111379894291014E-002
   4.8636413370416728E-002  -1.4362308102918622E-002   4.9780031495767624E-002
   4.7084668988053552E-002  -1.3925467497165937E-002   4.9658150266034221E-002
   4.5532924605690361E-002  -1.3445975744466680E-002   4.9745736205090756E-002
   4.3981180223327171E-002  -1.2923832844820626E-002   5.0042789312937319E-002
   6.5813462053509852E-002  -1.9955471956093207E-002   2.8374630890735608E-002
   6.3329512537066673E-002  -1.9304723757982728E-002   2.8007771740478860E-002
   6.0845563020623494E-002  -1.8636499684672417E-002   2.7844436206634071E-002
   5.8361613504180315E-002  -1.7950799736161819E-002   2.7884624289201673E-002
   5.5877663987737136E-002  -1.7247623912451271E-002   2.8128335988181430E-002
   6.0321058749165629E-002  -1.8197562178275117E-002   3.3828623666557645E-002
   5.8039217370460514E-002  -1.7574214079102549E-002   3.3497948825269117E-002
   5.5757375991755467E-002  -1.6938919408910139E-002   3.3367966643044464E-002
   5.3475534613050407E-002  -1.6291678167697877E-002   3.3438677119883874E-002
   5.1193693234345305E-002  -1.5632490355465767E-002   3.3710080255787173E-002
   5.4851544009353742E-002  -1.6439652400456944E-002   3.9257980995532085E-002
   5.2768979811038542E-002  -1.5843704400222244E-002   3.8957961159031454E-002
   5.0686415612723357E-002  -1.5241339133147964E-002   3.8855803024246606E-002
   4.8603851414408143E-002  -1.4632556599234044E-002   3.8951506591177534E-002
   4.6521287216092971E-002  -1.4017356798480374E-002   3.9245071859824149E-002
   4.9404917834074268E-002  -1.4681742622638785E-002   4.4662702877658611E-002
   4.7518799858800753E-002  -1.4113194721342058E-002   4.4387808741765733E-002
   4.5632681883527218E-002  -1.3543758857385766E-002   4.4307945350240623E-002
   4.3746563908253669E-002  -1.2973435030770183E-002   4.4423112703082981E-002
   4.1860445932980155E-002  -1.2402223241494925E-002   4.4733310800292796E-002
   4.3981180223327171E-002  -1.2923832844820626E-002   5.0042789312937319E-002
   4.2288677513747097E-002  -1.2382685042461761E-002   4.9787491573472120E-002
   4.0596174804166982E-002  -1.1846178581623470E-002   4.9724393621026430E-002
   3.8903672094586887E-002  -1.1314313462306231E-002   4.9853495455600014E-002
   3.7211169385006793E-002  -1.0787089684509532E-002   5.0174797077192745E-002
   5.5877663987737136E-002  -1.7247623912451271E-002   2.8128335988181430E-002
   5.3758784730644271E-002  -1.6567678220594767E-002   2.7753106157351159E-002
   5.1639905473551462E-002  -1.5951668667647106E-002   2.7479922801417533E-002
   4.9521026216458652E-002  -1.5399595253607602E-002   2.7308785920380829E-002
   4.7402146959365843E-002  -1.4911457978477038E-002   2.7239695514241102E-002
   5.1193693234345305E-002  -1.5632490355465767E-002   3.3710080255787173E-002
   4.9190650029737049E-002  -1.4983337093840587E-002   3.3312228832112933E-002
   4.7187606825128695E-002  -1.4366199504448729E-002   3.3044003038510614E-002
   4.5184563620520334E-002  -1.3781077587290219E-002   3.2905402874980651E-002
   4.3181520415912000E-002  -1.3227971342365419E-002   3.2896428341522621E-002
   4.6521287216092971E-002  -1.4017356798480374E-002   3.9245071859824149E-002
   4.4661659219144431E-002  -1.3398995967086033E-002   3.8856519309981088E-002
   4.2802031222195808E-002  -1.2780730341250282E-002   3.8625171545385320E-002
   4.0942403225247184E-002  -1.2162559920972888E-002   3.8551028566036864E-002
   3.9082775228298630E-002  -1.1544484706254021E-002   3.8634090371935631E-002
   4.1860445932980155E-002  -1.2402223241494925E-002   4.4733310800292796E-002
   4.0171812298866551E-002  -1.1814654840331777E-002   4.4385977590955757E-002
   3.8483178664752885E-002  -1.1195261178051898E-002   4.4223428322041375E-002
   3.6794545030639260E-002  -1.0544042254655531E-002   4.4245662993549650E-002
   3.5105911396525614E-002  -9.8609980701425681E-003   4.4452681605480250E-002
   3.7211169385006793E-002  -1.0787089684509532E-002   5.0174797077192745E-002
   3.5721109268903345E-002  -1.0230313713577271E-002   4.9900603675036959E-002
   3.4231049152799911E-002  -9.6097920148534299E-003   4.9838773368478917E-002
   3.2740989036696456E-002  -8.9255245883379727E-003   4.9989306157518787E-002
   3.1250928920593030E-002  -8.1775114340310595E-003   5.0352202042156347E-002
   4.7402146959365843E-002  -1.4911457978477038E-002   2.7239695514241102E-002
   4.4766936586298850E-002  -1.4527687286382762E-002   2.6579293849730123E-002
   4.2131726213231940E-002  -1.4288713621452981E-002   2.6082152825039284E-002
   3.9496515840164975E-002  -1.4194536983687882E-002   2.5748272440168252E-002
   3.6861305467097982E-002  -1.4245157373087292E-002   2.5577652695117470E-002
   4.3181520415912000E-002  -1.3227971342365419E-002   3.2896428341522621E-002
   4.0716078320185534E-002  -1.2719399238503432E-002   3.2263490851844073E-002
   3.8250636224459053E-002  -1.2267879744533278E-002   3.1806829277026993E-002
   3.5785194128732566E-002  -1.1873412860455186E-002   3.1526443617070687E-002
   3.3319752033006023E-002  -1.1535998586268970E-002   3.1422333871975350E-002
   3.9082775228298630E-002  -1.1544484706254021E-002   3.8634090371935631E-002
   3.6800116684953608E-002  -1.0911111190624101E-002   3.8116361474362620E-002
   3.4517458141608601E-002  -1.0247045867613644E-002   3.7787923766691184E-002
   3.2234799598263524E-002  -9.5522887372224106E-003   3.7648777248921954E-002
   2.9952141054918502E-002  -8.8268397994507586E-003   3.7698921921054673E-002
   3.5105911396525614E-002  -9.8609980701425681E-003   4.4452681605480250E-002
   3.3019051680603061E-002  -9.1028231427448258E-003   4.4137905717284813E-002
   3.0932191964680476E-002  -8.2262119906938089E-003   4.4025436294032189E-002
   2.8845332248757842E-002  -7.2311646139896751E-003   4.4115273335722988E-002
   2.6758472532835344E-002  -6.1176810126324921E-003   4.4407416842356079E-002
   3.1250928920593030E-002  -8.1775114340310595E-003   5.0352202042156347E-002
   2.9372883307133890E-002  -7.2945350948656063E-003   5.0328123580611117E-002
   2.7494837693674737E-002  -6.2053781137741265E-003   5.0519366859050036E-002
   2.5616792080215646E-002  -4.9100404907569777E-003   5.0925931877472921E-002
   2.3738746466756500E-002  -3.4085222258142256E-003   5.1547818635879317E-002
   5.7151916289237686E-002   0.0000000000000000        3.4690352472339418E-002
   5.7941907554008035E-002  -2.0836796701428351E-003   3.8342774657975170E-002
   5.8731898818778383E-002  -4.1366741470061641E-003   4.2209263787898375E-002
   5.9521890083548717E-002  -6.1589834305899854E-003   4.6289819862109033E-002
   6.0311881348319052E-002  -8.1506075208942954E-003   5.0584442880607129E-002
   4.8651600357647339E-002   0.0000000000000000        3.2789779217483189E-002
   4.9590333364299209E-002  -1.7091441603480752E-003   3.6965634568574143E-002
   5.0529066370951073E-002  -3.4323281555325592E-003   4.1224906459140696E-002
   5.1467799377602950E-002  -5.1695519855534545E-003   4.5567594889182862E-002
   5.2406532384254821E-002  -6.9208156504107568E-003   4.9993699858700648E-002
   4.0731720114696557E-002   0.0000000000000000        3.1286103986479678E-002
   4.1688544458418103E-002  -1.3346086505533145E-003   3.5940667474909913E-002
   4.2645368802139663E-002  -2.7279821640589560E-003   4.0547997098003913E-002
   4.3602193145861216E-002  -4.1801205405169245E-003   4.5108092855761672E-002
   4.4559017489582763E-002  -5.6910237799272191E-003   4.9620954748183205E-002
   3.3392275560385341E-002   0.0000000000000000        3.0179326779328886E-002
   3.4236540836364744E-002  -9.6007314075855464E-004   3.5267873376982485E-002
   3.5080806112344133E-002  -2.0236361725853511E-003   4.0178535704487997E-002
   3.5925071388323536E-002  -3.1906890954803931E-003   4.4911313761845449E-002
   3.6769336664302925E-002  -4.4612319094436796E-003   4.9466207549054828E-002
   2.6633266694713699E-002   0.0000000000000000        2.9469447596030811E-002
   2.7234322498139098E-002  -5.8553763096379392E-004   3.4947252274791854E-002
   2.7835378301564496E-002  -1.3192901811117479E-003   4.0116522278592970E-002
   2.8436434104989892E-002  -2.2012576504438653E-003   4.4977257607434200E-002
   2.9037489908415294E-002  -3.2314400389601402E-003   4.9529458261315482E-002
   6.0311881348319052E-002  -8.1506075208942954E-003   5.0584442880607129E-002
   6.0610501483540080E-002  -1.0029322448828920E-002   5.1523943860190574E-002
   6.0909121618761108E-002  -1.1712904245303661E-002   5.2251071845175447E-002
   6.1207741753982123E-002  -1.3201352910318515E-002   5.2765826835561851E-002
   6.1506361889203144E-002  -1.4494668443873482E-002   5.3068208831349634E-002
   5.2406532384254821E-002  -6.9208156504107568E-003   4.9993699858700648E-002
   5.2531781959062218E-002  -8.5845324758280842E-003   5.1222170664449326E-002
   5.2657031533869608E-002  -1.0059115787529082E-002   5.2316273343969336E-002
   5.2782281108676998E-002  -1.1344565585513691E-002   5.3276007897260669E-002
   5.2907530683484374E-002  -1.2440881869781956E-002   5.4101374324323284E-002
   4.4559017489582763E-002  -5.6910237799272191E-003   4.9620954748183205E-002
   4.4588901372346397E-002  -7.1397425028272609E-003   5.1132395762353643E-002
   4.4618785255110024E-002  -8.4053273297544830E-003   5.2587473518665231E-002
   4.4648669137873652E-002  -9.4877782607088804E-003   5.3986188017117985E-002
   4.4678553020637286E-002  -1.0387095295690443E-002   5.5328539257711903E-002
   3.6769336664302925E-002  -4.4612319094436796E-003   4.9466207549054828E-002
   3.6781859723392651E-002  -5.6949525298264376E-003   5.1254619153903447E-002
   3.6794382782482378E-002  -6.7515388719798812E-003   5.3064672369263086E-002
   3.6806905841572091E-002  -7.6309909359040494E-003   5.4896367195133779E-002
   3.6819428900661817E-002  -8.3333087215989171E-003   5.6749703631515450E-002
   2.9037489908415294E-002  -3.2314400389601402E-003   4.9529458261315482E-002
   2.9110657012200974E-002  -4.2501625568255970E-003   5.1588840839098773E-002
   2.9183824115986644E-002  -5.0977504142053079E-003   5.3747869895762961E-002
   2.9256991219772318E-002  -5.7742036110992392E-003   5.6006545431308008E-002
   2.9330158323557995E-002  -6.2795221475073978E-003   5.8364867445733971E-002
   6.1506361889203144E-002  -1.4494668443873482E-002   5.3068208831349634E-002
   6.0185890971910808E-002  -1.5497700632997508E-002   5.1669379392490583E-002
   5.8865420054618478E-002  -1.6115299264719427E-002   5.0725630285402376E-002
   5.7544949137326155E-002  -1.6347464339039237E-002   5.0236961510084874E-002
   5.6224478220033805E-002  -1.6194195855957078E-002   5.0203373066538104E-002
   5.2907530683484374E-002  -1.2440881869781956E-002   5.4101374324323284E-002
   5.1989236587981352E-002  -1.3290291118530494E-002   5.3364551975717066E-002
   5.1070942492478295E-002  -1.3835019809955853E-002   5.2977002938918626E-002
   5.0152648396975252E-002  -1.4075067944058092E-002   5.2938727213928019E-002
   4.9234354301472188E-002  -1.4010435520837153E-002   5.3249724800745149E-002
   4.4678553020637286E-002  -1.0387095295690443E-002   5.5328539257711903E-002
   4.4056628726960569E-002  -1.1082881604063491E-002   5.5172970999279480E-002
   4.3434704433283830E-002  -1.1554740355192307E-002   5.5260869032691978E-002
   4.2812780139607112E-002  -1.1802671549076891E-002   5.5592233357949286E-002
   4.2190855845930381E-002  -1.1826675185717270E-002   5.6167063975051432E-002
   3.6819428900661817E-002  -8.3333087215989171E-003   5.6749703631515450E-002
   3.6388067388848463E-002  -8.8754720895964888E-003   5.7094636463177986E-002
   3.5956705877035082E-002  -9.2744609004287264E-003   5.7577228566722455E-002
   3.5525344365221735E-002  -9.5302751540956993E-003   5.8197479942148751E-002
   3.5093982853408374E-002  -9.6429148505973936E-003   5.8955390589456910E-002
   2.9330158323557995E-002  -6.2795221475073978E-003   5.8364867445733971E-002
   2.8983552573645037E-002  -6.6680625751294846E-003   5.9129548367412500E-002
   2.8636946823732082E-002  -6.9941814456651857E-003   5.9926081541009951E-002
   2.8290341073819114E-002  -7.2578787591145305E-003   6.0754466966526338E-002
   2.7943735323906170E-002  -7.4591545154774896E-003   6.1614704643961654E-002
   5.6224478220033805E-002  -1.6194195855957078E-002   5.0203373066538104E-002
   5.4715398103220347E-002  -1.5844850766230059E-002   4.9912896781064794E-002
   5.3206317986406869E-002  -1.5488786020615722E-002   4.9800739157199139E-002
   5.1697237869593390E-002  -1.5126001619114027E-002   4.9866900194941208E-002
   5.0188157752779905E-002  -1.4756497561724841E-002   5.0111379894291014E-002
   4.9234354301472188E-002  -1.4010435520837153E-002   5.3249724800745149E-002
   4.7909361482455719E-002  -1.3780117833346109E-002   5.2928347428033165E-002
   4.6584368663439277E-002  -1.3523110174637972E-002   5.2796825989307510E-002
   4.5259375844422814E-002  -1.3239412544712691E-002   5.2855160484568037E-002
   4.3934383025406337E-002  -1.2929024943570372E-002   5.3103350913815003E-002
   4.2190855845930381E-002  -1.1826675185717270E-002   5.6167063975051432E-002
   4.1061487597089545E-002  -1.1715384900462096E-002   5.5834755830430446E-002
   3.9932119348248689E-002  -1.1557434328660195E-002   5.5703840892174443E-002
   3.8802751099407840E-002  -1.1352823470311435E-002   5.5774319160283345E-002
   3.7673382850566997E-002  -1.1101552325415917E-002   5.6046190634757138E-002
   3.5093982853408374E-002  -9.6429148505973936E-003   5.8955390589456910E-002
   3.4171776447121743E-002  -9.6506519675781562E-003   5.8632121988256715E-002
   3.3249570040835112E-002  -9.5917584826824172E-003   5.8521783865800092E-002
   3.2327363634548488E-002  -9.4662343959102078E-003   5.8624376222086938E-002
   3.1405157228261857E-002  -9.2740797072614831E-003   5.8939899057117301E-002
   2.7943735323906170E-002  -7.4591545154774896E-003   6.1614704643961654E-002
   2.7240228032552369E-002  -7.5859190346941330E-003   6.1320445901511950E-002
   2.6536720741198564E-002  -7.6260826367046675E-003   6.1250654910184332E-002
   2.5833213449844773E-002  -7.5796453215088988E-003   6.1405331669978858E-002
   2.5129706158490972E-002  -7.4466070891070213E-003   6.1784476180895553E-002
   5.0188157752779905E-002  -1.4756497561724841E-002   5.0111379894291014E-002
   4.8636413370416728E-002  -1.4362308102918622E-002   4.9780031495767624E-002
   4.7084668988053552E-002  -1.3925467497165937E-002   4.9658150266034221E-002
   4.5532924605690361E-002  -1.3445975744466680E-002   4.9745736205090756E-002
   4.3981180223327171E-002  -1.2923832844820626E-002   5.0042789312937319E-002
   4.3934383025406337E-002  -1.2929024943570372E-002   5.3103350913815003E-002
   4.2588696550521707E-002  -1.2588262805439884E-002   5.2799722931367490E-002
   4.1243010075637125E-002  -1.2213441564549975E-002   5.2698743595087187E-002
   3.9897323600752516E-002  -1.1804561220900836E-002   5.2800412904974017E-002
   3.8551637125867913E-002  -1.1361621774492348E-002   5.3104730861028127E-002
   3.7673382850566997E-002  -1.1101552325415917E-002   5.6046190634757138E-002
   3.6526935760538198E-002  -1.0814217507961001E-002   5.5761691024198180E-002
   3.5380488670509420E-002  -1.0501415631934016E-002   5.5673021537183537E-002
   3.4234041580480615E-002  -1.0163146697335021E-002   5.5780182173713416E-002
   3.3087594490451823E-002  -9.7994107041639855E-003   5.6083172933787714E-002
   3.1405157228261857E-002  -9.2740797072614831E-003   5.8939899057117301E-002
   3.0451131000466140E-002  -9.0401722104821065E-003   5.8665935774259513E-002
   2.9497104772670445E-002  -8.7893896993179992E-003   5.8580984092323346E-002
   2.8543078544874721E-002  -8.5217321737691906E-003   5.8685044011309036E-002
   2.7589052317079026E-002  -8.2371996338356096E-003   5.8978115531216332E-002
   2.5129706158490972E-002  -7.4466070891070213E-003   6.1784476180895553E-002
   2.4361282270305561E-002  -7.2661269130033651E-003   6.1512457181551711E-002
   2.3592858382120177E-002  -7.0773637667020453E-003   6.1422631260506774E-002
   2.2824434493934787E-002  -6.8803176502033898E-003   6.1514998417760848E-002
   2.2056010605749396E-002  -6.6749885635072892E-003   6.1789558653313870E-002
   4.3981180223327171E-002  -1.2923832844820626E-002   5.0042789312937319E-002
   4.2288677513747097E-002  -1.2382685042461761E-002   4.9787491573472120E-002
   4.0596174804166982E-002  -1.1846178581623470E-002   4.9724393621026430E-002
   3.8903672094586887E-002  -1.1314313462306231E-002   4.9853495455600014E-002
   3.7211169385006793E-002  -1.0787089684509532E-002   5.0174797077192745E-002
   3.8551637125867913E-002  -1.1361621774492348E-002   5.3104730861028127E-002
   3.7054764619316297E-002  -1.0901998793046305E-002   5.2815697312512885E-002
   3.5557892112764715E-002  -1.0443067844284726E-002   5.2725724383035300E-002
   3.4061019606213133E-002  -9.9848289282072900E-003   5.2834812072595466E-002
   3.2564147099661503E-002  -9.5272820448142337E-003   5.3142960381193399E-002
   3.3087594490451823E-002  -9.7994107041639855E-003   5.6083172933787714E-002
   3.1793213018947122E-002  -9.4213125436308220E-003   5.5764352885058821E-002
   3.0498831547442377E-002  -9.0399571069456411E-003   5.5651454287385917E-002
   2.9204450075937659E-002  -8.6553443941083472E-003   5.5744477140769078E-002
   2.7910068604432924E-002  -8.2674744051189630E-003   5.6043421445208380E-002
   2.7589052317079026E-002  -8.2371996338356096E-003   5.8978115531216332E-002
   2.6504022712639502E-002  -7.9406262942154082E-003   5.8633458291110135E-002
   2.5418993108200012E-002  -7.6368463696066986E-003   5.8501583334078323E-002
   2.4333963503760492E-002  -7.3258598600094609E-003   5.8582490660120966E-002
   2.3248933899320999E-002  -7.0076667654236785E-003   5.8876180269237889E-002
   2.2056010605749396E-002  -6.6749885635072892E-003   6.1789558653313870E-002
   2.1187193700393472E-002  -6.4599400447998279E-003   6.1423013530666676E-002
   2.0318376795037556E-002  -6.2337356322677839E-003   6.1276111523112436E-002
   1.9449559889681643E-002  -5.9963753259104566E-003   6.1348852630650846E-002
   1.8580742984325729E-002  -5.7478591257284495E-003   6.1641236853282044E-002
   3.7211169385006793E-002  -1.0787089684509532E-002   5.0174797077192745E-002
   3.5721109268903345E-002  -1.0230313713577271E-002   4.9900603675036959E-002
   3.4231049152799911E-002  -9.6097920148534299E-003   4.9838773368478917E-002
   3.2740989036696456E-002  -8.9255245883379727E-003   4.9989306157518787E-002
   3.1250928920593030E-002  -8.1775114340310595E-003   5.0352202042156347E-002
   3.2564147099661503E-002  -9.5272820448142337E-003   5.3142960381193399E-002
   3.1280041718442453E-002  -9.0456391711633000E-003   5.2911617278936479E-002
   2.9995936337223368E-002  -8.5151122843127314E-003   5.2879820550850512E-002
   2.8711830956004308E-002  -7.9357013842624585E-003   5.3047570196935616E-002
   2.7427725574785233E-002  -7.3074064710122455E-003   5.3414866217191326E-002
   2.7910068604432924E-002  -8.2674744051189630E-003   5.6043421445208380E-002
   2.6819101236671368E-002  -7.8609646287496199E-003   5.5840066928258519E-002
   2.5728133868909802E-002  -7.4204325537720467E-003   5.5823442064052944E-002
   2.4637166501148264E-002  -6.9458781801867812E-003   5.5993546852591509E-002
   2.3546199133386687E-002  -6.4373015079934037E-003   5.6350381293873944E-002
   2.3248933899320999E-002  -7.0076667654236785E-003   5.8876180269237889E-002
   2.2338287823590111E-002  -6.6762900863357108E-003   5.8685952623003496E-002
   2.1427641747859206E-002  -6.3257528232314106E-003   5.8669637908086422E-002
   2.0516995672128325E-002  -5.9560549761110745E-003   5.8827236124486461E-002
   1.9606349596397440E-002  -5.5671965449744648E-003   5.9158747272203674E-002
   1.8580742984325729E-002  -5.7478591257284495E-003   6.1641236853282044E-002
   1.7837601479198661E-002  -5.4916155439219128E-003   6.1449274363171102E-002
   1.7094459974071587E-002  -5.2310730926906773E-003   6.1418408082950571E-002
   1.6351318468944494E-002  -4.9662317720355099E-003   6.1548638012620435E-002
   1.5608176963817430E-002  -4.6970915819557479E-003   6.1839964152180626E-002
   3.1250928920593030E-002  -8.1775114340310595E-003   5.0352202042156347E-002
   2.9372883307133890E-002  -7.2945350948656063E-003   5.0328123580611117E-002
   2.7494837693674737E-002  -6.2053781137741265E-003   5.0519366859050036E-002
   2.5616792080215646E-002  -4.9100404907569777E-003   5.0925931877472921E-002
   2.3738746466756500E-002  -3.4085222258142256E-003   5.1547818635879317E-002
   2.7427725574785233E-002  -7.3074064710122455E-003   5.3414866217191326E-002
   2.5764080352566637E-002  -6.6147174437444778E-003   5.3474585739692715E-002
   2.4100435130348097E-002  -5.8421242016413744E-003   5.3747784304691182E-002
   2.2436789908129522E-002  -4.9896267447026438E-003   5.4234461912187074E-002
   2.0773144685910960E-002  -4.0572250729289383E-003   5.4934618562179960E-002
   2.3546199133386687E-002  -6.4373015079934037E-003   5.6350381293873944E-002
   2.2095111604921981E-002  -5.9348997926234881E-003   5.6367622373331372E-002
   2.0644024076457271E-002  -5.4788702895085736E-003   5.6596499797799286E-002
   1.9192936547992541E-002  -5.0692129986486169E-003   5.7037013567277847E-002
   1.7741849019527911E-002  -4.7059279200435400E-003   5.7689163681766298E-002
   1.9606349596397440E-002  -5.5671965449744648E-003   5.9158747272203674E-002
   1.8365977064199804E-002  -5.2550821415025400E-003   5.9007233481526769E-002
   1.7125604532002195E-002  -5.1156163773757417E-003   5.9065513338373947E-002
   1.5885231999804589E-002  -5.1487992525944921E-003   5.9333586842744625E-002
   1.4644859467606949E-002  -5.3546307671581972E-003   5.9811453994639066E-002
   1.5608176963817430E-002  -4.6970915819557479E-003   6.1839964152180626E-002
   1.4576676730400182E-002  -4.5752644903815365E-003   6.1393419064279364E-002
   1.3545176496982940E-002  -4.7523624652431873E-003   6.1154824926414997E-002
   1.2513676263565730E-002  -5.2283855065403256E-003   6.1124181738587774E-002
   1.1482176030148505E-002  -6.0033336142728544E-003   6.1301489500797501E-002
   2.6633266694713699E-002   0.0000000000000000        2.9469447596030811E-002
   2.7234322498139098E-002  -5.8553763096379392E-004   3.4947252274791854E-002
   2.7835378301564496E-002  -1.3192901811117479E-003   4.0116522278592970E-002
   2.8436434104989892E-002  -2.2012576504438653E-003   4.4977257607434200E-002
   2.9037489908415294E-002  -3.2314400389601402E-003   4.9529458261315482E-002
   2.0117126210318262E-002   0.0000000000000000        2.9021924043096455E-002
   2.0449193608412332E-002  -4.3916785103960496E-004   3.4314917689264243E-002
   2.0781261006506398E-002  -9.8943753516442853E-004   3.9378469199729295E-002
   2.1113328404600472E-002  -1.6508090523744681E-003   4.4212578574491616E-002
   2.1445395802694538E-002  -2.4232824026697332E-003   4.8817245813551187E-002
   1.3506286799835666E-002   0.0000000000000000        2.8702213727036817E-002
   1.3648458331855587E-002  -2.9279807111541687E-004   3.3847509426710297E-002
   1.3790629863875503E-002  -6.5958488921710745E-004   3.8842455529938209E-002
   1.3932801395895422E-002  -1.1003604543050717E-003   4.3687052036720568E-002
   1.4074972927915342E-002  -1.6151247663793154E-003   4.8381298947057373E-002
   6.8007484632659158E-003   0.0000000000000000        2.8510316647851898E-002
   6.8321166684688637E-003  -1.4642829119122748E-004   3.3545027487129994E-002
   6.8634848736718107E-003  -3.2973224326978464E-004   3.8508481269219727E-002
   6.8948530788747577E-003  -5.4991185623567496E-004   4.3400677994121076E-002
   6.9262212840777047E-003  -8.0696713008890299E-004   4.8221617661834033E-002
   5.1120060900848585E-007   0.0000000000000000        2.8446232805541694E-002
   1.6861825216304971E-007  -5.8511267038950654E-008   3.3407471870523370E-002
  -1.7396410468238643E-007   1.2040267753470058E-007   3.8376546417573841E-002
  -5.1654646152738889E-007   5.3674183372008633E-007   4.3353456446693119E-002
  -8.5912881837412608E-007   1.1905062015102677E-006   4.8338201957881181E-002
   2.9037489908415294E-002  -3.2314400389601402E-003   4.9529458261315482E-002
   2.9110657012200974E-002  -4.2501625568255970E-003   5.1588840839098773E-002
   2.9183824115986644E-002  -5.0977504142053079E-003   5.3747869895762961E-002
   2.9256991219772318E-002  -5.7742036110992392E-003   5.6006545431308008E-002
   2.9330158323557995E-002  -6.2795221475073978E-003   5.8364867445733971E-002
   2.1445395802694538E-002  -2.4232824026697332E-003   4.8817245813551187E-002
   2.1588737293336741E-002  -3.1871912645805786E-003   5.1218510265421575E-002
   2.1732078783978950E-002  -3.8228693166374181E-003   5.3660477012124154E-002
   2.1875420274621152E-002  -4.3303165588402578E-003   5.6143146053658895E-002
   2.2018761765263354E-002  -4.7095329911890568E-003   5.8666517390025832E-002
   1.4074972927915342E-002  -1.6151247663793154E-003   4.8381298947057373E-002
   1.4229544621365369E-002  -2.1242199723355607E-003   5.1081541422383088E-002
   1.4384116314815393E-002  -2.5479882190695417E-003   5.3763542008492315E-002
   1.4538688008265412E-002  -2.8864295065812624E-003   5.6427300705384952E-002
   1.4693259701715445E-002  -3.1395438348707193E-003   5.9072817513061079E-002
   6.9262212840777047E-003  -8.0696713008890299E-004   4.8221617661834033E-002
   7.0330789962868394E-003  -1.0612486800905322E-003   5.1177934309983360E-002
   7.1399367084959767E-003  -1.2731071215016587E-003   5.4057064884867438E-002
   7.2467944207051148E-003  -1.4425424543222810E-003   5.6859009386486269E-002
   7.3536521329142512E-003  -1.5695546785523939E-003   5.9583767814839914E-002
  -8.5912881837412608E-007   1.1905062015102677E-006   4.8338201957881181E-002
  -6.5958189883605009E-007   1.7226121544885661E-006   5.1507688928222356E-002
  -4.6003497929710674E-007   1.7739760662194379E-006   5.4541045641249571E-002
  -2.6048805975816339E-007   1.3445979367096594E-006   5.7438272096962818E-002
  -6.0941140220954759E-008   4.3447776595234577E-007   6.0199368295362134E-002
   2.9330158323557995E-002  -6.2795221475073978E-003   5.8364867445733971E-002
   2.8983552573645037E-002  -6.6680625751294846E-003   5.9129548367412500E-002
   2.8636946823732082E-002  -6.9941814456651857E-003   5.9926081541009951E-002
   2.8290341073819114E-002  -7.2578787591145305E-003   6.0754466966526338E-002
   2.7943735323906170E-002  -7.4591545154774896E-003   6.1614704643961654E-002
   2.2018761765263354E-002  -4.7095329911890568E-003   5.8666517390025832E-002
   2.1717560873026270E-002  -5.0009223519357354E-003   5.9485567857426314E-002
   2.1416359980789182E-002  -5.2448883793321643E-003   6.0363575788259689E-002
   2.1115159088552091E-002  -5.4414310733783451E-003   6.1300541182525807E-002
   2.0813958196315017E-002  -5.5905504340742762E-003   6.2296464040224778E-002
   1.4693259701715445E-002  -3.1395438348707193E-003   5.9072817513061079E-002
   1.4464568878668116E-002  -3.3337821287419880E-003   5.9931239302447481E-002
   1.4235878055620786E-002  -3.4955953129991299E-003   6.0875723766780548E-002
   1.4007187232573461E-002  -3.6249833876421597E-003   6.1906270906060323E-002
   1.3778496409526131E-002  -3.7219463526710489E-003   6.3022880720286820E-002
   7.3536521329142512E-003  -1.5695546785523939E-003   5.9583767814839914E-002
   7.2245765905705750E-003  -1.6666419055482674E-003   6.0466562702476037E-002
   7.0955010482269005E-003  -1.7463022466661020E-003   6.1462525476572695E-002
   6.9664255058832234E-003  -1.8085357019059743E-003   6.2571656137129977E-002
   6.8373499635395532E-003  -1.8533422712678285E-003   6.3793954684147863E-002
  -6.0941140220954759E-008   4.3447776595234577E-007   6.0199368295362134E-002
  -2.4159912663541255E-006   4.9831764549479463E-007   6.1091538057511829E-002
  -4.7710413924838269E-006   2.9908196669172632E-006   6.2123980917636032E-002
  -7.1260915186156966E-006   7.9119838302158484E-006   6.3296696875734706E-002
  -9.4811416447466990E-006   1.5261810135391851E-005   6.4609685931807853E-002
   2.7943735323906170E-002  -7.4591545154774896E-003   6.1614704643961654E-002
   2.7240228032552369E-002  -7.5859190346941330E-003   6.1320445901511950E-002
   2.6536720741198564E-002  -7.6260826367046675E-003   6.1250654910184332E-002
   2.5833213449844773E-002  -7.5796453215088988E-003   6.1405331669978858E-002
   2.5129706158490972E-002  -7.4466070891070213E-003   6.1784476180895553E-002
   2.0813958196315017E-002  -5.5905504340742762E-003   6.2296464040224778E-002
   2.0322448085678797E-002  -5.6838125899571698E-003   6.2159496064913784E-002
   1.9830937975042588E-002  -5.7127836695642642E-003   6.2222054699915860E-002
   1.9339427864406383E-002  -5.6774636728955039E-003   6.2484139945231019E-002
   1.8847917753770170E-002  -5.5778525999509720E-003   6.2945751800859109E-002
   1.3778496409526131E-002  -3.7219463526710489E-003   6.3022880720286820E-002
   1.3474042338798446E-002  -3.7817061452201650E-003   6.3020893671184214E-002
   1.3169588268070759E-002  -3.7994847024238332E-003   6.3193492091585618E-002
   1.2865134197343071E-002  -3.7752820242820673E-003   6.3540675981490990E-002
   1.2560680126615383E-002  -3.7090981107948534E-003   6.4062445340900359E-002
   6.8373499635395532E-003  -1.8533422712678285E-003   6.3793954684147863E-002
   6.6950107919113077E-003  -1.8795997004831810E-003   6.3904638720323287E-002
   6.5526716202830614E-003  -1.8861857352834438E-003   6.4164967085193578E-002
   6.4103324486548185E-003  -1.8731003756686515E-003   6.4574939778758833E-002
   6.2679932770265696E-003  -1.8403436216387695E-003   6.5134556801018900E-002
  -9.4811416447466990E-006   1.5261810135391851E-005   6.4609685931807853E-002
  -1.4646554982620727E-005   2.2506744253802946E-005   6.4810731212330872E-002
  -1.9811968320494755E-005   2.7113231856987219E-005   6.5136479680739767E-002
  -2.4977381658367916E-005   2.9081272944788544E-005   6.5586931337034513E-002
  -3.0142794996242811E-005   2.8410867517314475E-005   6.6162086181215024E-002
   2.5129706158490972E-002  -7.4466070891070213E-003   6.1784476180895553E-002
   2.4361282270305561E-002  -7.2661269130033651E-003   6.1512457181551711E-002
   2.3592858382120177E-002  -7.0773637667020453E-003   6.1422631260506774E-002
   2.2824434493934787E-002  -6.8803176502033898E-003   6.1514998417760848E-002
   2.2056010605749396E-002  -6.6749885635072892E-003   6.1789558653313870E-002
   1.8847917753770170E-002  -5.5778525999509720E-003   6.2945751800859109E-002
   1.8264621390191867E-002  -5.4430019024652720E-003   6.2678453596891448E-002
   1.7681325026613553E-002  -5.3019630321732084E-003   6.2599217363838944E-002
   1.7098028663035246E-002  -5.1547359890747272E-003   6.2708043101701583E-002
   1.6514732299456936E-002  -5.0013207731698095E-003   6.3004930810479587E-002
   1.2560680126615383E-002  -3.7090981107948534E-003   6.4062445340900359E-002
   1.2168380180260443E-002  -3.6198768919272414E-003   6.3797773134917607E-002
   1.1776080233905504E-002  -3.5265622976442847E-003   6.3727031792466360E-002
   1.1383780287550565E-002  -3.4291543279459527E-003   6.3850221313546618E-002
   1.0991480341195622E-002  -3.3276529828323020E-003   6.4167341698158437E-002
   6.2679932770265696E-003  -1.8403436216387695E-003   6.5134556801018900E-002
   6.0725586405112920E-003  -1.7967518813892212E-003   6.4870415795630160E-002
   5.8771240039960050E-003  -1.7511615631154043E-003   6.4806074546389147E-002
   5.6816893674807179E-003  -1.7035726668172897E-003   6.4941533053295947E-002
   5.4862547309654395E-003  -1.6539851924948362E-003   6.5276791316350641E-002
  -3.0142794996242811E-005   2.8410867517314475E-005   6.6162086181215024E-002
  -2.2843229055585085E-005   2.6373129148854479E-005   6.5896381579029134E-002
  -1.5543663114932563E-005   2.4239171413448224E-005   6.5836345625607362E-002
  -8.2440971742765712E-006   2.2008994311505103E-005   6.5981978320949639E-002
  -9.4453123362231439E-007   1.9682597842629601E-005   6.6333279665055978E-002
   2.2056010605749396E-002  -6.6749885635072892E-003   6.1789558653313870E-002
   2.1187193700393472E-002  -6.4599400447998279E-003   6.1423013530666676E-002
   2.0318376795037556E-002  -6.2337356322677839E-003   6.1276111523112436E-002
   1.9449559889681643E-002  -5.9963753259104566E-003   6.1348852630650846E-002
   1.8580742984325729E-002  -5.7478591257284495E-003   6.1641236853282044E-002
   1.6514732299456936E-002  -5.0013207731698095E-003   6.3004930810479587E-002
   1.5864604640523639E-002  -4.8395813587242681E-003   6.2666266226243258E-002
   1.5214476981590341E-002  -4.6673817200041171E-003   6.2545337019759256E-002
   1.4564349322657037E-002  -4.4847218570093165E-003   6.2642143191027858E-002
   1.3914221663723747E-002  -4.2916017697398612E-003   6.2956684740048729E-002
   1.0991480341195622E-002  -3.3276529828323020E-003   6.4167341698158437E-002
   1.0558134191344614E-002  -3.2192226726487083E-003   6.3855861982782591E-002
   1.0124788041493601E-002  -3.1010278077407277E-003   6.3760209907818999E-002
   9.6914418916425812E-003  -2.9730683881081764E-003   6.3880385473267437E-002
   9.2580957417915700E-003  -2.8353444137512451E-003   6.4216388679128059E-002
   5.4862547309654395E-003  -1.6539851924948362E-003   6.5276791316350641E-002
   5.2677823528563860E-003  -1.5988639865731485E-003   6.4991800800285077E-002
   5.0493099747473437E-003  -1.5346738954771996E-003   6.4920730187291414E-002
   4.8308375966382953E-003  -1.4614149192070363E-003   6.5063579477369488E-002
   4.6123652185292479E-003  -1.3790870577626985E-003   6.5420348670519352E-002
  -9.4453123362231439E-007   1.9682597842629601E-005   6.6333279665055978E-002
  -6.4508749410274735E-006   2.1494699502411230E-005   6.6074082678750479E-002
  -1.1957218648425694E-005   3.1680016786314602E-005   6.6026897858176614E-002
  -1.7463562355825649E-005   5.0238549694128082E-005   6.6191725203334259E-002
  -2.2969906063229073E-005   7.7170298225959222E-005   6.6568564714223233E-002
   1.8580742984325729E-002  -5.7478591257284495E-003   6.1641236853282044E-002
   1.7837601479198661E-002  -5.4916155439219128E-003   6.1449274363171102E-002
   1.7094459974071587E-002  -5.2310730926906773E-003   6.1418408082950571E-002
   1.6351318468944494E-002  -4.9662317720355099E-003   6.1548638012620435E-002
   1.5608176963817430E-002  -4.6970915819557479E-003   6.1839964152180626E-002
   1.3914221663723747E-002  -4.2916017697398612E-003   6.2956684740048729E-002
   1.3337927043683410E-002  -4.0962882687039237E-003   6.2779981060145540E-002
   1.2761632423643074E-002  -3.9070481644094407E-003   6.2775874940525167E-002
   1.2185337803602737E-002  -3.7238814568568111E-003   6.2944366381188069E-002
   1.1609043183562401E-002  -3.5467881460458650E-003   6.3285455382134037E-002
   9.2580957417915700E-003  -2.8353444137512451E-003   6.4216388679128059E-002
   8.8601493572307045E-003  -2.7009609934860179E-003   6.4044571543266218E-002
   8.4622029726698373E-003  -2.5830232361282526E-003   6.4056853318080115E-002
   8.0642565881089631E-003  -2.4815311416783326E-003   6.4253234003569804E-002
   7.6663102035480872E-003  -2.3964847101358711E-003   6.4633713599735465E-002
   4.6123652185292479E-003  -1.3790870577626985E-003   6.5420348670519352E-002
   4.4042684198405645E-003  -1.3056337182680150E-003   6.5243045812533096E-002
   4.1961716211518767E-003  -1.2589983078468460E-003   6.5261343215615442E-002
   3.9880748224631795E-003  -1.2391808264995774E-003   6.5475240879766125E-002
   3.7799780237744987E-003  -1.2461812742259326E-003   6.5884738804985563E-002
  -2.2969906063229073E-005   7.7170298225959222E-005   6.6568564714223233E-002
  -2.9715768487023619E-005   8.9693556949849151E-005   6.6375403867946492E-002
  -3.6461630910811227E-005   6.5026620434172067E-005   6.6389344633130926E-002
  -4.3207493334605773E-005   3.1694886788169452E-006   6.6610387009776645E-002
  -4.9953355758393381E-005  -9.5877838316105191E-005   6.7038530997883705E-002
   1.5608176963817430E-002  -4.6970915819557479E-003   6.1839964152180626E-002
   1.4576676730400182E-002  -4.5752644903815365E-003   6.1393419064279364E-002
   1.3545176496982940E-002  -4.7523624652431873E-003   6.1154824926414997E-002
   1.2513676263565730E-002  -5.2283855065403256E-003   6.1124181738587774E-002
   1.1482176030148505E-002  -6.0033336142728544E-003   6.1301489500797501E-002
   1.1609043183562401E-002  -3.5467881460458650E-003   6.3285455382134037E-002
   1.0797573913214197E-002  -3.4435568338367362E-003   6.2687103274056410E-002
   9.9861046428659853E-003  -3.4819761220899886E-003   6.2320862142079908E-002
   9.1746353725177601E-003  -3.6620460108056328E-003   6.2186731986204294E-002
   8.3631661021695558E-003  -3.9837664999835543E-003   6.2284712806429887E-002
   7.6663102035480872E-003  -2.3964847101358711E-003   6.4633713599735465E-002
   7.0990319223329483E-003  -2.3118491772919636E-003   6.4040828937455010E-002
   6.5317536411177903E-003  -2.2115897789369565E-003   6.3704215277339563E-002
   5.9644753599026332E-003  -2.0957065150711066E-003   6.3623872619389149E-002
   5.3971970786874934E-003  -1.9641993856941431E-003   6.3799800963603825E-002
   3.7799780237744987E-003  -1.2461812742259326E-003   6.5884738804985563E-002
   3.4810507577564291E-003  -1.1801415207471216E-003   6.5454596054475206E-002
   3.1821234917383703E-003  -9.4120343578378562E-004   6.5304884332193974E-002
   2.8831962257203098E-003  -5.2936701933644151E-004   6.5435603638141923E-002
   2.5842689597022420E-003   5.5367728595268062E-005   6.5846753972319094E-002
  -4.9953355758393381E-005  -9.5877838316105191E-005   6.7038530997883705E-002
  -5.6369580515337747E-005  -4.8433864202279686E-005   6.6928404625117011E-002
  -6.2785805272278644E-005   3.2918290736913547E-004   6.7122869306643462E-002
  -6.9202030029221276E-005   1.0369724763980501E-003   6.7621925042463227E-002
  -7.5618254786163908E-005   2.0749348428845682E-003   6.8425571832575915E-002
   5.1120060900848585E-007   0.0000000000000000        2.8446232805541694E-002
   1.6861825216304971E-007  -5.8511267038950654E-008   3.3407471870523370E-002
  -1.7396410468238643E-007   1.2040267753470058E-007   3.8376546417573841E-002
  -5.1654646152738889E-007   5.3674183372008633E-007   4.3353456446693119E-002
  -8.5912881837412608E-007   1.1905062015102677E-006   4.8338201957881181E-002
  -6.7997815368869494E-003   0.0000000000000000        2.8510051528093099E-002
  -6.8317811775366229E-003   1.4639902101065173E-004   3.3545089093763011E-002
  -6.8637808181862981E-003   3.2996674609131124E-004   3.8508977060778479E-002
  -6.8957804588359742E-003   5.5070317524198026E-004   4.3401715429139495E-002
  -6.9277800994856486E-003   8.0860830846264577E-004   4.8223304198846052E-002
  -1.3505486297973844E-002   0.0000000000000000        2.8701862143492990E-002
  -1.3648128077639600E-002   2.9285655328834285E-004   3.3847629488709549E-002
  -1.3790769857305357E-002   6.5981308950508865E-004   3.8843262154548405E-002
  -1.3933411636971111E-002   1.1008696086502378E-003   4.3688760141009544E-002
  -1.4076053416636869E-002   1.6160261107237913E-003   4.8384123448092994E-002
  -2.0116603082651688E-002   0.0000000000000000        2.9021664651741379E-002
  -2.0448872082056771E-002   4.3931408556603375E-004   3.4315093055362969E-002
  -2.0781141081461858E-002   9.8965943291886476E-004   3.9379401698883605E-002
  -2.1113410080866944E-002   1.6510360420584950E-003   4.4214590582303280E-002
  -2.1445679080272031E-002   2.4234439129849263E-003   4.8820659705622008E-002
  -2.6633131890920467E-002   0.0000000000000000        2.9469459052838258E-002
  -2.7234013190788140E-002   5.8577161784372465E-004   3.4947479793723278E-002
  -2.7834894490655807E-002   1.3195057763326426E-003   4.0117395693784100E-002
  -2.8435775790523470E-002   2.2012024754667573E-003   4.4979206753020709E-002
  -2.9036657090391146E-002   3.2308617152460696E-003   4.9532912971433113E-002
  -8.5912881837412608E-007   1.1905062015102677E-006   4.8338201957881181E-002
  -6.5958189883605009E-007   1.7226121544885661E-006   5.1507688928222356E-002
  -4.6003497929710674E-007   1.7739760662194379E-006   5.4541045641249571E-002
  -2.6048805975816339E-007   1.3445979367096594E-006   5.7438272096962818E-002
  -6.0941140220954759E-008   4.3447776595234577E-007   6.0199368295362134E-002
  -6.9277800994856486E-003   8.0860830846264577E-004   4.8223304198846052E-002
  -7.0342670782043001E-003   1.0635768963985887E-003   5.1179121286038666E-002
  -7.1407540569229499E-003   1.2755036896950412E-003   5.4057695579268872E-002
  -7.2472410356416057E-003   1.4443886883520659E-003   5.6859027078536614E-002
  -7.3537280143602538E-003   1.5702318923695724E-003   5.9583115783841942E-002
  -1.4076053416636869E-002   1.6160261107237913E-003   4.8384123448092994E-002
  -1.4230339457642188E-002   2.1254311806426988E-003   5.1083709599538847E-002
  -1.4384625498647509E-002   2.5492334033238905E-003   5.3764940420373782E-002
  -1.4538911539652827E-002   2.8874327787674118E-003   5.6427815910597805E-002
  -1.4693197580658145E-002   3.1400293069731959E-003   5.9072336070210944E-002
  -2.1445679080272031E-002   2.4234439129849263E-003   4.8820659705622008E-002
  -2.1588876720212490E-002   3.1872854648868076E-003   5.1221453868722858E-002
  -2.1732074360152960E-002   3.8229631169527331E-003   5.3662780164564307E-002
  -2.1875272000093423E-002   4.3304768691827559E-003   5.6144638593146390E-002
  -2.2018469640033889E-002   4.7098267215768454E-003   5.8667029154469079E-002
  -2.9036657090391146E-002   3.2308617152460696E-003   4.9532912971433113E-002
  -2.9109878865915227E-002   4.2491397491309056E-003   5.1592354093590725E-002
  -2.9183100641439315E-002   5.0966928305815678E-003   5.3751214811840482E-002
  -2.9256322416963403E-002   5.7735209595981257E-003   5.6009495126182383E-002
  -2.9329544192487483E-002   6.2796241361804533E-003   5.8367195036616415E-002
  -6.0941140220954759E-008   4.3447776595234577E-007   6.0199368295362134E-002
  -2.4159912663541255E-006   4.9831764549479463E-007   6.1091538057511829E-002
  -4.7710413924838269E-006   2.9908196669172632E-006   6.2123980917636032E-002
  -7.1260915186156966E-006   7.9119838302158484E-006   6.3296696875734706E-002
  -9.4811416447466990E-006   1.5261810135391851E-005   6.4609685931807853E-002
  -7.3537280143602538E-003   1.5702318923695724E-003   5.9583115783841942E-002
  -7.2289461857896363E-003   1.6673589812486907E-003   6.0470365946888288E-002
  -7.1041643572190144E-003   1.7500956344903701E-003   6.1471616769353664E-002
  -6.9793825286483917E-003   1.8184418520946939E-003   6.2586868251238062E-002
  -6.8546007000777742E-003   1.8723976340616483E-003   6.3816120392541448E-002
  -1.4693197580658145E-002   3.1400293069731959E-003   5.9072336070210944E-002
  -1.4467551311946249E-002   3.3342196448518310E-003   5.9937847536374683E-002
  -1.4241905043234349E-002   3.4972004493138238E-003   6.0891087223401995E-002
  -1.4016258774522443E-002   3.6289717203592002E-003   6.1932055131292872E-002
  -1.3790612505810543E-002   3.7295334579879325E-003   6.3060751260047218E-002
  -2.2018469640033889E-002   4.7098267215768454E-003   5.8667029154469079E-002
  -2.1718231369736180E-002   5.0010803084550130E-003   5.9493982825971001E-002
  -2.1417993099438478E-002   5.2443052641372775E-003   6.0382392279780976E-002
  -2.1117754829140776E-002   5.4395015886237056E-003   6.1332257515898998E-002
  -2.0817516558843067E-002   5.5866692819142444E-003   6.2343578534325164E-002
  -2.9329544192487483E-002   6.2796241361804533E-003   5.8367195036616415E-002
  -2.8980986359159452E-002   6.6679409720581673E-003   5.9138771815677206E-002
  -2.8632428525831415E-002   6.9914100789607372E-003   5.9945531938490615E-002
  -2.8283870692503380E-002   7.2500314568881719E-003   6.0787475405056614E-002
  -2.7935312859175342E-002   7.4438051058404869E-003   6.1664602215375189E-002
  -9.4811416447466990E-006   1.5261810135391851E-005   6.4609685931807853E-002
  -1.4646554982620727E-005   2.2506744253802946E-005   6.4810731212330872E-002
  -1.9811968320494755E-005   2.7113231856987219E-005   6.5136479680739767E-002
  -2.4977381658367916E-005   2.9081272944788544E-005   6.5586931337034513E-002
  -3.0142794996242811E-005   2.8410867517314475E-005   6.6162086181215024E-002
  -6.8546007000777742E-003   1.8723976340616483E-003   6.3816120392541448E-002
  -6.7212625496580912E-003   1.9068607815317523E-003   6.3926457161700700E-002
  -6.5879243992384099E-003   1.9167290956456258E-003   6.4189097870489181E-002
  -6.4545862488187304E-003   1.9020025764031378E-003   6.4604042518906932E-002
  -6.3212480983990457E-003   1.8626812238043688E-003   6.5171291106953966E-002
  -1.3790612505810543E-002   3.7295334579879325E-003   6.3060751260047218E-002
  -1.3491170039889871E-002   3.7912148188096739E-003   6.3058423131001615E-002
  -1.3191727573969190E-002   3.8063449594342366E-003   6.3235999693328743E-002
  -1.2892285108048507E-002   3.7749238798614592E-003   6.3593480947028616E-002
  -1.2592842642127835E-002   3.6969515800914510E-003   6.4130866892101165E-002
  -2.0817516558843067E-002   5.5866692819142444E-003   6.2343578534325164E-002
  -2.0324369025677948E-002   5.6755688560876510E-003   6.2206629120233746E-002
  -1.9831221492512829E-002   5.6959608232228058E-003   6.2277185149258535E-002
  -1.9338073959347706E-002   5.6478451833198223E-003   6.2555246621399468E-002
  -1.8844926426182580E-002   5.5312219363785331E-003   6.3040813536656581E-002
  -2.7935312859175342E-002   7.4438051058404869E-003   6.1664602215375189E-002
  -2.7220859507022323E-002   7.5599228933655380E-003   6.1371075129397046E-002
  -2.6506406154869329E-002   7.5855766870114964E-003   6.1312654238278523E-002
  -2.5791952802716324E-002   7.5207664867781047E-003   6.1489339542019600E-002
  -2.5077499450563315E-002   7.3654922926656152E-003   6.1901131040620255E-002
  -3.0142794996242811E-005   2.8410867517314475E-005   6.6162086181215024E-002
  -2.2843229055585085E-005   2.6373129148854479E-005   6.5896381579029134E-002
  -1.5543663114932563E-005   2.4239171413448224E-005   6.5836345625607362E-002
  -8.2440971742765712E-006   2.2008994311505103E-005   6.5981978320949639E-002
  -9.4453123362231439E-007   1.9682597842629601E-005   6.6333279665055978E-002
  -6.3212480983990457E-003   1.8626812238043688E-003   6.5171291106953966E-002
  -6.1125131966640704E-003   1.8107911650598607E-003   6.4920544552321352E-002
  -5.9037782949290874E-003   1.7583585273801064E-003   6.4867000020513321E-002
  -5.6950433931941061E-003   1.7053833107649342E-003   6.5010657511529818E-002
  -5.4863084914591291E-003   1.6518655152146233E-003   6.5351517025370898E-002
  -1.2592842642127835E-002   3.6969515800914510E-003   6.4130866892101165E-002
  -1.2191139030538038E-002   3.5952092009709363E-003   6.3894632025453257E-002
  -1.1789435418948240E-002   3.4924778833465425E-003   6.3847132555690481E-002
  -1.1387731807358435E-002   3.3887576272185298E-003   6.3988368482812724E-002
  -1.0986028195768638E-002   3.2840484325866448E-003   6.4318339806819988E-002
  -1.8844926426182580E-002   5.5312219363785331E-003   6.3040813536656581E-002
  -1.8258720730677483E-002   5.3796272368820050E-003   6.2818643998424989E-002
  -1.7672515035172379E-002   5.2265972393132007E-003   6.2776743231138965E-002
  -1.7086309339667288E-002   5.0721319436721254E-003   6.2915111234798454E-002
  -1.6500103644162184E-002   4.9162313499587357E-003   6.3233748009403484E-002
  -2.5077499450563315E-002   7.3654922926656152E-003   6.1901131040620255E-002
  -2.4315258297082431E-002   7.1640452727930320E-003   6.1692580471236380E-002
  -2.3553017143601529E-002   6.9607165952796021E-003   6.1655832046858580E-002
  -2.2790775990120634E-002   6.7555062601255874E-003   6.1790885767486779E-002
  -2.2028534836639732E-002   6.5484142673306600E-003   6.2097741633121095E-002
  -9.4453123362231439E-007   1.9682597842629601E-005   6.6333279665055978E-002
  -6.4508749410274735E-006   2.1494699502411230E-005   6.6074082678750479E-002
  -1.1957218648425694E-005   3.1680016786314602E-005   6.6026897858176614E-002
  -1.7463562355825649E-005   5.0238549694128082E-005   6.6191725203334259E-002
  -2.2969906063229073E-005   7.7170298225959222E-005   6.6568564714223233E-002
  -5.4863084914591291E-003   1.6518655152146233E-003   6.5351517025370898E-002
  -5.2780527154123432E-003   1.5980941191151565E-003   6.5083918545734615E-002
  -5.0697969393655590E-003   1.5443581008525303E-003   6.5031832139875262E-002
  -4.8615411633187765E-003   1.4906574604268870E-003   6.5195257807792742E-002
  -4.6532853872719888E-003   1.4369921978382161E-003   6.5574195549487041E-002
  -1.0986028195768638E-002   3.2840484325866448E-003   6.4318339806819988E-002
  -1.0560510391922273E-002   3.1746935387277908E-003   6.4034001996065820E-002
  -1.0134992588075899E-002   3.0570361849189751E-003   6.3968676167133920E-002
  -9.7094747842295225E-003   2.9310763711597031E-003   6.4122362320024412E-002
  -9.2839569803831543E-003   2.7968140974504729E-003   6.4495060454736935E-002
  -1.6500103644162184E-002   4.9162313499587357E-003   6.3233748009403484E-002
  -1.5853823904470810E-002   4.7512929583405639E-003   6.2924333029744262E-002
  -1.5207544164779450E-002   4.5697142689852220E-003   6.2837429939952644E-002
  -1.4561264425088087E-002   4.3714952818924907E-003   6.2973038740028839E-002
  -1.3914984685396710E-002   4.1566359970628408E-003   6.3331159429972639E-002
  -2.2028534836639732E-002   6.5484142673306600E-003   6.2097741633121095E-002
  -2.1157993253057970E-002   6.3278923779531426E-003   6.1754911646769772E-002
  -2.0287451669476205E-002   6.0823923530516771E-003   6.1638093458331517E-002
  -1.9416910085894440E-002   5.8119141926252886E-003   6.1747287067806342E-002
  -1.8546368502312671E-002   5.5164578966750422E-003   6.2082492475194373E-002
  -2.2969906063229073E-005   7.7170298225959222E-005   6.6568564714223233E-002
  -2.9715768487023619E-005   8.9693556949849151E-005   6.6375403867946492E-002
  -3.6461630910811227E-005   6.5026620434172067E-005   6.6389344633130926E-002
  -4.3207493334605773E-005   3.1694886788169452E-006   6.6610387009776645E-002
  -4.9953355758393381E-005  -9.5877838316105191E-005   6.7038530997883705E-002
  -4.6532853872719888E-003   1.4369921978382161E-003   6.5574195549487041E-002
  -4.4571771948086931E-003   1.3730620507981239E-003   6.5347553363744121E-002
  -4.2610690023453975E-003   1.2885667570184112E-003   6.5319517676314096E-002
  -4.0649608098821000E-003   1.1835063164989459E-003   6.5490088487196979E-002
  -3.8688526174188061E-003   1.0578807292401793E-003   6.5859265796392730E-002
  -9.2839569803831543E-003   2.7968140974504729E-003   6.4495060454736935E-002
  -8.8934898461811053E-003   2.6564305446463571E-003   6.4251561978027866E-002
  -8.5030227119790632E-003   2.5121068936025948E-003   6.4198174886483370E-002
  -8.1125555777770142E-003   2.3638431443193525E-003   6.4334899180103378E-002
  -7.7220884435749582E-003   2.2116392967965193E-003   6.4661734858888070E-002
  -1.3914984685396710E-002   4.1566359970628408E-003   6.3331159429972639E-002
  -1.3338653722604250E-002   3.9397990384945833E-003   6.3087429710797449E-002
  -1.2762322759811789E-002   3.7356470301867228E-003   6.3025316263638498E-002
  -1.2185991797019343E-002   3.5441799721396203E-003   6.3144819088495785E-002
  -1.1609660834226869E-002   3.3653978643528315E-003   6.3445938185369366E-002
  -1.8546368502312671E-002   5.5164578966750422E-003   6.2082492475194373E-002
  -1.7792668824078137E-002   5.2231675323428095E-003   6.1855156562053093E-002
  -1.7038969145843606E-002   4.9591871667709758E-003   6.1800941807779758E-002
  -1.6285269467609075E-002   4.7245167999597944E-003   6.1919848212374354E-002
  -1.5531569789374533E-002   4.5191564319091437E-003   6.2211875775836756E-002
  -4.9953355758393381E-005  -9.5877838316105191E-005   6.7038530997883705E-002
  -5.6369580515337747E-005  -4.8433864202279686E-005   6.6928404625117011E-002
  -6.2785805272278644E-005   3.2918290736913547E-004   6.7122869306643462E-002
  -6.9202030029221276E-005   1.0369724763980501E-003   6.7621925042463227E-002
  -7.5618254786163908E-005   2.0749348428845682E-003   6.8425571832575915E-002
  -3.8688526174188061E-003   1.0578807292401793E-003   6.5859265796392730E-002
  -3.5820506156946687E-003   1.0145490670726842E-003   6.5961092928508186E-002
  -3.2952486139705434E-003   1.1563704018272836E-003   6.6344765459292576E-002
  -3.0084466122464156E-003   1.4833447335042063E-003   6.7010283388745900E-002
  -2.7216446105222600E-003   1.9954720621034872E-003   6.7957646716868547E-002
  -7.7220884435749582E-003   2.2116392967965193E-003   6.4661734858888070E-002
  -7.1648138709938941E-003   2.0775319983475371E-003   6.4830495695350265E-002
  -6.6075392984128222E-003   1.9835578962853900E-003   6.5258356274857446E-002
  -6.0502647258317520E-003   1.9297169906103660E-003   6.5945316597409348E-002
  -5.4929901532506861E-003   1.9160092813224061E-003   6.6891376663006430E-002
  -1.1609660834226869E-002   3.3653978643528315E-003   6.3445938185369366E-002
  -1.0804659346412986E-002   3.1405149296222790E-003   6.3536612925643138E-002
  -9.9996578585991105E-003   2.8107453907435173E-003   6.3863641753337835E-002
  -9.1946563707852227E-003   2.3760892477163020E-003   6.4427024668452959E-002
  -8.3896548829713365E-003   1.8365465005413251E-003   6.5226761670989147E-002
  -1.5531569789374533E-002   4.5191564319091437E-003   6.2211875775836756E-002
  -1.4501587041951952E-002   4.2034978608972429E-003   6.2079444619387025E-002
  -1.3471604294529396E-002   3.6379328852015336E-003   6.2160621894733925E-002
  -1.2441621547106872E-002   2.8224615048225432E-003   6.2455407601877538E-002
  -1.1411638799684265E-002   1.7570837197602440E-003   6.2963801740817393E-002
  -2.6633131890920467E-002   0.0000000000000000        2.9469459052838258E-002
  -2.7234013190788140E-002   5.8577161784372465E-004   3.4947479793723278E-002
  -2.7834894490655807E-002   1.3195057763326426E-003   4.0117395693784100E-002
  -2.8435775790523470E-002   2.2012024754667573E-003   4.4979206753020709E-002
  -2.9036657090391146E-002   3.2308617152460696E-003   4.9532912971433113E-002
  -3.3392494515884719E-002   0.0000000000000000        3.0179678768501694E-002
  -3.4236248845144104E-002   9.6027891308555439E-004   3.5268286810621614E-002
  -3.5080003174403490E-002   2.0238174847307120E-003   4.0179253634782308E-002
  -3.5923757503662876E-002   3.1906157149354780E-003   4.4912579240983797E-002
  -3.6767511832922248E-002   4.4606736036998506E-003   4.9468263629226059E-002
  -4.0732112750648974E-002   0.0000000000000000        3.1286757220449754E-002
  -4.1688276486435083E-002   1.3347862083273833E-003   3.5941249681718974E-002
  -4.2644440222221192E-002   2.7281291931287813E-003   4.0548564547893975E-002
  -4.3600603958007300E-002   4.1800289544041977E-003   4.5108701818974722E-002
  -4.4556767693793416E-002   5.6904854921536307E-003   4.9621661494961257E-002
  -4.8651986595213213E-002   0.0000000000000000        3.2790694408682444E-002
  -4.9590096114661079E-002   1.7092935035692108E-003   3.6966368407015386E-002
  -5.0528205634108925E-002   3.4324409015268472E-003   4.1225328433119081E-002
  -5.1466315153556791E-002   5.1694421938729175E-003   4.5567574486993528E-002
  -5.2404424673004643E-002   6.9202973806074047E-003   4.9993106568638729E-002
  -5.7152116049577470E-002   0.0000000000000000        3.4691490333199751E-002
  -5.7941707729822080E-002   2.0838007988110419E-003   3.8343642986510822E-002
  -5.8731299410066690E-002   4.1367526099249201E-003   4.2209545290457631E-002
  -5.9520891090311293E-002   6.1588554333416382E-003   4.6289197245040166E-002
  -6.0310482770555902E-002   8.1501092690611926E-003   5.0582598850258453E-002
  -2.9036657090391146E-002   3.2308617152460696E-003   4.9532912971433113E-002
  -2.9109878865915227E-002   4.2491397491309056E-003   5.1592354093590725E-002
  -2.9183100641439315E-002   5.0966928305815678E-003   5.3751214811840482E-002
  -2.9256322416963403E-002   5.7735209595981257E-003   5.6009495126182383E-002
  -2.9329544192487483E-002   6.2796241361804533E-003   5.8367195036616415E-002
  -3.6767511832922248E-002   4.4606736036998506E-003   4.9468263629226059E-002
  -3.6780321828688171E-002   5.6940405220580236E-003   5.1256612540806559E-002
  -3.6793131824454088E-002   6.7507658410441863E-003   5.3066365415811299E-002
  -3.6805941820220005E-002   7.6308495606583638E-003   5.4897522254240216E-002
  -3.6818751815985921E-002   8.3342916809005171E-003   5.6750083056093345E-002
  -4.4556767693793416E-002   5.6904854921536307E-003   4.9621661494961257E-002
  -4.4587181542469101E-002   7.1389412949851485E-003   5.1133001549026807E-002
  -4.4617595391144772E-002   8.4048388515068038E-003   5.2587729933848651E-002
  -4.4648009239820437E-002   9.4881781617186089E-003   5.3985846649426766E-002
  -4.4678423088496122E-002   1.0388959225620560E-002   5.5327351695761147E-002
  -5.2404424673004643E-002   6.9202973806074047E-003   4.9993106568638729E-002
  -5.2530458007258002E-002   8.5838420679122708E-003   5.1221521118251491E-002
  -5.2656491341511374E-002   1.0058911861969421E-002   5.2315308365952599E-002
  -5.2782524675764747E-002   1.1345506762778859E-002   5.3274468311742047E-002
  -5.2908558010018120E-002   1.2443626770340600E-002   5.4099000955619814E-002
  -6.0310482770555902E-002   8.1501092690611926E-003   5.0582598850258453E-002
  -6.0610151223054909E-002   1.0028742840839393E-002   5.1522171248480575E-002
  -6.0909819675553895E-002   1.1712984872432034E-002   5.2249100712123103E-002
  -6.1209488128052894E-002   1.3202835363839106E-002   5.2763387241186024E-002
  -6.1509156580551901E-002   1.4498294315060660E-002   5.3065030835669359E-002
  -2.9329544192487483E-002   6.2796241361804533E-003   5.8367195036616415E-002
  -2.8980986359159452E-002   6.6679409720581673E-003   5.9138771815677206E-002
  -2.8632428525831415E-002   6.9914100789607372E-003   5.9945531938490615E-002
  -2.8283870692503380E-002   7.2500314568881719E-003   6.0787475405056614E-002
  -2.7935312859175342E-002   7.4438051058404869E-003   6.1664602215375189E-002
  -3.6818751815985921E-002   8.3342916809005171E-003   5.6750083056093345E-002
  -3.6382879638140644E-002   8.8765476587795294E-003   5.7098037979742292E-002
  -3.5947007460295367E-002   9.2730729513042561E-003   5.7585438248673085E-002
  -3.5511135282450097E-002   9.5238675584747214E-003   5.8212283862885808E-002
  -3.5075263104604827E-002   9.6289314802908976E-003   5.8978574822380302E-002
  -4.4678423088496122E-002   1.0388959225620560E-002   5.5327351695761147E-002
  -4.4050974564604349E-002   1.1085154345500864E-002   5.5170801807619095E-002
  -4.3423526040712569E-002   1.1554735823647789E-002   5.5257959266288195E-002
  -4.2796077516820789E-002   1.1797703660061269E-002   5.5588824071768399E-002
  -4.2168628992929010E-002   1.1814057854741357E-002   5.6163396224059803E-002
  -5.2908558010018120E-002   1.2443626770340600E-002   5.4099000955619814E-002
  -5.1985271138550559E-002   1.3293761032222233E-002   5.3357063299307630E-002
  -5.1061984267082999E-002   1.3836398695991273E-002   5.2963094991335870E-002
  -5.0138697395615467E-002   1.4071539761647805E-002   5.2917096031704511E-002
  -4.9215410524147900E-002   1.3999184229191806E-002   5.3219066420413533E-002
  -6.1509156580551901E-002   1.4498294315060660E-002   5.3065030835669359E-002
  -6.0185769359979296E-002   1.5502367718943554E-002   5.1656822454807926E-002
  -5.8862382139406685E-002   1.6118061568334827E-002   5.0700845423816129E-002
  -5.7538994918834081E-002   1.6345375863234358E-002   5.0197099742694047E-002
  -5.6215607698261484E-002   1.6184310603642241E-002   5.0145585411441665E-002
  -2.7935312859175342E-002   7.4438051058404869E-003   6.1664602215375189E-002
  -2.7220859507022323E-002   7.5599228933655380E-003   6.1371075129397046E-002
  -2.6506406154869329E-002   7.5855766870114964E-003   6.1312654238278523E-002
  -2.5791952802716324E-002   7.5207664867781047E-003   6.1489339542019600E-002
  -2.5077499450563315E-002   7.3654922926656152E-003   6.1901131040620255E-002
  -3.5075263104604827E-002   9.6289314802908976E-003   5.8978574822380302E-002
  -3.4135294097988850E-002   9.6289410671851622E-003   5.8644620563926456E-002
  -3.3195325091372865E-002   9.5645726695898561E-003   5.8526591419538934E-002
  -3.2255356084756888E-002   9.4358262875049118E-003   5.8624487389217730E-002
  -3.1315387078140897E-002   9.2427019209303518E-003   5.8938308472962955E-002
  -4.2168628992929010E-002   1.1814057854741357E-002   5.6163396224059803E-002
  -4.1022325412643328E-002   1.1697959241004748E-002   5.5815100802519814E-002
  -3.9876021832357625E-002   1.1543568652168190E-002   5.5663549414252882E-002
  -3.8729718252071943E-002   1.1350886088231637E-002   5.5708742059259075E-002
  -3.7583414671786261E-002   1.1119911549195186E-002   5.5950678737538291E-002
  -4.9215410524147900E-002   1.3999184229191806E-002   5.3219066420413533E-002
  -4.7881953450985761E-002   1.3766977414824312E-002   5.2882515845177135E-002
  -4.6548496377823635E-002   1.3522564634746510E-002   5.2723528222420477E-002
  -4.5215039304661496E-002   1.3265945888958429E-002   5.2742103552143628E-002
  -4.3881582231499336E-002   1.2997121177459957E-002   5.2938241834346679E-002
  -5.6215607698261484E-002   1.6184310603642241E-002   5.0145585411441665E-002
  -5.4714178213016156E-002   1.5835995588643938E-002   4.9846865691898376E-002
  -5.3212748727770848E-002   1.5501560617324880E-002   4.9706527844041636E-002
  -5.1711319242525505E-002   1.5181005689685209E-002   4.9724571867871437E-002
  -5.0209889757280204E-002   1.4874330805724784E-002   4.9900997763387828E-002
  -2.5077499450563315E-002   7.3654922926656152E-003   6.1901131040620255E-002
  -2.4315258297082431E-002   7.1640452727930320E-003   6.1692580471236380E-002
  -2.3553017143601529E-002   6.9607165952796021E-003   6.1655832046858580E-002
  -2.2790775990120634E-002   6.7555062601255874E-003   6.1790885767486779E-002
  -2.2028534836639732E-002   6.5484142673306600E-003   6.2097741633121095E-002
  -3.1315387078140897E-002   9.2427019209303518E-003   5.8938308472962955E-002
  -3.0374982206706660E-002   9.0092003105137347E-003   5.8696850430040845E-002
  -2.9434577335272431E-002   8.7593221969022722E-003   5.8639917678019397E-002
  -2.8494172463838202E-002   8.4930675800962523E-003   5.8767510216898619E-002
  -2.7553767592403966E-002   8.2104364600953383E-003   5.9079628046678434E-002
  -3.7583414671786261E-002   1.1119911549195186E-002   5.5950678737538291E-002
  -3.6452122936504079E-002   1.0854355348234375E-002   5.5661818375524141E-002
  -3.5320831201221911E-002   1.0557927798524862E-002   5.5570206450305193E-002
  -3.4189539465939743E-002   1.0230628900066780E-002   5.5675842961881432E-002
  -3.3058247730657568E-002   9.8724586528600167E-003   5.5978727910253004E-002
  -4.3881582231499336E-002   1.2997121177459957E-002   5.2938241834346679E-002
  -4.2546680486474628E-002   1.2699510385954991E-002   5.2587484307686366E-002
  -4.1211778741449920E-002   1.2356533400147520E-002   5.2446698363715849E-002
  -3.9876876996425191E-002   1.1968190220037320E-002   5.2515884002435252E-002
  -3.8541975251400504E-002   1.1534480845624667E-002   5.2795041223844416E-002
  -5.0209889757280204E-002   1.4874330805724784E-002   4.9900997763387828E-002
  -4.8658654856618327E-002   1.4544665423675732E-002   4.9473848226527478E-002
  -4.7107419955956499E-002   1.4155139001770116E-002   4.9269393418251553E-002
  -4.5556185055294643E-002   1.3705751540007942E-002   4.9287633338560156E-002
  -4.4004950154632808E-002   1.3196503038389318E-002   4.9528567987453087E-002
  -2.2028534836639732E-002   6.5484142673306600E-003   6.2097741633121095E-002
  -2.1157993253057970E-002   6.3278923779531426E-003   6.1754911646769772E-002
  -2.0287451669476205E-002   6.0823923530516771E-003   6.1638093458331517E-002
  -1.9416910085894440E-002   5.8119141926252886E-003   6.1747287067806342E-002
  -1.8546368502312671E-002   5.5164578966750422E-003   6.2082492475194373E-002
  -2.7553767592403966E-002   8.2104364600953383E-003   5.9079628046678434E-002
  -2.6461851640988156E-002   7.9120127036278881E-003   5.8732819795127220E-002
  -2.5369935689572375E-002   7.5983801774218984E-003   5.8602748481330999E-002
  -2.4278019738156586E-002   7.2695388814771125E-003   5.8689414105289751E-002
  -2.3186103786740787E-002   6.9254888157939121E-003   5.8992816667003511E-002
  -3.3058247730657568E-002   9.8724586528600167E-003   5.5978727910253004E-002
  -3.1754232271565881E-002   9.4961330293023977E-003   5.5637710759287612E-002
  -3.0450216812474215E-002   9.1143680017920711E-003   5.5504155685919092E-002
  -2.9146201353382507E-002   8.7271635703287161E-003   5.5578062690147367E-002
  -2.7842185894290834E-002   8.3345197349127542E-003   5.5859431771972431E-002
  -3.8541975251400504E-002   1.1534480845624667E-002   5.2795041223844416E-002
  -3.7035135144791072E-002   1.1080253354977025E-002   5.2469584539250734E-002
  -3.5528295038181647E-002   1.0630355826162268E-002   5.2342315072095649E-002
  -3.4021454931572249E-002   1.0184788259180431E-002   5.2413232822379280E-002
  -3.2514614824962818E-002   9.7435506540315547E-003   5.2682337790101536E-002
  -4.4004950154632808E-002   1.3196503038389318E-002   4.9528567987453087E-002
  -4.2304560260663773E-002   1.2664373680651680E-002   4.9228441135016732E-002
  -4.0604170366694760E-002   1.2146343650532479E-002   4.9117226639860789E-002
  -3.8903780472725746E-002   1.1642412948032036E-002   4.9194924501985426E-002
  -3.7203390578756726E-002   1.1152581573150466E-002   4.9461534721390588E-002
  -1.8546368502312671E-002   5.5164578966750422E-003   6.2082492475194373E-002
  -1.7792668824078137E-002   5.2231675323428095E-003   6.1855156562053093E-002
  -1.7038969145843606E-002   4.9591871667709758E-003   6.1800941807779758E-002
  -1.6285269467609075E-002   4.7245167999597944E-003   6.1919848212374354E-002
  -1.5531569789374533E-002   4.5191564319091437E-003   6.2211875775836756E-002
  -2.3186103786740787E-002   6.9254888157939121E-003   5.8992816667003511E-002
  -2.2257409508819687E-002   6.5812973887859061E-003   5.8773125394483761E-002
  -2.1328715230898583E-002   6.2520320088670922E-003   5.8730302162469383E-002
  -2.0400020952977469E-002   5.9376926760376508E-003   5.8864346970960255E-002
  -1.9471326675056355E-002   5.6382793902972073E-003   5.9175259819956250E-002
  -2.7842185894290834E-002   8.3345197349127542E-003   5.5859431771972431E-002
  -2.6734750135045813E-002   7.9394272452291970E-003   5.5633001188403045E-002
  -2.5627314375800778E-002   7.5448768509633127E-003   5.5587185526976203E-002
  -2.4519878616555732E-002   7.1508685521153945E-003   5.5721984787692011E-002
  -2.3412442857310721E-002   6.7574023486852708E-003   5.6037398970550378E-002
  -3.2514614824962818E-002   9.7435506540315547E-003   5.2682337790101536E-002
  -3.1224690702756519E-002   9.2975571016723629E-003   5.2434783943811000E-002
  -2.9934766580550252E-002   8.8377216930594256E-003   5.2371591901300411E-002
  -2.8644842458343971E-002   8.3640444281931937E-003   5.2492761662569797E-002
  -2.7354918336137693E-002   7.8765253070733343E-003   5.2798293227619128E-002
  -3.7203390578756726E-002   1.1152581573150466E-002   4.9461534721390588E-002
  -3.5727231211951829E-002   1.0655686958115640E-002   4.9178473660707711E-002
  -3.4251071845146953E-002   1.0130566535155733E-002   4.9083521285441939E-002
  -3.2774912478342064E-002   9.5772203042709877E-003   4.9176677595593410E-002
  -3.1298753111537181E-002   8.9956482654613978E-003   4.9457942591162318E-002
  -1.5531569789374533E-002   4.5191564319091437E-003   6.2211875775836756E-002
  -1.4501587041951952E-002   4.2034978608972429E-003   6.2079444619387025E-002
  -1.3471604294529396E-002   3.6379328852015336E-003   6.2160621894733925E-002
  -1.2441621547106872E-002   2.8224615048225432E-003   6.2455407601877538E-002
  -1.1411638799684265E-002   1.7570837197602440E-003   6.2963801740817393E-002
  -1.9471326675056355E-002   5.6382793902972073E-003   5.9175259819956250E-002
  -1.8226998484089672E-002   5.2700775227798036E-003   5.8841001571018015E-002
  -1.6982670293122976E-002   4.7493724446184549E-003   5.8721825777371311E-002
  -1.5738342102156300E-002   4.0761641558139036E-003   5.8817732439016113E-002
  -1.4494013911189596E-002   3.2504526563659208E-003   5.9128721555952946E-002
  -2.3412442857310721E-002   6.7574023486852708E-003   5.6037398970550378E-002
  -2.1952295199304923E-002   6.3366571846623088E-003   5.5598716823163419E-002
  -2.0492147541299088E-002   5.8608120040355982E-003   5.5376591154563115E-002
  -1.9031999883293321E-002   5.3298668068054028E-003   5.5371021964749509E-002
  -1.7571852225287451E-002   4.7438215929715977E-003   5.5582009253722586E-002
  -2.7354918336137693E-002   7.8765253070733343E-003   5.2798293227619128E-002
  -2.5677477187597723E-002   7.4032368465449527E-003   5.2352590375823495E-002
  -2.4000036039057766E-002   6.9722515634525750E-003   5.2124918026309489E-002
  -2.2322594890517775E-002   6.5835694577967771E-003   5.2115276179077116E-002
  -2.0645153741977840E-002   6.2371905295772190E-003   5.2323664834126649E-002
  -3.1298753111537181E-002   8.9956482654613978E-003   4.9457942591162318E-002
  -2.9402544448968060E-002   8.4698165084275412E-003   4.9102622228997916E-002
  -2.7506335786398953E-002   8.0836911228697184E-003   4.8966806392610085E-002
  -2.5610127123829811E-002   7.8372721087882763E-003   4.9050495081998990E-002
  -2.3713918461260697E-002   7.7305594661829513E-003   4.9353688297164577E-002
  -5.7152116049577470E-002   0.0000000000000000        3.4691490333199751E-002
  -5.7941707729822080E-002   2.0838007988110419E-003   3.8343642986510822E-002
  -5.8731299410066690E-002   4.1367526099249201E-003   4.2209545290457631E-002
  -5.9520891090311293E-002   6.1588554333416382E-003   4.6289197245040166E-002
  -6.0310482770555902E-002   8.1501092690611926E-003   5.0582598850258453E-002
  -6.5820448760725625E-002   0.0000000000000000        3.7212480503174571E-002
  -6.6625394377936381E-002   2.9139646905912133E-003   4.0835163814568559E-002
  -6.7430339995147165E-002   5.7703486677848220E-003   4.4213389601394482E-002
  -6.8235285612357935E-002   8.5691519315808304E-003   4.7347157863652359E-002
  -6.9040231229568705E-002   1.1310374481979231E-002   5.0236468601342205E-002
  -7.4244932375641587E-002   0.0000000000000000        4.0577000427779786E-002
  -7.5523439105022280E-002   3.7441285823713831E-003   4.4143482671556218E-002
  -7.6801945834403001E-002   7.4039447256447214E-003   4.7007300215560849E-002
  -7.8080452563783723E-002   1.0979448429820012E-002   4.9168453059793636E-002
  -7.9358959293164416E-002   1.4470639694897265E-002   5.0626941204254559E-002
  -8.2425566894325369E-002   0.0000000000000000        4.4785050107015376E-002
  -8.4635841911079798E-002   4.5742924741515555E-003   4.8268599557473868E-002
  -8.6846116927834241E-002   9.0375407835046242E-003   5.0591277132956719E-002
  -8.9056391944588684E-002   1.3389744928059204E-002   5.1753082833463943E-002
  -9.1266666961343126E-002   1.7630904907815291E-002   5.1754016658995580E-002
  -9.0362352316776959E-002   0.0000000000000000        4.9836629540881375E-002
  -9.3962602796108921E-002   5.4044563659317243E-003   5.3210514472321446E-002
  -9.7562853275440869E-002   1.0671136841364524E-002   5.4965320353582099E-002
 -0.10116310375477282        1.5800041426298386E-002   5.5101047184663340E-002
 -0.10476335423410477        2.0791170120733338E-002   5.3617694965565177E-002
  -6.0310482770555902E-002   8.1501092690611926E-003   5.0582598850258453E-002
  -6.0610151223054909E-002   1.0028742840839393E-002   5.1522171248480575E-002
  -6.0909819675553895E-002   1.1712984872432034E-002   5.2249100712123103E-002
  -6.1209488128052894E-002   1.3202835363839106E-002   5.2763387241186024E-002
  -6.1509156580551901E-002   1.4498294315060660E-002   5.3065030835669359E-002
  -6.9040231229568705E-002   1.1310374481979231E-002   5.0236468601342205E-002
  -6.9314721858848752E-002   1.3754521952712985E-002   4.9459401659721250E-002
  -6.9589212488128813E-002   1.5662099977515009E-002   4.8945333299117759E-002
  -6.9863703117408901E-002   1.7033108556385356E-002   4.8694263519531725E-002
  -7.0138193746688948E-002   1.7867547689324005E-002   4.8706192320963147E-002
  -7.9358959293164416E-002   1.4470639694897265E-002   5.0626941204254559E-002
  -7.9132630583628516E-002   1.7480301064586555E-002   4.7791057017044405E-002
  -7.8906301874092588E-002   1.9611215082598003E-002   4.5693812926448765E-002
  -7.8679973164556702E-002   2.0863381748931591E-002   4.4335208932467611E-002
  -7.8453644455020788E-002   2.1236801063587340E-002   4.3715245035100991E-002
  -9.1266666961343126E-002   1.7630904907815291E-002   5.1754016658995580E-002
  -9.0063877397394188E-002   2.1206080176460140E-002   4.6517137320450049E-002
  -8.8861087833445235E-002   2.3560330187680990E-002   4.2494539594116081E-002
  -8.7658298269496310E-002   2.4693654941477818E-002   3.9686223479993690E-002
  -8.6455508705547343E-002   2.4606054437850675E-002   3.8092188978082808E-002
 -0.10476335423410477        2.0791170120733338E-002   5.3617694965565177E-002
 -0.10210846230014577        2.4931859288333715E-002   4.5637642569938158E-002
  -9.9453570366186725E-002   2.7509445292763977E-002   3.9347513302119747E-002
  -9.6798678432227683E-002   2.8523928134024063E-002   3.4747307162109928E-002
  -9.4143786498268670E-002   2.7975307812114020E-002   3.1837024149908702E-002
  -6.1509156580551901E-002   1.4498294315060660E-002   5.3065030835669359E-002
  -6.0185769359979296E-002   1.5502367718943554E-002   5.1656822454807926E-002
  -5.8862382139406685E-002   1.6118061568334827E-002   5.0700845423816129E-002
  -5.7538994918834081E-002   1.6345375863234358E-002   5.0197099742694047E-002
  -5.6215607698261484E-002   1.6184310603642241E-002   5.0145585411441665E-002
  -7.0138193746688948E-002   1.7867547689324005E-002   4.8706192320963147E-002
  -6.8409189907106691E-002   1.8322201445344372E-002   4.7259265235848683E-002
  -6.6680186067524433E-002   1.8553853893460023E-002   4.6171340038883790E-002
  -6.4951182227942189E-002   1.8562505033670816E-002   4.5442416730068540E-002
  -6.3222178388359904E-002   1.8348154865976810E-002   4.5072495309402917E-002
  -7.8453644455020788E-002   2.1236801063587340E-002   4.3715245035100991E-002
  -7.6412253458148949E-002   2.1142035171745201E-002   4.2394977492320352E-002
  -7.4370862461277096E-002   2.0989646218585171E-002   4.1340482375969274E-002
  -7.2329471464405284E-002   2.0779634204107247E-002   4.0551759686047718E-002
  -7.0288080467533418E-002   2.0511999128311427E-002   4.0028809422555739E-002
  -8.6455508705547343E-002   2.4606054437850675E-002   3.8092188978082808E-002
  -8.4194960013106002E-002   2.3961868898146020E-002   3.7063959224222925E-002
  -8.1934411320664660E-002   2.3425438543710330E-002   3.6208272435072568E-002
  -7.9673862628223305E-002   2.2996763374543688E-002   3.5525128610631666E-002
  -7.7413313935781963E-002   2.2675843390646006E-002   3.5014527750900221E-002
  -9.4143786498268670E-002   2.7975307812114020E-002   3.1837024149908702E-002
  -9.1757309571977905E-002   2.6781702624546842E-002   3.1266210431556432E-002
  -8.9370832645687098E-002   2.5861230868835520E-002   3.0774710216193678E-002
  -8.6984355719396306E-002   2.5213892544980146E-002   3.0362523503820241E-002
  -8.4597878793105541E-002   2.4839687652980627E-002   3.0029650294436230E-002
  -5.6215607698261484E-002   1.6184310603642241E-002   5.0145585411441665E-002
  -5.4714178213016156E-002   1.5835995588643938E-002   4.9846865691898376E-002
  -5.3212748727770848E-002   1.5501560617324880E-002   4.9706527844041636E-002
  -5.1711319242525505E-002   1.5181005689685209E-002   4.9724571867871437E-002
  -5.0209889757280204E-002   1.4874330805724784E-002   4.9900997763387828E-002
  -6.3222178388359904E-002   1.8348154865976810E-002   4.5072495309402917E-002
  -6.1546064241584139E-002   1.8008238670202299E-002   4.4723621638340018E-002
  -5.9869950094808368E-002   1.7640191726171549E-002   4.4565735418651470E-002
  -5.8193835948032631E-002   1.7244014033884546E-002   4.4598836650337238E-002
  -5.6517721801256825E-002   1.6819705593341255E-002   4.4822925333397420E-002
  -7.0288080467533418E-002   2.0511999128311427E-002   4.0028809422555739E-002
  -6.8404676079539359E-002   2.0180481751760754E-002   3.9587771008037648E-002
  -6.6521271691545356E-002   1.9778822835018223E-002   3.9370325624581745E-002
  -6.4637867303551325E-002   1.9307022378083870E-002   3.9376473272187955E-002
  -6.2754462915557280E-002   1.8765080380957741E-002   3.9606213950856360E-002
  -7.7413313935781963E-002   2.2675843390646006E-002   3.5014527750900221E-002
  -7.5290013726881849E-002   2.2352724833319161E-002   3.4439313800991363E-002
  -7.3166713517981763E-002   2.1917453943864934E-002   3.4120298461832510E-002
  -7.1043413309081677E-002   2.1370030722283283E-002   3.4057481733423496E-002
  -6.8920113100181535E-002   2.0710455168574234E-002   3.4250863615764640E-002
  -8.4597878793105541E-002   2.4839687652980627E-002   3.0029650294436230E-002
  -8.2202077183611583E-002   2.4524967914877571E-002   2.9278250017201052E-002
  -7.9806275574117624E-002   2.4056085052711573E-002   2.8815653930403688E-002
  -7.7410473964623638E-002   2.3433039066482562E-002   2.8641862034044101E-002
  -7.5014672355129680E-002   2.2655829956190726E-002   2.8756874328122212E-002
  -5.0209889757280204E-002   1.4874330805724784E-002   4.9900997763387828E-002
  -4.8658654856618327E-002   1.4544665423675732E-002   4.9473848226527478E-002
  -4.7107419955956499E-002   1.4155139001770116E-002   4.9269393418251553E-002
  -4.5556185055294643E-002   1.3705751540007942E-002   4.9287633338560156E-002
  -4.4004950154632808E-002   1.3196503038389318E-002   4.9528567987453087E-002
  -5.6517721801256825E-002   1.6819705593341255E-002   4.4822925333397420E-002
  -5.4752677174189725E-002   1.6365383517384341E-002   4.4412102942820247E-002
  -5.2987632547122687E-002   1.5879164918856402E-002   4.4206205276469103E-002
  -5.1222587920055587E-002   1.5361049797757520E-002   4.4205232334344063E-002
  -4.9457543292988494E-002   1.4811038154087575E-002   4.4409184116444955E-002
  -6.2754462915557280E-002   1.8765080380957741E-002   3.9606213950856360E-002
  -6.0793378566443367E-002   1.8186101611092971E-002   3.9239683223847958E-002
  -5.8832294217329488E-002   1.7603190835942747E-002   3.9060307216707169E-002
  -5.6871209868215582E-002   1.7016348055506988E-002   3.9068085929434032E-002
  -5.4910125519101696E-002   1.6425573269785859E-002   3.9263019362028431E-002
  -6.8920113100181535E-002   2.0710455168574234E-002   3.4250863615764640E-002
  -6.6780759033379253E-002   2.0006819704801535E-002   3.3956589069610486E-002
  -6.4641404966576929E-002   1.9327216753029008E-002   3.3831699238965562E-002
  -6.2502050899774619E-002   1.8671646313256428E-002   3.3876194123829882E-002
  -6.0362696832972351E-002   1.8040108385484130E-002   3.4090073724203362E-002
  -7.5014672355129680E-002   2.2655829956190726E-002   2.8756874328122212E-002
  -7.2714818574997356E-002   2.1827537798510238E-002   2.8562820480107970E-002
  -7.0414964794865059E-002   2.1051242670115329E-002   2.8520381343244555E-002
  -6.8115111014732735E-002   2.0326944571005992E-002   2.8629556917531877E-002
  -6.5815257234600411E-002   1.9654643501182456E-002   2.8890347202970013E-002
  -4.4004950154632808E-002   1.3196503038389318E-002   4.9528567987453087E-002
  -4.2304560260663773E-002   1.2664373680651680E-002   4.9228441135016732E-002
  -4.0604170366694760E-002   1.2146343650532479E-002   4.9117226639860789E-002
  -3.8903780472725746E-002   1.1642412948032036E-002   4.9194924501985426E-002
  -3.7203390578756726E-002   1.1152581573150466E-002   4.9461534721390588E-002
  -4.9457543292988494E-002   1.4811038154087575E-002   4.4409184116444955E-002
  -4.7566604081398269E-002   1.4246967906074520E-002   4.4119644457343510E-002
  -4.5675664869808064E-002   1.3686676971946379E-002   4.4022291076203909E-002
  -4.3784725658217845E-002   1.3130165351702697E-002   4.4117123973026230E-002
  -4.1893786446627584E-002   1.2577433045344144E-002   4.4404143147810438E-002
  -5.4910125519101696E-002   1.6425573269785859E-002   3.9263019362028431E-002
  -5.2825363069208896E-002   1.5829562131497513E-002   3.8973746882528096E-002
  -5.0740600619316116E-002   1.5227010293359940E-002   3.8879934601670850E-002
  -4.8655838169423371E-002   1.4617917755373524E-002   3.8981582519456909E-002
  -4.6571075719530536E-002   1.4002284517537933E-002   3.9278690635886182E-002
  -6.0362696832972351E-002   1.8040108385484130E-002   3.4090073724203362E-002
  -5.8080837224095627E-002   1.7412156356920373E-002   3.3790748410570295E-002
  -5.5798977615218966E-002   1.6767343614773670E-002   3.3690157216261674E-002
  -5.3517118006342283E-002   1.6105670159044155E-002   3.3788300141277816E-002
  -5.1235258397465587E-002   1.5427135989731722E-002   3.4085177185618341E-002
  -6.5815257234600411E-002   1.9654643501182456E-002   2.8890347202970013E-002
  -6.3333026546058518E-002   1.8994750582343373E-002   2.8570649041470220E-002
  -6.0850795857516571E-002   1.8307676936187373E-002   2.8452958919976429E-002
  -5.8368565168974637E-002   1.7593422562714865E-002   2.8537276838488501E-002
  -5.5886334480432731E-002   1.6851987461925455E-002   2.8823602797006520E-002
  -3.7203390578756726E-002   1.1152581573150466E-002   4.9461534721390588E-002
  -3.5727231211951829E-002   1.0655686958115640E-002   4.9178473660707711E-002
  -3.4251071845146953E-002   1.0130566535155733E-002   4.9083521285441939E-002
  -3.2774912478342064E-002   9.5772203042709877E-003   4.9176677595593410E-002
  -3.1298753111537181E-002   8.9956482654613978E-003   4.9457942591162318E-002
  -4.1893786446627584E-002   1.2577433045344144E-002   4.4404143147810438E-002
  -4.0236393128783306E-002   1.2018132531098152E-002   4.4104743178925154E-002
  -3.8578999810938992E-002   1.1441916287192239E-002   4.3979702426701545E-002
  -3.6921606493094714E-002   1.0848784313626812E-002   4.4029020891139428E-002
  -3.5264213175250414E-002   1.0238736610401755E-002   4.4252698572238958E-002
  -4.6571075719530536E-002   1.4002284517537933E-002   3.9278690635886182E-002
  -4.4746197919402556E-002   1.3380578104080693E-002   3.8974261837063984E-002
  -4.2921320119274485E-002   1.2753266039228925E-002   3.8830442786147751E-002
  -4.1096442319146491E-002   1.2120348322982696E-002   3.8847233483137414E-002
  -3.9271564519018427E-002   1.1481824955342113E-002   3.9024633928032959E-002
  -5.1235258397465587E-002   1.5427135989731722E-002   3.4085177185618341E-002
  -4.9256645583809530E-002   1.4743023677063191E-002   3.3787029635124345E-002
  -4.7278032770153466E-002   1.4064615791265410E-002   3.3635742363780655E-002
  -4.5299419956497430E-002   1.3391912332338494E-002   3.3631315371586985E-002
  -4.3320807142841353E-002   1.2724913300282525E-002   3.3773748658543809E-002
  -5.5886334480432731E-002   1.6851987461925455E-002   2.8823602797006520E-002
  -5.3767736122004306E-002   1.6105469250045801E-002   2.8543046573106023E-002
  -5.1649137763575895E-002   1.5375965543302159E-002   2.8395601159600159E-002
  -4.9530539405147463E-002   1.4663476341694275E-002   2.8381266556488718E-002
  -4.7411941046719058E-002   1.3968001645222827E-002   2.8500042763771716E-002
  -3.1298753111537181E-002   8.9956482654613978E-003   4.9457942591162318E-002
  -2.9402544448968060E-002   8.4698165084275412E-003   4.9102622228997916E-002
  -2.7506335786398953E-002   8.0836911228697184E-003   4.8966806392610085E-002
  -2.5610127123829811E-002   7.8372721087882763E-003   4.9050495081998990E-002
  -2.3713918461260697E-002   7.7305594661829513E-003   4.9353688297164577E-002
  -3.5264213175250414E-002   1.0238736610401755E-002   4.4252698572238958E-002
  -3.3156707250968406E-002   9.6529417427456132E-003   4.3949843552092915E-002
  -3.1049201326686447E-002   9.1325682758870291E-003   4.3850078529595798E-002
  -2.8941695402404485E-002   8.6776162098260688E-003   4.3953403504747551E-002
  -2.6834189478122550E-002   8.2880855445627288E-003   4.4259818477548785E-002
  -3.9271564519018427E-002   1.1481824955342113E-002   3.9024633928032959E-002
  -3.6969175861151164E-002   1.0836066977063713E-002   3.8699959279226384E-002
  -3.4666787203283991E-002   1.0181445428904340E-002   3.8561960099941256E-002
  -3.2364398545416770E-002   9.5179603108639446E-003   3.8610636390177963E-002
  -3.0062009887549521E-002   8.8456116229425064E-003   3.8845988149935451E-002
  -4.3320807142841353E-002   1.2724913300282525E-002   3.3773748658543809E-002
  -4.0839950279516452E-002   1.2019192211381965E-002   3.3352969410398323E-002
  -3.8359093416191564E-002   1.1230322581921595E-002   3.3102451103646721E-002
  -3.5878236552866725E-002   1.0358304411901834E-002   3.3022193738288838E-002
  -3.3397379689541824E-002   9.4031377013222839E-003   3.3112197314325117E-002
  -4.7411941046719058E-002   1.3968001645222827E-002   2.8500042763771716E-002
  -4.4769030506064150E-002   1.3202317445700107E-002   2.7908873945608814E-002
  -4.2126119965409201E-002   1.2279199734938878E-002   2.7471551540712014E-002
  -3.9483209424754202E-002   1.1198648512939592E-002   2.7188075549081231E-002
  -3.6840298884099343E-002   9.9606637797020614E-003   2.7058445970717049E-002
  -9.0362352316776959E-002   0.0000000000000000        4.9836629540881375E-002
  -9.3962602796108921E-002   5.4044563659317243E-003   5.3210514472321446E-002
  -9.7562853275440869E-002   1.0671136841364524E-002   5.4965320353582099E-002
 -0.10116310375477282        1.5800041426298386E-002   5.5101047184663340E-002
 -0.10476335423410477        2.0791170120733338E-002   5.3617694965565177E-002
 -0.10329377333609248        0.0000000000000000        5.8664720594997853E-002
 -0.10683143692770761        1.0884503033241431E-002   5.2119928465314304E-002
 -0.11036910051932275        1.9172336538862224E-002   4.7319389161243813E-002
 -0.11390676411093788        2.4863500516862397E-002   4.4263102682786347E-002
 -0.11744442770255302        2.7957994967241922E-002   4.2951069029941946E-002
 -0.12645831464536805        0.0000000000000000        7.4202305134984881E-002
 -0.12657005947347391        1.6364549700551134E-002   5.5279942307056025E-002
 -0.12668180430157977        2.7673536236359930E-002   4.1465164180532671E-002
 -0.12679354912968566        3.3926959607426380E-002   3.2757970755414832E-002
 -0.12690529395779152        3.5124819813750499E-002   2.9158362031702450E-002
 -0.15985597624460368        0.0000000000000000        9.6449383160842450E-002
 -0.15317847043340782        2.1844596367860843E-002   6.2690555997546582E-002
 -0.14650096462221199        3.6174735933857637E-002   3.7402645411448658E-002
 -0.13982345881101607        4.2990418697990369E-002   2.0585651402548713E-002
 -0.13314595299982027        4.2291644660259101E-002   1.2239573970846684E-002
 -0.20348675813379935        0.0000000000000000       0.12540595467257060     
 -0.18665666980750931        2.7324643035170543E-002   7.4351769536786017E-002
 -0.16982658148121926        4.4675935631355329E-002   3.5131832853991830E-002
 -0.15299649315492925        5.2053877788554380E-002   7.7461446241880449E-003
 -0.13616640482863920        4.9458469506767674E-002  -7.8052951526253259E-003
 -0.10476335423410477        2.0791170120733338E-002   5.3617694965565177E-002
 -0.10210846230014577        2.4931859288333715E-002   4.5637642569938158E-002
  -9.9453570366186725E-002   2.7509445292763977E-002   3.9347513302119747E-002
  -9.6798678432227683E-002   2.8523928134024063E-002   3.4747307162109928E-002
  -9.4143786498268670E-002   2.7975307812114020E-002   3.1837024149908702E-002
 -0.11744442770255302        2.7957994967241922E-002   4.2951069029941946E-002
 -0.11348768938939546        2.9430036949447645E-002   3.6697477812966027E-002
 -0.10953095107623792        3.0253843522926371E-002   3.1357656226578608E-002
 -0.10557421276308035        3.0429414687678135E-002   2.6931604270779654E-002
 -0.10161747444992278        2.9956750443702870E-002   2.3419321945569151E-002
 -0.12690529395779152        3.5124819813750499E-002   2.9158362031702450E-002
 -0.12242286276265554        3.3928214610561530E-002   2.5546099747820818E-002
 -0.11794043156751961        3.2998241753088749E-002   2.2071453597307521E-002
 -0.11345800037238364        3.2334901241332127E-002   1.8734423580162640E-002
 -0.10897556917724768        3.1938193075291735E-002   1.5535009696386035E-002
 -0.13314595299982027        4.2291644660259101E-002   1.2239573970846684E-002
 -0.12891398241992602        3.8426392271675471E-002   1.2183508374502487E-002
 -0.12468201184003182        3.5742639983251112E-002   1.1488905414306552E-002
 -0.12045004126013757        3.4240387794986255E-002   1.0155765090258837E-002
 -0.11621807068024335        3.3919635706880599E-002   8.1840874023592913E-003
 -0.13616640482863920        4.9458469506767674E-002  -7.8052951526253259E-003
 -0.13296104836120684        4.2924569932789355E-002  -3.3902963069888589E-003
 -0.12975569189377451        3.8487038213413538E-002  -3.8998832242427735E-004
 -0.12655033542634217        3.6145874348640229E-002   1.1956288010682814E-003
 -0.12334497895890981        3.5901078338469450E-002   1.3665550634889001E-003
  -9.4143786498268670E-002   2.7975307812114020E-002   3.1837024149908702E-002
  -9.1757309571977905E-002   2.6781702624546842E-002   3.1266210431556432E-002
  -8.9370832645687098E-002   2.5861230868835520E-002   3.0774710216193678E-002
  -8.6984355719396306E-002   2.5213892544980146E-002   3.0362523503820241E-002
  -8.4597878793105541E-002   2.4839687652980627E-002   3.0029650294436230E-002
 -0.10161747444992278        2.9956750443702870E-002   2.3419321945569151E-002
  -9.9137454335687936E-002   2.9185803158240774E-002   2.3140732515305410E-002
  -9.6657434221453134E-002   2.8466525198531951E-002   2.2969915957940259E-002
  -9.4177414107218305E-002   2.7798916564576368E-002   2.2906872273473843E-002
  -9.1697393992983448E-002   2.7182977256373975E-002   2.2951601461906126E-002
 -0.10897556917724768        3.1938193075291735E-002   1.5535009696386035E-002
 -0.10637354650515952        3.1589903691934679E-002   1.5327180448107974E-002
 -0.10377152383307135        3.1071819528228267E-002   1.5255583442638042E-002
 -0.10116950116098318        3.0383940584172466E-002   1.5320218679975937E-002
  -9.8567478488895008E-002   2.9526266859767288E-002   1.5521086160122020E-002
 -0.11621807068024335        3.3919635706880599E-002   8.1840874023592913E-003
 -0.11346558608039257        3.3994004225628649E-002   7.8255542299644869E-003
 -0.11071310148054178        3.3677113857924643E-002   7.6317126702868873E-003
 -0.10796061688069097        3.2968964603768705E-002   7.6025627233265655E-003
 -0.10520813228084022        3.1869556463160600E-002   7.7381043890834980E-003
 -0.12334497895890981        3.5901078338469450E-002   1.3665550634889001E-003
 -0.12041357306138709        3.6398104759322564E-002   6.3585386087459950E-004
 -0.11748216716386441        3.6282408187621060E-002   9.8303640886941712E-005
 -0.11455076126634173        3.5553988623364896E-002  -2.4609559647431091E-004
 -0.11161935536881901        3.4212846066553948E-002  -3.9734385120904214E-004
  -8.4597878793105541E-002   2.4839687652980627E-002   3.0029650294436230E-002
  -8.2202077183611583E-002   2.4524967914877571E-002   2.9278250017201052E-002
  -7.9806275574117624E-002   2.4056085052711573E-002   2.8815653930403688E-002
  -7.7410473964623638E-002   2.3433039066482562E-002   2.8641862034044101E-002
  -7.5014672355129680E-002   2.2655829956190726E-002   2.8756874328122212E-002
  -9.1697393992983448E-002   2.7182977256373975E-002   2.2951601461906126E-002
  -8.9041448007375831E-002   2.6566534906402997E-002   2.2297552807636470E-002
  -8.6385502021768229E-002   2.5897417147141423E-002   2.1874988715156390E-002
  -8.3729556036160613E-002   2.5175623978589350E-002   2.1683909184465805E-002
  -8.1073610050553011E-002   2.4401155400746721E-002   2.1724314215564727E-002
  -9.8567478488895008E-002   2.9526266859767288E-002   1.5521086160122020E-002
  -9.5708707755821978E-002   2.8608101897928340E-002   1.5065876843590141E-002
  -9.2849937022748921E-002   2.7738749241571249E-002   1.4784832460199673E-002
  -8.9991166289675864E-002   2.6918208890696030E-002   1.4677953009950472E-002
  -8.7132395556602835E-002   2.6146480845302592E-002   1.4745238492842629E-002
 -0.10520813228084022        3.1869556463160600E-002   7.7381043890834980E-003
 -0.10220385642895001        3.0649668889453655E-002   7.5832221250620221E-003
  -9.9199580577059771E-002   2.9580081336001058E-002   7.5451851655335914E-003
  -9.6195304725169559E-002   2.8660793802802710E-002   7.6239935104982755E-003
  -9.3191028873279333E-002   2.7891806289858524E-002   7.8196471599560145E-003
 -0.11161935536881901        3.4212846066553948E-002  -3.9734385120904214E-004
 -0.10852689402675986        3.2691235880979164E-002  -1.5041134794802069E-004
 -0.10543443268470071        3.1421413430430895E-002   1.5604683115821860E-004
 -0.10234197134264153        3.0403378714909494E-002   5.2203068610912062E-004
  -9.9249510000582408E-002   2.9637131734414512E-002   9.4754021690485191E-004
  -7.5014672355129680E-002   2.2655829956190726E-002   2.8756874328122212E-002
  -7.2714818574997356E-002   2.1827537798510238E-002   2.8562820480107970E-002
  -7.0414964794865059E-002   2.1051242670115329E-002   2.8520381343244555E-002
  -6.8115111014732735E-002   2.0326944571005992E-002   2.8629556917531877E-002
  -6.5815257234600411E-002   1.9654643501182456E-002   2.8890347202970013E-002
  -8.1073610050553011E-002   2.4401155400746721E-002   2.1724314215564727E-002
  -7.8621132493149559E-002   2.3606824207954402E-002   2.1563895227382696E-002
  -7.6168654935746039E-002   2.2825443194553312E-002   2.1557109082592216E-002
  -7.3716177378342573E-002   2.2057012360543485E-002   2.1703955781193239E-002
  -7.1263699820939053E-002   2.1301531705924664E-002   2.2004435323185634E-002
  -8.7132395556602835E-002   2.6146480845302592E-002   1.4745238492842629E-002
  -8.4525276089687476E-002   2.5386110617398497E-002   1.4579407514598394E-002
  -8.1918156622772159E-002   2.4599643718991319E-002   1.4569227511986357E-002
  -7.9311037155856759E-002   2.3787080150080776E-002   1.4714698485006722E-002
  -7.6703917688941414E-002   2.2948419910667012E-002   1.5015820433659233E-002
  -9.3191028873279333E-002   2.7891806289858524E-002   7.8196471599560145E-003
  -9.0427249364611370E-002   2.7165397026842709E-002   7.6093573417551682E-003
  -8.7663469855943352E-002   2.6373844243429284E-002   7.5567366314271108E-003
  -8.4899690347275375E-002   2.5517147939618168E-002   7.6617850289724919E-003
  -8.2135910838607357E-002   2.4595308115409623E-002   7.9245025343905214E-003
  -9.9249510000582408E-002   2.9637131734414512E-002   9.4754021690485191E-004
  -9.6327052317921047E-002   2.8944683436286756E-002   6.5374470885290470E-004
  -9.3404594635259713E-002   2.8148044767867419E-002   5.1963644091476691E-004
  -9.0482136952598366E-002   2.7247215729155685E-002   5.4521541309007077E-004
  -8.7559679269937019E-002   2.6242196320151678E-002   7.3048162537941996E-004
  -6.5815257234600411E-002   1.9654643501182456E-002   2.8890347202970013E-002
  -6.3333026546058518E-002   1.8994750582343373E-002   2.8570649041470220E-002
  -6.0850795857516571E-002   1.8307676936187373E-002   2.8452958919976429E-002
  -5.8368565168974637E-002   1.7593422562714865E-002   2.8537276838488501E-002
  -5.5886334480432731E-002   1.6851987461925455E-002   2.8823602797006520E-002
  -7.1263699820939053E-002   2.1301531705924664E-002   2.2004435323185634E-002
  -6.8580669090869822E-002   2.0550058706592808E-002   2.1675696083476345E-002
  -6.5897638360800537E-002   1.9793650838442541E-002   2.1546548886815689E-002
  -6.3214607630731307E-002   1.9032308101474354E-002   2.1616993733203901E-002
  -6.0531576900662035E-002   1.8266030495688090E-002   2.1887030622640719E-002
  -7.6703917688941414E-002   2.2948419910667012E-002   1.5015820433659233E-002
  -7.3822502914301980E-002   2.2105366830842146E-002   1.4700285974238815E-002
  -7.0941088139662475E-002   2.1279624740697820E-002   1.4581927560910160E-002
  -6.8059673365022999E-002   2.0471193640233903E-002   1.4660745193673004E-002
  -6.5178258590383537E-002   1.9680073529450698E-002   1.4936738872527625E-002
  -8.2135910838607357E-002   2.4595308115409623E-002   7.9245025343905214E-003
  -7.9058528016354851E-002   2.3660674955091450E-002   7.6444187137578810E-003
  -7.5981145194102373E-002   2.2765598642952793E-002   7.5590949422596233E-003
  -7.2903762371849881E-002   2.1910079178993645E-002   7.6685312198960191E-003
  -6.9826379549597362E-002   2.1094116563213264E-002   7.9727275466665894E-003
  -8.7559679269937019E-002   2.6242196320151678E-002   7.3048162537941996E-004
  -8.4288744397028714E-002   2.5215983079340865E-002   5.0809430203291317E-004
  -8.1017809524120243E-002   2.4251572545208183E-002   4.7805103086416556E-004
  -7.7746874651211800E-002   2.3348964717752947E-002   6.4035181187266019E-004
  -7.4475939778303468E-002   2.2508159596976052E-002   9.9499664505819929E-004
  -5.5886334480432731E-002   1.6851987461925455E-002   2.8823602797006520E-002
  -5.3767736122004306E-002   1.6105469250045801E-002   2.8543046573106023E-002
  -5.1649137763575895E-002   1.5375965543302159E-002   2.8395601159600159E-002
  -4.9530539405147463E-002   1.4663476341694275E-002   2.8381266556488718E-002
  -4.7411941046719058E-002   1.3968001645222827E-002   2.8500042763771716E-002
  -6.0531576900662035E-002   1.8266030495688090E-002   2.1887030622640719E-002
  -5.8272044595858538E-002   1.7495310154329591E-002   2.1619390216633394E-002
  -5.6012512291055160E-002   1.6720639210644872E-002   2.1500506892981469E-002
  -5.3752979986251725E-002   1.5942017664633421E-002   2.1530380651685166E-002
  -5.1493447681448298E-002   1.5159445516295778E-002   2.1709011492744401E-002
  -6.5178258590383537E-002   1.9680073529450698E-002   1.4936738872527625E-002
  -6.2762146067244118E-002   1.8885151058613464E-002   1.4661049176950686E-002
  -6.0346033544104657E-002   1.8065312877987426E-002   1.4549762835690504E-002
  -5.7929921020965232E-002   1.7220558987572514E-002   1.4602879848746735E-002
  -5.5513808497825771E-002   1.6350889387368728E-002   1.4820400216119550E-002
  -6.9826379549597362E-002   2.1094116563213264E-002   7.9727275466665894E-003
  -6.7238040536160906E-002   2.0274991962897351E-002   7.6680234540580719E-003
  -6.4649701522724395E-002   1.9409986545329782E-002   7.5433689877270876E-003
  -6.2061362509287933E-002   1.8499100310511409E-002   7.5987641476737882E-003
  -5.9473023495851443E-002   1.7542333258441456E-002   7.8342089338977947E-003
  -7.4475939778303468E-002   2.2508159596976052E-002   9.9499664505819929E-004
  -7.1699728002608931E-002   2.1664832867181238E-002   6.4031304795508781E-004
  -6.8923516226914394E-002   2.0754660212672804E-002   4.8132534909134383E-004
  -6.6147304451219857E-002   1.9777641633450388E-002   5.1803354846534366E-004
  -6.3371092675525320E-002   1.8733777129514628E-002   7.5043764607851671E-004
  -4.7411941046719058E-002   1.3968001645222827E-002   2.8500042763771716E-002
  -4.4769030506064150E-002   1.3202317445700107E-002   2.7908873945608814E-002
  -4.2126119965409201E-002   1.2279199734938878E-002   2.7471551540712014E-002
  -3.9483209424754202E-002   1.1198648512939592E-002   2.7188075549081231E-002
  -3.6840298884099343E-002   9.9606637797020614E-003   2.7058445970717049E-002
  -5.1493447681448298E-002   1.5159445516295778E-002   2.1709011492744401E-002
  -4.8684938195790409E-002   1.4359296534337818E-002   2.1096422736593623E-002
  -4.5876428710132526E-002   1.3527944487465970E-002   2.0661185457182790E-002
  -4.3067919224474616E-002   1.2665389375680097E-002   2.0403299654511459E-002
  -4.0259409738816698E-002   1.1771631198980392E-002   2.0322765328580017E-002
  -5.5513808497825771E-002   1.6350889387368728E-002   1.4820400216119550E-002
  -5.2516195003691403E-002   1.5516275622975861E-002   1.4312621968305600E-002
  -4.9518581509556986E-002   1.4776689239993160E-002   1.4005700260704829E-002
  -4.6520968015422548E-002   1.4132130238420516E-002   1.3899635093317243E-002
  -4.3523354521288277E-002   1.3582598618258390E-002   1.3994426466142851E-002
  -5.9473023495851443E-002   1.7542333258441456E-002   7.8342089338977947E-003
  -5.6262800929767084E-002   1.6673254711613739E-002   7.5574716407445855E-003
  -5.3052578363682844E-002   1.6025433992519635E-002   7.5050959512784794E-003
  -4.9842355797598423E-002   1.5598871101160922E-002   7.6770818654986212E-003
  -4.6632133231514210E-002   1.5393566037536666E-002   8.0734293834055643E-003
  -6.3371092675525320E-002   1.8733777129514628E-002   7.5043764607851671E-004
  -5.9924755974017696E-002   1.7830233800251394E-002   8.3097175391066980E-004
  -5.6478419272509850E-002   1.7274178745047053E-002   1.1593725289028578E-003
  -5.3032082571002059E-002   1.7065611963901176E-002   1.7356399710555526E-003
  -4.9585745869494380E-002   1.7204533456814719E-002   2.5597740803682267E-003
 </DataArray>
 </PointData>
 </Piece>
 <Piece  NumberOfPoints="          1600 "  NumberOfCells="         1024 ">
 <Points>
 <DataArray  type="Float64" NumberOfComponents="3"  format="ascii" >
  0.50000000000000000        0.0000000000000000        0.0000000000000000     
  0.53125000000000000        0.0000000000000000        0.0000000000000000     
  0.56250000000000000        0.0000000000000000        0.0000000000000000     
  0.59375000000000000        0.0000000000000000        0.0000000000000000     
  0.62500000000000000        0.0000000000000000        0.0000000000000000     
  0.50000000000000000        3.1250000000000000E-002   0.0000000000000000     
  0.53125000000000000        3.1250000000000000E-002   0.0000000000000000     
  0.56250000000000000        3.1250000000000000E-002   0.0000000000000000     
  0.59375000000000000        3.1250000000000000E-002   0.0000000000000000     
  0.62500000000000000        3.1250000000000000E-002   0.0000000000000000     
  0.50000000000000000        6.2500000000000000E-002   0.0000000000000000     
  0.53125000000000000        6.2500000000000000E-002   0.0000000000000000     
  0.56250000000000000        6.2500000000000000E-002   0.0000000000000000     
  0.59375000000000000        6.2500000000000000E-002   0.0000000000000000     
  0.62500000000000000        6.2500000000000000E-002   0.0000000000000000     
  0.50000000000000000        9.3750000000000000E-002   0.0000000000000000     
  0.53125000000000000        9.3750000000000000E-002   0.0000000000000000     
  0.56250000000000000        9.3750000000000000E-002   0.0000000000000000     
  0.59375000000000000        9.3750000000000000E-002   0.0000000000000000     
  0.62500000000000000        9.3750000000000000E-002   0.0000000000000000     
  0.50000000000000000       0.12500000000000000        0.0000000000000000     
  0.53125000000000000       0.12500000000000000        0.0000000000000000     
  0.56250000000000000       0.12500000000000000        0.0000000000000000     
  0.59375000000000000       0.12500000000000000        0.0000000000000000     
  0.62500000000000000       0.12500000000000000        0.0000000000000000     
  0.62500000000000000        0.0000000000000000        0.0000000000000000     
  0.65625000000000000        0.0000000000000000        0.0000000000000000     
  0.68750000000000000        0.0000000000000000        0.0000000000000000     
  0.71875000000000000        0.0000000000000000        0.0000000000000000     
  0.75000000000000000        0.0000000000000000        0.0000000000000000     
  0.62500000000000000        3.1250000000000000E-002   0.0000000000000000     
  0.65625000000000000        3.1250000000000000E-002   0.0000000000000000     
  0.68750000000000000        3.1250000000000000E-002   0.0000000000000000     
  0.71875000000000000        3.1250000000000000E-002   0.0000000000000000     
  0.75000000000000000        3.1250000000000000E-002   0.0000000000000000     
  0.62500000000000000        6.2500000000000000E-002   0.0000000000000000     
  0.65625000000000000        6.2500000000000000E-002   0.0000000000000000     
  0.68750000000000000        6.2500000000000000E-002   0.0000000000000000     
  0.71875000000000000        6.2500000000000000E-002   0.0000000000000000     
  0.75000000000000000        6.2500000000000000E-002   0.0000000000000000     
  0.62500000000000000        9.3750000000000000E-002   0.0000000000000000     
  0.65625000000000000        9.3750000000000000E-002   0.0000000000000000     
  0.68750000000000000        9.3750000000000000E-002   0.0000000000000000     
  0.71875000000000000        9.3750000000000000E-002   0.0000000000000000     
  0.75000000000000000        9.3750000000000000E-002   0.0000000000000000     
  0.62500000000000000       0.12500000000000000        0.0000000000000000     
  0.65625000000000000       0.12500000000000000        0.0000000000000000     
  0.68750000000000000       0.12500000000000000        0.0000000000000000     
  0.71875000000000000       0.12500000000000000        0.0000000000000000     
  0.75000000000000000       0.12500000000000000        0.0000000000000000     
  0.75000000000000000        0.0000000000000000        0.0000000000000000     
  0.78125000000000000        0.0000000000000000        0.0000000000000000     
  0.81250000000000000        0.0000000000000000        0.0000000000000000     
  0.84375000000000000        0.0000000000000000        0.0000000000000000     
  0.87500000000000000        0.0000000000000000        0.0000000000000000     
  0.75000000000000000        3.1250000000000000E-002   0.0000000000000000     
  0.78125000000000000        3.1250000000000000E-002   0.0000000000000000     
  0.81250000000000000        3.1250000000000000E-002   0.0000000000000000     
  0.84375000000000000        3.1250000000000000E-002   0.0000000000000000     
  0.87500000000000000        3.1250000000000000E-002   0.0000000000000000     
  0.75000000000000000        6.2500000000000000E-002   0.0000000000000000     
  0.78125000000000000        6.2500000000000000E-002   0.0000000000000000     
  0.81250000000000000        6.2500000000000000E-002   0.0000000000000000     
  0.84375000000000000        6.2500000000000000E-002   0.0000000000000000     
  0.87500000000000000        6.2500000000000000E-002   0.0000000000000000     
  0.75000000000000000        9.3750000000000000E-002   0.0000000000000000     
  0.78125000000000000        9.3750000000000000E-002   0.0000000000000000     
  0.81250000000000000        9.3750000000000000E-002   0.0000000000000000     
  0.84375000000000000        9.3750000000000000E-002   0.0000000000000000     
  0.87500000000000000        9.3750000000000000E-002   0.0000000000000000     
  0.75000000000000000       0.12500000000000000        0.0000000000000000     
  0.78125000000000000       0.12500000000000000        0.0000000000000000     
  0.81250000000000000       0.12500000000000000        0.0000000000000000     
  0.84375000000000000       0.12500000000000000        0.0000000000000000     
  0.87500000000000000       0.12500000000000000        0.0000000000000000     
  0.87500000000000000        0.0000000000000000        0.0000000000000000     
  0.90625000000000000        0.0000000000000000        0.0000000000000000     
  0.93750000000000000        0.0000000000000000        0.0000000000000000     
  0.96875000000000000        0.0000000000000000        0.0000000000000000     
   1.0000000000000000        0.0000000000000000        0.0000000000000000     
  0.87500000000000000        3.1250000000000000E-002   0.0000000000000000     
  0.90625000000000000        3.1250000000000000E-002   0.0000000000000000     
  0.93750000000000000        3.1250000000000000E-002   0.0000000000000000     
  0.96875000000000000        3.1250000000000000E-002   0.0000000000000000     
   1.0000000000000000        3.1250000000000000E-002   0.0000000000000000     
  0.87500000000000000        6.2500000000000000E-002   0.0000000000000000     
  0.90625000000000000        6.2500000000000000E-002   0.0000000000000000     
  0.93750000000000000        6.2500000000000000E-002   0.0000000000000000     
  0.96875000000000000        6.2500000000000000E-002   0.0000000000000000     
   1.0000000000000000        6.2500000000000000E-002   0.0000000000000000     
  0.87500000000000000        9.3750000000000000E-002   0.0000000000000000     
  0.90625000000000000        9.3750000000000000E-002   0.0000000000000000     
  0.93750000000000000        9.3750000000000000E-002   0.0000000000000000     
  0.96875000000000000        9.3750000000000000E-002   0.0000000000000000     
   1.0000000000000000        9.3750000000000000E-002   0.0000000000000000     
  0.87500000000000000       0.12500000000000000        0.0000000000000000     
  0.90625000000000000       0.12500000000000000        0.0000000000000000     
  0.93750000000000000       0.12500000000000000        0.0000000000000000     
  0.96875000000000000       0.12500000000000000        0.0000000000000000     
   1.0000000000000000       0.12500000000000000        0.0000000000000000     
   1.0000000000000000        0.0000000000000000        0.0000000000000000     
   1.0312500000000000        0.0000000000000000        0.0000000000000000     
   1.0625000000000000        0.0000000000000000        0.0000000000000000     
   1.0937500000000000        0.0000000000000000        0.0000000000000000     
   1.1250000000000000        0.0000000000000000        0.0000000000000000     
   1.0000000000000000        3.1250000000000000E-002   0.0000000000000000     
   1.0312500000000000        3.1250000000000000E-002   0.0000000000000000     
   1.0625000000000000        3.1250000000000000E-002   0.0000000000000000     
   1.0937500000000000        3.1250000000000000E-002   0.0000000000000000     
   1.1250000000000000        3.1250000000000000E-002   0.0000000000000000     
   1.0000000000000000        6.2500000000000000E-002   0.0000000000000000     
   1.0312500000000000        6.2500000000000000E-002   0.0000000000000000     
   1.0625000000000000        6.2500000000000000E-002   0.0000000000000000     
   1.0937500000000000        6.2500000000000000E-002   0.0000000000000000     
   1.1250000000000000        6.2500000000000000E-002   0.0000000000000000     
   1.0000000000000000        9.3750000000000000E-002   0.0000000000000000     
   1.0312500000000000        9.3750000000000000E-002   0.0000000000000000     
   1.0625000000000000        9.3750000000000000E-002   0.0000000000000000     
   1.0937500000000000        9.3750000000000000E-002   0.0000000000000000     
   1.1250000000000000        9.3750000000000000E-002   0.0000000000000000     
   1.0000000000000000       0.12500000000000000        0.0000000000000000     
   1.0312500000000000       0.12500000000000000        0.0000000000000000     
   1.0625000000000000       0.12500000000000000        0.0000000000000000     
   1.0937500000000000       0.12500000000000000        0.0000000000000000     
   1.1250000000000000       0.12500000000000000        0.0000000000000000     
   1.1250000000000000        0.0000000000000000        0.0000000000000000     
   1.1562500000000000        0.0000000000000000        0.0000000000000000     
   1.1875000000000000        0.0000000000000000        0.0000000000000000     
   1.2187500000000000        0.0000000000000000        0.0000000000000000     
   1.2500000000000000        0.0000000000000000        0.0000000000000000     
   1.1250000000000000        3.1250000000000000E-002   0.0000000000000000     
   1.1562500000000000        3.1250000000000000E-002   0.0000000000000000     
   1.1875000000000000        3.1250000000000000E-002   0.0000000000000000     
   1.2187500000000000        3.1250000000000000E-002   0.0000000000000000     
   1.2500000000000000        3.1250000000000000E-002   0.0000000000000000     
   1.1250000000000000        6.2500000000000000E-002   0.0000000000000000     
   1.1562500000000000        6.2500000000000000E-002   0.0000000000000000     
   1.1875000000000000        6.2500000000000000E-002   0.0000000000000000     
   1.2187500000000000        6.2500000000000000E-002   0.0000000000000000     
   1.2500000000000000        6.2500000000000000E-002   0.0000000000000000     
   1.1250000000000000        9.3750000000000000E-002   0.0000000000000000     
   1.1562500000000000        9.3750000000000000E-002   0.0000000000000000     
   1.1875000000000000        9.3750000000000000E-002   0.0000000000000000     
   1.2187500000000000        9.3750000000000000E-002   0.0000000000000000     
   1.2500000000000000        9.3750000000000000E-002   0.0000000000000000     
   1.1250000000000000       0.12500000000000000        0.0000000000000000     
   1.1562500000000000       0.12500000000000000        0.0000000000000000     
   1.1875000000000000       0.12500000000000000        0.0000000000000000     
   1.2187500000000000       0.12500000000000000        0.0000000000000000     
   1.2500000000000000       0.12500000000000000        0.0000000000000000     
   1.2500000000000000        0.0000000000000000        0.0000000000000000     
   1.2812500000000000        0.0000000000000000        0.0000000000000000     
   1.3125000000000000        0.0000000000000000        0.0000000000000000     
   1.3437500000000000        0.0000000000000000        0.0000000000000000     
   1.3750000000000000        0.0000000000000000        0.0000000000000000     
   1.2500000000000000        3.1250000000000000E-002   0.0000000000000000     
   1.2812500000000000        3.1250000000000000E-002   0.0000000000000000     
   1.3125000000000000        3.1250000000000000E-002   0.0000000000000000     
   1.3437500000000000        3.1250000000000000E-002   0.0000000000000000     
   1.3750000000000000        3.1250000000000000E-002   0.0000000000000000     
   1.2500000000000000        6.2500000000000000E-002   0.0000000000000000     
   1.2812500000000000        6.2500000000000000E-002   0.0000000000000000     
   1.3125000000000000        6.2500000000000000E-002   0.0000000000000000     
   1.3437500000000000        6.2500000000000000E-002   0.0000000000000000     
   1.3750000000000000        6.2500000000000000E-002   0.0000000000000000     
   1.2500000000000000        9.3750000000000000E-002   0.0000000000000000     
   1.2812500000000000        9.3750000000000000E-002   0.0000000000000000     
   1.3125000000000000        9.3750000000000000E-002   0.0000000000000000     
   1.3437500000000000        9.3750000000000000E-002   0.0000000000000000     
   1.3750000000000000        9.3750000000000000E-002   0.0000000000000000     
   1.2500000000000000       0.12500000000000000        0.0000000000000000     
   1.2812500000000000       0.12500000000000000        0.0000000000000000     
   1.3125000000000000       0.12500000000000000        0.0000000000000000     
   1.3437500000000000       0.12500000000000000        0.0000000000000000     
   1.3750000000000000       0.12500000000000000        0.0000000000000000     
   1.3750000000000000        0.0000000000000000        0.0000000000000000     
   1.4062500000000000        0.0000000000000000        0.0000000000000000     
   1.4375000000000000        0.0000000000000000        0.0000000000000000     
   1.4687500000000000        0.0000000000000000        0.0000000000000000     
   1.5000000000000000        0.0000000000000000        0.0000000000000000     
   1.3750000000000000        3.1250000000000000E-002   0.0000000000000000     
   1.4062500000000000        3.1250000000000000E-002   0.0000000000000000     
   1.4375000000000000        3.1250000000000000E-002   0.0000000000000000     
   1.4687500000000000        3.1250000000000000E-002   0.0000000000000000     
   1.5000000000000000        3.1250000000000000E-002   0.0000000000000000     
   1.3750000000000000        6.2500000000000000E-002   0.0000000000000000     
   1.4062500000000000        6.2500000000000000E-002   0.0000000000000000     
   1.4375000000000000        6.2500000000000000E-002   0.0000000000000000     
   1.4687500000000000        6.2500000000000000E-002   0.0000000000000000     
   1.5000000000000000        6.2500000000000000E-002   0.0000000000000000     
   1.3750000000000000        9.3750000000000000E-002   0.0000000000000000     
   1.4062500000000000        9.3750000000000000E-002   0.0000000000000000     
   1.4375000000000000        9.3750000000000000E-002   0.0000000000000000     
   1.4687500000000000        9.3750000000000000E-002   0.0000000000000000     
   1.5000000000000000        9.3750000000000000E-002   0.0000000000000000     
   1.3750000000000000       0.12500000000000000        0.0000000000000000     
   1.4062500000000000       0.12500000000000000        0.0000000000000000     
   1.4375000000000000       0.12500000000000000        0.0000000000000000     
   1.4687500000000000       0.12500000000000000        0.0000000000000000     
   1.5000000000000000       0.12500000000000000        0.0000000000000000     
  0.50000000000000000       0.12500000000000000        0.0000000000000000     
  0.53125000000000000       0.12500000000000000        0.0000000000000000     
  0.56250000000000000       0.12500000000000000        0.0000000000000000     
  0.59375000000000000       0.12500000000000000        0.0000000000000000     
  0.62500000000000000       0.12500000000000000        0.0000000000000000     
  0.50000000000000000       0.15625000000000000        0.0000000000000000     
  0.53125000000000000       0.15625000000000000        0.0000000000000000     
  0.56250000000000000       0.15625000000000000        0.0000000000000000     
  0.59375000000000000       0.15625000000000000        0.0000000000000000     
  0.62500000000000000       0.15625000000000000        0.0000000000000000     
  0.50000000000000000       0.18750000000000000        0.0000000000000000     
  0.53125000000000000       0.18750000000000000        0.0000000000000000     
  0.56250000000000000       0.18750000000000000        0.0000000000000000     
  0.59375000000000000       0.18750000000000000        0.0000000000000000     
  0.62500000000000000       0.18750000000000000        0.0000000000000000     
  0.50000000000000000       0.21875000000000000        0.0000000000000000     
  0.53125000000000000       0.21875000000000000        0.0000000000000000     
  0.56250000000000000       0.21875000000000000        0.0000000000000000     
  0.59375000000000000       0.21875000000000000        0.0000000000000000     
  0.62500000000000000       0.21875000000000000        0.0000000000000000     
  0.50000000000000000       0.25000000000000000        0.0000000000000000     
  0.53125000000000000       0.25000000000000000        0.0000000000000000     
  0.56250000000000000       0.25000000000000000        0.0000000000000000     
  0.59375000000000000       0.25000000000000000        0.0000000000000000     
  0.62500000000000000       0.25000000000000000        0.0000000000000000     
  0.62500000000000000       0.12500000000000000        0.0000000000000000     
  0.65625000000000000       0.12500000000000000        0.0000000000000000     
  0.68750000000000000       0.12500000000000000        0.0000000000000000     
  0.71875000000000000       0.12500000000000000        0.0000000000000000     
  0.75000000000000000       0.12500000000000000        0.0000000000000000     
  0.62500000000000000       0.15625000000000000        0.0000000000000000     
  0.65625000000000000       0.15625000000000000        0.0000000000000000     
  0.68750000000000000       0.15625000000000000        0.0000000000000000     
  0.71875000000000000       0.15625000000000000        0.0000000000000000     
  0.75000000000000000       0.15625000000000000        0.0000000000000000     
  0.62500000000000000       0.18750000000000000        0.0000000000000000     
  0.65625000000000000       0.18750000000000000        0.0000000000000000     
  0.68750000000000000       0.18750000000000000        0.0000000000000000     
  0.71875000000000000       0.18750000000000000        0.0000000000000000     
  0.75000000000000000       0.18750000000000000        0.0000000000000000     
  0.62500000000000000       0.21875000000000000        0.0000000000000000     
  0.65625000000000000       0.21875000000000000        0.0000000000000000     
  0.68750000000000000       0.21875000000000000        0.0000000000000000     
  0.71875000000000000       0.21875000000000000        0.0000000000000000     
  0.75000000000000000       0.21875000000000000        0.0000000000000000     
  0.62500000000000000       0.25000000000000000        0.0000000000000000     
  0.65625000000000000       0.25000000000000000        0.0000000000000000     
  0.68750000000000000       0.25000000000000000        0.0000000000000000     
  0.71875000000000000       0.25000000000000000        0.0000000000000000     
  0.75000000000000000       0.25000000000000000        0.0000000000000000     
  0.75000000000000000       0.12500000000000000        0.0000000000000000     
  0.78125000000000000       0.12500000000000000        0.0000000000000000     
  0.81250000000000000       0.12500000000000000        0.0000000000000000     
  0.84375000000000000       0.12500000000000000        0.0000000000000000     
  0.87500000000000000       0.12500000000000000        0.0000000000000000     
  0.75000000000000000       0.15625000000000000        0.0000000000000000     
  0.78125000000000000       0.15625000000000000        0.0000000000000000     
  0.81250000000000000       0.15625000000000000        0.0000000000000000     
  0.84375000000000000       0.15625000000000000        0.0000000000000000     
  0.87500000000000000       0.15625000000000000        0.0000000000000000     
  0.75000000000000000       0.18750000000000000        0.0000000000000000     
  0.78125000000000000       0.18750000000000000        0.0000000000000000     
  0.81250000000000000       0.18750000000000000        0.0000000000000000     
  0.84375000000000000       0.18750000000000000        0.0000000000000000     
  0.87500000000000000       0.18750000000000000        0.0000000000000000     
  0.75000000000000000       0.21875000000000000        0.0000000000000000     
  0.78125000000000000       0.21875000000000000        0.0000000000000000     
  0.81250000000000000       0.21875000000000000        0.0000000000000000     
  0.84375000000000000       0.21875000000000000        0.0000000000000000     
  0.87500000000000000       0.21875000000000000        0.0000000000000000     
  0.75000000000000000       0.25000000000000000        0.0000000000000000     
  0.78125000000000000       0.25000000000000000        0.0000000000000000     
  0.81250000000000000       0.25000000000000000        0.0000000000000000     
  0.84375000000000000       0.25000000000000000        0.0000000000000000     
  0.87500000000000000       0.25000000000000000        0.0000000000000000     
  0.87500000000000000       0.12500000000000000        0.0000000000000000     
  0.90625000000000000       0.12500000000000000        0.0000000000000000     
  0.93750000000000000       0.12500000000000000        0.0000000000000000     
  0.96875000000000000       0.12500000000000000        0.0000000000000000     
   1.0000000000000000       0.12500000000000000        0.0000000000000000     
  0.87500000000000000       0.15625000000000000        0.0000000000000000     
  0.90625000000000000       0.15625000000000000        0.0000000000000000     
  0.93750000000000000       0.15625000000000000        0.0000000000000000     
  0.96875000000000000       0.15625000000000000        0.0000000000000000     
   1.0000000000000000       0.15625000000000000        0.0000000000000000     
  0.87500000000000000       0.18750000000000000        0.0000000000000000     
  0.90625000000000000       0.18750000000000000        0.0000000000000000     
  0.93750000000000000       0.18750000000000000        0.0000000000000000     
  0.96875000000000000       0.18750000000000000        0.0000000000000000     
   1.0000000000000000       0.18750000000000000        0.0000000000000000     
  0.87500000000000000       0.21875000000000000        0.0000000000000000     
  0.90625000000000000       0.21875000000000000        0.0000000000000000     
  0.93750000000000000       0.21875000000000000        0.0000000000000000     
  0.96875000000000000       0.21875000000000000        0.0000000000000000     
   1.0000000000000000       0.21875000000000000        0.0000000000000000     
  0.87500000000000000       0.25000000000000000        0.0000000000000000     
  0.90625000000000000       0.25000000000000000        0.0000000000000000     
  0.93750000000000000       0.25000000000000000        0.0000000000000000     
  0.96875000000000000       0.25000000000000000        0.0000000000000000     
   1.0000000000000000       0.25000000000000000        0.0000000000000000     
   1.0000000000000000       0.12500000000000000        0.0000000000000000     
   1.0312500000000000       0.12500000000000000        0.0000000000000000     
   1.0625000000000000       0.12500000000000000        0.0000000000000000     
   1.0937500000000000       0.12500000000000000        0.0000000000000000     
   1.1250000000000000       0.12500000000000000        0.0000000000000000     
   1.0000000000000000       0.15625000000000000        0.0000000000000000     
   1.0312500000000000       0.15625000000000000        0.0000000000000000     
   1.0625000000000000       0.15625000000000000        0.0000000000000000     
   1.0937500000000000       0.15625000000000000        0.0000000000000000     
   1.1250000000000000       0.15625000000000000        0.0000000000000000     
   1.0000000000000000       0.18750000000000000        0.0000000000000000     
   1.0312500000000000       0.18750000000000000        0.0000000000000000     
   1.0625000000000000       0.18750000000000000        0.0000000000000000     
   1.0937500000000000       0.18750000000000000        0.0000000000000000     
   1.1250000000000000       0.18750000000000000        0.0000000000000000     
   1.0000000000000000       0.21875000000000000        0.0000000000000000     
   1.0312500000000000       0.21875000000000000        0.0000000000000000     
   1.0625000000000000       0.21875000000000000        0.0000000000000000     
   1.0937500000000000       0.21875000000000000        0.0000000000000000     
   1.1250000000000000       0.21875000000000000        0.0000000000000000     
   1.0000000000000000       0.25000000000000000        0.0000000000000000     
   1.0312500000000000       0.25000000000000000        0.0000000000000000     
   1.0625000000000000       0.25000000000000000        0.0000000000000000     
   1.0937500000000000       0.25000000000000000        0.0000000000000000     
   1.1250000000000000       0.25000000000000000        0.0000000000000000     
   1.1250000000000000       0.12500000000000000        0.0000000000000000     
   1.1562500000000000       0.12500000000000000        0.0000000000000000     
   1.1875000000000000       0.12500000000000000        0.0000000000000000     
   1.2187500000000000       0.12500000000000000        0.0000000000000000     
   1.2500000000000000       0.12500000000000000        0.0000000000000000     
   1.1250000000000000       0.15625000000000000        0.0000000000000000     
   1.1562500000000000       0.15625000000000000        0.0000000000000000     
   1.1875000000000000       0.15625000000000000        0.0000000000000000     
   1.2187500000000000       0.15625000000000000        0.0000000000000000     
   1.2500000000000000       0.15625000000000000        0.0000000000000000     
   1.1250000000000000       0.18750000000000000        0.0000000000000000     
   1.1562500000000000       0.18750000000000000        0.0000000000000000     
   1.1875000000000000       0.18750000000000000        0.0000000000000000     
   1.2187500000000000       0.18750000000000000        0.0000000000000000     
   1.2500000000000000       0.18750000000000000        0.0000000000000000     
   1.1250000000000000       0.21875000000000000        0.0000000000000000     
   1.1562500000000000       0.21875000000000000        0.0000000000000000     
   1.1875000000000000       0.21875000000000000        0.0000000000000000     
   1.2187500000000000       0.21875000000000000        0.0000000000000000     
   1.2500000000000000       0.21875000000000000        0.0000000000000000     
   1.1250000000000000       0.25000000000000000        0.0000000000000000     
   1.1562500000000000       0.25000000000000000        0.0000000000000000     
   1.1875000000000000       0.25000000000000000        0.0000000000000000     
   1.2187500000000000       0.25000000000000000        0.0000000000000000     
   1.2500000000000000       0.25000000000000000        0.0000000000000000     
   1.2500000000000000       0.12500000000000000        0.0000000000000000     
   1.2812500000000000       0.12500000000000000        0.0000000000000000     
   1.3125000000000000       0.12500000000000000        0.0000000000000000     
   1.3437500000000000       0.12500000000000000        0.0000000000000000     
   1.3750000000000000       0.12500000000000000        0.0000000000000000     
   1.2500000000000000       0.15625000000000000        0.0000000000000000     
   1.2812500000000000       0.15625000000000000        0.0000000000000000     
   1.3125000000000000       0.15625000000000000        0.0000000000000000     
   1.3437500000000000       0.15625000000000000        0.0000000000000000     
   1.3750000000000000       0.15625000000000000        0.0000000000000000     
   1.2500000000000000       0.18750000000000000        0.0000000000000000     
   1.2812500000000000       0.18750000000000000        0.0000000000000000     
   1.3125000000000000       0.18750000000000000        0.0000000000000000     
   1.3437500000000000       0.18750000000000000        0.0000000000000000     
   1.3750000000000000       0.18750000000000000        0.0000000000000000     
   1.2500000000000000       0.21875000000000000        0.0000000000000000     
   1.2812500000000000       0.21875000000000000        0.0000000000000000     
   1.3125000000000000       0.21875000000000000        0.0000000000000000     
   1.3437500000000000       0.21875000000000000        0.0000000000000000     
   1.3750000000000000       0.21875000000000000        0.0000000000000000     
   1.2500000000000000       0.25000000000000000        0.0000000000000000     
   1.2812500000000000       0.25000000000000000        0.0000000000000000     
   1.3125000000000000       0.25000000000000000        0.0000000000000000     
   1.3437500000000000       0.25000000000000000        0.0000000000000000     
   1.3750000000000000       0.25000000000000000        0.0000000000000000     
   1.3750000000000000       0.12500000000000000        0.0000000000000000     
   1.4062500000000000       0.12500000000000000        0.0000000000000000     
   1.4375000000000000       0.12500000000000000        0.0000000000000000     
   1.4687500000000000       0.12500000000000000        0.0000000000000000     
   1.5000000000000000       0.12500000000000000        0.0000000000000000     
   1.3750000000000000       0.15625000000000000        0.0000000000000000     
   1.4062500000000000       0.15625000000000000        0.0000000000000000     
   1.4375000000000000       0.15625000000000000        0.0000000000000000     
   1.4687500000000000       0.15625000000000000        0.0000000000000000     
   1.5000000000000000       0.15625000000000000        0.0000000000000000     
   1.3750000000000000       0.18750000000000000        0.0000000000000000     
   1.4062500000000000       0.18750000000000000        0.0000000000000000     
   1.4375000000000000       0.18750000000000000        0.0000000000000000     
   1.4687500000000000       0.18750000000000000        0.0000000000000000     
   1.5000000000000000       0.18750000000000000        0.0000000000000000     
   1.3750000000000000       0.21875000000000000        0.0000000000000000     
   1.4062500000000000       0.21875000000000000        0.0000000000000000     
   1.4375000000000000       0.21875000000000000        0.0000000000000000     
   1.4687500000000000       0.21875000000000000        0.0000000000000000     
   1.5000000000000000       0.21875000000000000        0.0000000000000000     
   1.3750000000000000       0.25000000000000000        0.0000000000000000     
   1.4062500000000000       0.25000000000000000        0.0000000000000000     
   1.4375000000000000       0.25000000000000000        0.0000000000000000     
   1.4687500000000000       0.25000000000000000        0.0000000000000000     
   1.5000000000000000       0.25000000000000000        0.0000000000000000     
  0.50000000000000000       0.25000000000000000        0.0000000000000000     
  0.53125000000000000       0.25000000000000000        0.0000000000000000     
  0.56250000000000000       0.25000000000000000        0.0000000000000000     
  0.59375000000000000       0.25000000000000000        0.0000000000000000     
  0.62500000000000000       0.25000000000000000        0.0000000000000000     
  0.50000000000000000       0.28125000000000000        0.0000000000000000     
  0.53125000000000000       0.28125000000000000        0.0000000000000000     
  0.56250000000000000       0.28125000000000000        0.0000000000000000     
  0.59375000000000000       0.28125000000000000        0.0000000000000000     
  0.62500000000000000       0.28125000000000000        0.0000000000000000     
  0.50000000000000000       0.31250000000000000        0.0000000000000000     
  0.53125000000000000       0.31250000000000000        0.0000000000000000     
  0.56250000000000000       0.31250000000000000        0.0000000000000000     
  0.59375000000000000       0.31250000000000000        0.0000000000000000     
  0.62500000000000000       0.31250000000000000        0.0000000000000000     
  0.50000000000000000       0.34375000000000000        0.0000000000000000     
  0.53125000000000000       0.34375000000000000        0.0000000000000000     
  0.56250000000000000       0.34375000000000000        0.0000000000000000     
  0.59375000000000000       0.34375000000000000        0.0000000000000000     
  0.62500000000000000       0.34375000000000000        0.0000000000000000     
  0.50000000000000000       0.37500000000000000        0.0000000000000000     
  0.53125000000000000       0.37500000000000000        0.0000000000000000     
  0.56250000000000000       0.37500000000000000        0.0000000000000000     
  0.59375000000000000       0.37500000000000000        0.0000000000000000     
  0.62500000000000000       0.37500000000000000        0.0000000000000000     
  0.62500000000000000       0.25000000000000000        0.0000000000000000     
  0.65625000000000000       0.25000000000000000        0.0000000000000000     
  0.68750000000000000       0.25000000000000000        0.0000000000000000     
  0.71875000000000000       0.25000000000000000        0.0000000000000000     
  0.75000000000000000       0.25000000000000000        0.0000000000000000     
  0.62500000000000000       0.28125000000000000        0.0000000000000000     
  0.65625000000000000       0.28125000000000000        0.0000000000000000     
  0.68750000000000000       0.28125000000000000        0.0000000000000000     
  0.71875000000000000       0.28125000000000000        0.0000000000000000     
  0.75000000000000000       0.28125000000000000        0.0000000000000000     
  0.62500000000000000       0.31250000000000000        0.0000000000000000     
  0.65625000000000000       0.31250000000000000        0.0000000000000000     
  0.68750000000000000       0.31250000000000000        0.0000000000000000     
  0.71875000000000000       0.31250000000000000        0.0000000000000000     
  0.75000000000000000       0.31250000000000000        0.0000000000000000     
  0.62500000000000000       0.34375000000000000        0.0000000000000000     
  0.65625000000000000       0.34375000000000000        0.0000000000000000     
  0.68750000000000000       0.34375000000000000        0.0000000000000000     
  0.71875000000000000       0.34375000000000000        0.0000000000000000     
  0.75000000000000000       0.34375000000000000        0.0000000000000000     
  0.62500000000000000       0.37500000000000000        0.0000000000000000     
  0.65625000000000000       0.37500000000000000        0.0000000000000000     
  0.68750000000000000       0.37500000000000000        0.0000000000000000     
  0.71875000000000000       0.37500000000000000        0.0000000000000000     
  0.75000000000000000       0.37500000000000000        0.0000000000000000     
  0.75000000000000000       0.25000000000000000        0.0000000000000000     
  0.78125000000000000       0.25000000000000000        0.0000000000000000     
  0.81250000000000000       0.25000000000000000        0.0000000000000000     
  0.84375000000000000       0.25000000000000000        0.0000000000000000     
  0.87500000000000000       0.25000000000000000        0.0000000000000000     
  0.75000000000000000       0.28125000000000000        0.0000000000000000     
  0.78125000000000000       0.28125000000000000        0.0000000000000000     
  0.81250000000000000       0.28125000000000000        0.0000000000000000     
  0.84375000000000000       0.28125000000000000        0.0000000000000000     
  0.87500000000000000       0.28125000000000000        0.0000000000000000     
  0.75000000000000000       0.31250000000000000        0.0000000000000000     
  0.78125000000000000       0.31250000000000000        0.0000000000000000     
  0.81250000000000000       0.31250000000000000        0.0000000000000000     
  0.84375000000000000       0.31250000000000000        0.0000000000000000     
  0.87500000000000000       0.31250000000000000        0.0000000000000000     
  0.75000000000000000       0.34375000000000000        0.0000000000000000     
  0.78125000000000000       0.34375000000000000        0.0000000000000000     
  0.81250000000000000       0.34375000000000000        0.0000000000000000     
  0.84375000000000000       0.34375000000000000        0.0000000000000000     
  0.87500000000000000       0.34375000000000000        0.0000000000000000     
  0.75000000000000000       0.37500000000000000        0.0000000000000000     
  0.78125000000000000       0.37500000000000000        0.0000000000000000     
  0.81250000000000000       0.37500000000000000        0.0000000000000000     
  0.84375000000000000       0.37500000000000000        0.0000000000000000     
  0.87500000000000000       0.37500000000000000        0.0000000000000000     
  0.87500000000000000       0.25000000000000000        0.0000000000000000     
  0.90625000000000000       0.25000000000000000        0.0000000000000000     
  0.93750000000000000       0.25000000000000000        0.0000000000000000     
  0.96875000000000000       0.25000000000000000        0.0000000000000000     
   1.0000000000000000       0.25000000000000000        0.0000000000000000     
  0.87500000000000000       0.28125000000000000        0.0000000000000000     
  0.90625000000000000       0.28125000000000000        0.0000000000000000     
  0.93750000000000000       0.28125000000000000        0.0000000000000000     
  0.96875000000000000       0.28125000000000000        0.0000000000000000     
   1.0000000000000000       0.28125000000000000        0.0000000000000000     
  0.87500000000000000       0.31250000000000000        0.0000000000000000     
  0.90625000000000000       0.31250000000000000        0.0000000000000000     
  0.93750000000000000       0.31250000000000000        0.0000000000000000     
  0.96875000000000000       0.31250000000000000        0.0000000000000000     
   1.0000000000000000       0.31250000000000000        0.0000000000000000     
  0.87500000000000000       0.34375000000000000        0.0000000000000000     
  0.90625000000000000       0.34375000000000000        0.0000000000000000     
  0.93750000000000000       0.34375000000000000        0.0000000000000000     
  0.96875000000000000       0.34375000000000000        0.0000000000000000     
   1.0000000000000000       0.34375000000000000        0.0000000000000000     
  0.87500000000000000       0.37500000000000000        0.0000000000000000     
  0.90625000000000000       0.37500000000000000        0.0000000000000000     
  0.93750000000000000       0.37500000000000000        0.0000000000000000     
  0.96875000000000000       0.37500000000000000        0.0000000000000000     
   1.0000000000000000       0.37500000000000000        0.0000000000000000     
   1.0000000000000000       0.25000000000000000        0.0000000000000000     
   1.0312500000000000       0.25000000000000000        0.0000000000000000     
   1.0625000000000000       0.25000000000000000        0.0000000000000000     
   1.0937500000000000       0.25000000000000000        0.0000000000000000     
   1.1250000000000000       0.25000000000000000        0.0000000000000000     
   1.0000000000000000       0.28125000000000000        0.0000000000000000     
   1.0312500000000000       0.28125000000000000        0.0000000000000000     
   1.0625000000000000       0.28125000000000000        0.0000000000000000     
   1.0937500000000000       0.28125000000000000        0.0000000000000000     
   1.1250000000000000       0.28125000000000000        0.0000000000000000     
   1.0000000000000000       0.31250000000000000        0.0000000000000000     
   1.0312500000000000       0.31250000000000000        0.0000000000000000     
   1.0625000000000000       0.31250000000000000        0.0000000000000000     
   1.0937500000000000       0.31250000000000000        0.0000000000000000     
   1.1250000000000000       0.31250000000000000        0.0000000000000000     
   1.0000000000000000       0.34375000000000000        0.0000000000000000     
   1.0312500000000000       0.34375000000000000        0.0000000000000000     
   1.0625000000000000       0.34375000000000000        0.0000000000000000     
   1.0937500000000000       0.34375000000000000        0.0000000000000000     
   1.1250000000000000       0.34375000000000000        0.0000000000000000     
   1.0000000000000000       0.37500000000000000        0.0000000000000000     
   1.0312500000000000       0.37500000000000000        0.0000000000000000     
   1.0625000000000000       0.37500000000000000        0.0000000000000000     
   1.0937500000000000       0.37500000000000000        0.0000000000000000     
   1.1250000000000000       0.37500000000000000        0.0000000000000000     
   1.1250000000000000       0.25000000000000000        0.0000000000000000     
   1.1562500000000000       0.25000000000000000        0.0000000000000000     
   1.1875000000000000       0.25000000000000000        0.0000000000000000     
   1.2187500000000000       0.25000000000000000        0.0000000000000000     
   1.2500000000000000       0.25000000000000000        0.0000000000000000     
   1.1250000000000000       0.28125000000000000        0.0000000000000000     
   1.1562500000000000       0.28125000000000000        0.0000000000000000     
   1.1875000000000000       0.28125000000000000        0.0000000000000000     
   1.2187500000000000       0.28125000000000000        0.0000000000000000     
   1.2500000000000000       0.28125000000000000        0.0000000000000000     
   1.1250000000000000       0.31250000000000000        0.0000000000000000     
   1.1562500000000000       0.31250000000000000        0.0000000000000000     
   1.1875000000000000       0.31250000000000000        0.0000000000000000     
   1.2187500000000000       0.31250000000000000        0.0000000000000000     
   1.2500000000000000       0.31250000000000000        0.0000000000000000     
   1.1250000000000000       0.34375000000000000        0.0000000000000000     
   1.1562500000000000       0.34375000000000000        0.0000000000000000     
   1.1875000000000000       0.34375000000000000        0.0000000000000000     
   1.2187500000000000       0.34375000000000000        0.0000000000000000     
   1.2500000000000000       0.34375000000000000        0.0000000000000000     
   1.1250000000000000       0.37500000000000000        0.0000000000000000     
   1.1562500000000000       0.37500000000000000        0.0000000000000000     
   1.1875000000000000       0.37500000000000000        0.0000000000000000     
   1.2187500000000000       0.37500000000000000        0.0000000000000000     
   1.2500000000000000       0.37500000000000000        0.0000000000000000     
   1.2500000000000000       0.25000000000000000        0.0000000000000000     
   1.2812500000000000       0.25000000000000000        0.0000000000000000     
   1.3125000000000000       0.25000000000000000        0.0000000000000000     
   1.3437500000000000       0.25000000000000000        0.0000000000000000     
   1.3750000000000000       0.25000000000000000        0.0000000000000000     
   1.2500000000000000       0.28125000000000000        0.0000000000000000     
   1.2812500000000000       0.28125000000000000        0.0000000000000000     
   1.3125000000000000       0.28125000000000000        0.0000000000000000     
   1.3437500000000000       0.28125000000000000        0.0000000000000000     
   1.3750000000000000       0.28125000000000000        0.0000000000000000     
   1.2500000000000000       0.31250000000000000        0.0000000000000000     
   1.2812500000000000       0.31250000000000000        0.0000000000000000     
   1.3125000000000000       0.31250000000000000        0.0000000000000000     
   1.3437500000000000       0.31250000000000000        0.0000000000000000     
   1.3750000000000000       0.31250000000000000        0.0000000000000000     
   1.2500000000000000       0.34375000000000000        0.0000000000000000     
   1.2812500000000000       0.34375000000000000        0.0000000000000000     
   1.3125000000000000       0.34375000000000000        0.0000000000000000     
   1.3437500000000000       0.34375000000000000        0.0000000000000000     
   1.3750000000000000       0.34375000000000000        0.0000000000000000     
   1.2500000000000000       0.37500000000000000        0.0000000000000000     
   1.2812500000000000       0.37500000000000000        0.0000000000000000     
   1.3125000000000000       0.37500000000000000        0.0000000000000000     
   1.3437500000000000       0.37500000000000000        0.0000000000000000     
   1.3750000000000000       0.37500000000000000        0.0000000000000000     
   1.3750000000000000       0.25000000000000000        0.0000000000000000     
   1.4062500000000000       0.25000000000000000        0.0000000000000000     
   1.4375000000000000       0.25000000000000000        0.0000000000000000     
   1.4687500000000000       0.25000000000000000        0.0000000000000000     
   1.5000000000000000       0.25000000000000000        0.0000000000000000     
   1.3750000000000000       0.28125000000000000        0.0000000000000000     
   1.4062500000000000       0.28125000000000000        0.0000000000000000     
   1.4375000000000000       0.28125000000000000        0.0000000000000000     
   1.4687500000000000       0.28125000000000000        0.0000000000000000     
   1.5000000000000000       0.28125000000000000        0.0000000000000000     
   1.3750000000000000       0.31250000000000000        0.0000000000000000     
   1.4062500000000000       0.31250000000000000        0.0000000000000000     
   1.4375000000000000       0.31250000000000000        0.0000000000000000     
   1.4687500000000000       0.31250000000000000        0.0000000000000000     
   1.5000000000000000       0.31250000000000000        0.0000000000000000     
   1.3750000000000000       0.34375000000000000        0.0000000000000000     
   1.4062500000000000       0.34375000000000000        0.0000000000000000     
   1.4375000000000000       0.34375000000000000        0.0000000000000000     
   1.4687500000000000       0.34375000000000000        0.0000000000000000     
   1.5000000000000000       0.34375000000000000        0.0000000000000000     
   1.3750000000000000       0.37500000000000000        0.0000000000000000     
   1.4062500000000000       0.37500000000000000        0.0000000000000000     
   1.4375000000000000       0.37500000000000000        0.0000000000000000     
   1.4687500000000000       0.37500000000000000        0.0000000000000000     
   1.5000000000000000       0.37500000000000000        0.0000000000000000     
  0.50000000000000000       0.37500000000000000        0.0000000000000000     
  0.53125000000000000       0.37500000000000000        0.0000000000000000     
  0.56250000000000000       0.37500000000000000        0.0000000000000000     
  0.59375000000000000       0.37500000000000000        0.0000000000000000     
  0.62500000000000000       0.37500000000000000        0.0000000000000000     
  0.50000000000000000       0.40625000000000000        0.0000000000000000     
  0.53125000000000000       0.40625000000000000        0.0000000000000000     
  0.56250000000000000       0.40625000000000000        0.0000000000000000     
  0.59375000000000000       0.40625000000000000        0.0000000000000000     
  0.62500000000000000       0.40625000000000000        0.0000000000000000     
  0.50000000000000000       0.43750000000000000        0.0000000000000000     
  0.53125000000000000       0.43750000000000000        0.0000000000000000     
  0.56250000000000000       0.43750000000000000        0.0000000000000000     
  0.59375000000000000       0.43750000000000000        0.0000000000000000     
  0.62500000000000000       0.43750000000000000        0.0000000000000000     
  0.50000000000000000       0.46875000000000000        0.0000000000000000     
  0.53125000000000000       0.46875000000000000        0.0000000000000000     
  0.56250000000000000       0.46875000000000000        0.0000000000000000     
  0.59375000000000000       0.46875000000000000        0.0000000000000000     
  0.62500000000000000       0.46875000000000000        0.0000000000000000     
  0.50000000000000000       0.50000000000000000        0.0000000000000000     
  0.53125000000000000       0.50000000000000000        0.0000000000000000     
  0.56250000000000000       0.50000000000000000        0.0000000000000000     
  0.59375000000000000       0.50000000000000000        0.0000000000000000     
  0.62500000000000000       0.50000000000000000        0.0000000000000000     
  0.62500000000000000       0.37500000000000000        0.0000000000000000     
  0.65625000000000000       0.37500000000000000        0.0000000000000000     
  0.68750000000000000       0.37500000000000000        0.0000000000000000     
  0.71875000000000000       0.37500000000000000        0.0000000000000000     
  0.75000000000000000       0.37500000000000000        0.0000000000000000     
  0.62500000000000000       0.40625000000000000        0.0000000000000000     
  0.65625000000000000       0.40625000000000000        0.0000000000000000     
  0.68750000000000000       0.40625000000000000        0.0000000000000000     
  0.71875000000000000       0.40625000000000000        0.0000000000000000     
  0.75000000000000000       0.40625000000000000        0.0000000000000000     
  0.62500000000000000       0.43750000000000000        0.0000000000000000     
  0.65625000000000000       0.43750000000000000        0.0000000000000000     
  0.68750000000000000       0.43750000000000000        0.0000000000000000     
  0.71875000000000000       0.43750000000000000        0.0000000000000000     
  0.75000000000000000       0.43750000000000000        0.0000000000000000     
  0.62500000000000000       0.46875000000000000        0.0000000000000000     
  0.65625000000000000       0.46875000000000000        0.0000000000000000     
  0.68750000000000000       0.46875000000000000        0.0000000000000000     
  0.71875000000000000       0.46875000000000000        0.0000000000000000     
  0.75000000000000000       0.46875000000000000        0.0000000000000000     
  0.62500000000000000       0.50000000000000000        0.0000000000000000     
  0.65625000000000000       0.50000000000000000        0.0000000000000000     
  0.68750000000000000       0.50000000000000000        0.0000000000000000     
  0.71875000000000000       0.50000000000000000        0.0000000000000000     
  0.75000000000000000       0.50000000000000000        0.0000000000000000     
  0.75000000000000000       0.37500000000000000        0.0000000000000000     
  0.78125000000000000       0.37500000000000000        0.0000000000000000     
  0.81250000000000000       0.37500000000000000        0.0000000000000000     
  0.84375000000000000       0.37500000000000000        0.0000000000000000     
  0.87500000000000000       0.37500000000000000        0.0000000000000000     
  0.75000000000000000       0.40625000000000000        0.0000000000000000     
  0.78125000000000000       0.40625000000000000        0.0000000000000000     
  0.81250000000000000       0.40625000000000000        0.0000000000000000     
  0.84375000000000000       0.40625000000000000        0.0000000000000000     
  0.87500000000000000       0.40625000000000000        0.0000000000000000     
  0.75000000000000000       0.43750000000000000        0.0000000000000000     
  0.78125000000000000       0.43750000000000000        0.0000000000000000     
  0.81250000000000000       0.43750000000000000        0.0000000000000000     
  0.84375000000000000       0.43750000000000000        0.0000000000000000     
  0.87500000000000000       0.43750000000000000        0.0000000000000000     
  0.75000000000000000       0.46875000000000000        0.0000000000000000     
  0.78125000000000000       0.46875000000000000        0.0000000000000000     
  0.81250000000000000       0.46875000000000000        0.0000000000000000     
  0.84375000000000000       0.46875000000000000        0.0000000000000000     
  0.87500000000000000       0.46875000000000000        0.0000000000000000     
  0.75000000000000000       0.50000000000000000        0.0000000000000000     
  0.78125000000000000       0.50000000000000000        0.0000000000000000     
  0.81250000000000000       0.50000000000000000        0.0000000000000000     
  0.84375000000000000       0.50000000000000000        0.0000000000000000     
  0.87500000000000000       0.50000000000000000        0.0000000000000000     
  0.87500000000000000       0.37500000000000000        0.0000000000000000     
  0.90625000000000000       0.37500000000000000        0.0000000000000000     
  0.93750000000000000       0.37500000000000000        0.0000000000000000     
  0.96875000000000000       0.37500000000000000        0.0000000000000000     
   1.0000000000000000       0.37500000000000000        0.0000000000000000     
  0.87500000000000000       0.40625000000000000        0.0000000000000000     
  0.90625000000000000       0.40625000000000000        0.0000000000000000     
  0.93750000000000000       0.40625000000000000        0.0000000000000000     
  0.96875000000000000       0.40625000000000000        0.0000000000000000     
   1.0000000000000000       0.40625000000000000        0.0000000000000000     
  0.87500000000000000       0.43750000000000000        0.0000000000000000     
  0.90625000000000000       0.43750000000000000        0.0000000000000000     
  0.93750000000000000       0.43750000000000000        0.0000000000000000     
  0.96875000000000000       0.43750000000000000        0.0000000000000000     
   1.0000000000000000       0.43750000000000000        0.0000000000000000     
  0.87500000000000000       0.46875000000000000        0.0000000000000000     
  0.90625000000000000       0.46875000000000000        0.0000000000000000     
  0.93750000000000000       0.46875000000000000        0.0000000000000000     
  0.96875000000000000       0.46875000000000000        0.0000000000000000     
   1.0000000000000000       0.46875000000000000        0.0000000000000000     
  0.87500000000000000       0.50000000000000000        0.0000000000000000     
  0.90625000000000000       0.50000000000000000        0.0000000000000000     
  0.93750000000000000       0.50000000000000000        0.0000000000000000     
  0.96875000000000000       0.50000000000000000        0.0000000000000000     
   1.0000000000000000       0.50000000000000000        0.0000000000000000     
   1.0000000000000000       0.37500000000000000        0.0000000000000000     
   1.0312500000000000       0.37500000000000000        0.0000000000000000     
   1.0625000000000000       0.37500000000000000        0.0000000000000000     
   1.0937500000000000       0.37500000000000000        0.0000000000000000     
   1.1250000000000000       0.37500000000000000        0.0000000000000000     
   1.0000000000000000       0.40625000000000000        0.0000000000000000     
   1.0312500000000000       0.40625000000000000        0.0000000000000000     
   1.0625000000000000       0.40625000000000000        0.0000000000000000     
   1.0937500000000000       0.40625000000000000        0.0000000000000000     
   1.1250000000000000       0.40625000000000000        0.0000000000000000     
   1.0000000000000000       0.43750000000000000        0.0000000000000000     
   1.0312500000000000       0.43750000000000000        0.0000000000000000     
   1.0625000000000000       0.43750000000000000        0.0000000000000000     
   1.0937500000000000       0.43750000000000000        0.0000000000000000     
   1.1250000000000000       0.43750000000000000        0.0000000000000000     
   1.0000000000000000       0.46875000000000000        0.0000000000000000     
   1.0312500000000000       0.46875000000000000        0.0000000000000000     
   1.0625000000000000       0.46875000000000000        0.0000000000000000     
   1.0937500000000000       0.46875000000000000        0.0000000000000000     
   1.1250000000000000       0.46875000000000000        0.0000000000000000     
   1.0000000000000000       0.50000000000000000        0.0000000000000000     
   1.0312500000000000       0.50000000000000000        0.0000000000000000     
   1.0625000000000000       0.50000000000000000        0.0000000000000000     
   1.0937500000000000       0.50000000000000000        0.0000000000000000     
   1.1250000000000000       0.50000000000000000        0.0000000000000000     
   1.1250000000000000       0.37500000000000000        0.0000000000000000     
   1.1562500000000000       0.37500000000000000        0.0000000000000000     
   1.1875000000000000       0.37500000000000000        0.0000000000000000     
   1.2187500000000000       0.37500000000000000        0.0000000000000000     
   1.2500000000000000       0.37500000000000000        0.0000000000000000     
   1.1250000000000000       0.40625000000000000        0.0000000000000000     
   1.1562500000000000       0.40625000000000000        0.0000000000000000     
   1.1875000000000000       0.40625000000000000        0.0000000000000000     
   1.2187500000000000       0.40625000000000000        0.0000000000000000     
   1.2500000000000000       0.40625000000000000        0.0000000000000000     
   1.1250000000000000       0.43750000000000000        0.0000000000000000     
   1.1562500000000000       0.43750000000000000        0.0000000000000000     
   1.1875000000000000       0.43750000000000000        0.0000000000000000     
   1.2187500000000000       0.43750000000000000        0.0000000000000000     
   1.2500000000000000       0.43750000000000000        0.0000000000000000     
   1.1250000000000000       0.46875000000000000        0.0000000000000000     
   1.1562500000000000       0.46875000000000000        0.0000000000000000     
   1.1875000000000000       0.46875000000000000        0.0000000000000000     
   1.2187500000000000       0.46875000000000000        0.0000000000000000     
   1.2500000000000000       0.46875000000000000        0.0000000000000000     
   1.1250000000000000       0.50000000000000000        0.0000000000000000     
   1.1562500000000000       0.50000000000000000        0.0000000000000000     
   1.1875000000000000       0.50000000000000000        0.0000000000000000     
   1.2187500000000000       0.50000000000000000        0.0000000000000000     
   1.2500000000000000       0.50000000000000000        0.0000000000000000     
   1.2500000000000000       0.37500000000000000        0.0000000000000000     
   1.2812500000000000       0.37500000000000000        0.0000000000000000     
   1.3125000000000000       0.37500000000000000        0.0000000000000000     
   1.3437500000000000       0.37500000000000000        0.0000000000000000     
   1.3750000000000000       0.37500000000000000        0.0000000000000000     
   1.2500000000000000       0.40625000000000000        0.0000000000000000     
   1.2812500000000000       0.40625000000000000        0.0000000000000000     
   1.3125000000000000       0.40625000000000000        0.0000000000000000     
   1.3437500000000000       0.40625000000000000        0.0000000000000000     
   1.3750000000000000       0.40625000000000000        0.0000000000000000     
   1.2500000000000000       0.43750000000000000        0.0000000000000000     
   1.2812500000000000       0.43750000000000000        0.0000000000000000     
   1.3125000000000000       0.43750000000000000        0.0000000000000000     
   1.3437500000000000       0.43750000000000000        0.0000000000000000     
   1.3750000000000000       0.43750000000000000        0.0000000000000000     
   1.2500000000000000       0.46875000000000000        0.0000000000000000     
   1.2812500000000000       0.46875000000000000        0.0000000000000000     
   1.3125000000000000       0.46875000000000000        0.0000000000000000     
   1.3437500000000000       0.46875000000000000        0.0000000000000000     
   1.3750000000000000       0.46875000000000000        0.0000000000000000     
   1.2500000000000000       0.50000000000000000        0.0000000000000000     
   1.2812500000000000       0.50000000000000000        0.0000000000000000     
   1.3125000000000000       0.50000000000000000        0.0000000000000000     
   1.3437500000000000       0.50000000000000000        0.0000000000000000     
   1.3750000000000000       0.50000000000000000        0.0000000000000000     
   1.3750000000000000       0.37500000000000000        0.0000000000000000     
   1.4062500000000000       0.37500000000000000        0.0000000000000000     
   1.4375000000000000       0.37500000000000000        0.0000000000000000     
   1.4687500000000000       0.37500000000000000        0.0000000000000000     
   1.5000000000000000       0.37500000000000000        0.0000000000000000     
   1.3750000000000000       0.40625000000000000        0.0000000000000000     
   1.4062500000000000       0.40625000000000000        0.0000000000000000     
   1.4375000000000000       0.40625000000000000        0.0000000000000000     
   1.4687500000000000       0.40625000000000000        0.0000000000000000     
   1.5000000000000000       0.40625000000000000        0.0000000000000000     
   1.3750000000000000       0.43750000000000000        0.0000000000000000     
   1.4062500000000000       0.43750000000000000        0.0000000000000000     
   1.4375000000000000       0.43750000000000000        0.0000000000000000     
   1.4687500000000000       0.43750000000000000        0.0000000000000000     
   1.5000000000000000       0.43750000000000000        0.0000000000000000     
   1.3750000000000000       0.46875000000000000        0.0000000000000000     
   1.4062500000000000       0.46875000000000000        0.0000000000000000     
   1.4375000000000000       0.46875000000000000        0.0000000000000000     
   1.4687500000000000       0.46875000000000000        0.0000000000000000     
   1.5000000000000000       0.46875000000000000        0.0000000000000000     
   1.3750000000000000       0.50000000000000000        0.0000000000000000     
   1.4062500000000000       0.50000000000000000        0.0000000000000000     
   1.4375000000000000       0.50000000000000000        0.0000000000000000     
   1.4687500000000000       0.50000000000000000        0.0000000000000000     
   1.5000000000000000       0.50000000000000000        0.0000000000000000     
  0.50000000000000000       0.50000000000000000        0.0000000000000000     
  0.53125000000000000       0.50000000000000000        0.0000000000000000     
  0.56250000000000000       0.50000000000000000        0.0000000000000000     
  0.59375000000000000       0.50000000000000000        0.0000000000000000     
  0.62500000000000000       0.50000000000000000        0.0000000000000000     
  0.50000000000000000       0.53125000000000000        0.0000000000000000     
  0.53125000000000000       0.53125000000000000        0.0000000000000000     
  0.56250000000000000       0.53125000000000000        0.0000000000000000     
  0.59375000000000000       0.53125000000000000        0.0000000000000000     
  0.62500000000000000       0.53125000000000000        0.0000000000000000     
  0.50000000000000000       0.56250000000000000        0.0000000000000000     
  0.53125000000000000       0.56250000000000000        0.0000000000000000     
  0.56250000000000000       0.56250000000000000        0.0000000000000000     
  0.59375000000000000       0.56250000000000000        0.0000000000000000     
  0.62500000000000000       0.56250000000000000        0.0000000000000000     
  0.50000000000000000       0.59375000000000000        0.0000000000000000     
  0.53125000000000000       0.59375000000000000        0.0000000000000000     
  0.56250000000000000       0.59375000000000000        0.0000000000000000     
  0.59375000000000000       0.59375000000000000        0.0000000000000000     
  0.62500000000000000       0.59375000000000000        0.0000000000000000     
  0.50000000000000000       0.62500000000000000        0.0000000000000000     
  0.53125000000000000       0.62500000000000000        0.0000000000000000     
  0.56250000000000000       0.62500000000000000        0.0000000000000000     
  0.59375000000000000       0.62500000000000000        0.0000000000000000     
  0.62500000000000000       0.62500000000000000        0.0000000000000000     
  0.62500000000000000       0.50000000000000000        0.0000000000000000     
  0.65625000000000000       0.50000000000000000        0.0000000000000000     
  0.68750000000000000       0.50000000000000000        0.0000000000000000     
  0.71875000000000000       0.50000000000000000        0.0000000000000000     
  0.75000000000000000       0.50000000000000000        0.0000000000000000     
  0.62500000000000000       0.53125000000000000        0.0000000000000000     
  0.65625000000000000       0.53125000000000000        0.0000000000000000     
  0.68750000000000000       0.53125000000000000        0.0000000000000000     
  0.71875000000000000       0.53125000000000000        0.0000000000000000     
  0.75000000000000000       0.53125000000000000        0.0000000000000000     
  0.62500000000000000       0.56250000000000000        0.0000000000000000     
  0.65625000000000000       0.56250000000000000        0.0000000000000000     
  0.68750000000000000       0.56250000000000000        0.0000000000000000     
  0.71875000000000000       0.56250000000000000        0.0000000000000000     
  0.75000000000000000       0.56250000000000000        0.0000000000000000     
  0.62500000000000000       0.59375000000000000        0.0000000000000000     
  0.65625000000000000       0.59375000000000000        0.0000000000000000     
  0.68750000000000000       0.59375000000000000        0.0000000000000000     
  0.71875000000000000       0.59375000000000000        0.0000000000000000     
  0.75000000000000000       0.59375000000000000        0.0000000000000000     
  0.62500000000000000       0.62500000000000000        0.0000000000000000     
  0.65625000000000000       0.62500000000000000        0.0000000000000000     
  0.68750000000000000       0.62500000000000000        0.0000000000000000     
  0.71875000000000000       0.62500000000000000        0.0000000000000000     
  0.75000000000000000       0.62500000000000000        0.0000000000000000     
  0.75000000000000000       0.50000000000000000        0.0000000000000000     
  0.78125000000000000       0.50000000000000000        0.0000000000000000     
  0.81250000000000000       0.50000000000000000        0.0000000000000000     
  0.84375000000000000       0.50000000000000000        0.0000000000000000     
  0.87500000000000000       0.50000000000000000        0.0000000000000000     
  0.75000000000000000       0.53125000000000000        0.0000000000000000     
  0.78125000000000000       0.53125000000000000        0.0000000000000000     
  0.81250000000000000       0.53125000000000000        0.0000000000000000     
  0.84375000000000000       0.53125000000000000        0.0000000000000000     
  0.87500000000000000       0.53125000000000000        0.0000000000000000     
  0.75000000000000000       0.56250000000000000        0.0000000000000000     
  0.78125000000000000       0.56250000000000000        0.0000000000000000     
  0.81250000000000000       0.56250000000000000        0.0000000000000000     
  0.84375000000000000       0.56250000000000000        0.0000000000000000     
  0.87500000000000000       0.56250000000000000        0.0000000000000000     
  0.75000000000000000       0.59375000000000000        0.0000000000000000     
  0.78125000000000000       0.59375000000000000        0.0000000000000000     
  0.81250000000000000       0.59375000000000000        0.0000000000000000     
  0.84375000000000000       0.59375000000000000        0.0000000000000000     
  0.87500000000000000       0.59375000000000000        0.0000000000000000     
  0.75000000000000000       0.62500000000000000        0.0000000000000000     
  0.78125000000000000       0.62500000000000000        0.0000000000000000     
  0.81250000000000000       0.62500000000000000        0.0000000000000000     
  0.84375000000000000       0.62500000000000000        0.0000000000000000     
  0.87500000000000000       0.62500000000000000        0.0000000000000000     
  0.87500000000000000       0.50000000000000000        0.0000000000000000     
  0.90625000000000000       0.50000000000000000        0.0000000000000000     
  0.93750000000000000       0.50000000000000000        0.0000000000000000     
  0.96875000000000000       0.50000000000000000        0.0000000000000000     
   1.0000000000000000       0.50000000000000000        0.0000000000000000     
  0.87500000000000000       0.53125000000000000        0.0000000000000000     
  0.90625000000000000       0.53125000000000000        0.0000000000000000     
  0.93750000000000000       0.53125000000000000        0.0000000000000000     
  0.96875000000000000       0.53125000000000000        0.0000000000000000     
   1.0000000000000000       0.53125000000000000        0.0000000000000000     
  0.87500000000000000       0.56250000000000000        0.0000000000000000     
  0.90625000000000000       0.56250000000000000        0.0000000000000000     
  0.93750000000000000       0.56250000000000000        0.0000000000000000     
  0.96875000000000000       0.56250000000000000        0.0000000000000000     
   1.0000000000000000       0.56250000000000000        0.0000000000000000     
  0.87500000000000000       0.59375000000000000        0.0000000000000000     
  0.90625000000000000       0.59375000000000000        0.0000000000000000     
  0.93750000000000000       0.59375000000000000        0.0000000000000000     
  0.96875000000000000       0.59375000000000000        0.0000000000000000     
   1.0000000000000000       0.59375000000000000        0.0000000000000000     
  0.87500000000000000       0.62500000000000000        0.0000000000000000     
  0.90625000000000000       0.62500000000000000        0.0000000000000000     
  0.93750000000000000       0.62500000000000000        0.0000000000000000     
  0.96875000000000000       0.62500000000000000        0.0000000000000000     
   1.0000000000000000       0.62500000000000000        0.0000000000000000     
   1.0000000000000000       0.50000000000000000        0.0000000000000000     
   1.0312500000000000       0.50000000000000000        0.0000000000000000     
   1.0625000000000000       0.50000000000000000        0.0000000000000000     
   1.0937500000000000       0.50000000000000000        0.0000000000000000     
   1.1250000000000000       0.50000000000000000        0.0000000000000000     
   1.0000000000000000       0.53125000000000000        0.0000000000000000     
   1.0312500000000000       0.53125000000000000        0.0000000000000000     
   1.0625000000000000       0.53125000000000000        0.0000000000000000     
   1.0937500000000000       0.53125000000000000        0.0000000000000000     
   1.1250000000000000       0.53125000000000000        0.0000000000000000     
   1.0000000000000000       0.56250000000000000        0.0000000000000000     
   1.0312500000000000       0.56250000000000000        0.0000000000000000     
   1.0625000000000000       0.56250000000000000        0.0000000000000000     
   1.0937500000000000       0.56250000000000000        0.0000000000000000     
   1.1250000000000000       0.56250000000000000        0.0000000000000000     
   1.0000000000000000       0.59375000000000000        0.0000000000000000     
   1.0312500000000000       0.59375000000000000        0.0000000000000000     
   1.0625000000000000       0.59375000000000000        0.0000000000000000     
   1.0937500000000000       0.59375000000000000        0.0000000000000000     
   1.1250000000000000       0.59375000000000000        0.0000000000000000     
   1.0000000000000000       0.62500000000000000        0.0000000000000000     
   1.0312500000000000       0.62500000000000000        0.0000000000000000     
   1.0625000000000000       0.62500000000000000        0.0000000000000000     
   1.0937500000000000       0.62500000000000000        0.0000000000000000     
   1.1250000000000000       0.62500000000000000        0.0000000000000000     
   1.1250000000000000       0.50000000000000000        0.0000000000000000     
   1.1562500000000000       0.50000000000000000        0.0000000000000000     
   1.1875000000000000       0.50000000000000000        0.0000000000000000     
   1.2187500000000000       0.50000000000000000        0.0000000000000000     
   1.2500000000000000       0.50000000000000000        0.0000000000000000     
   1.1250000000000000       0.53125000000000000        0.0000000000000000     
   1.1562500000000000       0.53125000000000000        0.0000000000000000     
   1.1875000000000000       0.53125000000000000        0.0000000000000000     
   1.2187500000000000       0.53125000000000000        0.0000000000000000     
   1.2500000000000000       0.53125000000000000        0.0000000000000000     
   1.1250000000000000       0.56250000000000000        0.0000000000000000     
   1.1562500000000000       0.56250000000000000        0.0000000000000000     
   1.1875000000000000       0.56250000000000000        0.0000000000000000     
   1.2187500000000000       0.56250000000000000        0.0000000000000000     
   1.2500000000000000       0.56250000000000000        0.0000000000000000     
   1.1250000000000000       0.59375000000000000        0.0000000000000000     
   1.1562500000000000       0.59375000000000000        0.0000000000000000     
   1.1875000000000000       0.59375000000000000        0.0000000000000000     
   1.2187500000000000       0.59375000000000000        0.0000000000000000     
   1.2500000000000000       0.59375000000000000        0.0000000000000000     
   1.1250000000000000       0.62500000000000000        0.0000000000000000     
   1.1562500000000000       0.62500000000000000        0.0000000000000000     
   1.1875000000000000       0.62500000000000000        0.0000000000000000     
   1.2187500000000000       0.62500000000000000        0.0000000000000000     
   1.2500000000000000       0.62500000000000000        0.0000000000000000     
   1.2500000000000000       0.50000000000000000        0.0000000000000000     
   1.2812500000000000       0.50000000000000000        0.0000000000000000     
   1.3125000000000000       0.50000000000000000        0.0000000000000000     
   1.3437500000000000       0.50000000000000000        0.0000000000000000     
   1.3750000000000000       0.50000000000000000        0.0000000000000000     
   1.2500000000000000       0.53125000000000000        0.0000000000000000     
   1.2812500000000000       0.53125000000000000        0.0000000000000000     
   1.3125000000000000       0.53125000000000000        0.0000000000000000     
   1.3437500000000000       0.53125000000000000        0.0000000000000000     
   1.3750000000000000       0.53125000000000000        0.0000000000000000     
   1.2500000000000000       0.56250000000000000        0.0000000000000000     
   1.2812500000000000       0.56250000000000000        0.0000000000000000     
   1.3125000000000000       0.56250000000000000        0.0000000000000000     
   1.3437500000000000       0.56250000000000000        0.0000000000000000     
   1.3750000000000000       0.56250000000000000        0.0000000000000000     
   1.2500000000000000       0.59375000000000000        0.0000000000000000     
   1.2812500000000000       0.59375000000000000        0.0000000000000000     
   1.3125000000000000       0.59375000000000000        0.0000000000000000     
   1.3437500000000000       0.59375000000000000        0.0000000000000000     
   1.3750000000000000       0.59375000000000000        0.0000000000000000     
   1.2500000000000000       0.62500000000000000        0.0000000000000000     
   1.2812500000000000       0.62500000000000000        0.0000000000000000     
   1.3125000000000000       0.62500000000000000        0.0000000000000000     
   1.3437500000000000       0.62500000000000000        0.0000000000000000     
   1.3750000000000000       0.62500000000000000        0.0000000000000000     
   1.3750000000000000       0.50000000000000000        0.0000000000000000     
   1.4062500000000000       0.50000000000000000        0.0000000000000000     
   1.4375000000000000       0.50000000000000000        0.0000000000000000     
   1.4687500000000000       0.50000000000000000        0.0000000000000000     
   1.5000000000000000       0.50000000000000000        0.0000000000000000     
   1.3750000000000000       0.53125000000000000        0.0000000000000000     
   1.4062500000000000       0.53125000000000000        0.0000000000000000     
   1.4375000000000000       0.53125000000000000        0.0000000000000000     
   1.4687500000000000       0.53125000000000000        0.0000000000000000     
   1.5000000000000000       0.53125000000000000        0.0000000000000000     
   1.3750000000000000       0.56250000000000000        0.0000000000000000     
   1.4062500000000000       0.56250000000000000        0.0000000000000000     
   1.4375000000000000       0.56250000000000000        0.0000000000000000     
   1.4687500000000000       0.56250000000000000        0.0000000000000000     
   1.5000000000000000       0.56250000000000000        0.0000000000000000     
   1.3750000000000000       0.59375000000000000        0.0000000000000000     
   1.4062500000000000       0.59375000000000000        0.0000000000000000     
   1.4375000000000000       0.59375000000000000        0.0000000000000000     
   1.4687500000000000       0.59375000000000000        0.0000000000000000     
   1.5000000000000000       0.59375000000000000        0.0000000000000000     
   1.3750000000000000       0.62500000000000000        0.0000000000000000     
   1.4062500000000000       0.62500000000000000        0.0000000000000000     
   1.4375000000000000       0.62500000000000000        0.0000000000000000     
   1.4687500000000000       0.62500000000000000        0.0000000000000000     
   1.5000000000000000       0.62500000000000000        0.0000000000000000     
  0.50000000000000000       0.62500000000000000        0.0000000000000000     
  0.53125000000000000       0.62500000000000000        0.0000000000000000     
  0.56250000000000000       0.62500000000000000        0.0000000000000000     
  0.59375000000000000       0.62500000000000000        0.0000000000000000     
  0.62500000000000000       0.62500000000000000        0.0000000000000000     
  0.50000000000000000       0.65625000000000000        0.0000000000000000     
  0.53125000000000000       0.65625000000000000        0.0000000000000000     
  0.56250000000000000       0.65625000000000000        0.0000000000000000     
  0.59375000000000000       0.65625000000000000        0.0000000000000000     
  0.62500000000000000       0.65625000000000000        0.0000000000000000     
  0.50000000000000000       0.68750000000000000        0.0000000000000000     
  0.53125000000000000       0.68750000000000000        0.0000000000000000     
  0.56250000000000000       0.68750000000000000        0.0000000000000000     
  0.59375000000000000       0.68750000000000000        0.0000000000000000     
  0.62500000000000000       0.68750000000000000        0.0000000000000000     
  0.50000000000000000       0.71875000000000000        0.0000000000000000     
  0.53125000000000000       0.71875000000000000        0.0000000000000000     
  0.56250000000000000       0.71875000000000000        0.0000000000000000     
  0.59375000000000000       0.71875000000000000        0.0000000000000000     
  0.62500000000000000       0.71875000000000000        0.0000000000000000     
  0.50000000000000000       0.75000000000000000        0.0000000000000000     
  0.53125000000000000       0.75000000000000000        0.0000000000000000     
  0.56250000000000000       0.75000000000000000        0.0000000000000000     
  0.59375000000000000       0.75000000000000000        0.0000000000000000     
  0.62500000000000000       0.75000000000000000        0.0000000000000000     
  0.62500000000000000       0.62500000000000000        0.0000000000000000     
  0.65625000000000000       0.62500000000000000        0.0000000000000000     
  0.68750000000000000       0.62500000000000000        0.0000000000000000     
  0.71875000000000000       0.62500000000000000        0.0000000000000000     
  0.75000000000000000       0.62500000000000000        0.0000000000000000     
  0.62500000000000000       0.65625000000000000        0.0000000000000000     
  0.65625000000000000       0.65625000000000000        0.0000000000000000     
  0.68750000000000000       0.65625000000000000        0.0000000000000000     
  0.71875000000000000       0.65625000000000000        0.0000000000000000     
  0.75000000000000000       0.65625000000000000        0.0000000000000000     
  0.62500000000000000       0.68750000000000000        0.0000000000000000     
  0.65625000000000000       0.68750000000000000        0.0000000000000000     
  0.68750000000000000       0.68750000000000000        0.0000000000000000     
  0.71875000000000000       0.68750000000000000        0.0000000000000000     
  0.75000000000000000       0.68750000000000000        0.0000000000000000     
  0.62500000000000000       0.71875000000000000        0.0000000000000000     
  0.65625000000000000       0.71875000000000000        0.0000000000000000     
  0.68750000000000000       0.71875000000000000        0.0000000000000000     
  0.71875000000000000       0.71875000000000000        0.0000000000000000     
  0.75000000000000000       0.71875000000000000        0.0000000000000000     
  0.62500000000000000       0.75000000000000000        0.0000000000000000     
  0.65625000000000000       0.75000000000000000        0.0000000000000000     
  0.68750000000000000       0.75000000000000000        0.0000000000000000     
  0.71875000000000000       0.75000000000000000        0.0000000000000000     
  0.75000000000000000       0.75000000000000000        0.0000000000000000     
  0.75000000000000000       0.62500000000000000        0.0000000000000000     
  0.78125000000000000       0.62500000000000000        0.0000000000000000     
  0.81250000000000000       0.62500000000000000        0.0000000000000000     
  0.84375000000000000       0.62500000000000000        0.0000000000000000     
  0.87500000000000000       0.62500000000000000        0.0000000000000000     
  0.75000000000000000       0.65625000000000000        0.0000000000000000     
  0.78125000000000000       0.65625000000000000        0.0000000000000000     
  0.81250000000000000       0.65625000000000000        0.0000000000000000     
  0.84375000000000000       0.65625000000000000        0.0000000000000000     
  0.87500000000000000       0.65625000000000000        0.0000000000000000     
  0.75000000000000000       0.68750000000000000        0.0000000000000000     
  0.78125000000000000       0.68750000000000000        0.0000000000000000     
  0.81250000000000000       0.68750000000000000        0.0000000000000000     
  0.84375000000000000       0.68750000000000000        0.0000000000000000     
  0.87500000000000000       0.68750000000000000        0.0000000000000000     
  0.75000000000000000       0.71875000000000000        0.0000000000000000     
  0.78125000000000000       0.71875000000000000        0.0000000000000000     
  0.81250000000000000       0.71875000000000000        0.0000000000000000     
  0.84375000000000000       0.71875000000000000        0.0000000000000000     
  0.87500000000000000       0.71875000000000000        0.0000000000000000     
  0.75000000000000000       0.75000000000000000        0.0000000000000000     
  0.78125000000000000       0.75000000000000000        0.0000000000000000     
  0.81250000000000000       0.75000000000000000        0.0000000000000000     
  0.84375000000000000       0.75000000000000000        0.0000000000000000     
  0.87500000000000000       0.75000000000000000        0.0000000000000000     
  0.87500000000000000       0.62500000000000000        0.0000000000000000     
  0.90625000000000000       0.62500000000000000        0.0000000000000000     
  0.93750000000000000       0.62500000000000000        0.0000000000000000     
  0.96875000000000000       0.62500000000000000        0.0000000000000000     
   1.0000000000000000       0.62500000000000000        0.0000000000000000     
  0.87500000000000000       0.65625000000000000        0.0000000000000000     
  0.90625000000000000       0.65625000000000000        0.0000000000000000     
  0.93750000000000000       0.65625000000000000        0.0000000000000000     
  0.96875000000000000       0.65625000000000000        0.0000000000000000     
   1.0000000000000000       0.65625000000000000        0.0000000000000000     
  0.87500000000000000       0.68750000000000000        0.0000000000000000     
  0.90625000000000000       0.68750000000000000        0.0000000000000000     
  0.93750000000000000       0.68750000000000000        0.0000000000000000     
  0.96875000000000000       0.68750000000000000        0.0000000000000000     
   1.0000000000000000       0.68750000000000000        0.0000000000000000     
  0.87500000000000000       0.71875000000000000        0.0000000000000000     
  0.90625000000000000       0.71875000000000000        0.0000000000000000     
  0.93750000000000000       0.71875000000000000        0.0000000000000000     
  0.96875000000000000       0.71875000000000000        0.0000000000000000     
   1.0000000000000000       0.71875000000000000        0.0000000000000000     
  0.87500000000000000       0.75000000000000000        0.0000000000000000     
  0.90625000000000000       0.75000000000000000        0.0000000000000000     
  0.93750000000000000       0.75000000000000000        0.0000000000000000     
  0.96875000000000000       0.75000000000000000        0.0000000000000000     
   1.0000000000000000       0.75000000000000000        0.0000000000000000     
   1.0000000000000000       0.62500000000000000        0.0000000000000000     
   1.0312500000000000       0.62500000000000000        0.0000000000000000     
   1.0625000000000000       0.62500000000000000        0.0000000000000000     
   1.0937500000000000       0.62500000000000000        0.0000000000000000     
   1.1250000000000000       0.62500000000000000        0.0000000000000000     
   1.0000000000000000       0.65625000000000000        0.0000000000000000     
   1.0312500000000000       0.65625000000000000        0.0000000000000000     
   1.0625000000000000       0.65625000000000000        0.0000000000000000     
   1.0937500000000000       0.65625000000000000        0.0000000000000000     
   1.1250000000000000       0.65625000000000000        0.0000000000000000     
   1.0000000000000000       0.68750000000000000        0.0000000000000000     
   1.0312500000000000       0.68750000000000000        0.0000000000000000     
   1.0625000000000000       0.68750000000000000        0.0000000000000000     
   1.0937500000000000       0.68750000000000000        0.0000000000000000     
   1.1250000000000000       0.68750000000000000        0.0000000000000000     
   1.0000000000000000       0.71875000000000000        0.0000000000000000     
   1.0312500000000000       0.71875000000000000        0.0000000000000000     
   1.0625000000000000       0.71875000000000000        0.0000000000000000     
   1.0937500000000000       0.71875000000000000        0.0000000000000000     
   1.1250000000000000       0.71875000000000000        0.0000000000000000     
   1.0000000000000000       0.75000000000000000        0.0000000000000000     
   1.0312500000000000       0.75000000000000000        0.0000000000000000     
   1.0625000000000000       0.75000000000000000        0.0000000000000000     
   1.0937500000000000       0.75000000000000000        0.0000000000000000     
   1.1250000000000000       0.75000000000000000        0.0000000000000000     
   1.1250000000000000       0.62500000000000000        0.0000000000000000     
   1.1562500000000000       0.62500000000000000        0.0000000000000000     
   1.1875000000000000       0.62500000000000000        0.0000000000000000     
   1.2187500000000000       0.62500000000000000        0.0000000000000000     
   1.2500000000000000       0.62500000000000000        0.0000000000000000     
   1.1250000000000000       0.65625000000000000        0.0000000000000000     
   1.1562500000000000       0.65625000000000000        0.0000000000000000     
   1.1875000000000000       0.65625000000000000        0.0000000000000000     
   1.2187500000000000       0.65625000000000000        0.0000000000000000     
   1.2500000000000000       0.65625000000000000        0.0000000000000000     
   1.1250000000000000       0.68750000000000000        0.0000000000000000     
   1.1562500000000000       0.68750000000000000        0.0000000000000000     
   1.1875000000000000       0.68750000000000000        0.0000000000000000     
   1.2187500000000000       0.68750000000000000        0.0000000000000000     
   1.2500000000000000       0.68750000000000000        0.0000000000000000     
   1.1250000000000000       0.71875000000000000        0.0000000000000000     
   1.1562500000000000       0.71875000000000000        0.0000000000000000     
   1.1875000000000000       0.71875000000000000        0.0000000000000000     
   1.2187500000000000       0.71875000000000000        0.0000000000000000     
   1.2500000000000000       0.71875000000000000        0.0000000000000000     
   1.1250000000000000       0.75000000000000000        0.0000000000000000     
   1.1562500000000000       0.75000000000000000        0.0000000000000000     
   1.1875000000000000       0.75000000000000000        0.0000000000000000     
   1.2187500000000000       0.75000000000000000        0.0000000000000000     
   1.2500000000000000       0.75000000000000000        0.0000000000000000     
   1.2500000000000000       0.62500000000000000        0.0000000000000000     
   1.2812500000000000       0.62500000000000000        0.0000000000000000     
   1.3125000000000000       0.62500000000000000        0.0000000000000000     
   1.3437500000000000       0.62500000000000000        0.0000000000000000     
   1.3750000000000000       0.62500000000000000        0.0000000000000000     
   1.2500000000000000       0.65625000000000000        0.0000000000000000     
   1.2812500000000000       0.65625000000000000        0.0000000000000000     
   1.3125000000000000       0.65625000000000000        0.0000000000000000     
   1.3437500000000000       0.65625000000000000        0.0000000000000000     
   1.3750000000000000       0.65625000000000000        0.0000000000000000     
   1.2500000000000000       0.68750000000000000        0.0000000000000000     
   1.2812500000000000       0.68750000000000000        0.0000000000000000     
   1.3125000000000000       0.68750000000000000        0.0000000000000000     
   1.3437500000000000       0.68750000000000000        0.0000000000000000     
   1.3750000000000000       0.68750000000000000        0.0000000000000000     
   1.2500000000000000       0.71875000000000000        0.0000000000000000     
   1.2812500000000000       0.71875000000000000        0.0000000000000000     
   1.3125000000000000       0.71875000000000000        0.0000000000000000     
   1.3437500000000000       0.71875000000000000        0.0000000000000000     
   1.3750000000000000       0.71875000000000000        0.0000000000000000     
   1.2500000000000000       0.75000000000000000        0.0000000000000000     
   1.2812500000000000       0.75000000000000000        0.0000000000000000     
   1.3125000000000000       0.75000000000000000        0.0000000000000000     
   1.3437500000000000       0.75000000000000000        0.0000000000000000     
   1.3750000000000000       0.75000000000000000        0.0000000000000000     
   1.3750000000000000       0.62500000000000000        0.0000000000000000     
   1.4062500000000000       0.62500000000000000        0.0000000000000000     
   1.4375000000000000       0.62500000000000000        0.0000000000000000     
   1.4687500000000000       0.62500000000000000        0.0000000000000000     
   1.5000000000000000       0.62500000000000000        0.0000000000000000     
   1.3750000000000000       0.65625000000000000        0.0000000000000000     
   1.4062500000000000       0.65625000000000000        0.0000000000000000     
   1.4375000000000000       0.65625000000000000        0.0000000000000000     
   1.4687500000000000       0.65625000000000000        0.0000000000000000     
   1.5000000000000000       0.65625000000000000        0.0000000000000000     
   1.3750000000000000       0.68750000000000000        0.0000000000000000     
   1.4062500000000000       0.68750000000000000        0.0000000000000000     
   1.4375000000000000       0.68750000000000000        0.0000000000000000     
   1.4687500000000000       0.68750000000000000        0.0000000000000000     
   1.5000000000000000       0.68750000000000000        0.0000000000000000     
   1.3750000000000000       0.71875000000000000        0.0000000000000000     
   1.4062500000000000       0.71875000000000000        0.0000000000000000     
   1.4375000000000000       0.71875000000000000        0.0000000000000000     
   1.4687500000000000       0.71875000000000000        0.0000000000000000     
   1.5000000000000000       0.71875000000000000        0.0000000000000000     
   1.3750000000000000       0.75000000000000000        0.0000000000000000     
   1.4062500000000000       0.75000000000000000        0.0000000000000000     
   1.4375000000000000       0.75000000000000000        0.0000000000000000     
   1.4687500000000000       0.75000000000000000        0.0000000000000000     
   1.5000000000000000       0.75000000000000000        0.0000000000000000     
  0.50000000000000000       0.75000000000000000        0.0000000000000000     
  0.53125000000000000       0.75000000000000000        0.0000000000000000     
  0.56250000000000000       0.75000000000000000        0.0000000000000000     
  0.59375000000000000       0.75000000000000000        0.0000000000000000     
  0.62500000000000000       0.75000000000000000        0.0000000000000000     
  0.50000000000000000       0.78125000000000000        0.0000000000000000     
  0.53125000000000000       0.78125000000000000        0.0000000000000000     
  0.56250000000000000       0.78125000000000000        0.0000000000000000     
  0.59375000000000000       0.78125000000000000        0.0000000000000000     
  0.62500000000000000       0.78125000000000000        0.0000000000000000     
  0.50000000000000000       0.81250000000000000        0.0000000000000000     
  0.53125000000000000       0.81250000000000000        0.0000000000000000     
  0.56250000000000000       0.81250000000000000        0.0000000000000000     
  0.59375000000000000       0.81250000000000000        0.0000000000000000     
  0.62500000000000000       0.81250000000000000        0.0000000000000000     
  0.50000000000000000       0.84375000000000000        0.0000000000000000     
  0.53125000000000000       0.84375000000000000        0.0000000000000000     
  0.56250000000000000       0.84375000000000000        0.0000000000000000     
  0.59375000000000000       0.84375000000000000        0.0000000000000000     
  0.62500000000000000       0.84375000000000000        0.0000000000000000     
  0.50000000000000000       0.87500000000000000        0.0000000000000000     
  0.53125000000000000       0.87500000000000000        0.0000000000000000     
  0.56250000000000000       0.87500000000000000        0.0000000000000000     
  0.59375000000000000       0.87500000000000000        0.0000000000000000     
  0.62500000000000000       0.87500000000000000        0.0000000000000000     
  0.62500000000000000       0.75000000000000000        0.0000000000000000     
  0.65625000000000000       0.75000000000000000        0.0000000000000000     
  0.68750000000000000       0.75000000000000000        0.0000000000000000     
  0.71875000000000000       0.75000000000000000        0.0000000000000000     
  0.75000000000000000       0.75000000000000000        0.0000000000000000     
  0.62500000000000000       0.78125000000000000        0.0000000000000000     
  0.65625000000000000       0.78125000000000000        0.0000000000000000     
  0.68750000000000000       0.78125000000000000        0.0000000000000000     
  0.71875000000000000       0.78125000000000000        0.0000000000000000     
  0.75000000000000000       0.78125000000000000        0.0000000000000000     
  0.62500000000000000       0.81250000000000000        0.0000000000000000     
  0.65625000000000000       0.81250000000000000        0.0000000000000000     
  0.68750000000000000       0.81250000000000000        0.0000000000000000     
  0.71875000000000000       0.81250000000000000        0.0000000000000000     
  0.75000000000000000       0.81250000000000000        0.0000000000000000     
  0.62500000000000000       0.84375000000000000        0.0000000000000000     
  0.65625000000000000       0.84375000000000000        0.0000000000000000     
  0.68750000000000000       0.84375000000000000        0.0000000000000000     
  0.71875000000000000       0.84375000000000000        0.0000000000000000     
  0.75000000000000000       0.84375000000000000        0.0000000000000000     
  0.62500000000000000       0.87500000000000000        0.0000000000000000     
  0.65625000000000000       0.87500000000000000        0.0000000000000000     
  0.68750000000000000       0.87500000000000000        0.0000000000000000     
  0.71875000000000000       0.87500000000000000        0.0000000000000000     
  0.75000000000000000       0.87500000000000000        0.0000000000000000     
  0.75000000000000000       0.75000000000000000        0.0000000000000000     
  0.78125000000000000       0.75000000000000000        0.0000000000000000     
  0.81250000000000000       0.75000000000000000        0.0000000000000000     
  0.84375000000000000       0.75000000000000000        0.0000000000000000     
  0.87500000000000000       0.75000000000000000        0.0000000000000000     
  0.75000000000000000       0.78125000000000000        0.0000000000000000     
  0.78125000000000000       0.78125000000000000        0.0000000000000000     
  0.81250000000000000       0.78125000000000000        0.0000000000000000     
  0.84375000000000000       0.78125000000000000        0.0000000000000000     
  0.87500000000000000       0.78125000000000000        0.0000000000000000     
  0.75000000000000000       0.81250000000000000        0.0000000000000000     
  0.78125000000000000       0.81250000000000000        0.0000000000000000     
  0.81250000000000000       0.81250000000000000        0.0000000000000000     
  0.84375000000000000       0.81250000000000000        0.0000000000000000     
  0.87500000000000000       0.81250000000000000        0.0000000000000000     
  0.75000000000000000       0.84375000000000000        0.0000000000000000     
  0.78125000000000000       0.84375000000000000        0.0000000000000000     
  0.81250000000000000       0.84375000000000000        0.0000000000000000     
  0.84375000000000000       0.84375000000000000        0.0000000000000000     
  0.87500000000000000       0.84375000000000000        0.0000000000000000     
  0.75000000000000000       0.87500000000000000        0.0000000000000000     
  0.78125000000000000       0.87500000000000000        0.0000000000000000     
  0.81250000000000000       0.87500000000000000        0.0000000000000000     
  0.84375000000000000       0.87500000000000000        0.0000000000000000     
  0.87500000000000000       0.87500000000000000        0.0000000000000000     
  0.87500000000000000       0.75000000000000000        0.0000000000000000     
  0.90625000000000000       0.75000000000000000        0.0000000000000000     
  0.93750000000000000       0.75000000000000000        0.0000000000000000     
  0.96875000000000000       0.75000000000000000        0.0000000000000000     
   1.0000000000000000       0.75000000000000000        0.0000000000000000     
  0.87500000000000000       0.78125000000000000        0.0000000000000000     
  0.90625000000000000       0.78125000000000000        0.0000000000000000     
  0.93750000000000000       0.78125000000000000        0.0000000000000000     
  0.96875000000000000       0.78125000000000000        0.0000000000000000     
   1.0000000000000000       0.78125000000000000        0.0000000000000000     
  0.87500000000000000       0.81250000000000000        0.0000000000000000     
  0.90625000000000000       0.81250000000000000        0.0000000000000000     
  0.93750000000000000       0.81250000000000000        0.0000000000000000     
  0.96875000000000000       0.81250000000000000        0.0000000000000000     
   1.0000000000000000       0.81250000000000000        0.0000000000000000     
  0.87500000000000000       0.84375000000000000        0.0000000000000000     
  0.90625000000000000       0.84375000000000000        0.0000000000000000     
  0.93750000000000000       0.84375000000000000        0.0000000000000000     
  0.96875000000000000       0.84375000000000000        0.0000000000000000     
   1.0000000000000000       0.84375000000000000        0.0000000000000000     
  0.87500000000000000       0.87500000000000000        0.0000000000000000     
  0.90625000000000000       0.87500000000000000        0.0000000000000000     
  0.93750000000000000       0.87500000000000000        0.0000000000000000     
  0.96875000000000000       0.87500000000000000        0.0000000000000000     
   1.0000000000000000       0.87500000000000000        0.0000000000000000     
   1.0000000000000000       0.75000000000000000        0.0000000000000000     
   1.0312500000000000       0.75000000000000000        0.0000000000000000     
   1.0625000000000000       0.75000000000000000        0.0000000000000000     
   1.0937500000000000       0.75000000000000000        0.0000000000000000     
   1.1250000000000000       0.75000000000000000        0.0000000000000000     
   1.0000000000000000       0.78125000000000000        0.0000000000000000     
   1.0312500000000000       0.78125000000000000        0.0000000000000000     
   1.0625000000000000       0.78125000000000000        0.0000000000000000     
   1.0937500000000000       0.78125000000000000        0.0000000000000000     
   1.1250000000000000       0.78125000000000000        0.0000000000000000     
   1.0000000000000000       0.81250000000000000        0.0000000000000000     
   1.0312500000000000       0.81250000000000000        0.0000000000000000     
   1.0625000000000000       0.81250000000000000        0.0000000000000000     
   1.0937500000000000       0.81250000000000000        0.0000000000000000     
   1.1250000000000000       0.81250000000000000        0.0000000000000000     
   1.0000000000000000       0.84375000000000000        0.0000000000000000     
   1.0312500000000000       0.84375000000000000        0.0000000000000000     
   1.0625000000000000       0.84375000000000000        0.0000000000000000     
   1.0937500000000000       0.84375000000000000        0.0000000000000000     
   1.1250000000000000       0.84375000000000000        0.0000000000000000     
   1.0000000000000000       0.87500000000000000        0.0000000000000000     
   1.0312500000000000       0.87500000000000000        0.0000000000000000     
   1.0625000000000000       0.87500000000000000        0.0000000000000000     
   1.0937500000000000       0.87500000000000000        0.0000000000000000     
   1.1250000000000000       0.87500000000000000        0.0000000000000000     
   1.1250000000000000       0.75000000000000000        0.0000000000000000     
   1.1562500000000000       0.75000000000000000        0.0000000000000000     
   1.1875000000000000       0.75000000000000000        0.0000000000000000     
   1.2187500000000000       0.75000000000000000        0.0000000000000000     
   1.2500000000000000       0.75000000000000000        0.0000000000000000     
   1.1250000000000000       0.78125000000000000        0.0000000000000000     
   1.1562500000000000       0.78125000000000000        0.0000000000000000     
   1.1875000000000000       0.78125000000000000        0.0000000000000000     
   1.2187500000000000       0.78125000000000000        0.0000000000000000     
   1.2500000000000000       0.78125000000000000        0.0000000000000000     
   1.1250000000000000       0.81250000000000000        0.0000000000000000     
   1.1562500000000000       0.81250000000000000        0.0000000000000000     
   1.1875000000000000       0.81250000000000000        0.0000000000000000     
   1.2187500000000000       0.81250000000000000        0.0000000000000000     
   1.2500000000000000       0.81250000000000000        0.0000000000000000     
   1.1250000000000000       0.84375000000000000        0.0000000000000000     
   1.1562500000000000       0.84375000000000000        0.0000000000000000     
   1.1875000000000000       0.84375000000000000        0.0000000000000000     
   1.2187500000000000       0.84375000000000000        0.0000000000000000     
   1.2500000000000000       0.84375000000000000        0.0000000000000000     
   1.1250000000000000       0.87500000000000000        0.0000000000000000     
   1.1562500000000000       0.87500000000000000        0.0000000000000000     
   1.1875000000000000       0.87500000000000000        0.0000000000000000     
   1.2187500000000000       0.87500000000000000        0.0000000000000000     
   1.2500000000000000       0.87500000000000000        0.0000000000000000     
   1.2500000000000000       0.75000000000000000        0.0000000000000000     
   1.2812500000000000       0.75000000000000000        0.0000000000000000     
   1.3125000000000000       0.75000000000000000        0.0000000000000000     
   1.3437500000000000       0.75000000000000000        0.0000000000000000     
   1.3750000000000000       0.75000000000000000        0.0000000000000000     
   1.2500000000000000       0.78125000000000000        0.0000000000000000     
   1.2812500000000000       0.78125000000000000        0.0000000000000000     
   1.3125000000000000       0.78125000000000000        0.0000000000000000     
   1.3437500000000000       0.78125000000000000        0.0000000000000000     
   1.3750000000000000       0.78125000000000000        0.0000000000000000     
   1.2500000000000000       0.81250000000000000        0.0000000000000000     
   1.2812500000000000       0.81250000000000000        0.0000000000000000     
   1.3125000000000000       0.81250000000000000        0.0000000000000000     
   1.3437500000000000       0.81250000000000000        0.0000000000000000     
   1.3750000000000000       0.81250000000000000        0.0000000000000000     
   1.2500000000000000       0.84375000000000000        0.0000000000000000     
   1.2812500000000000       0.84375000000000000        0.0000000000000000     
   1.3125000000000000       0.84375000000000000        0.0000000000000000     
   1.3437500000000000       0.84375000000000000        0.0000000000000000     
   1.3750000000000000       0.84375000000000000        0.0000000000000000     
   1.2500000000000000       0.87500000000000000        0.0000000000000000     
   1.2812500000000000       0.87500000000000000        0.0000000000000000     
   1.3125000000000000       0.87500000000000000        0.0000000000000000     
   1.3437500000000000       0.87500000000000000        0.0000000000000000     
   1.3750000000000000       0.87500000000000000        0.0000000000000000     
   1.3750000000000000       0.75000000000000000        0.0000000000000000     
   1.4062500000000000       0.75000000000000000        0.0000000000000000     
   1.4375000000000000       0.75000000000000000        0.0000000000000000     
   1.4687500000000000       0.75000000000000000        0.0000000000000000     
   1.5000000000000000       0.75000000000000000        0.0000000000000000     
   1.3750000000000000       0.78125000000000000        0.0000000000000000     
   1.4062500000000000       0.78125000000000000        0.0000000000000000     
   1.4375000000000000       0.78125000000000000        0.0000000000000000     
   1.4687500000000000       0.78125000000000000        0.0000000000000000     
   1.5000000000000000       0.78125000000000000        0.0000000000000000     
   1.3750000000000000       0.81250000000000000        0.0000000000000000     
   1.4062500000000000       0.81250000000000000        0.0000000000000000     
   1.4375000000000000       0.81250000000000000        0.0000000000000000     
   1.4687500000000000       0.81250000000000000        0.0000000000000000     
   1.5000000000000000       0.81250000000000000        0.0000000000000000     
   1.3750000000000000       0.84375000000000000        0.0000000000000000     
   1.4062500000000000       0.84375000000000000        0.0000000000000000     
   1.4375000000000000       0.84375000000000000        0.0000000000000000     
   1.4687500000000000       0.84375000000000000        0.0000000000000000     
   1.5000000000000000       0.84375000000000000        0.0000000000000000     
   1.3750000000000000       0.87500000000000000        0.0000000000000000     
   1.4062500000000000       0.87500000000000000        0.0000000000000000     
   1.4375000000000000       0.87500000000000000        0.0000000000000000     
   1.4687500000000000       0.87500000000000000        0.0000000000000000     
   1.5000000000000000       0.87500000000000000        0.0000000000000000     
  0.50000000000000000       0.87500000000000000        0.0000000000000000     
  0.53125000000000000       0.87500000000000000        0.0000000000000000     
  0.56250000000000000       0.87500000000000000        0.0000000000000000     
  0.59375000000000000       0.87500000000000000        0.0000000000000000     
  0.62500000000000000       0.87500000000000000        0.0000000000000000     
  0.50000000000000000       0.90625000000000000        0.0000000000000000     
  0.53125000000000000       0.90625000000000000        0.0000000000000000     
  0.56250000000000000       0.90625000000000000        0.0000000000000000     
  0.59375000000000000       0.90625000000000000        0.0000000000000000     
  0.62500000000000000       0.90625000000000000        0.0000000000000000     
  0.50000000000000000       0.93750000000000000        0.0000000000000000     
  0.53125000000000000       0.93750000000000000        0.0000000000000000     
  0.56250000000000000       0.93750000000000000        0.0000000000000000     
  0.59375000000000000       0.93750000000000000        0.0000000000000000     
  0.62500000000000000       0.93750000000000000        0.0000000000000000     
  0.50000000000000000       0.96875000000000000        0.0000000000000000     
  0.53125000000000000       0.96875000000000000        0.0000000000000000     
  0.56250000000000000       0.96875000000000000        0.0000000000000000     
  0.59375000000000000       0.96875000000000000        0.0000000000000000     
  0.62500000000000000       0.96875000000000000        0.0000000000000000     
  0.50000000000000000        1.0000000000000000        0.0000000000000000     
  0.53125000000000000        1.0000000000000000        0.0000000000000000     
  0.56250000000000000        1.0000000000000000        0.0000000000000000     
  0.59375000000000000        1.0000000000000000        0.0000000000000000     
  0.62500000000000000        1.0000000000000000        0.0000000000000000     
  0.62500000000000000       0.87500000000000000        0.0000000000000000     
  0.65625000000000000       0.87500000000000000        0.0000000000000000     
  0.68750000000000000       0.87500000000000000        0.0000000000000000     
  0.71875000000000000       0.87500000000000000        0.0000000000000000     
  0.75000000000000000       0.87500000000000000        0.0000000000000000     
  0.62500000000000000       0.90625000000000000        0.0000000000000000     
  0.65625000000000000       0.90625000000000000        0.0000000000000000     
  0.68750000000000000       0.90625000000000000        0.0000000000000000     
  0.71875000000000000       0.90625000000000000        0.0000000000000000     
  0.75000000000000000       0.90625000000000000        0.0000000000000000     
  0.62500000000000000       0.93750000000000000        0.0000000000000000     
  0.65625000000000000       0.93750000000000000        0.0000000000000000     
  0.68750000000000000       0.93750000000000000        0.0000000000000000     
  0.71875000000000000       0.93750000000000000        0.0000000000000000     
  0.75000000000000000       0.93750000000000000        0.0000000000000000     
  0.62500000000000000       0.96875000000000000        0.0000000000000000     
  0.65625000000000000       0.96875000000000000        0.0000000000000000     
  0.68750000000000000       0.96875000000000000        0.0000000000000000     
  0.71875000000000000       0.96875000000000000        0.0000000000000000     
  0.75000000000000000       0.96875000000000000        0.0000000000000000     
  0.62500000000000000        1.0000000000000000        0.0000000000000000     
  0.65625000000000000        1.0000000000000000        0.0000000000000000     
  0.68750000000000000        1.0000000000000000        0.0000000000000000     
  0.71875000000000000        1.0000000000000000        0.0000000000000000     
  0.75000000000000000        1.0000000000000000        0.0000000000000000     
  0.75000000000000000       0.87500000000000000        0.0000000000000000     
  0.78125000000000000       0.87500000000000000        0.0000000000000000     
  0.81250000000000000       0.87500000000000000        0.0000000000000000     
  0.84375000000000000       0.87500000000000000        0.0000000000000000     
  0.87500000000000000       0.87500000000000000        0.0000000000000000     
  0.75000000000000000       0.90625000000000000        0.0000000000000000     
  0.78125000000000000       0.90625000000000000        0.0000000000000000     
  0.81250000000000000       0.90625000000000000        0.0000000000000000     
  0.84375000000000000       0.90625000000000000        0.0000000000000000     
  0.87500000000000000       0.90625000000000000        0.0000000000000000     
  0.75000000000000000       0.93750000000000000        0.0000000000000000     
  0.78125000000000000       0.93750000000000000        0.0000000000000000     
  0.81250000000000000       0.93750000000000000        0.0000000000000000     
  0.84375000000000000       0.93750000000000000        0.0000000000000000     
  0.87500000000000000       0.93750000000000000        0.0000000000000000     
  0.75000000000000000       0.96875000000000000        0.0000000000000000     
  0.78125000000000000       0.96875000000000000        0.0000000000000000     
  0.81250000000000000       0.96875000000000000        0.0000000000000000     
  0.84375000000000000       0.96875000000000000        0.0000000000000000     
  0.87500000000000000       0.96875000000000000        0.0000000000000000     
  0.75000000000000000        1.0000000000000000        0.0000000000000000     
  0.78125000000000000        1.0000000000000000        0.0000000000000000     
  0.81250000000000000        1.0000000000000000        0.0000000000000000     
  0.84375000000000000        1.0000000000000000        0.0000000000000000     
  0.87500000000000000        1.0000000000000000        0.0000000000000000     
  0.87500000000000000       0.87500000000000000        0.0000000000000000     
  0.90625000000000000       0.87500000000000000        0.0000000000000000     
  0.93750000000000000       0.87500000000000000        0.0000000000000000     
  0.96875000000000000       0.87500000000000000        0.0000000000000000     
   1.0000000000000000       0.87500000000000000        0.0000000000000000     
  0.87500000000000000       0.90625000000000000        0.0000000000000000     
  0.90625000000000000       0.90625000000000000        0.0000000000000000     
  0.93750000000000000       0.90625000000000000        0.0000000000000000     
  0.96875000000000000       0.90625000000000000        0.0000000000000000     
   1.0000000000000000       0.90625000000000000        0.0000000000000000     
  0.87500000000000000       0.93750000000000000        0.0000000000000000     
  0.90625000000000000       0.93750000000000000        0.0000000000000000     
  0.93750000000000000       0.93750000000000000        0.0000000000000000     
  0.96875000000000000       0.93750000000000000        0.0000000000000000     
   1.0000000000000000       0.93750000000000000        0.0000000000000000     
  0.87500000000000000       0.96875000000000000        0.0000000000000000     
  0.90625000000000000       0.96875000000000000        0.0000000000000000     
  0.93750000000000000       0.96875000000000000        0.0000000000000000     
  0.96875000000000000       0.96875000000000000        0.0000000000000000     
   1.0000000000000000       0.96875000000000000        0.0000000000000000     
  0.87500000000000000        1.0000000000000000        0.0000000000000000     
  0.90625000000000000        1.0000000000000000        0.0000000000000000     
  0.93750000000000000        1.0000000000000000        0.0000000000000000     
  0.96875000000000000        1.0000000000000000        0.0000000000000000     
   1.0000000000000000        1.0000000000000000        0.0000000000000000     
   1.0000000000000000       0.87500000000000000        0.0000000000000000     
   1.0312500000000000       0.87500000000000000        0.0000000000000000     
   1.0625000000000000       0.87500000000000000        0.0000000000000000     
   1.0937500000000000       0.87500000000000000        0.0000000000000000     
   1.1250000000000000       0.87500000000000000        0.0000000000000000     
   1.0000000000000000       0.90625000000000000        0.0000000000000000     
   1.0312500000000000       0.90625000000000000        0.0000000000000000     
   1.0625000000000000       0.90625000000000000        0.0000000000000000     
   1.0937500000000000       0.90625000000000000        0.0000000000000000     
   1.1250000000000000       0.90625000000000000        0.0000000000000000     
   1.0000000000000000       0.93750000000000000        0.0000000000000000     
   1.0312500000000000       0.93750000000000000        0.0000000000000000     
   1.0625000000000000       0.93750000000000000        0.0000000000000000     
   1.0937500000000000       0.93750000000000000        0.0000000000000000     
   1.1250000000000000       0.93750000000000000        0.0000000000000000     
   1.0000000000000000       0.96875000000000000        0.0000000000000000     
   1.0312500000000000       0.96875000000000000        0.0000000000000000     
   1.0625000000000000       0.96875000000000000        0.0000000000000000     
   1.0937500000000000       0.96875000000000000        0.0000000000000000     
   1.1250000000000000       0.96875000000000000        0.0000000000000000     
   1.0000000000000000        1.0000000000000000        0.0000000000000000     
   1.0312500000000000        1.0000000000000000        0.0000000000000000     
   1.0625000000000000        1.0000000000000000        0.0000000000000000     
   1.0937500000000000        1.0000000000000000        0.0000000000000000     
   1.1250000000000000        1.0000000000000000        0.0000000000000000     
   1.1250000000000000       0.87500000000000000        0.0000000000000000     
   1.1562500000000000       0.87500000000000000        0.0000000000000000     
   1.1875000000000000       0.87500000000000000        0.0000000000000000     
   1.2187500000000000       0.87500000000000000        0.0000000000000000     
   1.2500000000000000       0.87500000000000000        0.0000000000000000     
   1.1250000000000000       0.90625000000000000        0.0000000000000000     
   1.1562500000000000       0.90625000000000000        0.0000000000000000     
   1.1875000000000000       0.90625000000000000        0.0000000000000000     
   1.2187500000000000       0.90625000000000000        0.0000000000000000     
   1.2500000000000000       0.90625000000000000        0.0000000000000000     
   1.1250000000000000       0.93750000000000000        0.0000000000000000     
   1.1562500000000000       0.93750000000000000        0.0000000000000000     
   1.1875000000000000       0.93750000000000000        0.0000000000000000     
   1.2187500000000000       0.93750000000000000        0.0000000000000000     
   1.2500000000000000       0.93750000000000000        0.0000000000000000     
   1.1250000000000000       0.96875000000000000        0.0000000000000000     
   1.1562500000000000       0.96875000000000000        0.0000000000000000     
   1.1875000000000000       0.96875000000000000        0.0000000000000000     
   1.2187500000000000       0.96875000000000000        0.0000000000000000     
   1.2500000000000000       0.96875000000000000        0.0000000000000000     
   1.1250000000000000        1.0000000000000000        0.0000000000000000     
   1.1562500000000000        1.0000000000000000        0.0000000000000000     
   1.1875000000000000        1.0000000000000000        0.0000000000000000     
   1.2187500000000000        1.0000000000000000        0.0000000000000000     
   1.2500000000000000        1.0000000000000000        0.0000000000000000     
   1.2500000000000000       0.87500000000000000        0.0000000000000000     
   1.2812500000000000       0.87500000000000000        0.0000000000000000     
   1.3125000000000000       0.87500000000000000        0.0000000000000000     
   1.3437500000000000       0.87500000000000000        0.0000000000000000     
   1.3750000000000000       0.87500000000000000        0.0000000000000000     
   1.2500000000000000       0.90625000000000000        0.0000000000000000     
   1.2812500000000000       0.90625000000000000        0.0000000000000000     
   1.3125000000000000       0.90625000000000000        0.0000000000000000     
   1.3437500000000000       0.90625000000000000        0.0000000000000000     
   1.3750000000000000       0.90625000000000000        0.0000000000000000     
   1.2500000000000000       0.93750000000000000        0.0000000000000000     
   1.2812500000000000       0.93750000000000000        0.0000000000000000     
   1.3125000000000000       0.93750000000000000        0.0000000000000000     
   1.3437500000000000       0.93750000000000000        0.0000000000000000     
   1.3750000000000000       0.93750000000000000        0.0000000000000000     
   1.2500000000000000       0.96875000000000000        0.0000000000000000     
   1.2812500000000000       0.96875000000000000        0.0000000000000000     
   1.3125000000000000       0.96875000000000000        0.0000000000000000     
   1.3437500000000000       0.96875000000000000        0.0000000000000000     
   1.3750000000000000       0.96875000000000000        0.0000000000000000     
   1.2500000000000000        1.0000000000000000        0.0000000000000000     
   1.2812500000000000        1.0000000000000000        0.0000000000000000     
   1.3125000000000000        1.0000000000000000        0.0000000000000000     
   1.3437500000000000        1.0000000000000000        0.0000000000000000     
   1.3750000000000000        1.0000000000000000        0.0000000000000000     
   1.3750000000000000       0.87500000000000000        0.0000000000000000     
   1.4062500000000000       0.87500000000000000        0.0000000000000000     
   1.4375000000000000       0.87500000000000000        0.0000000000000000     
   1.4687500000000000       0.87500000000000000        0.0000000000000000     
   1.5000000000000000       0.87500000000000000        0.0000000000000000     
   1.3750000000000000       0.90625000000000000        0.0000000000000000     
   1.4062500000000000       0.90625000000000000        0.0000000000000000     
   1.4375000000000000       0.90625000000000000        0.0000000000000000     
   1.4687500000000000       0.90625000000000000        0.0000000000000000     
   1.5000000000000000       0.90625000000000000        0.0000000000000000     
   1.3750000000000000       0.93750000000000000        0.0000000000000000     
   1.4062500000000000       0.93750000000000000        0.0000000000000000     
   1.4375000000000000       0.93750000000000000        0.0000000000000000     
   1.4687500000000000       0.93750000000000000        0.0000000000000000     
   1.5000000000000000       0.93750000000000000        0.0000000000000000     
   1.3750000000000000       0.96875000000000000        0.0000000000000000     
   1.4062500000000000       0.96875000000000000        0.0000000000000000     
   1.4375000000000000       0.96875000000000000        0.0000000000000000     
   1.4687500000000000       0.96875000000000000        0.0000000000000000     
   1.5000000000000000       0.96875000000000000        0.0000000000000000     
   1.3750000000000000        1.0000000000000000        0.0000000000000000     
   1.4062500000000000        1.0000000000000000        0.0000000000000000     
   1.4375000000000000        1.0000000000000000        0.0000000000000000     
   1.4687500000000000        1.0000000000000000        0.0000000000000000     
   1.5000000000000000        1.0000000000000000        0.0000000000000000     
 </DataArray>
 </Points>
 <Cells>
 <DataArray  type="Int32"  Name="connectivity"  format="ascii">
           0           1           6           5
           1           2           7           6
           2           3           8           7
           3           4           9           8
           5           6          11          10
           6           7          12          11
           7           8          13          12
           8           9          14          13
          10          11          16          15
          11          12          17          16
          12          13          18          17
          13          14          19          18
          15          16          21          20
          16          17          22          21
          17          18          23          22
          18          19          24          23
          25          26          31          30
          26          27          32          31
          27          28          33          32
          28          29          34          33
          30          31          36          35
          31          32          37          36
          32          33          38          37
          33          34          39          38
          35          36          41          40
          36          37          42          41
          37          38          43          42
          38          39          44          43
          40          41          46          45
          41          42          47          46
          42          43          48          47
          43          44          49          48
          50          51          56          55
          51          52          57          56
          52          53          58          57
          53          54          59          58
          55          56          61          60
          56          57          62          61
          57          58          63          62
          58          59          64          63
          60          61          66          65
          61          62          67          66
          62          63          68          67
          63          64          69          68
          65          66          71          70
          66          67          72          71
          67          68          73          72
          68          69          74          73
          75          76          81          80
          76          77          82          81
          77          78          83          82
          78          79          84          83
          80          81          86          85
          81          82          87          86
          82          83          88          87
          83          84          89          88
          85          86          91          90
          86          87          92          91
          87          88          93          92
          88          89          94          93
          90          91          96          95
          91          92          97          96
          92          93          98          97
          93          94          99          98
         100         101         106         105
         101         102         107         106
         102         103         108         107
         103         104         109         108
         105         106         111         110
         106         107         112         111
         107         108         113         112
         108         109         114         113
         110         111         116         115
         111         112         117         116
         112         113         118         117
         113         114         119         118
         115         116         121         120
         116         117         122         121
         117         118         123         122
         118         119         124         123
         125         126         131         130
         126         127         132         131
         127         128         133         132
         128         129         134         133
         130         131         136         135
         131         132         137         136
         132         133         138         137
         133         134         139         138
         135         136         141         140
         136         137         142         141
         137         138         143         142
         138         139         144         143
         140         141         146         145
         141         142         147         146
         142         143         148         147
         143         144         149         148
         150         151         156         155
         151         152         157         156
         152         153         158         157
         153         154         159         158
         155         156         161         160
         156         157         162         161
         157         158         163         162
         158         159         164         163
         160         161         166         165
         161         162         167         166
         162         163         168         167
         163         164         169         168
         165         166         171         170
         166         167         172         171
         167         168         173         172
         168         169         174         173
         175         176         181         180
         176         177         182         181
         177         178         183         182
         178         179         184         183
         180         181         186         185
         181         182         187         186
         182         183         188         187
         183         184         189         188
         185         186         191         190
         186         187         192         191
         187         188         193         192
         188         189         194         193
         190         191         196         195
         191         192         197         196
         192         193         198         197
         193         194         199         198
         200         201         206         205
         201         202         207         206
         202         203         208         207
         203         204         209         208
         205         206         211         210
         206         207         212         211
         207         208         213         212
         208         209         214         213
         210         211         216         215
         211         212         217         216
         212         213         218         217
         213         214         219         218
         215         216         221         220
         216         217         222         221
         217         218         223         222
         218         219         224         223
         225         226         231         230
         226         227         232         231
         227         228         233         232
         228         229         234         233
         230         231         236         235
         231         232         237         236
         232         233         238         237
         233         234         239         238
         235         236         241         240
         236         237         242         241
         237         238         243         242
         238         239         244         243
         240         241         246         245
         241         242         247         246
         242         243         248         247
         243         244         249         248
         250         251         256         255
         251         252         257         256
         252         253         258         257
         253         254         259         258
         255         256         261         260
         256         257         262         261
         257         258         263         262
         258         259         264         263
         260         261         266         265
         261         262         267         266
         262         263         268         267
         263         264         269         268
         265         266         271         270
         266         267         272         271
         267         268         273         272
         268         269         274         273
         275         276         281         280
         276         277         282         281
         277         278         283         282
         278         279         284         283
         280         281         286         285
         281         282         287         286
         282         283         288         287
         283         284         289         288
         285         286         291         290
         286         287         292         291
         287         288         293         292
         288         289         294         293
         290         291         296         295
         291         292         297         296
         292         293         298         297
         293         294         299         298
         300         301         306         305
         301         302         307         306
         302         303         308         307
         303         304         309         308
         305         306         311         310
         306         307         312         311
         307         308         313         312
         308         309         314         313
         310         311         316         315
         311         312         317         316
         312         313         318         317
         313         314         319         318
         315         316         321         320
         316         317         322         321
         317         318         323         322
         318         319         324         323
         325         326         331         330
         326         327         332         331
         327         328         333         332
         328         329         334         333
         330         331         336         335
         331         332         337         336
         332         333         338         337
         333         334         339         338
         335         336         341         340
         336         337         342         341
         337         338         343         342
         338         339         344         343
         340         341         346         345
         341         342         347         346
         342         343         348         347
         343         344         349         348
         350         351         356         355
         351         352         357         356
         352         353         358         357
         353         354         359         358
         355         356         361         360
         356         357         362         361
         357         358         363         362
         358         359         364         363
         360         361         366         365
         361         362         367         366
         362         363         368         367
         363         364         369         368
         365         366         371         370
         366         367         372         371
         367         368         373         372
         368         369         374         373
         375         376         381         380
         376         377         382         381
         377         378         383         382
         378         379         384         383
         380         381         386         385
         381         382         387         386
         382         383         388         387
         383         384         389         388
         385         386         391         390
         386         387         392         391
         387         388         393         392
         388         389         394         393
         390         391         396         395
         391         392         397         396
         392         393         398         397
         393         394         399         398
         400         401         406         405
         401         402         407         406
         402         403         408         407
         403         404         409         408
         405         406         411         410
         406         407         412         411
         407         408         413         412
         408         409         414         413
         410         411         416         415
         411         412         417         416
         412         413         418         417
         413         414         419         418
         415         416         421         420
         416         417         422         421
         417         418         423         422
         418         419         424         423
         425         426         431         430
         426         427         432         431
         427         428         433         432
         428         429         434         433
         430         431         436         435
         431         432         437         436
         432         433         438         437
         433         434         439         438
         435         436         441         440
         436         437         442         441
         437         438         443         442
         438         439         444         443
         440         441         446         445
         441         442         447         446
         442         443         448         447
         443         444         449         448
         450         451         456         455
         451         452         457         456
         452         453         458         457
         453         454         459         458
         455         456         461         460
         456         457         462         461
         457         458         463         462
         458         459         464         463
         460         461         466         465
         461         462         467         466
         462         463         468         467
         463         464         469         468
         465         466         471         470
         466         467         472         471
         467         468         473         472
         468         469         474         473
         475         476         481         480
         476         477         482         481
         477         478         483         482
         478         479         484         483
         480         481         486         485
         481         482         487         486
         482         483         488         487
         483         484         489         488
         485         486         491         490
         486         487         492         491
         487         488         493         492
         488         489         494         493
         490         491         496         495
         491         492         497         496
         492         493         498         497
         493         494         499         498
         500         501         506         505
         501         502         507         506
         502         503         508         507
         503         504         509         508
         505         506         511         510
         506         507         512         511
         507         508         513         512
         508         509         514         513
         510         511         516         515
         511         512         517         516
         512         513         518         517
         513         514         519         518
         515         516         521         520
         516         517         522         521
         517         518         523         522
         518         519         524         523
         525         526         531         530
         526         527         532         531
         527         528         533         532
         528         529         534         533
         530         531         536         535
         531         532         537         536
         532         533         538         537
         533         534         539         538
         535         536         541         540
         536         537         542         541
         537         538         543         542
         538         539         544         543
         540         541         546         545
         541         542         547         546
         542         543         548         547
         543         544         549         548
         550         551         556         555
         551         552         557         556
         552         553         558         557
         553         554         559         558
         555         556         561         560
         556         557         562         561
         557         558         563         562
         558         559         564         563
         560         561         566         565
         561         562         567         566
         562         563         568         567
         563         564         569         568
         565         566         571         570
         566         567         572         571
         567         568         573         572
         568         569         574         573
         575         576         581         580
         576         577         582         581
         577         578         583         582
         578         579         584         583
         580         581         586         585
         581         582         587         586
         582         583         588         587
         583         584         589         588
         585         586         591         590
         586         587         592         591
         587         588         593         592
         588         589         594         593
         590         591         596         595
         591         592         597         596
         592         593         598         597
         593         594         599         598
         600         601         606         605
         601         602         607         606
         602         603         608         607
         603         604         609         608
         605         606         611         610
         606         607         612         611
         607         608         613         612
         608         609         614         613
         610         611         616         615
         611         612         617         616
         612         613         618         617
         613         614         619         618
         615         616         621         620
         616         617         622         621
         617         618         623         622
         618         619         624         623
         625         626         631         630
         626         627         632         631
         627         628         633         632
         628         629         634         633
         630         631         636         635
         631         632         637         636
         632         633         638         637
         633         634         639         638
         635         636         641         640
         636         637         642         641
         637         638         643         642
         638         639         644         643
         640         641         646         645
         641         642         647         646
         642         643         648         647
         643         644         649         648
         650         651         656         655
         651         652         657         656
         652         653         658         657
         653         654         659         658
         655         656         661         660
         656         657         662         661
         657         658         663         662
         658         659         664         663
         660         661         666         665
         661         662         667         666
         662         663         668         667
         663         664         669         668
         665         666         671         670
         666         667         672         671
         667         668         673         672
         668         669         674         673
         675         676         681         680
         676         677         682         681
         677         678         683         682
         678         679         684         683
         680         681         686         685
         681         682         687         686
         682         683         688         687
         683         684         689         688
         685         686         691         690
         686         687         692         691
         687         688         693         692
         688         689         694         693
         690         691         696         695
         691         692         697         696
         692         693         698         697
         693         694         699         698
         700         701         706         705
         701         702         707         706
         702         703         708         707
         703         704         709         708
         705         706         711         710
         706         707         712         711
         707         708         713         712
         708         709         714         713
         710         711         716         715
         711         712         717         716
         712         713         718         717
         713         714         719         718
         715         716         721         720
         716         717         722         721
         717         718         723         722
         718         719         724         723
         725         726         731         730
         726         727         732         731
         727         728         733         732
         728         729         734         733
         730         731         736         735
         731         732         737         736
         732         733         738         737
         733         734         739         738
         735         736         741         740
         736         737         742         741
         737         738         743         742
         738         739         744         743
         740         741         746         745
         741         742         747         746
         742         743         748         747
         743         744         749         748
         750         751         756         755
         751         752         757         756
         752         753         758         757
         753         754         759         758
         755         756         761         760
         756         757         762         761
         757         758         763         762
         758         759         764         763
         760         761         766         765
         761         762         767         766
         762         763         768         767
         763         764         769         768
         765         766         771         770
         766         767         772         771
         767         768         773         772
         768         769         774         773
         775         776         781         780
         776         777         782         781
         777         778         783         782
         778         779         784         783
         780         781         786         785
         781         782         787         786
         782         783         788         787
         783         784         789         788
         785         786         791         790
         786         787         792         791
         787         788         793         792
         788         789         794         793
         790         791         796         795
         791         792         797         796
         792         793         798         797
         793         794         799         798
         800         801         806         805
         801         802         807         806
         802         803         808         807
         803         804         809         808
         805         806         811         810
         806         807         812         811
         807         808         813         812
         808         809         814         813
         810         811         816         815
         811         812         817         816
         812         813         818         817
         813         814         819         818
         815         816         821         820
         816         817         822         821
         817         818         823         822
         818         819         824         823
         825         826         831         830
         826         827         832         831
         827         828         833         832
         828         829         834         833
         830         831         836         835
         831         832         837         836
         832         833         838         837
         833         834         839         838
         835         836         841         840
         836         837         842         841
         837         838         843         842
         838         839         844         843
         840         841         846         845
         841         842         847         846
         842         843         848         847
         843         844         849         848
         850         851         856         855
         851         852         857         856
         852         853         858         857
         853         854         859         858
         855         856         861         860
         856         857         862         861
         857         858         863         862
         858         859         864         863
         860         861         866         865
         861         862         867         866
         862         863         868         867
         863         864         869         868
         865         866         871         870
         866         867         872         871
         867         868         873         872
         868         869         874         873
         875         876         881         880
         876         877         882         881
         877         878         883         882
         878         879         884         883
         880         881         886         885
         881         882         887         886
         882         883         888         887
         883         884         889         888
         885         886         891         890
         886         887         892         891
         887         888         893         892
         888         889         894         893
         890         891         896         895
         891         892         897         896
         892         893         898         897
         893         894         899         898
         900         901         906         905
         901         902         907         906
         902         903         908         907
         903         904         909         908
         905         906         911         910
         906         907         912         911
         907         908         913         912
         908         909         914         913
         910         911         916         915
         911         912         917         916
         912         913         918         917
         913         914         919         918
         915         916         921         920
         916         917         922         921
         917         918         923         922
         918         919         924         923
         925         926         931         930
         926         927         932         931
         927         928         933         932
         928         929         934         933
         930         931         936         935
         931         932         937         936
         932         933         938         937
         933         934         939         938
         935         936         941         940
         936         937         942         941
         937         938         943         942
         938         939         944         943
         940         941         946         945
         941         942         947         946
         942         943         948         947
         943         944         949         948
         950         951         956         955
         951         952         957         956
         952         953         958         957
         953         954         959         958
         955         956         961         960
         956         957         962         961
         957         958         963         962
         958         959         964         963
         960         961         966         965
         961         962         967         966
         962         963         968         967
         963         964         969         968
         965         966         971         970
         966         967         972         971
         967         968         973         972
         968         969         974         973
         975         976         981         980
         976         977         982         981
         977         978         983         982
         978         979         984         983
         980         981         986         985
         981         982         987         986
         982         983         988         987
         983         984         989         988
         985         986         991         990
         986         987         992         991
         987         988         993         992
         988         989         994         993
         990         991         996         995
         991         992         997         996
         992         993         998         997
         993         994         999         998
        1000        1001        1006        1005
        1001        1002        1007        1006
        1002        1003        1008        1007
        1003        1004        1009        1008
        1005        1006        1011        1010
        1006        1007        1012        1011
        1007        1008        1013        1012
        1008        1009        1014        1013
        1010        1011        1016        1015
        1011        1012        1017        1016
        1012        1013        1018        1017
        1013        1014        1019        1018
        1015        1016        1021        1020
        1016        1017        1022        1021
        1017        1018        1023        1022
        1018        1019        1024        1023
        1025        1026        1031        1030
        1026        1027        1032        1031
        1027        1028        1033        1032
        1028        1029        1034        1033
        1030        1031        1036        1035
        1031        1032        1037        1036
        1032        1033        1038        1037
        1033        1034        1039        1038
        1035        1036        1041        1040
        1036        1037        1042        1041
        1037        1038        1043        1042
        1038        1039        1044        1043
        1040        1041        1046        1045
        1041        1042        1047        1046
        1042        1043        1048        1047
        1043        1044        1049        1048
        1050        1051        1056        1055
        1051        1052        1057        1056
        1052        1053        1058        1057
        1053        1054        1059        1058
        1055        1056        1061        1060
        1056        1057        1062        1061
        1057        1058        1063        1062
        1058        1059        1064        1063
        1060        1061        1066        1065
        1061        1062        1067        1066
        1062        1063        1068        1067
        1063        1064        1069        1068
        1065        1066        1071        1070
        1066        1067        1072        1071
        1067        1068        1073        1072
        1068        1069        1074        1073
        1075        1076        1081        1080
        1076        1077        1082        1081
        1077        1078        1083        1082
        1078        1079        1084        1083
        1080        1081        1086        1085
        1081        1082        1087        1086
        1082        1083        1088        1087
        1083        1084        1089        1088
        1085        1086        1091        1090
        1086        1087        1092        1091
        1087        1088        1093        1092
        1088        1089        1094        1093
        1090        1091        1096        1095
        1091        1092        1097        1096
        1092        1093        1098        1097
        1093        1094        1099        1098
        1100        1101        1106        1105
        1101        1102        1107        1106
        1102        1103        1108        1107
        1103        1104        1109        1108
        1105        1106        1111        1110
        1106        1107        1112        1111
        1107        1108        1113        1112
        1108        1109        1114        1113
        1110        1111        1116        1115
        1111        1112        1117        1116
        1112        1113        1118        1117
        1113        1114        1119        1118
        1115        1116        1121        1120
        1116        1117        1122        1121
        1117        1118        1123        1122
        1118        1119        1124        1123
        1125        1126        1131        1130
        1126        1127        1132        1131
        1127        1128        1133        1132
        1128        1129        1134        1133
        1130        1131        1136        1135
        1131        1132        1137        1136
        1132        1133        1138        1137
        1133        1134        1139        1138
        1135        1136        1141        1140
        1136        1137        1142        1141
        1137        1138        1143        1142
        1138        1139        1144        1143
        1140        1141        1146        1145
        1141        1142        1147        1146
        1142        1143        1148        1147
        1143        1144        1149        1148
        1150        1151        1156        1155
        1151        1152        1157        1156
        1152        1153        1158        1157
        1153        1154        1159        1158
        1155        1156        1161        1160
        1156        1157        1162        1161
        1157        1158        1163        1162
        1158        1159        1164        1163
        1160        1161        1166        1165
        1161        1162        1167        1166
        1162        1163        1168        1167
        1163        1164        1169        1168
        1165        1166        1171        1170
        1166        1167        1172        1171
        1167        1168        1173        1172
        1168        1169        1174        1173
        1175        1176        1181        1180
        1176        1177        1182        1181
        1177        1178        1183        1182
        1178        1179        1184        1183
        1180        1181        1186        1185
        1181        1182        1187        1186
        1182        1183        1188        1187
        1183        1184        1189        1188
        1185        1186        1191        1190
        1186        1187        1192        1191
        1187        1188        1193        1192
        1188        1189        1194        1193
        1190        1191        1196        1195
        1191        1192        1197        1196
        1192        1193        1198        1197
        1193        1194        1199        1198
        1200        1201        1206        1205
        1201        1202        1207        1206
        1202        1203        1208        1207
        1203        1204        1209        1208
        1205        1206        1211        1210
        1206        1207        1212        1211
        1207        1208        1213        1212
        1208        1209        1214        1213
        1210        1211        1216        1215
        1211        1212        1217        1216
        1212        1213        1218        1217
        1213        1214        1219        1218
        1215        1216        1221        1220
        1216        1217        1222        1221
        1217        1218        1223        1222
        1218        1219        1224        1223
        1225        1226        1231        1230
        1226        1227        1232        1231
        1227        1228        1233        1232
        1228        1229        1234        1233
        1230        1231        1236        1235
        1231        1232        1237        1236
        1232        1233        1238        1237
        1233        1234        1239        1238
        1235        1236        1241        1240
        1236        1237        1242        1241
        1237        1238        1243        1242
        1238        1239        1244        1243
        1240        1241        1246        1245
        1241        1242        1247        1246
        1242        1243        1248        1247
        1243        1244        1249        1248
        1250        1251        1256        1255
        1251        1252        1257        1256
        1252        1253        1258        1257
        1253        1254        1259        1258
        1255        1256        1261        1260
        1256        1257        1262        1261
        1257        1258        1263        1262
        1258        1259        1264        1263
        1260        1261        1266        1265
        1261        1262        1267        1266
        1262        1263        1268        1267
        1263        1264        1269        1268
        1265        1266        1271        1270
        1266        1267        1272        1271
        1267        1268        1273        1272
        1268        1269        1274        1273
        1275        1276        1281        1280
        1276        1277        1282        1281
        1277        1278        1283        1282
        1278        1279        1284        1283
        1280        1281        1286        1285
        1281        1282        1287        1286
        1282        1283        1288        1287
        1283        1284        1289        1288
        1285        1286        1291        1290
        1286        1287        1292        1291
        1287        1288        1293        1292
        1288        1289        1294        1293
        1290        1291        1296        1295
        1291        1292        1297        1296
        1292        1293        1298        1297
        1293        1294        1299        1298
        1300        1301        1306        1305
        1301        1302        1307        1306
        1302        1303        1308        1307
        1303        1304        1309        1308
        1305        1306        1311        1310
        1306        1307        1312        1311
        1307        1308        1313        1312
        1308        1309        1314        1313
        1310        1311        1316        1315
        1311        1312        1317        1316
        1312        1313        1318        1317
        1313        1314        1319        1318
        1315        1316        1321        1320
        1316        1317        1322        1321
        1317        1318        1323        1322
        1318        1319        1324        1323
        1325        1326        1331        1330
        1326        1327        1332        1331
        1327        1328        1333        1332
        1328        1329        1334        1333
        1330        1331        1336        1335
        1331        1332        1337        1336
        1332        1333        1338        1337
        1333        1334        1339        1338
        1335        1336        1341        1340
        1336        1337        1342        1341
        1337        1338        1343        1342
        1338        1339        1344        1343
        1340        1341        1346        1345
        1341        1342        1347        1346
        1342        1343        1348        1347
        1343        1344        1349        1348
        1350        1351        1356        1355
        1351        1352        1357        1356
        1352        1353        1358        1357
        1353        1354        1359        1358
        1355        1356        1361        1360
        1356        1357        1362        1361
        1357        1358        1363        1362
        1358        1359        1364        1363
        1360        1361        1366        1365
        1361        1362        1367        1366
        1362        1363        1368        1367
        1363        1364        1369        1368
        1365        1366        1371        1370
        1366        1367        1372        1371
        1367        1368        1373        1372
        1368        1369        1374        1373
        1375        1376        1381        1380
        1376        1377        1382        1381
        1377        1378        1383        1382
        1378        1379        1384        1383
        1380        1381        1386        1385
        1381        1382        1387        1386
        1382        1383        1388        1387
        1383        1384        1389        1388
        1385        1386        1391        1390
        1386        1387        1392        1391
        1387        1388        1393        1392
        1388        1389        1394        1393
        1390        1391        1396        1395
        1391        1392        1397        1396
        1392        1393        1398        1397
        1393        1394        1399        1398
        1400        1401        1406        1405
        1401        1402        1407        1406
        1402        1403        1408        1407
        1403        1404        1409        1408
        1405        1406        1411        1410
        1406        1407        1412        1411
        1407        1408        1413        1412
        1408        1409        1414        1413
        1410        1411        1416        1415
        1411        1412        1417        1416
        1412        1413        1418        1417
        1413        1414        1419        1418
        1415        1416        1421        1420
        1416        1417        1422        1421
        1417        1418        1423        1422
        1418        1419        1424        1423
        1425        1426        1431        1430
        1426        1427        1432        1431
        1427        1428        1433        1432
        1428        1429        1434        1433
        1430        1431        1436        1435
        1431        1432        1437        1436
        1432        1433        1438        1437
        1433        1434        1439        1438
        1435        1436        1441        1440
        1436        1437        1442        1441
        1437        1438        1443        1442
        1438        1439        1444        1443
        1440        1441        1446        1445
        1441        1442        1447        1446
        1442        1443        1448        1447
        1443        1444        1449        1448
        1450        1451        1456        1455
        1451        1452        1457        1456
        1452        1453        1458        1457
        1453        1454        1459        1458
        1455        1456        1461        1460
        1456        1457        1462        1461
        1457        1458        1463        1462
        1458        1459        1464        1463
        1460        1461        1466        1465
        1461        1462        1467        1466
        1462        1463        1468        1467
        1463        1464        1469        1468
        1465        1466        1471        1470
        1466        1467        1472        1471
        1467        1468        1473        1472
        1468        1469        1474        1473
        1475        1476        1481        1480
        1476        1477        1482        1481
        1477        1478        1483        1482
        1478        1479        1484        1483
        1480        1481        1486        1485
        1481        1482        1487        1486
        1482        1483        1488        1487
        1483        1484        1489        1488
        1485        1486        1491        1490
        1486        1487        1492        1491
        1487        1488        1493        1492
        1488        1489        1494        1493
        1490        1491        1496        1495
        1491        1492        1497        1496
        1492        1493        1498        1497
        1493        1494        1499        1498
        1500        1501        1506        1505
        1501        1502        1507        1506
        1502        1503        1508        1507
        1503        1504        1509        1508
        1505        1506        1511        1510
        1506        1507        1512        1511
        1507        1508        1513        1512
        1508        1509        1514        1513
        1510        1511        1516        1515
        1511        1512        1517        1516
        1512        1513        1518        1517
        1513        1514        1519        1518
        1515        1516        1521        1520
        1516        1517        1522        1521
        1517        1518        1523        1522
        1518        1519        1524        1523
        1525        1526        1531        1530
        1526        1527        1532        1531
        1527        1528        1533        1532
        1528        1529        1534        1533
        1530        1531        1536        1535
        1531        1532        1537        1536
        1532        1533        1538        1537
        1533        1534        1539        1538
        1535        1536        1541        1540
        1536        1537        1542        1541
        1537        1538        1543        1542
        1538        1539        1544        1543
        1540        1541        1546        1545
        1541        1542        1547        1546
        1542        1543        1548        1547
        1543        1544        1549        1548
        1550        1551        1556        1555
        1551        1552        1557        1556
        1552        1553        1558        1557
        1553        1554        1559        1558
        1555        1556        1561        1560
        1556        1557        1562        1561
        1557        1558        1563        1562
        1558        1559        1564        1563
        1560        1561        1566        1565
        1561        1562        1567        1566
        1562        1563        1568        1567
        1563        1564        1569        1568
        1565        1566        1571        1570
        1566        1567        1572        1571
        1567        1568        1573        1572
        1568        1569        1574        1573
        1575        1576        1581        1580
        1576        1577        1582        1581
        1577        1578        1583        1582
        1578        1579        1584        1583
        1580        1581        1586        1585
        1581        1582        1587        1586
        1582        1583        1588        1587
        1583        1584        1589        1588
        1585        1586        1591        1590
        1586        1587        1592        1591
        1587        1588        1593        1592
        1588        1589        1594        1593
        1590        1591        1596        1595
        1591        1592        1597        1596
        1592        1593        1598        1597
        1593        1594        1599        1598
 </DataArray>
 <DataArray  type="Int32"  Name="offsets"  format="ascii"> 
           4
           8
          12
          16
          20
          24
          28
          32
          36
          40
          44
          48
          52
          56
          60
          64
          68
          72
          76
          80
          84
          88
          92
          96
         100
         104
         108
         112
         116
         120
         124
         128
         132
         136
         140
         144
         148
         152
         156
         160
         164
         168
         172
         176
         180
         184
         188
         192
         196
         200
         204
         208
         212
         216
         220
         224
         228
         232
         236
         240
         244
         248
         252
         256
         260
         264
         268
         272
         276
         280
         284
         288
         292
         296
         300
         304
         308
         312
         316
         320
         324
         328
         332
         336
         340
         344
         348
         352
         356
         360
         364
         368
         372
         376
         380
         384
         388
         392
         396
         400
         404
         408
         412
         416
         420
         424
         428
         432
         436
         440
         444
         448
         452
         456
         460
         464
         468
         472
         476
         480
         484
         488
         492
         496
         500
         504
         508
         512
         516
         520
         524
         528
         532
         536
         540
         544
         548
         552
         556
         560
         564
         568
         572
         576
         580
         584
         588
         592
         596
         600
         604
         608
         612
         616
         620
         624
         628
         632
         636
         640
         644
         648
         652
         656
         660
         664
         668
         672
         676
         680
         684
         688
         692
         696
         700
         704
         708
         712
         716
         720
         724
         728
         732
         736
         740
         744
         748
         752
         756
         760
         764
         768
         772
         776
         780
         784
         788
         792
         796
         800
         804
         808
         812
         816
         820
         824
         828
         832
         836
         840
         844
         848
         852
         856
         860
         864
         868
         872
         876
         880
         884
         888
         892
         896
         900
         904
         908
         912
         916
         920
         924
         928
         932
         936
         940
         944
         948
         952
         956
         960
         964
         968
         972
         976
         980
         984
         988
         992
         996
        1000
        1004
        1008
        1012
        1016
        1020
        1024
        1028
        1032
        1036
        1040
        1044
        1048
        1052
        1056
        1060
        1064
        1068
        1072
        1076
        1080
        1084
        1088
        1092
        1096
        1100
        1104
        1108
        1112
        1116
        1120
        1124
        1128
        1132
        1136
        1140
        1144
        1148
        1152
        1156
        1160
        1164
        1168
        1172
        1176
        1180
        1184
        1188
        1192
        1196
        1200
        1204
        1208
        1212
        1216
        1220
        1224
        1228
        1232
        1236
        1240
        1244
        1248
        1252
        1256
        1260
        1264
        1268
        1272
        1276
        1280
        1284
        1288
        1292
        1296
        1300
        1304
        1308
        1312
        1316
        1320
        1324
        1328
        1332
        1336
        1340
        1344
        1348
        1352
        1356
        1360
        1364
        1368
        1372
        1376
        1380
        1384
        1388
        1392
        1396
        1400
        1404
        1408
        1412
        1416
        1420
        1424
        1428
        1432
        1436
        1440
        1444
        1448
        1452
        1456
        1460
        1464
        1468
        1472
        1476
        1480
        1484
        1488
        1492
        1496
        1500
        1504
        1508
        1512
        1516
        1520
        1524
        1528
        1532
        1536
        1540
        1544
        1548
        1552
        1556
        1560
        1564
        1568
        1572
        1576
        1580
        1584
        1588
        1592
        1596
        1600
        1604
        1608
        1612
        1616
        1620
        1624
        1628
        1632
        1636
        1640
        1644
        1648
        1652
        1656
        1660
        1664
        1668
        1672
        1676
        1680
        1684
        1688
        1692
        1696
        1700
        1704
        1708
        1712
        1716
        1720
        1724
        1728
        1732
        1736
        1740
        1744
        1748
        1752
        1756
        1760
        1764
        1768
        1772
        1776
        1780
        1784
        1788
        1792
        1796
        1800
        1804
        1808
        1812
        1816
        1820
        1824
        1828
        1832
        1836
        1840
        1844
        1848
        1852
        1856
        1860
        1864
        1868
        1872
        1876
        1880
        1884
        1888
        1892
        1896
        1900
        1904
        1908
        1912
        1916
        1920
        1924
        1928
        1932
        1936
        1940
        1944
        1948
        1952
        1956
        1960
        1964
        1968
        1972
        1976
        1980
        1984
        1988
        1992
        1996
        2000
        2004
        2008
        2012
        2016
        2020
        2024
        2028
        2032
        2036
        2040
        2044
        2048
        2052
        2056
        2060
        2064
        2068
        2072
        2076
        2080
        2084
        2088
        2092
        2096
        2100
        2104
        2108
        2112
        2116
        2120
        2124
        2128
        2132
        2136
        2140
        2144
        2148
        2152
        2156
        2160
        2164
        2168
        2172
        2176
        2180
        2184
        2188
        2192
        2196
        2200
        2204
        2208
        2212
        2216
        2220
        2224
        2228
        2232
        2236
        2240
        2244
        2248
        2252
        2256
        2260
        2264
        2268
        2272
        2276
        2280
        2284
        2288
        2292
        2296
        2300
        2304
        2308
        2312
        2316
        2320
        2324
        2328
        2332
        2336
        2340
        2344
        2348
        2352
        2356
        2360
        2364
        2368
        2372
        2376
        2380
        2384
        2388
        2392
        2396
        2400
        2404
        2408
        2412
        2416
        2420
        2424
        2428
        2432
        2436
        2440
        2444
        2448
        2452
        2456
        2460
        2464
        2468
        2472
        2476
        2480
        2484
        2488
        2492
        2496
        2500
        2504
        2508
        2512
        2516
        2520
        2524
        2528
        2532
        2536
        2540
        2544
        2548
        2552
        2556
        2560
        2564
        2568
        2572
        2576
        2580
        2584
        2588
        2592
        2596
        2600
        2604
        2608
        2612
        2616
        2620
        2624
        2628
        2632
        2636
        2640
        2644
        2648
        2652
        2656
        2660
        2664
        2668
        2672
        2676
        2680
        2684
        2688
        2692
        2696
        2700
        2704
        2708
        2712
        2716
        2720
        2724
        2728
        2732
        2736
        2740
        2744
        2748
        2752
        2756
        2760
        2764
        2768
        2772
        2776
        2780
        2784
        2788
        2792
        2796
        2800
        2804
        2808
        2812
        2816
        2820
        2824
        2828
        2832
        2836
        2840
        2844
        2848
        2852
        2856
        2860
        2864
        2868
        2872
        2876
        2880
        2884
        2888
        2892
        2896
        2900
        2904
        2908
        2912
        2916
        2920
        2924
        2928
        2932
        2936
        2940
        2944
        2948
        2952
        2956
        2960
        2964
        2968
        2972
        2976
        2980
        2984
        2988
        2992
        2996
        3000
        3004
        3008
        3012
        3016
        3020
        3024
        3028
        3032
        3036
        3040
        3044
        3048
        3052
        3056
        3060
        3064
        3068
        3072
        3076
        3080
        3084
        3088
        3092
        3096
        3100
        3104
        3108
        3112
        3116
        3120
        3124
        3128
        3132
        3136
        3140
        3144
        3148
        3152
        3156
        3160
        3164
        3168
        3172
        3176
        3180
        3184
        3188
        3192
        3196
        3200
        3204
        3208
        3212
        3216
        3220
        3224
        3228
        3232
        3236
        3240
        3244
        3248
        3252
        3256
        3260
        3264
        3268
        3272
        3276
        3280
        3284
        3288
        3292
        3296
        3300
        3304
        3308
        3312
        3316
        3320
        3324
        3328
        3332
        3336
        3340
        3344
        3348
        3352
        3356
        3360
        3364
        3368
        3372
        3376
        3380
        3384
        3388
        3392
        3396
        3400
        3404
        3408
        3412
        3416
        3420
        3424
        3428
        3432
        3436
        3440
        3444
        3448
        3452
        3456
        3460
        3464
        3468
        3472
        3476
        3480
        3484
        3488
        3492
        3496
        3500
        3504
        3508
        3512
        3516
        3520
        3524
        3528
        3532
        3536
        3540
        3544
        3548
        3552
        3556
        3560
        3564
        3568
        3572
        3576
        3580
        3584
        3588
        3592
        3596
        3600
        3604
        3608
        3612
        3616
        3620
        3624
        3628
        3632
        3636
        3640
        3644
        3648
        3652
        3656
        3660
        3664
        3668
        3672
        3676
        3680
        3684
        3688
        3692
        3696
        3700
        3704
        3708
        3712
        3716
        3720
        3724
        3728
        3732
        3736
        3740
        3744
        3748
        3752
        3756
        3760
        3764
        3768
        3772
        3776
        3780
        3784
        3788
        3792
        3796
        3800
        3804
        3808
        3812
        3816
        3820
        3824
        3828
        3832
        3836
        3840
        3844
        3848
        3852
        3856
        3860
        3864
        3868
        3872
        3876
        3880
        3884
        3888
        3892
        3896
        3900
        3904
        3908
        3912
        3916
        3920
        3924
        3928
        3932
        3936
        3940
        3944
        3948
        3952
        3956
        3960
        3964
        3968
        3972
        3976
        3980
        3984
        3988
        3992
        3996
        4000
        4004
        4008
        4012
        4016
        4020
        4024
        4028
        4032
        4036
        4040
        4044
        4048
        4052
        4056
        4060
        4064
        4068
        4072
        4076
        4080
        4084
        4088
        4092
        4096
 </DataArray>
 <DataArray  type="UInt8"  Name="types"  format="ascii">
 9
 9
 9
 9
 9
 9
 9
 9
 9
 9
 9
 9
 9
 9
 9
 9
 9
 9
 9
 9
 9
 9
 9
 9
 9
 9
 9
 9
 9
 9
 9
 9
 9
 9
 9
 9
 9
 9
 9
 9
 9
 9
 9
 9
 9
 9
 9
 9
 9
 9
 9
 9
 9
 9
 9
 9
 9
 9
 9
 9
 9
 9
 9
 9
 9
 9
 9
 9
 9
 9
 9
 9
 9
 9
 9
 9
 9
 9
 9
 9
 9
 9
 9
 9
 9
 9
 9
 9
 9
 9
 9
 9
 9
 9
 9
 9
 9
 9
 9
 9
 9
 9
 9
 9
 9
 9
 9
 9
 9
 9
 9
 9
 9
 9
 9
 9
 9
 9
 9
 9
 9
 9
 9
 9
 9
 9
 9
 9
 9
 9
 9
 9
 9
 9
 9
 9
 9
 9
 9
 9
 9
 9
 9
 9
 9
 9
 9
 9
 9
 9
 9
 9
 9
 9
 9
 9
 9
 9
 9
 9
 9
 9
 9
 9
 9
 9
 9
 9
 9
 9
 9
 9
 9
 9
 9
 9
 9
 9
 9
 9
 9
 9
 9
 9
 9
 9
 9
 9
 9
 9
 9
 9
 9
 9
 9
 9
 9
 9
 9
 9
 9
 9
 9
 9
 9
 9
 9
 9
 9
 9
 9
 9
 9
 9
 9
 9
 9
 9
 9
 9
 9
 9
 9
 9
 9
 9
 9
 9
 9
 9
 9
 9
 9
 9
 9
 9
 9
 9
 9
 9
 9
 9
 9
 9
 9
 9
 9
 9
 9
 9
 9
 9
 9
 9
 9
 9
 9
 9
 9
 9
 9
 9
 9
 9
 9
 9
 9
 9
 9
 9
 9
 9
 9
 9
 9
 9
 9
 9
 9
 9
 9
 9
 9
 9
 9
 9
 9
 9
 9
 9
 9
 9
 9
 9
 9
 9
 9
 9
 9
 9
 9
 9
 9
 9
 9
 9
 9
 9
 9
 9
 9
 9
 9
 9
 9
 9
 9
 9
 9
 9
 9
 9
 9
 9
 9
 9
 9
 9
 9
 9
 9
 9
 9
 9
 9
 9
 9
 9
 9
 9
 9
 9
 9
 9
 9
 9
 9
 9
 9
 9
 9
 9
 9
 9
 9
 9
 9
 9
 9
 9
 9
 9
 9
 9
 9
 9
 9
 9
 9
 9
 9
 9
 9
 9
 9
 9
 9
 9
 9
 9
 9
 9
 9
 9
 9
 9
 9
 9
 9
 9
 9
 9
 9
 9
 9
 9
 9
 9
 9
 9
 9
 9
 9
 9
 9
 9
 9
 9
 9
 9
 9
 9
 9
 9
 9
 9
 9
 9
 9
 9
 9
 9
 9
 9
 9
 9
 9
 9
 9
 9
 9
 9
 9
 9
 9
 9
 9
 9
 9
 9
 9
 9
 9
 9
 9
 9
 9
 9
 9
 9
 9
 9
 9
 9
 9
 9
 9
 9
 9
 9
 9
 9
 9
 9
 9
 9
 9
 9
 9
 9
 9
 9
 9
 9
 9
 9
 9
 9
 9
 9
 9
 9
 9
 9
 9
 9
 9
 9
 9
 9
 9
 9
 9
 9
 9
 9
 9
 9
 9
 9
 9
 9
 9
 9
 9
 9
 9
 9
 9
 9
 9
 9
 9
 9
 9
 9
 9
 9
 9
 9
 9
 9
 9
 9
 9
 9
 9
 9
 9
 9
 9
 9
 9
 9
 9
 9
 9
 9
 9
 9
 9
 9
 9
 9
 9
 9
 9
 9
 9
 9
 9
 9
 9
 9
 9
 9
 9
 9
 9
 9
 9
 9
 9
 9
 9
 9
 9
 9
 9
 9
 9
 9
 9
 9
 9
 9
 9
 9
 9
 9
 9
 9
 9
 9
 9
 9
 9
 9
 9
 9
 9
 9
 9
 9
 9
 9
 9
 9
 9
 9
 9
 9
 9
 9
 9
 9
 9
 9
 9
 9
 9
 9
 9
 9
 9
 9
 9
 9
 9
 9
 9
 9
 9
 9
 9
 9
 9
 9
 9
 9
 9
 9
 9
 9
 9
 9
 9
 9
 9
 9
 9
 9
 9
 9
 9
 9
 9
 9
 9
 9
 9
 9
 9
 9
 9
 9
 9
 9
 9
 9
 9
 9
 9
 9
 9
 9
 9
 9
 9
 9
 9
 9
 9
 9
 9
 9
 9
 9
 9
 9
 9
 9
 9
 9
 9
 9
 9
 9
 9
 9
 9
 9
 9
 9
 9
 9
 9
 9
 9
 9
 9
 9
 9
 9
 9
 9
 9
 9
 9
 9
 9
 9
 9
 9
 9
 9
 9
 9
 9
 9
 9
 9
 9
 9
 9
 9
 9
 9
 9
 9
 9
 9
 9
 9
 9
 9
 9
 9
 9
 9
 9
 9
 9
 9
 9
 9
 9
 9
 9
 9
 9
 9
 9
 9
 9
 9
 9
 9
 9
 9
 9
 9
 9
 9
 9
 9
 9
 9
 9
 9
 9
 9
 9
 9
 9
 9
 9
 9
 9
 9
 9
 9
 9
 9
 9
 9
 9
 9
 9
 9
 9
 9
 9
 9
 9
 9
 9
 9
 9
 9
 9
 9
 9
 9
 9
 9
 9
 9
 9
 9
 9
 9
 9
 9
 9
 9
 9
 9
 9
 9
 9
 9
 9
 9
 9
 9
 9
 9
 9
 9
 9
 9
 9
 9
 9
 9
 9
 9
 9
 9
 9
 9
 9
 9
 9
 9
 9
 9
 9
 9
 9
 9
 9
 9
 9
 9
 9
 9
 9
 9
 9
 9
 9
 9
 9
 9
 9
 9
 9
 9
 9
 9
 9
 9
 9
 9
 9
 9
 9
 9
 9
 9
 9
 9
 9
 9
 9
 9
 9
 9
 9
 9
 9
 9
 9
 9
 9
 9
 9
 9
 9
 9
 9
 9
 9
 9
 9
 9
 9
 9
 9
 9
 9
 9
 9
 9
 9
 9
 9
 9
 9
 9
 9
 9
 9
 9
 9
 9
 9
 9
 9
 9
 9
 9
 9
 9
 9
 9
 9
 9
 9
 9
 9
 9
 9
 9
 9
 9
 9
 9
 9
 9
 9
 9
 9
 9
 9
 9
 9
 9
 9
 9
 9
 9
 9
 9
 9
 9
 9
 9
 9
 9
 9
 9
 9
 9
 9
 9
 9
 9
 9
 9
 9
 9
 9
 9
 9
 9
 9
 9
 9
 9
 9
 9
 9
 9
 9
 9
 9
 9
 9
 9
 9
 9
 9
 9
 9
 9
 9
 9
 9
 9
 9
 9
 9
 9
 9
 9
 9
 9
 9
 9
 9
 9
 </DataArray>
 </Cells> 
 <PointData>
 <DataArray  type="Float64" Name="disp" NumberOfComponents="3" format="ascii">
   6.5422540702167603E-002   6.2902681784835907E-002   0.0000000000000000     
   6.8470038176639672E-002   6.8242096582624645E-002   0.0000000000000000     
   7.1417546570927665E-002   7.3774768171711136E-002   0.0000000000000000     
   7.4265065885031609E-002   7.9500696552095351E-002   0.0000000000000000     
   7.7012596118951462E-002   8.5419881723777347E-002   0.0000000000000000     
   6.0091216190349392E-002   6.1875410808937693E-002   0.0000000000000000     
   6.2983799776150304E-002   6.7283098945878875E-002   0.0000000000000000     
   6.5776551744104073E-002   7.2874040937196738E-002   0.0000000000000000     
   6.8469472094210684E-002   7.8648236782891276E-002   0.0000000000000000     
   7.1062560826470153E-002   8.4605686482962503E-002   0.0000000000000000     
   5.5039525118456084E-002   6.0969332442739436E-002   0.0000000000000000     
   5.7760752010253318E-002   6.6424877528451387E-002   0.0000000000000000     
   6.0384735788249988E-002   7.2057957819314983E-002   0.0000000000000000     
   6.2911476452446088E-002   7.7868573315330217E-002   0.0000000000000000     
   6.5340974002841626E-002   8.3856724016497103E-002   0.0000000000000000     
   5.0267467486487687E-002   6.0184446686241150E-002   0.0000000000000000     
   5.2800894878948720E-002   6.5667432330342168E-002   0.0000000000000000     
   5.5242098703365425E-002   7.1326518818065829E-002   0.0000000000000000     
   5.7591078959737807E-002   7.7161706149412146E-002   0.0000000000000000     
   5.9847835648065874E-002   8.3172994324381119E-002   0.0000000000000000     
   4.5775043294444200E-002   5.9520753539442819E-002   0.0000000000000000     
   4.8104228382236505E-002   6.5010763351551232E-002   0.0000000000000000     
   5.0348640489450383E-002   7.0679723933449318E-002   0.0000000000000000     
   5.2508279616085854E-002   7.6527635285137105E-002   0.0000000000000000     
   5.4583145762142897E-002   8.2554497406614566E-002   0.0000000000000000     
   7.7012596118951462E-002   8.5419881723777347E-002   0.0000000000000000     
   7.9667765442733296E-002   9.1514665316317745E-002   0.0000000000000000     
   8.2238202026423124E-002   9.7767388959277252E-002   0.0000000000000000     
   8.4723905870020988E-002  0.10417805265265588        0.0000000000000000     
   8.7124876973526860E-002  0.11074665639645360        0.0000000000000000     
   7.1062560826470153E-002   8.4605686482962503E-002   0.0000000000000000     
   7.3564694120993993E-002   9.0733069677688211E-002   0.0000000000000000     
   7.5984748157893717E-002   9.7017066007346206E-002   0.0000000000000000     
   7.8322722937169312E-002  0.10345767547193652        0.0000000000000000     
   8.0578618458820819E-002  0.11005489807145907        0.0000000000000000     
   6.5340974002841626E-002   8.3856724016497103E-002   0.0000000000000000     
   6.7682833134229459E-002   9.0011733756979573E-002   0.0000000000000000     
   6.9946658541402446E-002   9.6322926370941614E-002   0.0000000000000000     
   7.2132450224360573E-002  0.10279030185838320        0.0000000000000000     
   7.4240208183103840E-002  0.10941386021930431        0.0000000000000000     
   5.9847835648065874E-002   8.3172994324381119E-002   0.0000000000000000     
   6.2022182482439688E-002   8.9350657554191859E-002   0.0000000000000000     
   6.4123933176949310E-002   9.5684970050063448E-002   0.0000000000000000     
   6.6153087731594729E-002  0.10217593181199597        0.0000000000000000     
   6.8109646146375963E-002  0.10882354283998932        0.0000000000000000     
   5.4583145762142897E-002   8.2554497406614566E-002   0.0000000000000000     
   5.6582742165624672E-002   8.8749841069325014E-002   0.0000000000000000     
   5.8516572064534297E-002   9.5103197044711735E-002   0.0000000000000000     
   6.0384635458871801E-002  0.10161456533277480        0.0000000000000000     
   6.2186932348637161E-002  0.10828394593351412        0.0000000000000000     
   8.7124876973526860E-002  0.11074665639645360        0.0000000000000000     
   8.9432481990460971E-002  0.11746079115479430        0.0000000000000000     
   9.1638087574343566E-002  0.12430804789180182        0.0000000000000000     
   9.3741693725174643E-002  0.13128842660747619        0.0000000000000000     
   9.5743300442954204E-002  0.13840192730181738        0.0000000000000000     
   8.0578618458820819E-002  0.11005489807145907        0.0000000000000000     
   8.2745499968201783E-002  0.11679712279122544        0.0000000000000000     
   8.4816432710665829E-002  0.12367273861654712        0.0000000000000000     
   8.6791416686212958E-002  0.13068174554742407        0.0000000000000000     
   8.8670451894843155E-002  0.13782414358385631        0.0000000000000000     
   7.4240208183103840E-002  0.10941386021930431        0.0000000000000000     
   7.6264040452616158E-002  0.11618230396510182        0.0000000000000000     
   7.8198055067881439E-002  0.12308433560717255        0.0000000000000000     
   8.0042252028899627E-002  0.13011995514551647        0.0000000000000000     
   8.1796631335670777E-002  0.13728916258013368        0.0000000000000000     
   6.8109646146375963E-002  0.10882354283998932        0.0000000000000000     
   6.9988103443704125E-002  0.11561633467642346        0.0000000000000000     
   7.1782954645990382E-002  0.12254283886367820        0.0000000000000000     
   7.3494199753234707E-002  0.12960305540175357        0.0000000000000000     
   7.5121838765437127E-002  0.13679698429064949        0.0000000000000000     
   6.2186932348637161E-002  0.10828394593351412        0.0000000000000000     
   6.3917688941465697E-002  0.11509921492519035        0.0000000000000000     
   6.5571131444992700E-002  0.12204824838606401        0.0000000000000000     
   6.7147259859218184E-002  0.12913104631613517        0.0000000000000000     
   6.8646074184142147E-002  0.13634760871540377        0.0000000000000000     
   9.5743300442954204E-002  0.13840192730181738        0.0000000000000000     
   9.7648690529312548E-002  0.14563693891958773        0.0000000000000000     
   9.9463646785879933E-002  0.15298185040554954        0.0000000000000000     
  0.10118816921265640       0.16043666175970284        0.0000000000000000     
  0.10282225780964194       0.16800137298204759        0.0000000000000000     
   8.8670451894843155E-002  0.13782414358385631        0.0000000000000000     
   9.0458985235667921E-002  0.14508788842532708        0.0000000000000000     
   9.2162463607798728E-002  0.15246093577131964        0.0000000000000000     
   9.3780887011235575E-002  0.15994328562183394        0.0000000000000000     
   9.5314255445978477E-002  0.16753493797686997        0.0000000000000000     
   8.1796631335670777E-002  0.13728916258013368        0.0000000000000000     
   8.3466074153930217E-002  0.14457963360897969        0.0000000000000000     
   8.5055461649413272E-002  0.15197904393001019        0.0000000000000000     
   8.6564793822119929E-002  0.15948739354322514        0.0000000000000000     
   8.7994070672050229E-002  0.16710468244862453        0.0000000000000000     
   7.5121838765437127E-002  0.13679698429064949        0.0000000000000000     
   7.6669957284099449E-002  0.14411217447054553        0.0000000000000000     
   7.8142640910723579E-002  0.15153617488162119        0.0000000000000000     
   7.9539889645309489E-002  0.15906898552387647        0.0000000000000000     
   8.0861703487857206E-002  0.16671060639731133        0.0000000000000000     
   6.8646074184142147E-002  0.13634760871540377        0.0000000000000000     
   7.0070634626175618E-002  0.14368551101002466        0.0000000000000000     
   7.1424001391729650E-002  0.15113232862615272        0.0000000000000000     
   7.2706174480804214E-002  0.15868806156378792        0.0000000000000000     
   7.3917153893399354E-002  0.16635270982293032        0.0000000000000000     
  0.10282225780964194       0.16800137298204759        0.0000000000000000     
  0.10436829842674684       0.17566591781431828        0.0000000000000000     
  0.10582867691388152       0.18342022999824931        0.0000000000000000     
  0.10720339327104589       0.19126430953384063        0.0000000000000000     
  0.10849244749824001       0.19919815642109234        0.0000000000000000     
   9.5314255445978477E-002  0.16753493797686997        0.0000000000000000     
   9.6763008085147928E-002  0.17522621338077682        0.0000000000000000     
   9.8127584101864423E-002  0.18300743237790346        0.0000000000000000     
   9.9407983496127977E-002  0.19087859496824988        0.0000000000000000     
  0.10060420626793859       0.19883970115181610        0.0000000000000000     
   8.7994070672050229E-002  0.16710468244862453        0.0000000000000000     
   8.9342392466520232E-002  0.17482145299109209        0.0000000000000000     
   9.0608859472845971E-002  0.18262824751551121        0.0000000000000000     
   9.1793471691027514E-002  0.19052506602188202        0.0000000000000000     
   9.2896229121064808E-002  0.19851190851020445        0.0000000000000000     
   8.0861703487857206E-002  0.16671060639731133        0.0000000000000000     
   8.2106451570863742E-002  0.17445163664526389        0.0000000000000000     
   8.3272503026826178E-002  0.18228267541107251        0.0000000000000000     
   8.4359857855744472E-002  0.19020372269473695        0.0000000000000000     
   8.5368516057618679E-002  0.19821477849625732        0.0000000000000000     
   7.3917153893399354E-002  0.16635270982293032        0.0000000000000000     
   7.5055185398178459E-002  0.17411676434329254        0.0000000000000000     
   7.6118514763804990E-002  0.18197071606458737        0.0000000000000000     
   7.7107141990278891E-002  0.18991456498681480        0.0000000000000000     
   7.8021067077600204E-002  0.19794831110997479        0.0000000000000000     
  0.10849244749824001       0.19919815642109234        0.0000000000000000     
  0.10970095216245419       0.20721771126401473        0.0000000000000000     
  0.11083401983067875       0.21531891466661815        0.0000000000000000     
  0.11189165050291373       0.22350176662890264        0.0000000000000000     
  0.11287384417915908       0.23176626715086820        0.0000000000000000     
  0.10060420626793859       0.19883970115181610        0.0000000000000000     
  0.10172171505262190       0.20688457082828465        0.0000000000000000     
  0.10276597248550354       0.21500702389733797        0.0000000000000000     
  0.10373697856658354       0.22320706035897614        0.0000000000000000     
  0.10463473329586187       0.23148468021319912        0.0000000000000000     
   9.2896229121064808E-002  0.19851190851020445        0.0000000000000000     
   9.3921979658573532E-002  0.20658134570801628        0.0000000000000000     
   9.4875571199169353E-002  0.21472594834285536        0.0000000000000000     
   9.5757003742852259E-002  0.22294571641472144        0.0000000000000000     
   9.6566277289622207E-002  0.23124064992361473        0.0000000000000000     
   8.5368516057618679E-002  0.19821477849625732        0.0000000000000000     
   8.6301745980309125E-002  0.20630803590320967        0.0000000000000000     
   8.7162815971676189E-002  0.21447568800317010        0.0000000000000000     
   8.7951726031719857E-002  0.22271773479613857        0.0000000000000000     
   8.8668476160440143E-002  0.23103417628211509        0.0000000000000000     
   7.8021067077600204E-002  0.19794831110997479        0.0000000000000000     
   7.8861014017828662E-002  0.20606464141386485        0.0000000000000000     
   7.9627706803024056E-002  0.21425624287828240        0.0000000000000000     
   8.0321145433186386E-002  0.22252311550322751        0.0000000000000000     
   8.0941329908315651E-002  0.23086525928870011        0.0000000000000000     
  0.11287384417915908       0.23176626715086820        0.0000000000000000     
  0.11380877103491172       0.24012906618478050        0.0000000000000000     
  0.11472460124566851       0.24860681368290519        0.0000000000000000     
  0.11562133481142946       0.25719950964524230        0.0000000000000000     
  0.11649897173219456       0.26590715407179183        0.0000000000000000     
  0.10463473329586187       0.23148468021319912        0.0000000000000000     
  0.10546427532353446       0.23986334551320737        0.0000000000000000     
  0.10623064329979727       0.24836651831220127        0.0000000000000000     
  0.10693383722465026       0.25699419861018086        0.0000000000000000     
  0.10757385709809344       0.26574638640714610        0.0000000000000000     
   9.6566277289622207E-002  0.23124064992361473        0.0000000000000000     
   9.7294259355719601E-002  0.23963714631856356        0.0000000000000000     
   9.7931817457384718E-002  0.24816160304859625        0.0000000000000000     
   9.8478951594617614E-002  0.25681402011371279        0.0000000000000000     
   9.8935661767418234E-002  0.26559439751391317        0.0000000000000000     
   8.8668476160440143E-002  0.23103417628211509        0.0000000000000000     
   8.9298723131467139E-002  0.23945046860084912        0.0000000000000000     
   8.9828123718430936E-002  0.24799206789209011        0.0000000000000000     
   9.0256677921331518E-002  0.25665897415583810        0.0000000000000000     
   9.0584385740168888E-002  0.26545118739209311        0.0000000000000000     
   8.0941329908315651E-002  0.23086525928870011        0.0000000000000000     
   8.1477666650777048E-002  0.23930331236006397        0.0000000000000000     
   8.1919562082935826E-002  0.24785791284268288        0.0000000000000000     
   8.2267016204791946E-002  0.25652906073655685        0.0000000000000000     
   8.2520029016345434E-002  0.26531675604168592        0.0000000000000000     
  0.11649897173219456       0.26590715407179183        0.0000000000000000     
  0.11729790481175936       0.27489425560954350        0.0000000000000000     
  0.11795852685391943       0.28432532290548695        0.0000000000000000     
  0.11848083785867475       0.29420035595962235        0.0000000000000000     
  0.11886483782602530       0.30451935477194952        0.0000000000000000     
  0.10757385709809344       0.26574638640714610        0.0000000000000000     
  0.10813174687999799       0.27475519831419815        0.0000000000000000     
  0.10858855053023503       0.28415275094243791        0.0000000000000000     
  0.10894426804880455       0.29393904429186551        0.0000000000000000     
  0.10919889943570658       0.30411407836248100        0.0000000000000000     
   9.8935661767418234E-002  0.26559439751391317        0.0000000000000000     
   9.9312970612742579E-002  0.27460103359113303        0.0000000000000000     
   9.9621900767546664E-002  0.28393222668730772        0.0000000000000000     
   9.9862452231830462E-002  0.29358797680243737        0.0000000000000000     
  0.10003462500559399       0.30356828393652202        0.0000000000000000     
   9.0584385740168888E-002  0.26545118739209311        0.0000000000000000     
   9.0841576009993139E-002  0.27443176144034814        0.0000000000000000     
   9.1058577565854323E-002  0.28366375014009637        0.0000000000000000     
   9.1235390407752429E-002  0.29314715349133796        0.0000000000000000     
   9.1372014535687482E-002  0.30288197149407259        0.0000000000000000     
   8.2520029016345434E-002  0.26531675604168592        0.0000000000000000     
   8.2717563071749642E-002  0.27424738186184366        0.0000000000000000     
   8.2898580925158019E-002  0.28334732130080414        0.0000000000000000     
   8.3063082576570496E-002  0.29261657435856714        0.0000000000000000     
   8.3211068025987114E-002  0.30205514103513276        0.0000000000000000     
   4.5775043294444200E-002   5.9520753539442819E-002   0.0000000000000000     
   4.8104228382236505E-002   6.5010763351551232E-002   0.0000000000000000     
   5.0348640489450383E-002   7.0679723933449318E-002   0.0000000000000000     
   5.2508279616085854E-002   7.6527635285137105E-002   0.0000000000000000     
   5.4583145762142897E-002   8.2554497406614566E-002   0.0000000000000000     
   4.1460796882164155E-002   5.8921894305824049E-002   0.0000000000000000     
   4.3582724275280614E-002   6.4414242982800352E-002   0.0000000000000000     
   4.5627995156387255E-002   7.0089243467168355E-002   0.0000000000000000     
   4.7596609525484085E-002   7.5946895758928060E-002   0.0000000000000000     
   4.9488567382571090E-002   8.1987199858079479E-002   0.0000000000000000     
   3.7223272589486101E-002   5.8331510288864394E-002   0.0000000000000000     
   3.9148354313245003E-002   6.3837243614811329E-002   0.0000000000000000     
   4.1003796714058433E-002   6.9526747720925888E-002   0.0000000000000000     
   4.2789599791926362E-002   7.5400022607208059E-002   0.0000000000000000     
   4.4505763546848827E-002   8.1457068273657882E-002   0.0000000000000000     
   3.3062470416410028E-002   5.7749601488563881E-002   0.0000000000000000     
   3.4801118496129650E-002   6.3279765247584149E-002   0.0000000000000000     
   3.6476045162463881E-002   6.8992236694721890E-002   0.0000000000000000     
   3.8087250415412700E-002   7.4887015829977116E-002   0.0000000000000000     
   3.9634734254976121E-002   8.0964102653349815E-002   0.0000000000000000     
   2.8978390362935938E-002   5.7176167904922484E-002   0.0000000000000000     
   3.0541016823934571E-002   6.2741807881118827E-002   0.0000000000000000     
   3.2044740501603622E-002   6.8485710388556401E-002   0.0000000000000000     
   3.3489561395943085E-002   7.4407875427235218E-002   0.0000000000000000     
   3.4875479506952974E-002   8.0508302997155251E-002   0.0000000000000000     
   5.4583145762142897E-002   8.2554497406614566E-002   0.0000000000000000     
   5.6582742165624672E-002   8.8749841069325014E-002   0.0000000000000000     
   5.8516572064534297E-002   9.5103197044711735E-002   0.0000000000000000     
   6.0384635458871801E-002  0.10161456533277480        0.0000000000000000     
   6.2186932348637161E-002  0.10828394593351412        0.0000000000000000     
   4.9488567382571090E-002   8.1987199858079479E-002   0.0000000000000000     
   5.1312790603911140E-002   8.8198541987297915E-002   0.0000000000000000     
   5.3078201065767092E-002   9.4569308369258739E-002   0.0000000000000000     
   5.4784798768138979E-002  0.10109949900396194        0.0000000000000000     
   5.6432583711026767E-002  0.10778911389140752        0.0000000000000000     
   4.4505763546848827E-002   8.1457068273657882E-002   0.0000000000000000     
   4.6160606217425820E-002   8.7686017993029386E-002   0.0000000000000000     
   4.7762446042257378E-002   9.4075005038076642E-002   0.0000000000000000     
   4.9311283021343473E-002  0.10062402940879964        0.0000000000000000     
   5.0807117154684119E-002  0.10733309110519840        0.0000000000000000     
   3.9634734254976121E-002   8.0964102653349815E-002   0.0000000000000000     
   4.1126189006168733E-002   8.7212269086519453E-002   0.0000000000000000     
   4.2569306994005116E-002   9.3620287051165471E-002   0.0000000000000000     
   4.3964088218485270E-002  0.10018815654728791        0.0000000000000000     
   4.5310532679609210E-002  0.10691587757488674        0.0000000000000000     
   3.4875479506952974E-002   8.0508302997155251E-002   0.0000000000000000     
   3.6209538970139857E-002   8.6777295267768090E-002   0.0000000000000000     
   3.7498783921010331E-002   9.3205154408525254E-002   0.0000000000000000     
   3.8743214359564390E-002   9.9791880419426743E-002   0.0000000000000000     
   3.9942830285802033E-002  0.10653747330047256        0.0000000000000000     
   6.2186932348637161E-002  0.10828394593351412        0.0000000000000000     
   6.3917688941465697E-002  0.11509921492519035        0.0000000000000000     
   6.5571131444992700E-002  0.12204824838606401        0.0000000000000000     
   6.7147259859218184E-002  0.12913104631613517        0.0000000000000000     
   6.8646074184142147E-002  0.13634760871540377        0.0000000000000000     
   5.6432583711026767E-002  0.10778911389140752        0.0000000000000000     
   5.8015422262709067E-002  0.11462535010530742        0.0000000000000000     
   5.9527180791464428E-002  0.12159540471937347        0.0000000000000000     
   6.0967859297292849E-002  0.12869927773360576        0.0000000000000000     
   6.2337457780194352E-002  0.13593696914800418        0.0000000000000000     
   5.0807117154684119E-002  0.10733309110519840        0.0000000000000000     
   5.2243928724242446E-002  0.11418914561067964        0.0000000000000000     
   5.3615698011981579E-002  0.12117914840865006        0.0000000000000000     
   5.4922425017901517E-002  0.12830309949910970        0.0000000000000000     
   5.6164109742002255E-002  0.13556099888205853        0.0000000000000000     
   4.5310532679609210E-002  0.10691587757488674        0.0000000000000000     
   4.6603208326065862E-002  0.11379060144130702        0.0000000000000000     
   4.7836683106544188E-002  0.12079947945389377        0.0000000000000000     
   4.9010957021044181E-002  0.12794251161264703        0.0000000000000000     
   5.0126030069565848E-002  0.13521969791756674        0.0000000000000000     
   3.9942830285802033E-002  0.10653747330047256        0.0000000000000000     
   4.1093261068179295E-002  0.11342971759718956        0.0000000000000000     
   4.2190136075152235E-002  0.12045639785510460        0.0000000000000000     
   4.3233455306720833E-002  0.12761751407421773        0.0000000000000000     
   4.4223218762885118E-002  0.13491306625452887        0.0000000000000000     
   6.8646074184142147E-002  0.13634760871540377        0.0000000000000000     
   7.0070634626175618E-002  0.14368551101002466        0.0000000000000000     
   7.1424001391729650E-002  0.15113232862615272        0.0000000000000000     
   7.2706174480804214E-002  0.15868806156378792        0.0000000000000000     
   7.3917153893399354E-002  0.16635270982293032        0.0000000000000000     
   6.2337457780194352E-002  0.13593696914800418        0.0000000000000000     
   6.3638049115392850E-002  0.14329616487091715        0.0000000000000000     
   6.4871706178112221E-002  0.15076455081069287        0.0000000000000000     
   6.6038428968352492E-002  0.15834212696733138        0.0000000000000000     
   6.7138217486113649E-002  0.16602889334083271        0.0000000000000000     
   5.6164109742002255E-002  0.13556099888205853        0.0000000000000000     
   5.7342143686985293E-002  0.14294065769672307        0.0000000000000000     
   5.8457918355552106E-002  0.15042988708232974        0.0000000000000000     
   5.9511433747702680E-002  0.15802868703887865        0.0000000000000000     
   6.0502689863437022E-002  0.16573705756636975        0.0000000000000000     
   5.0126030069565848E-002  0.13521969791756674        0.0000000000000000     
   5.1182918340952954E-002  0.14261898948744237        0.0000000000000000     
   5.2182637924049251E-002  0.15012833744106335        0.0000000000000000     
   5.3125188818854766E-002  0.15774774177842965        0.0000000000000000     
   5.4010571025369471E-002  0.16547720249954137        0.0000000000000000     
   4.4223218762885118E-002  0.13491306625452887        0.0000000000000000     
   4.5160373077295812E-002  0.14233116024307518        0.0000000000000000     
   4.6045864883603689E-002  0.14985990188689374        0.0000000000000000     
   4.6879694181808748E-002  0.15749929118598455        0.0000000000000000     
   4.7661860971910969E-002  0.16524932814034762        0.0000000000000000     
   7.3917153893399354E-002  0.16635270982293032        0.0000000000000000     
   7.5055185398178459E-002  0.17411676434329254        0.0000000000000000     
   7.6118514763804990E-002  0.18197071606458737        0.0000000000000000     
   7.7107141990278891E-002  0.18991456498681480        0.0000000000000000     
   7.8021067077600204E-002  0.19794831110997479        0.0000000000000000     
   6.7138217486113649E-002  0.16602889334083271        0.0000000000000000     
   6.8169428507092844E-002  0.17381510834035976        0.0000000000000000     
   6.9130418806987184E-002  0.18169103037507550        0.0000000000000000     
   7.0021188385796657E-002  0.18965665944497989        0.0000000000000000     
   7.0841737243521302E-002  0.19771199555007296        0.0000000000000000     
   6.0502689863437022E-002  0.16573705756636975        0.0000000000000000     
   6.1430015456235276E-002  0.17354494089164751        0.0000000000000000     
   6.2291739279577506E-002  0.18144227924155648        0.0000000000000000     
   6.3087861333463752E-002  0.18942907261609665        0.0000000000000000     
   6.3818381617893979E-002  0.19750532101526802        0.0000000000000000     
   5.4010571025369471E-002  0.16547720249954137        0.0000000000000000     
   5.4836946245605742E-002  0.17330626199715579        0.0000000000000000     
   5.5602476181575961E-002  0.18122446266403033        0.0000000000000000     
   5.6307160833280120E-002  0.18923180450016505        0.0000000000000000     
   5.6951000200718235E-002  0.19732828750555997        0.0000000000000000     
   4.7661860971910969E-002  0.16524932814034762        0.0000000000000000     
   4.8390220875204268E-002  0.17309907165688457        0.0000000000000000     
   4.9062629512982542E-002  0.18103758064249709        0.0000000000000000     
   4.9679086885245805E-002  0.18906485509718518        0.0000000000000000     
   5.0239592991994028E-002  0.19718089502094882        0.0000000000000000     
   7.8021067077600204E-002  0.19794831110997479        0.0000000000000000     
   7.8861014017828662E-002  0.20606464141386485        0.0000000000000000     
   7.9627706803024056E-002  0.21425624287828240        0.0000000000000000     
   8.0321145433186386E-002  0.22252311550322751        0.0000000000000000     
   8.0941329908315651E-002  0.23086525928870011        0.0000000000000000     
   7.0841737243521302E-002  0.19771199555007296        0.0000000000000000     
   7.1590330015527115E-002  0.20585034462143098        0.0000000000000000     
   7.2265231337180047E-002  0.21406501259013017        0.0000000000000000     
   7.2866441208480154E-002  0.22235599945617060        0.0000000000000000     
   7.3393959629427366E-002  0.23072330521955220        0.0000000000000000     
   6.3818381617893979E-002  0.19750532101526802        0.0000000000000000     
   6.4480240217799425E-002  0.20566432790735734        0.0000000000000000     
   6.5070377218111222E-002  0.21389939676065142        0.0000000000000000     
   6.5588792618829397E-002  0.22221052757515025        0.0000000000000000     
   6.6035486419953937E-002  0.23059772035085380        0.0000000000000000     
   5.6951000200718235E-002  0.19732828750555997        0.0000000000000000     
   5.7530744624645608E-002  0.20550659127164397        0.0000000000000000     
   5.8043144445817589E-002  0.21375939538984615        0.0000000000000000     
   5.8488199664234172E-002  0.22208669986016646        0.0000000000000000     
   5.8865910279895350E-002  0.23048850468260487        0.0000000000000000     
   5.0239592991994028E-002  0.19718089502094882        0.0000000000000000     
   5.0741843236065669E-002  0.20537713471429092        0.0000000000000000     
   5.1183533020299141E-002  0.21364500847771437        0.0000000000000000     
   5.1564662344694451E-002  0.22198451631121924        0.0000000000000000     
   5.1885231209251606E-002  0.23039565821480540        0.0000000000000000     
   8.0941329908315651E-002  0.23086525928870011        0.0000000000000000     
   8.1477666650777048E-002  0.23930331236006397        0.0000000000000000     
   8.1919562082935826E-002  0.24785791284268288        0.0000000000000000     
   8.2267016204791946E-002  0.25652906073655685        0.0000000000000000     
   8.2520029016345434E-002  0.26531675604168592        0.0000000000000000     
   7.3393959629427366E-002  0.23072330521955220        0.0000000000000000     
   7.3844531544860259E-002  0.23918068842847026        0.0000000000000000     
   7.4214901899617228E-002  0.24774190763112011        0.0000000000000000     
   7.4505070693698369E-002  0.25640696282750175        0.0000000000000000     
   7.4715037927103600E-002  0.26517585401761506        0.0000000000000000     
   6.6035486419953937E-002  0.23059772035085380        0.0000000000000000     
   6.6412759444927555E-002  0.23906760763833010        0.0000000000000000     
   6.6722912517192964E-002  0.24762682198814739        0.0000000000000000     
   6.6965945636750152E-002  0.25627536340030543        0.0000000000000000     
   6.7141858803599144E-002  0.26501323187480436        0.0000000000000000     
   5.8865910279895350E-002  0.23048850468260487        0.0000000000000000     
   5.9182350350979011E-002  0.23896406998964353        0.0000000000000000     
   5.9443593935663001E-002  0.24751265591376456        0.0000000000000000     
   5.9649641033947348E-002  0.25613426245496801        0.0000000000000000     
   5.9800491645832038E-002  0.26482888961325374        0.0000000000000000     
   5.1885231209251606E-002  0.23039565821480540        0.0000000000000000     
   5.2153304263014566E-002  0.23887007548241046        0.0000000000000000     
   5.2376946155027346E-002  0.24739940940797175        0.0000000000000000     
   5.2556156885289924E-002  0.25598365999148931        0.0000000000000000     
   5.2690936453802309E-002  0.26462282723296315        0.0000000000000000     
   8.2520029016345434E-002  0.26531675604168592        0.0000000000000000     
   8.2717563071749642E-002  0.27424738186184366        0.0000000000000000     
   8.2898580925158019E-002  0.28334732130080414        0.0000000000000000     
   8.3063082576570496E-002  0.29261657435856714        0.0000000000000000     
   8.3211068025987114E-002  0.30205514103513276        0.0000000000000000     
   7.4715037927103600E-002  0.26517585401761506        0.0000000000000000     
   7.4885731413869422E-002  0.27404220027484949        0.0000000000000000     
   7.5058078968032307E-002  0.28299962067259432        0.0000000000000000     
   7.5232080589592257E-002  0.29204811521084950        0.0000000000000000     
   7.5407736278549270E-002  0.30118768388961525        0.0000000000000000     
   6.7141858803599144E-002  0.26501323187480436        0.0000000000000000     
   6.7290880652209728E-002  0.27381052209859563        0.0000000000000000     
   6.7453239817051813E-002  0.28263732875863085        0.0000000000000000     
   6.7628936298125358E-002  0.29149365185490989        0.0000000000000000     
   6.7817970095430391E-002  0.30037949138743286        0.0000000000000000     
   5.9800491645832038E-002  0.26482888961325374        0.0000000000000000     
   5.9933010786770581E-002  0.27355234733308215        0.0000000000000000     
   6.0084063472216488E-002  0.28226044555891366        0.0000000000000000     
   6.0253649702169787E-002  0.29095318429074823        0.0000000000000000     
   6.0441769476630443E-002  0.29963056352858575        0.0000000000000000     
   5.2690936453802309E-002  0.26462282723296315        0.0000000000000000     
   5.2812121817551974E-002  0.27326767597830903        0.0000000000000000     
   5.2950549933526388E-002  0.28186897107344278        0.0000000000000000     
   5.3106220801725543E-002  0.29042671251836427        0.0000000000000000     
   5.3279134422149460E-002  0.29894090031307374        0.0000000000000000     
   2.8978390362935938E-002   5.7176167904922484E-002   0.0000000000000000     
   3.0541016823934571E-002   6.2741807881118827E-002   0.0000000000000000     
   3.2044740501603622E-002   6.8485710388556401E-002   0.0000000000000000     
   3.3489561395943085E-002   7.4407875427235218E-002   0.0000000000000000     
   3.4875479506952974E-002   8.0508302997155251E-002   0.0000000000000000     
   2.5006381689750619E-002   5.6660925508626933E-002   0.0000000000000000     
   2.6391820512566146E-002   6.2258677504902507E-002   0.0000000000000000     
   2.7723648280586440E-002   6.8031316983412929E-002   0.0000000000000000     
   2.9001864993811497E-002   7.3978843944158240E-002   0.0000000000000000     
   3.0226470652241325E-002   8.0101258387138413E-002   0.0000000000000000     
   2.1181793657540846E-002   5.6253590270363911E-002   0.0000000000000000     
   2.2377300777930764E-002   6.1865680108422319E-002   0.0000000000000000     
   2.3526534048521123E-002   6.7653204660275038E-002   0.0000000000000000     
   2.4629493469311915E-002   7.3616163925922101E-002   0.0000000000000000     
   2.5686179040303146E-002   7.9754557905363455E-002   0.0000000000000000     
   1.7504626266306618E-002   5.5954162190133432E-002   0.0000000000000000     
   1.8497457620028426E-002   6.1562815691678263E-002   0.0000000000000000     
   1.9453397805407661E-002   6.7351373419142727E-002   0.0000000000000000     
   2.0372446822444327E-002   7.3319835372526759E-002   0.0000000000000000     
   2.1254604671138422E-002   7.9468201551830417E-002   0.0000000000000000     
   1.3974879516047929E-002   5.5762641267935481E-002   0.0000000000000000     
   1.4752291038859127E-002   6.1350084254670367E-002   0.0000000000000000     
   1.5504239551246067E-002   6.7125823260015968E-002   0.0000000000000000     
   1.6230725053208744E-002   7.3089858283972270E-002   0.0000000000000000     
   1.6931747544747168E-002   7.9242189326539259E-002   0.0000000000000000     
   3.4875479506952974E-002   8.0508302997155251E-002   0.0000000000000000     
   3.6209538970139857E-002   8.6777295267768090E-002   0.0000000000000000     
   3.7498783921010331E-002   9.3205154408525254E-002   0.0000000000000000     
   3.8743214359564390E-002   9.9791880419426743E-002   0.0000000000000000     
   3.9942830285802033E-002  0.10653747330047256        0.0000000000000000     
   3.0226470652241325E-002   8.0101258387138413E-002   0.0000000000000000     
   3.1403607939460419E-002   8.6389969466491398E-002   0.0000000000000000     
   3.2539419539053274E-002   9.2836386336355062E-002   0.0000000000000000     
   3.3633905451019901E-002   9.9440508996729488E-002   0.0000000000000000     
   3.4687065675360285E-002  0.10620233744761459        0.0000000000000000     
   2.5686179040303146E-002   7.9754557905363455E-002   0.0000000000000000     
   2.6701347744251640E-002   8.6059164612405370E-002   0.0000000000000000     
   2.7679756563914217E-002   9.2520762060854064E-002   0.0000000000000000     
   2.8621405499290892E-002   9.9139350250709454E-002   0.0000000000000000     
   2.9526294550381658E-002  0.10591492918197164        0.0000000000000000     
   2.1254604671138422E-002   7.9468201551830417E-002   0.0000000000000000     
   2.2102758384513511E-002   8.5784880705510075E-002   0.0000000000000000     
   2.2919794995593164E-002   9.2258281582022178E-002   0.0000000000000000     
   2.3705714504377376E-002   9.8888404181366726E-002   0.0000000000000000     
   2.4460516910866151E-002  0.10567524850354369        0.0000000000000000     
   1.6931747544747168E-002   7.9242189326539259E-002   0.0000000000000000     
   1.7607839860246045E-002   8.5567117745805485E-002   0.0000000000000000     
   1.8259534834090103E-002   9.2048944899859486E-002   0.0000000000000000     
   1.8886832466279344E-002   9.8687670788701221E-002   0.0000000000000000     
   1.9489732756813767E-002  0.10548329541233073        0.0000000000000000     
   3.9942830285802033E-002  0.10653747330047256        0.0000000000000000     
   4.1093261068179295E-002  0.11342971759718956        0.0000000000000000     
   4.2190136075152235E-002  0.12045639785510460        0.0000000000000000     
   4.3233455306720833E-002  0.12761751407421773        0.0000000000000000     
   4.4223218762885118E-002  0.13491306625452887        0.0000000000000000     
   3.4687065675360285E-002  0.10620233744761459        0.0000000000000000     
   3.5695655138038240E-002  0.11311040622893544        0.0000000000000000     
   3.6656428765017589E-002  0.12015324988061696        0.0000000000000000     
   3.7569386556298302E-002  0.12733086840265917        0.0000000000000000     
   3.8434528511880409E-002  0.13464326179506209        0.0000000000000000     
   2.9526294550381658E-002  0.10591492918197164        0.0000000000000000     
   3.0391958723098161E-002  0.11283657948715281        0.0000000000000000     
   3.1215933023352065E-002  0.11989338179876517        0.0000000000000000     
   3.1998217451143368E-002  0.12708533611680878        0.0000000000000000     
   3.2738812006472058E-002  0.13441244244128361        0.0000000000000000     
   2.4460516910866151E-002  0.10567524850354369        0.0000000000000000     
   2.5182171823359061E-002  0.11260823737184170        0.0000000000000000     
   2.5868648850155680E-002  0.11967679360954932        0.0000000000000000     
   2.6519947991256013E-002  0.12688091721666656        0.0000000000000000     
   2.7136069246660063E-002  0.13422060819319342        0.0000000000000000     
   1.9489732756813767E-002  0.10548329541233073        0.0000000000000000     
   2.0066294438820940E-002  0.11242537988300208        0.0000000000000000     
   2.0614576245428440E-002  0.11950348531296934        0.0000000000000000     
   2.1134578176636266E-002  0.12671761170223253        0.0000000000000000     
   2.1626300232444412E-002  0.13406775905079160        0.0000000000000000     
   4.4223218762885118E-002  0.13491306625452887        0.0000000000000000     
   4.5160373077295812E-002  0.14233116024307518        0.0000000000000000     
   4.6045864883603689E-002  0.14985990188689374        0.0000000000000000     
   4.6879694181808748E-002  0.15749929118598455        0.0000000000000000     
   4.7661860971910969E-002  0.16524932814034762        0.0000000000000000     
   3.8434528511880409E-002  0.13464326179506209        0.0000000000000000     
   3.9252839831853875E-002  0.14207864336026671        0.0000000000000000     
   4.0025305716308655E-002  0.14962522640071418        0.0000000000000000     
   4.0751926165244756E-002  0.15728301091640437        0.0000000000000000     
   4.1432701178662185E-002  0.16505199690733738        0.0000000000000000     
   3.2738812006472058E-002  0.13441244244128361        0.0000000000000000     
   3.3438650540467088E-002  0.14186291223566244        0.0000000000000000     
   3.4098666904257377E-002  0.14942495696341801        0.0000000000000000     
   3.4718861097842932E-002  0.15709857662455040        0.0000000000000000     
   3.5299233121223760E-002  0.16488377121905956        0.0000000000000000     
   2.7136069246660063E-002  0.13422060819319342        0.0000000000000000     
   2.7717805203135461E-002  0.14168396686926224        0.0000000000000000     
   2.8265948447449871E-002  0.14925909357500527        0.0000000000000000     
   2.8780498979603272E-002  0.15694598831042259        0.0000000000000000     
   2.9261456799595690E-002  0.16474465107551409        0.0000000000000000     
   2.1626300232444412E-002  0.13406775905079160        0.0000000000000000     
   2.2090303819858999E-002  0.14154180726106619        0.0000000000000000     
   2.2527150345886114E-002  0.14912763623547598        0.0000000000000000     
   2.2936839810525779E-002  0.15682524597402092        0.0000000000000000     
   2.3319372213777972E-002  0.16463463647670107        0.0000000000000000     
   4.7661860971910969E-002  0.16524932814034762        0.0000000000000000     
   4.8390220875204268E-002  0.17309907165688457        0.0000000000000000     
   4.9062629512982542E-002  0.18103758064249709        0.0000000000000000     
   4.9679086885245805E-002  0.18906485509718518        0.0000000000000000     
   5.0239592991994028E-002  0.19718089502094882        0.0000000000000000     
   4.1432701178662185E-002  0.16505199690733738        0.0000000000000000     
   4.2065231354181103E-002  0.17292077760234578        0.0000000000000000     
   4.2647117289421686E-002  0.18087794623026227        0.0000000000000000     
   4.3178358984383935E-002  0.18892350279108674        0.0000000000000000     
   4.3658956439067829E-002  0.19705744728481928        0.0000000000000000     
   3.5299233121223760E-002  0.16488377121905956        0.0000000000000000     
   3.5837369691686501E-002  0.17276878756505124        0.0000000000000000     
   3.6330857526517796E-002  0.18074187248063120        0.0000000000000000     
   3.6779696625717659E-002  0.18880302596579948        0.0000000000000000     
   3.7183886989286076E-002  0.19695224802055608        0.0000000000000000     
   2.9261456799595690E-002  0.16474465107551409        0.0000000000000000     
   2.9706635887720441E-002  0.17264310154500090        0.0000000000000000     
   3.0113850224270867E-002  0.18062935939360403        0.0000000000000000     
   3.0483099809246971E-002  0.18870342462132345        0.0000000000000000     
   3.0814384642648750E-002  0.19686529722815915        0.0000000000000000     
   2.3319372213777972E-002  0.16463463647670107        0.0000000000000000     
   2.3673029942282941E-002  0.17254371954219477        0.0000000000000000     
   2.3996095382680910E-002  0.18054040696918064        0.0000000000000000     
   2.4288568534971890E-002  0.18862469875765858        0.0000000000000000     
   2.4550449399155870E-002  0.19679659490762863        0.0000000000000000     
   5.0239592991994028E-002  0.19718089502094882        0.0000000000000000     
   5.0741843236065669E-002  0.20537713471429092        0.0000000000000000     
   5.1183533020299141E-002  0.21364500847771437        0.0000000000000000     
   5.1564662344694451E-002  0.22198451631121924        0.0000000000000000     
   5.1885231209251606E-002  0.23039565821480540        0.0000000000000000     
   4.3658956439067829E-002  0.19705744728481928        0.0000000000000000     
   4.4087928430416271E-002  0.20526964209195975        0.0000000000000000     
   4.4464293735372092E-002  0.21354994959300802        0.0000000000000000     
   4.4788052353935306E-002  0.22189836978796412        0.0000000000000000     
   4.5059204286105908E-002  0.23031490267682808        0.0000000000000000     
   3.7183886989286076E-002  0.19695224802055608        0.0000000000000000     
   3.7543392586054075E-002  0.20517779726131216        0.0000000000000000     
   3.7858177384852636E-002  0.21346793230447914        0.0000000000000000     
   3.8128241385681792E-002  0.22182265315005681        0.0000000000000000     
   3.8353584588541524E-002  0.23024195979804535        0.0000000000000000     
   3.0814384642648750E-002  0.19686529722815915        0.0000000000000000     
   3.1108235702979072E-002  0.20510160022234822        0.0000000000000000     
   3.1365183968740787E-002  0.21339895661212760        0.0000000000000000     
   3.1585229439933894E-002  0.22175736639749732        0.0000000000000000     
   3.1768372116558412E-002  0.23017682957845734        0.0000000000000000     
   2.4550449399155870E-002  0.19679659490762863        0.0000000000000000     
   2.4782457781191276E-002  0.20504105097506789        0.0000000000000000     
   2.4985313487036531E-002  0.21334302251595352        0.0000000000000000     
   2.5159016516691637E-002  0.22170250953028553        0.0000000000000000     
   2.5303566870156585E-002  0.23011951201806394        0.0000000000000000     
   5.1885231209251606E-002  0.23039565821480540        0.0000000000000000     
   5.2153304263014566E-002  0.23887007548241046        0.0000000000000000     
   5.2376946155027346E-002  0.24739940940797175        0.0000000000000000     
   5.2556156885289924E-002  0.25598365999148931        0.0000000000000000     
   5.2690936453802309E-002  0.26462282723296315        0.0000000000000000     
   4.5059204286105908E-002  0.23031490267682808        0.0000000000000000     
   4.5286527288479504E-002  0.23878418344085034        0.0000000000000000     
   4.5478799117651646E-002  0.24729084726128156        0.0000000000000000     
   4.5636019773622354E-002  0.25583489413812172        0.0000000000000000     
   4.5758189256391621E-002  0.26441632407137083        0.0000000000000000     
   3.8353584588541524E-002  0.23024195979804535        0.0000000000000000     
   3.8542925534819042E-002  0.23870495318918264        0.0000000000000000     
   3.8704982765901577E-002  0.24719073426420662        0.0000000000000000     
   3.8839756281789102E-002  0.25569930302311739        0.0000000000000000     
   3.8947246082481658E-002  0.26423065946591484        0.0000000000000000     
   3.1768372116558412E-002  0.23017682957845734        0.0000000000000000     
   3.1922499002033200E-002  0.23863238472740728        0.0000000000000000     
   3.2055497099777119E-002  0.24709907041674695        0.0000000000000000     
   3.2167366409790191E-002  0.25557688664647632        0.0000000000000000     
   3.2258106932072407E-002  0.26406583341659529        0.0000000000000000     
   2.5303566870156585E-002  0.23011951201806394        0.0000000000000000     
   2.5425247690121951E-002  0.23856647805552439        0.0000000000000000     
   2.5530342119278286E-002  0.24701585571890253        0.0000000000000000     
   2.5618850157625595E-002  0.25546764500819852        0.0000000000000000     
   2.5690771805163881E-002  0.26392184592341217        0.0000000000000000     
   5.2690936453802309E-002  0.26462282723296315        0.0000000000000000     
   5.2812121817551974E-002  0.27326767597830903        0.0000000000000000     
   5.2950549933526388E-002  0.28186897107344278        0.0000000000000000     
   5.3106220801725543E-002  0.29042671251836427        0.0000000000000000     
   5.3279134422149460E-002  0.29894090031307374        0.0000000000000000     
   4.5758189256391621E-002  0.26441632407137083        0.0000000000000000     
   4.5869459372156078E-002  0.27298521499199080        0.0000000000000000     
   4.5993981927112362E-002  0.28149164483094374        0.0000000000000000     
   4.6131756921260439E-002  0.28993561358822950        0.0000000000000000     
   4.6282784354600350E-002  0.29831712126384818        0.0000000000000000     
   3.8947246082481658E-002  0.26423065946591484        0.0000000000000000     
   3.9046269078185099E-002  0.27273367133184206        0.0000000000000000     
   3.9155642179105297E-002  0.28115720636014208        0.0000000000000000     
   3.9275365385242282E-002  0.28950126455081471        0.0000000000000000     
   3.9405438696596032E-002  0.29776584590386013        0.0000000000000000     
   3.2258106932072407E-002  0.26406583341659529        0.0000000000000000     
   3.2342550935639008E-002  0.27251304499786283        0.0000000000000000     
   3.2435530689505228E-002  0.28086565566103777        0.0000000000000000     
   3.2537046193671065E-002  0.28912366540612006        0.0000000000000000     
   3.2647097448136521E-002  0.29728707423310974        0.0000000000000000     
   2.5690771805163881E-002  0.26392184592341217        0.0000000000000000     
   2.5758304944517828E-002  0.27232333599005315        0.0000000000000000     
   2.5833647458312133E-002  0.28061699273363089        0.0000000000000000     
   2.5916799346546792E-002  0.28880281615414544        0.0000000000000000     
   2.6007760609221810E-002  0.29688080625159685        0.0000000000000000     
   1.3974879516047929E-002   5.5762641267935481E-002   0.0000000000000000     
   1.4752291038859127E-002   6.1350084254670367E-002   0.0000000000000000     
   1.5504239551246067E-002   6.7125823260015968E-002   0.0000000000000000     
   1.6230725053208744E-002   7.3089858283972270E-002   0.0000000000000000     
   1.6931747544747168E-002   7.9242189326539259E-002   0.0000000000000000     
   1.0512040079982819E-002   5.5633917221104459E-002   0.0000000000000000     
   1.1074049814109930E-002   6.1199264204200431E-002   0.0000000000000000     
   1.1621575609957054E-002   6.6960622729422437E-002   0.0000000000000000     
   1.2154617467524191E-002   7.2917992796770470E-002   0.0000000000000000     
   1.2673175386811338E-002   7.9071374406244538E-002   0.0000000000000000     
   7.0355946313293118E-003   5.5522879766974773E-002   0.0000000000000000     
   7.3949827254678850E-003   6.1082133947070273E-002   0.0000000000000000     
   7.7479223054613428E-003   6.6839840373889764E-002   0.0000000000000000     
   8.0944133713096843E-003   7.2795999047433266E-002   0.0000000000000000     
   8.4344559230129131E-003   7.8950609967700786E-002   0.0000000000000000     
   3.5455431700874090E-003   5.5429528905546421E-002   0.0000000000000000     
   3.7150897729329932E-003   6.0998693483279895E-002   0.0000000000000000     
   3.8832796377589341E-003   6.6763476193417964E-002   0.0000000000000000     
   4.0501127645652330E-003   7.2723877035960671E-002   0.0000000000000000     
   4.2155891533518872E-003   7.8879896010907974E-002   0.0000000000000000     
   4.1885696257109445E-005   5.5353864636819398E-002   0.0000000000000000     
   3.4370956505254922E-005   6.0948942812829275E-002   0.0000000000000000     
   2.7647606849828636E-005   6.6731530188007024E-002   0.0000000000000000     
   2.1715647290830586E-005   7.2701626762352659E-002   0.0000000000000000     
   1.6575077828262074E-005   7.8859232535866158E-002   0.0000000000000000     
   1.6931747544747168E-002   7.9242189326539259E-002   0.0000000000000000     
   1.7607839860246045E-002   8.5567117745805485E-002   0.0000000000000000     
   1.8259534834090103E-002   9.2048944899859486E-002   0.0000000000000000     
   1.8886832466279344E-002   9.8687670788701221E-002   0.0000000000000000     
   1.9489732756813767E-002  0.10548329541233073        0.0000000000000000     
   1.2673175386811338E-002   7.9071374406244538E-002   0.0000000000000000     
   1.3175808512630295E-002   8.5401458263786839E-002   0.0000000000000000     
   1.3661075989792843E-002   9.1888935075339601E-002   0.0000000000000000     
   1.4128977818298988E-002   9.8533804840902767E-002   0.0000000000000000     
   1.4579513998148729E-002  0.10533606756047641        0.0000000000000000     
   8.4344559230129131E-003   7.8950609967700786E-002   0.0000000000000000     
   8.7658806828473153E-003   8.5283484789949390E-002   0.0000000000000000     
   9.0865183730891707E-003   9.1774435169436189E-002   0.0000000000000000     
   9.3963689937384895E-003   9.8423461106161167E-002   0.0000000000000000     
   9.6954325447952648E-003  0.10523056260012437        0.0000000000000000     
   4.2155891533518872E-003   7.8879896010907974E-002   0.0000000000000000     
   4.3780563708971047E-003   8.5213197324293111E-002   0.0000000000000000     
   4.5358619839790922E-003   9.1705445182149278E-002   0.0000000000000000     
   4.6890059925978490E-003   9.8356639584476407E-002   0.0000000000000000     
   4.8374883967533732E-003  0.10516678053127458        0.0000000000000000     
   1.6575077828262074E-005   7.8859232535866158E-002   0.0000000000000000     
   1.2335576779669202E-005   8.5190595866818042E-002   0.0000000000000000     
   9.1068224626041430E-006   9.1681965113478814E-002   0.0000000000000000     
   6.8888148770676573E-006   9.8333340275848488E-002   0.0000000000000000     
   5.6815540230566002E-006  0.10514472135392706        0.0000000000000000     
   1.9489732756813767E-002  0.10548329541233073        0.0000000000000000     
   2.0066294438820940E-002  0.11242537988300208        0.0000000000000000     
   2.0614576245428440E-002  0.11950348531296934        0.0000000000000000     
   2.1134578176636266E-002  0.12671761170223253        0.0000000000000000     
   2.1626300232444412E-002  0.13406775905079160        0.0000000000000000     
   1.4579513998148729E-002  0.10533606756047641        0.0000000000000000     
   1.5010772823865820E-002  0.11228522466535279        0.0000000000000000     
   1.5420842589974015E-002  0.11937077758682414        0.0000000000000000     
   1.5809723296473312E-002  0.12659272632489049        0.0000000000000000     
   1.6177414943363711E-002  0.13395107087955185        0.0000000000000000     
   9.6954325447952648E-003  0.10523056260012437        0.0000000000000000     
   9.9820532328757233E-003  0.11218498936361258        0.0000000000000000     
   1.0254575264596090E-002  0.11927599110891261        0.0000000000000000     
   1.0512998639956360E-002  0.12650356783602443        0.0000000000000000     
   1.0757323358956537E-002  0.13386771954494811        0.0000000000000000     
   4.8374883967533732E-003  0.10516678053127458        0.0000000000000000     
   4.9801356658506525E-003  0.11212467397778146        0.0000000000000000     
   5.1157742692946647E-003  0.11921912587923468        0.0000000000000000     
   5.2444042070854124E-003  0.12645013623563428        0.0000000000000000     
   5.3660254792228957E-003  0.13381770504698029        0.0000000000000000     
   5.6815540230566002E-006  0.10514472135392706        0.0000000000000000     
   5.0201227906024500E-006  0.11210427850785942        0.0000000000000000     
   4.4396040697400460E-006  0.11920018189779043        0.0000000000000000     
   3.9399978604674096E-006  0.12643243152372013        0.0000000000000000     
   3.5213041627828873E-006  0.13380102738564847        0.0000000000000000     
   2.1626300232444412E-002  0.13406775905079160        0.0000000000000000     
   2.2090303819858999E-002  0.14154180726106619        0.0000000000000000     
   2.2527150345886114E-002  0.14912763623547598        0.0000000000000000     
   2.2936839810525779E-002  0.15682524597402092        0.0000000000000000     
   2.3319372213777972E-002  0.16463463647670107        0.0000000000000000     
   1.6177414943363711E-002  0.13395107087955185        0.0000000000000000     
   1.6524233700596375E-002  0.14143347739743667        0.0000000000000000     
   1.6850495738122466E-002  0.14902761202517334        0.0000000000000000     
   1.7156201055941973E-002  0.15673347476276192        0.0000000000000000     
   1.7441349654054913E-002  0.16455106561020238        0.0000000000000000     
   1.0757323358956537E-002  0.13386771954494811        0.0000000000000000     
   1.0987682155306277E-002  0.14135602126473604        0.0000000000000000     
   1.1204207762715235E-002  0.14895604802444068        0.0000000000000000     
   1.1406900181183411E-002  0.15666779982406195        0.0000000000000000     
   1.1595759410710806E-002  0.16449127666359997        0.0000000000000000     
   5.3660254792228957E-003  0.13381770504698029        0.0000000000000000     
   5.4806491839887060E-003  0.14130943886296427        0.0000000000000000     
   5.5882864196644374E-003  0.14891294423327786        0.0000000000000000     
   5.6889371862500872E-003  0.15662822115792110        0.0000000000000000     
   5.7826014837456582E-003  0.16445526963689391        0.0000000000000000     
   3.5213041627828873E-006  0.13380102738564847        0.0000000000000000     
   3.1347866436578879E-006  0.14129373019212146        0.0000000000000000     
   2.7317089700625193E-006  0.14889830065168505        0.0000000000000000     
   2.3120711419979739E-006  0.15661473876433929        0.0000000000000000     
   1.8758731594619750E-006  0.16444304453008415        0.0000000000000000     
   2.3319372213777972E-002  0.16463463647670107        0.0000000000000000     
   2.3673029942282941E-002  0.17254371954219477        0.0000000000000000     
   2.3996095382680910E-002  0.18054040696918064        0.0000000000000000     
   2.4288568534971890E-002  0.18862469875765858        0.0000000000000000     
   2.4550449399155870E-002  0.19679659490762863        0.0000000000000000     
   1.7441349654054913E-002  0.16455106561020238        0.0000000000000000     
   1.7704778052880215E-002  0.17246824407031783        0.0000000000000000     
   1.7945322772836819E-002  0.18047286964593140        0.0000000000000000     
   1.8162983813924730E-002  0.18856494233704307        0.0000000000000000     
   1.8357761176143943E-002  0.19674446214365293        0.0000000000000000     
   1.1595759410710806E-002  0.16449127666359997        0.0000000000000000     
   1.1770106417018478E-002  0.17241427764305481        0.0000000000000000     
   1.1929262165827483E-002  0.18042460186242648        0.0000000000000000     
   1.2073226657137823E-002  0.18852224932171510        0.0000000000000000     
   1.2201999890949495E-002  0.19670722002092059        0.0000000000000000     
   5.7826014837456582E-003  0.16445526963689391        0.0000000000000000     
   5.8690150346977360E-003  0.17238182026040569        0.0000000000000000     
   5.9479135616529056E-003  0.18039560361866597        0.0000000000000000     
   6.0192970646111696E-003  0.18849661971167458        0.0000000000000000     
   6.0831655435725253E-003  0.19668486853943160        0.0000000000000000     
   1.8758731594619750E-006  0.16444304453008415        0.0000000000000000     
   1.5039059179826949E-006  0.17237087192237063        0.0000000000000000     
   1.2769603130828849E-006  0.18038587491464977        0.0000000000000000     
   1.1950363447674780E-006  0.18848805350692158        0.0000000000000000     
   1.2581340130320834E-006  0.19667740769918601        0.0000000000000000     
   2.4550449399155870E-002  0.19679659490762863        0.0000000000000000     
   2.4782457781191276E-002  0.20504105097506789        0.0000000000000000     
   2.4985313487036531E-002  0.21334302251595352        0.0000000000000000     
   2.5159016516691637E-002  0.22170250953028553        0.0000000000000000     
   2.5303566870156585E-002  0.23011951201806394        0.0000000000000000     
   1.8357761176143943E-002  0.19674446214365293        0.0000000000000000     
   1.8530323473423246E-002  0.20499491447488896        0.0000000000000000     
   1.8681339319691424E-002  0.21329978473987934        0.0000000000000000     
   1.8810808714948463E-002  0.22165907293862414        0.0000000000000000     
   1.8918731659194384E-002  0.23007277907112322        0.0000000000000000     
   1.2201999890949495E-002  0.19670722002092059        0.0000000000000000     
   1.2316097432407540E-002  0.20496195567722930        0.0000000000000000     
   1.2416034846656994E-002  0.21326889800782767        0.0000000000000000     
   1.2501812133697859E-002  0.22162804701271566        0.0000000000000000     
   1.2573429293530135E-002  0.23003940269189332        0.0000000000000000     
   6.0831655435725253E-003  0.19668486853943160        0.0000000000000000     
   6.1397796581441587E-003  0.20494217458208891        0.0000000000000000     
   6.1894000679332548E-003  0.21325036231979846        0.0000000000000000     
   6.2320267729398136E-003  0.22160943175256018        0.0000000000000000     
   6.2676597731638351E-003  0.23001938288037413        0.0000000000000000     
   1.2581340130320834E-006  0.19667740769918601        0.0000000000000000     
   1.3701506331028832E-006  0.20493557118946781        0.0000000000000000     
   1.4349835202020480E-006  0.21324417767579174        0.0000000000000000     
   1.4526326743306351E-006  0.22160322715815767        0.0000000000000000     
   1.4230980954882920E-006  0.23001271963656572        0.0000000000000000     
   2.5303566870156585E-002  0.23011951201806394        0.0000000000000000     
   2.5425247690121951E-002  0.23856647805552439        0.0000000000000000     
   2.5530342119278286E-002  0.24701585571890253        0.0000000000000000     
   2.5618850157625595E-002  0.25546764500819852        0.0000000000000000     
   2.5690771805163881E-002  0.26392184592341217        0.0000000000000000     
   1.8918731659194384E-002  0.23007277907112322        0.0000000000000000     
   1.9009508088417598E-002  0.23851172776483354        0.0000000000000000     
   1.9087537938606527E-002  0.24694674364721186        0.0000000000000000     
   1.9152821209761171E-002  0.25537782671825826        0.0000000000000000     
   1.9205357901881534E-002  0.26380497697797273        0.0000000000000000     
   1.2573429293530135E-002  0.23003940269189332        0.0000000000000000     
   1.2633616686252411E-002  0.23847262844663458        0.0000000000000000     
   1.2685104671963290E-002  0.24689738767821348        0.0000000000000000     
   1.2727893250662767E-002  0.25531368038662999        0.0000000000000000     
   1.2761982422350845E-002  0.26372150657188426        0.0000000000000000     
   6.2676597731638351E-003  0.23001938288037413        0.0000000000000000     
   6.2975734836263975E-003  0.23844918010092747        0.0000000000000000     
   6.3230423193485798E-003  0.24686778781190735        0.0000000000000000     
   6.3440662803303819E-003  0.25527520601331383        0.0000000000000000     
   6.3606453665718049E-003  0.26367143470514687        0.0000000000000000     
   1.4230980954882920E-006  0.23001271963656572        0.0000000000000000     
   1.3784805395502218E-006  0.23844138272771215        0.0000000000000000     
   1.3508807623928204E-006  0.24685794404829348        0.0000000000000000     
   1.3402987640149763E-006  0.25526240359830960        0.0000000000000000     
   1.3467345444172045E-006  0.26365476137776056        0.0000000000000000     
   2.5690771805163881E-002  0.26392184592341217        0.0000000000000000     
   2.5758304944517828E-002  0.27232333599005315        0.0000000000000000     
   2.5833647458312133E-002  0.28061699273363089        0.0000000000000000     
   2.5916799346546792E-002  0.28880281615414544        0.0000000000000000     
   2.6007760609221810E-002  0.29688080625159685        0.0000000000000000     
   1.9205357901881534E-002  0.26380497697797273        0.0000000000000000     
   1.9255113239547164E-002  0.27217086938538199        0.0000000000000000     
   1.9312052447337597E-002  0.28041817889951298        0.0000000000000000     
   1.9376175525252844E-002  0.28854690552036555        0.0000000000000000     
   1.9447482473292893E-002  0.29655704924793985        0.0000000000000000     
   1.2761982422350845E-002  0.26372150657188426        0.0000000000000000     
   1.2794557955452623E-002  0.27206197026081863        0.0000000000000000     
   1.2832805618393199E-002  0.28027617548027550        0.0000000000000000     
   1.2876725411172577E-002  0.28836412223025504        0.0000000000000000     
   1.2926317333790759E-002  0.29632581051075707        0.0000000000000000     
   6.3606453665718049E-003  0.26367143470514687        0.0000000000000000     
   6.3766390922342063E-003  0.27199663861636297        0.0000000000000000     
   6.3959069714789405E-003  0.28019098247591862        0.0000000000000000     
   6.4184490043060110E-003  0.28825446628381385        0.0000000000000000     
   6.4442651907154151E-003  0.29618709004004845        0.0000000000000000     
   1.3467345444172045E-006  0.26365476137776056        0.0000000000000000     
   1.3566498919140389E-006  0.27197487445201513        0.0000000000000000     
   1.3565065948193625E-006  0.28016259988644227        0.0000000000000000     
   1.3463046531338803E-006  0.28821793768104192        0.0000000000000000     
   1.3260440668572127E-006  0.29614088783581405        0.0000000000000000     
   4.1885696257109445E-005   5.5353864636819398E-002   0.0000000000000000     
   3.4370956505254922E-005   6.0948942812829275E-002   0.0000000000000000     
   2.7647606849828636E-005   6.6731530188007024E-002   0.0000000000000000     
   2.1715647290830586E-005   7.2701626762352659E-002   0.0000000000000000     
   1.6575077828262074E-005   7.8859232535866158E-002   0.0000000000000000     
  -3.4702245409217796E-003   5.5329637604878024E-002   0.0000000000000000     
  -3.6534505585906437E-003   6.0950595588177427E-002   0.0000000000000000     
  -3.8338374453300472E-003   6.6750625659176596E-002   0.0000000000000000     
  -4.0113852011399867E-003   7.2729727817875525E-002   0.0000000000000000     
  -4.1860938260204631E-003   7.8887902064274193E-002   0.0000000000000000     
  -6.9856342922094503E-003   5.5390598453806582E-002   0.0000000000000000     
  -7.3546516071300166E-003   6.1021365461783363E-002   0.0000000000000000     
  -7.7160391768447602E-003   6.6827385908446349E-002   0.0000000000000000     
  -8.0697970013536846E-003   7.2808659793795583E-002   0.0000000000000000     
  -8.4159250806567880E-003   7.8965187117831015E-002   0.0000000000000000     
  -1.0504343557605903E-002   5.5536747183605108E-002   0.0000000000000000     
  -1.1069232189112859E-002   6.1161252433647041E-002   0.0000000000000000     
  -1.1618957587694316E-002   6.6961810935816282E-002   0.0000000000000000     
  -1.2153519753350264E-002   7.2938422690112789E-002   0.0000000000000000     
  -1.2672918686080711E-002   7.9091087696536611E-002   0.0000000000000000     
  -1.4026352337111138E-002   5.5768083794273574E-002   0.0000000000000000     
  -1.4797192304539179E-002   6.1370256503768497E-002   0.0000000000000000     
  -1.5542592677878709E-002   6.7153900741286368E-002   0.0000000000000000     
  -1.6262553457129725E-002   7.3119016506827200E-002   0.0000000000000000     
  -1.6957074642292229E-002   7.9265603800390994E-002   0.0000000000000000     
   1.6575077828262074E-005   7.8859232535866158E-002   0.0000000000000000     
   1.2335576779669202E-005   8.5190595866818042E-002   0.0000000000000000     
   9.1068224626041430E-006   9.1681965113478814E-002   0.0000000000000000     
   6.8888148770676573E-006   9.8333340275848488E-002   0.0000000000000000     
   5.6815540230566002E-006  0.10514472135392706        0.0000000000000000     
  -4.1860938260204631E-003   7.8887902064274193E-002   0.0000000000000000     
  -4.3561412610209679E-003   8.5216023504783092E-002   0.0000000000000000     
  -4.5197054471909871E-003   9.1704967245812688E-002   0.0000000000000000     
  -4.6767863845305251E-003   9.8354733287363022E-002   0.0000000000000000     
  -4.8273840730395767E-003  0.10516532162943404        0.0000000000000000     
  -8.4159250806567880E-003   7.8965187117831015E-002   0.0000000000000000     
  -8.7522337040207843E-003   8.5289823325447225E-002   0.0000000000000000     
  -9.0765331607123891E-003   9.1775423861538738E-002   0.0000000000000000     
  -9.3888234507315989E-003   9.8421988726105608E-002   0.0000000000000000     
  -9.6891045740784120E-003  0.10522951791914775        0.0000000000000000     
  -1.2672918686080711E-002   7.9091087696536611E-002   0.0000000000000000     
  -1.3175941752219780E-002   8.5411995328810428E-002   0.0000000000000000     
  -1.3661376318101591E-002   9.1893334960656978E-002   0.0000000000000000     
  -1.4129222383726150E-002   9.8535106592076219E-002   0.0000000000000000     
  -1.4579479949093454E-002  0.10533731022306819        0.0000000000000000     
  -1.6957074642292229E-002   7.9265603800390994E-002   0.0000000000000000     
  -1.7627265405617949E-002   8.5582539514872727E-002   0.0000000000000000     
  -1.8274234919358600E-002   9.2058700543167366E-002   0.0000000000000000     
  -1.8897983183514180E-002   9.8694086885274909E-002   0.0000000000000000     
  -1.9498510198084698E-002  0.10548869854119536        0.0000000000000000     
   5.6815540230566002E-006  0.10514472135392706        0.0000000000000000     
   5.0201227906024500E-006  0.11210427850785942        0.0000000000000000     
   4.4396040697400460E-006  0.11920018189779043        0.0000000000000000     
   3.9399978604674096E-006  0.12643243152372013        0.0000000000000000     
   3.5213041627828873E-006  0.13380102738564847        0.0000000000000000     
  -4.8273840730395767E-003  0.10516532162943404        0.0000000000000000     
  -4.9711652616028492E-003  0.11212436476460215        0.0000000000000000     
  -5.1077966991050503E-003  0.11921949518544372        0.0000000000000000     
  -5.2372783855461746E-003  0.12645071289195875        0.0000000000000000     
  -5.3596103209262273E-003  0.13381801788414721        0.0000000000000000     
  -9.6891045740784120E-003  0.10522951791914775        0.0000000000000000     
  -9.9762923526281397E-003  0.11218549455876534        0.0000000000000000     
  -1.0249302608256069E-002  0.11927740176305843        0.0000000000000000     
  -1.0508135340962212E-002  0.12650523953202705        0.0000000000000000     
  -1.0752790550746559E-002  0.13386900786567121        0.0000000000000000     
  -1.4579479949093454E-002  0.10533731022306819        0.0000000000000000     
  -1.5010361150285258E-002  0.11228766789034896        0.0000000000000000     
  -1.5420078123383323E-002  0.11937390163063459        0.0000000000000000     
  -1.5808630868387640E-002  0.12659601144392504        0.0000000000000000     
  -1.6176019385298213E-002  0.13395399733022040        0.0000000000000000     
  -1.9498510198084698E-002  0.10548869854119536        0.0000000000000000     
  -2.0073371654574210E-002  0.11243088475935303        0.0000000000000000     
  -2.0620123244486796E-002  0.11950899478817216        0.0000000000000000     
  -2.1138764967822458E-002  0.12672302862765275        0.0000000000000000     
  -2.1629296824581187E-002  0.13407298627779479        0.0000000000000000     
   3.5213041627828873E-006  0.13380102738564847        0.0000000000000000     
   3.1347866436578879E-006  0.14129373019212146        0.0000000000000000     
   2.7317089700625193E-006  0.14889830065168505        0.0000000000000000     
   2.3120711419979739E-006  0.15661473876433929        0.0000000000000000     
   1.8758731594619750E-006  0.16444304453008415        0.0000000000000000     
  -5.3596103209262273E-003  0.13381801788414721        0.0000000000000000     
  -5.4748913947177767E-003  0.14130933256809788        0.0000000000000000     
  -5.5832204963933915E-003  0.14891257934989943        0.0000000000000000     
  -5.6845976259530780E-003  0.15662775822955194        0.0000000000000000     
  -5.7790227833968344E-003  0.16445486920705535        0.0000000000000000     
  -1.0752790550746559E-002  0.13386900786567121        0.0000000000000000     
  -1.0983459718084506E-002  0.14135668330678391        0.0000000000000000     
  -1.1200334323451442E-002  0.14895624239815833        0.0000000000000000     
  -1.1403414366847371E-002  0.15666768513979440        0.0000000000000000     
  -1.1592699848272289E-002  0.16449101153169218        0.0000000000000000     
  -1.6176019385298213E-002  0.13395399733022040        0.0000000000000000     
  -1.6522570183456535E-002  0.14143578240817961        0.0000000000000000     
  -1.6848609772204086E-002  0.14902928979646174        0.0000000000000000     
  -1.7154138151540876E-002  0.15673451949506673        0.0000000000000000     
  -1.7439155321466900E-002  0.16455147150399463        0.0000000000000000     
  -2.1629296824581187E-002  0.13407298627779479        0.0000000000000000     
  -2.2092222790833862E-002  0.14154662987228489        0.0000000000000000     
  -2.2528046842651330E-002  0.14913172154480958        0.0000000000000000     
  -2.2936768980033599E-002  0.15682826129536884        0.0000000000000000     
  -2.3318389202980665E-002  0.16463624912396271        0.0000000000000000     
   1.8758731594619750E-006  0.16444304453008415        0.0000000000000000     
   1.5039059179826949E-006  0.17237087192237063        0.0000000000000000     
   1.2769603130828849E-006  0.18038587491464977        0.0000000000000000     
   1.1950363447674780E-006  0.18848805350692158        0.0000000000000000     
   1.2581340130320834E-006  0.19667740769918601        0.0000000000000000     
  -5.7790227833968344E-003  0.16445486920705535        0.0000000000000000     
  -5.8660856903743099E-003  0.17238154802732533        0.0000000000000000     
  -5.9453760685351537E-003  0.18039543043527759        0.0000000000000000     
  -6.0168939178793686E-003  0.18849651643091211        0.0000000000000000     
  -6.0806392384069510E-003  0.19668480601422889        0.0000000000000000     
  -1.1592699848272289E-002  0.16449101153169218        0.0000000000000000     
  -1.1767412475232665E-002  0.17241396397364570        0.0000000000000000     
  -1.1926773955234978E-002  0.18042428486544909        0.0000000000000000     
  -1.2070784288279219E-002  0.18852197420710229        0.0000000000000000     
  -1.2199443474365393E-002  0.19670703199860540        0.0000000000000000     
  -1.7439155321466900E-002  0.16455147150399463        0.0000000000000000     
  -1.7702476448657089E-002  0.17246811976133172        0.0000000000000000     
  -1.7942916699786385E-002  0.18047243820516420        0.0000000000000000     
  -1.8160476074854794E-002  0.18856442683549213        0.0000000000000000     
  -1.8355154573862300E-002  0.19674408565231544        0.0000000000000000     
  -2.3318389202980665E-002  0.16463624912396271        0.0000000000000000     
  -2.3671277610647586E-002  0.17254401539038336        0.0000000000000000     
  -2.3993804302189385E-002  0.18053989045442301        0.0000000000000000     
  -2.4285969277606081E-002  0.18862387431608155        0.0000000000000000     
  -2.4547772536897664E-002  0.19679596697535906        0.0000000000000000     
   1.2581340130320834E-006  0.19667740769918601        0.0000000000000000     
   1.3701506331028832E-006  0.20493557118946781        0.0000000000000000     
   1.4349835202020480E-006  0.21324417767579174        0.0000000000000000     
   1.4526326743306351E-006  0.22160322715815767        0.0000000000000000     
   1.4230980954882920E-006  0.23001271963656572        0.0000000000000000     
  -6.0806392384069510E-003  0.19668480601422889        0.0000000000000000     
  -6.1370450834259899E-003  0.20494213762597682        0.0000000000000000     
  -6.1865445062445701E-003  0.21325034970690476        0.0000000000000000     
  -6.2291375068626890E-003  0.22160944225701262        0.0000000000000000     
  -6.2648240852803492E-003  0.23001941527630049        0.0000000000000000     
  -1.2199443474365393E-002  0.19670703199860540        0.0000000000000000     
  -1.2313380037333482E-002  0.20496186601822675        0.0000000000000000     
  -1.2413222501023469E-002  0.21326888404423483        0.0000000000000000     
  -1.2498970865435348E-002  0.22162808607662959        0.0000000000000000     
  -1.2570625130569123E-002  0.23003947211541104        0.0000000000000000     
  -1.8355154573862300E-002  0.19674408565231544        0.0000000000000000     
  -1.8527634711089376E-002  0.20499475636621758        0.0000000000000000     
  -1.8678599000816493E-002  0.21329978068778194        0.0000000000000000     
  -1.8808047443043641E-002  0.22165915861700849        0.0000000000000000     
  -1.8915980037770831E-002  0.23007289015389726        0.0000000000000000     
  -2.4547772536897664E-002  0.19679596697535906        0.0000000000000000     
  -2.4779809104693674E-002  0.20504080866994934        0.0000000000000000     
  -2.4982674005623651E-002  0.21334303963754608        0.0000000000000000     
  -2.5156367239687581E-002  0.22170265987814938        0.0000000000000000     
  -2.5300888806885472E-002  0.23011966939175915        0.0000000000000000     
   1.4230980954882920E-006  0.23001271963656572        0.0000000000000000     
   1.3784805395502218E-006  0.23844138272771215        0.0000000000000000     
   1.3508807623928204E-006  0.24685794404829348        0.0000000000000000     
   1.3402987640149763E-006  0.25526240359830960        0.0000000000000000     
   1.3467345444172045E-006  0.26365476137776056        0.0000000000000000     
  -6.2648240852803492E-003  0.23001941527630049        0.0000000000000000     
  -6.2948196618572904E-003  0.23844922952026404        0.0000000000000000     
  -6.3203396569532517E-003  0.24686784574439877        0.0000000000000000     
  -6.3413840705682321E-003  0.25527526394870481        0.0000000000000000     
  -6.3579529027022342E-003  0.26367148413318209        0.0000000000000000     
  -1.2570625130569123E-002  0.23003947211541104        0.0000000000000000     
  -1.2630872282413287E-002  0.23847271367185824        0.0000000000000000     
  -1.2682399306956331E-002  0.24689748225725017        0.0000000000000000     
  -1.2725206204198258E-002  0.25531377787158682        0.0000000000000000     
  -1.2759292974139063E-002  0.26372160051486832        0.0000000000000000     
  -1.8915980037770831E-002  0.23007289015389726        0.0000000000000000     
  -1.9006779381128436E-002  0.23851183518249475        0.0000000000000000     
  -1.9084828069246846E-002  0.24694685358684765        0.0000000000000000     
  -1.9150126102126061E-002  0.25537794536695585        0.0000000000000000     
  -1.9202673479766074E-002  0.26380511052281930        0.0000000000000000     
  -2.5300888806885472E-002  0.23011966939175915        0.0000000000000000     
  -2.5422540958002744E-002  0.23856659405217365        0.0000000000000000     
  -2.5527625943824798E-002  0.24701595973319113        0.0000000000000000     
  -2.5616143764351638E-002  0.25546776643481156        0.0000000000000000     
  -2.5688094419583255E-002  0.26392201415703498        0.0000000000000000     
   1.3467345444172045E-006  0.26365476137776056        0.0000000000000000     
   1.3566498919140389E-006  0.27197487445201513        0.0000000000000000     
   1.3565065948193625E-006  0.28016259988644227        0.0000000000000000     
   1.3463046531338803E-006  0.28821793768104192        0.0000000000000000     
   1.3260440668572127E-006  0.29614088783581405        0.0000000000000000     
  -6.3579529027022342E-003  0.26367148413318209        0.0000000000000000     
  -6.3739302716764312E-003  0.27199668212372058        0.0000000000000000     
  -6.3932002958120007E-003  0.28019103374621029        0.0000000000000000     
  -6.4157629751089391E-003  0.28825453900065118        0.0000000000000000     
  -6.4416183095672500E-003  0.29618719788704340        0.0000000000000000     
  -1.2759292974139063E-002  0.26372160051486832        0.0000000000000000     
  -1.2791862572573011E-002  0.27206206598742483        0.0000000000000000     
  -1.2830117955294358E-002  0.28027629008958660        0.0000000000000000     
  -1.2874059122303102E-002  0.28836427282135357        0.0000000000000000     
  -1.2923686073599243E-002  0.29632601418272603        0.0000000000000000     
  -1.9202673479766074E-002  0.26380511052281930        0.0000000000000000     
  -1.9252440252797823E-002  0.27217102604312787        0.0000000000000000     
  -1.9309396471852251E-002  0.28041836891657107        0.0000000000000000     
  -1.9373542136929350E-002  0.28854713914314911        0.0000000000000000     
  -1.9444877248029121E-002  0.29655733672286194        0.0000000000000000     
  -2.5688094419583255E-002  0.26392201415703498        0.0000000000000000     
  -2.5755663312350872E-002  0.27232356229082966        0.0000000000000000     
  -2.5831035845485680E-002  0.28061727022716387        0.0000000000000000     
  -2.5914212018987685E-002  0.28880313796603768        0.0000000000000000     
  -2.6005191832856888E-002  0.29688116550745114        0.0000000000000000     
  -1.4026352337111138E-002   5.5768083794273574E-002   0.0000000000000000     
  -1.4797192304539179E-002   6.1370256503768497E-002   0.0000000000000000     
  -1.5542592677878709E-002   6.7153900741286368E-002   0.0000000000000000     
  -1.6262553457129725E-002   7.3119016506827200E-002   0.0000000000000000     
  -1.6957074642292229E-002   7.9265603800390994E-002   0.0000000000000000     
  -1.7602345317999871E-002   5.6061615360448881E-002   0.0000000000000000     
  -1.8580861483325047E-002   6.1637878878556124E-002   0.0000000000000000     
  -1.9523158522673490E-002   6.7401564402542732E-002   0.0000000000000000     
  -2.0429236436045193E-002   7.3352671932408686E-002   0.0000000000000000     
  -2.1299095223440159E-002   7.9491201468154013E-002   0.0000000000000000     
  -2.1283007187546818E-002   5.6394348956767940E-002   0.0000000000000000     
  -2.2462569255386554E-002   6.1953620764418349E-002   0.0000000000000000     
  -2.3596869197354205E-002   6.7702710997271445E-002   0.0000000000000000     
  -2.4685907013449797E-002   7.3641619655327159E-002   0.0000000000000000     
  -2.5729682703673300E-002   7.9770346738585546E-002   0.0000000000000000     
  -2.5068337945751983E-002   5.6766284583230728E-002   0.0000000000000000     
  -2.6442315620723678E-002   6.2317482161355194E-002   0.0000000000000000     
  -2.7763724701920869E-002   6.8057340525472493E-002   0.0000000000000000     
  -2.9032565189343523E-002   7.3985859675582646E-002   0.0000000000000000     
  -3.0248837082991659E-002   8.0103039611685592E-002   0.0000000000000000     
  -2.8958337592615360E-002   5.7177422239837267E-002   0.0000000000000000     
  -3.0520100579336448E-002   6.2729463069366637E-002   0.0000000000000000     
  -3.2023725036373449E-002   6.8465452987145931E-002   0.0000000000000000     
  -3.3469210963726390E-002   7.4385391993175079E-002   0.0000000000000000     
  -3.4856558361395236E-002   8.0489280087454151E-002   0.0000000000000000     
  -1.6957074642292229E-002   7.9265603800390994E-002   0.0000000000000000     
  -1.7627265405617949E-002   8.5582539514872727E-002   0.0000000000000000     
  -1.8274234919358600E-002   9.2058700543167366E-002   0.0000000000000000     
  -1.8897983183514180E-002   9.8694086885274909E-002   0.0000000000000000     
  -1.9498510198084698E-002  0.10548869854119536        0.0000000000000000     
  -2.1299095223440159E-002   7.9491201468154013E-002   0.0000000000000000     
  -2.2136434022400613E-002   8.5802415077356739E-002   0.0000000000000000     
  -2.2944951970468769E-002   9.2271574827594863E-002   0.0000000000000000     
  -2.3724649067644630E-002   9.8898680718868454E-002   0.0000000000000000     
  -2.4475525313928194E-002  0.10568373275117743        0.0000000000000000     
  -2.5729682703673300E-002   7.9770346738585546E-002   0.0000000000000000     
  -2.6733676960753076E-002   8.6072581209985149E-002   0.0000000000000000     
  -2.7703370477417451E-002   9.2532012032464514E-002   0.0000000000000000     
  -2.8638763253666429E-002   9.9148639206023625E-002   0.0000000000000000     
  -2.9539855289500001E-002  0.10592246273066254        0.0000000000000000     
  -3.0248837082991659E-002   8.0103039611685592E-002   0.0000000000000000     
  -3.1418994220675352E-002   8.6393037912757958E-002   0.0000000000000000     
  -3.2549490440204658E-002   9.2840012157776236E-002   0.0000000000000000     
  -3.3640325741579574E-002   9.9443962346740508E-002   0.0000000000000000     
  -3.4691500124800122E-002  0.10620488847965071        0.0000000000000000     
  -3.4856558361395236E-002   8.0489280087454151E-002   0.0000000000000000     
  -3.6192385802167430E-002   8.6763785185675138E-002   0.0000000000000000     
  -3.7483311858830373E-002   9.3195575203530084E-002   0.0000000000000000     
  -3.8729336531384086E-002   9.9784650141019018E-002   0.0000000000000000     
  -3.9930459819828554E-002  0.10653100999814191        0.0000000000000000     
  -1.9498510198084698E-002  0.10548869854119536        0.0000000000000000     
  -2.0073371654574210E-002  0.11243088475935303        0.0000000000000000     
  -2.0620123244486796E-002  0.11950899478817216        0.0000000000000000     
  -2.1138764967822458E-002  0.12672302862765275        0.0000000000000000     
  -2.1629296824581187E-002  0.13407298627779479        0.0000000000000000     
  -2.4475525313928194E-002  0.10568373275117743        0.0000000000000000     
  -2.5194538991175481E-002  0.11261571524605850        0.0000000000000000     
  -2.5878648381242507E-002  0.11968361252504829        0.0000000000000000     
  -2.6527853484129275E-002  0.12688742458814684        0.0000000000000000     
  -2.7142154299835776E-002  0.13422715143535408        0.0000000000000000     
  -2.9539855289500001E-002  0.10592246273066254        0.0000000000000000     
  -3.0403078285769550E-002  0.11284272943074633        0.0000000000000000     
  -3.1224863943326436E-002  0.11989868613064013        0.0000000000000000     
  -3.2005212262170672E-002  0.12709033283034393        0.0000000000000000     
  -3.2744123242302248E-002  0.13441766952985776        0.0000000000000000     
  -3.4691500124800122E-002  0.10620488847965071        0.0000000000000000     
  -3.5698989538356415E-002  0.11311192731341654        0.0000000000000000     
  -3.6658769930738591E-002  0.12015421560494767        0.0000000000000000     
  -3.7570841301946663E-002  0.12733175335424410        0.0000000000000000     
  -3.8435203651980603E-002  0.13464454056130587        0.0000000000000000     
  -3.9930459819828554E-002  0.10653100999814191        0.0000000000000000     
  -4.1082272748936090E-002  0.11342330889406910        0.0000000000000000     
  -4.2180366343478978E-002  0.12045020094797092        0.0000000000000000     
  -4.3224740603457240E-002  0.12761168615984736        0.0000000000000000     
  -4.4215395528870854E-002  0.13490776452969844        0.0000000000000000     
  -2.1629296824581187E-002  0.13407298627779479        0.0000000000000000     
  -2.2092222790833862E-002  0.14154662987228489        0.0000000000000000     
  -2.2528046842651330E-002  0.14913172154480958        0.0000000000000000     
  -2.2936768980033599E-002  0.15682826129536884        0.0000000000000000     
  -2.3318389202980665E-002  0.16463624912396271        0.0000000000000000     
  -2.7142154299835776E-002  0.13422715143535408        0.0000000000000000     
  -2.7722234663929882E-002  0.14169041461008275        0.0000000000000000     
  -2.8268778411979459E-002  0.14926483565574566        0.0000000000000000     
  -2.8781785543984514E-002  0.15695041457234274        0.0000000000000000     
  -2.9261256059945045E-002  0.16474715135987400        0.0000000000000000     
  -3.2744123242302248E-002  0.13441766952985776        0.0000000000000000     
  -3.3442422926458014E-002  0.14186832553255613        0.0000000000000000     
  -3.4100937357374794E-002  0.14942993014181366        0.0000000000000000     
  -3.4719666535052623E-002  0.15710248335763033        0.0000000000000000     
  -3.5298610459491474E-002  0.16488598518000613        0.0000000000000000     
  -3.8435203651980603E-002  0.13464454056130587        0.0000000000000000     
  -3.9252787578418227E-002  0.14208036263970500        0.0000000000000000     
  -4.0024523678837333E-002  0.14962700500301354        0.0000000000000000     
  -4.0750411953237906E-002  0.15728446765123152        0.0000000000000000     
  -4.1430452401619959E-002  0.16505275058435900        0.0000000000000000     
  -4.4215395528870854E-002  0.13490776452969844        0.0000000000000000     
  -4.5153328619810557E-002  0.14232652593152936        0.0000000000000000     
  -4.6039537376367061E-002  0.14985606023934539        0.0000000000000000     
  -4.6874021798540375E-002  0.15749636745314649        0.0000000000000000     
  -4.7656781886330504E-002  0.16524744757293267        0.0000000000000000     
  -2.3318389202980665E-002  0.16463624912396271        0.0000000000000000     
  -2.3671277610647586E-002  0.17254401539038336        0.0000000000000000     
  -2.3993804302189385E-002  0.18053989045442301        0.0000000000000000     
  -2.4285969277606081E-002  0.18862387431608155        0.0000000000000000     
  -2.4547772536897664E-002  0.19679596697535906        0.0000000000000000     
  -2.9261256059945045E-002  0.16474715135987400        0.0000000000000000     
  -2.9705179684716032E-002  0.17264372260705757        0.0000000000000000     
  -3.0111546143152475E-002  0.18062880490261141        0.0000000000000000     
  -3.0480355435254378E-002  0.18870239824653562        0.0000000000000000     
  -3.0811607561021727E-002  0.19686450263883015        0.0000000000000000     
  -3.5298610459491474E-002  0.16488598518000613        0.0000000000000000     
  -3.5835546394374328E-002  0.17276931315761118        0.0000000000000000     
  -3.6328251603384154E-002  0.18074134483911558        0.0000000000000000     
  -3.6776726086520960E-002  0.18880208022451939        0.0000000000000000     
  -3.7180969843784724E-002  0.19695151931382260        0.0000000000000000     
  -4.1430452401619959E-002  0.16505275058435900        0.0000000000000000     
  -4.2062377739622479E-002  0.17292078704204417        0.0000000000000000     
  -4.2643920682884431E-002  0.18087751026393548        0.0000000000000000     
  -4.3175081231405829E-002  0.18892292025003282        0.0000000000000000     
  -4.3655859385186659E-002  0.19705701700033640        0.0000000000000000     
  -4.7656781886330504E-002  0.16524744757293267        0.0000000000000000     
  -4.8385673720460452E-002  0.17309814426035658        0.0000000000000000     
  -4.9058553381653283E-002  0.18103730117707109        0.0000000000000000     
  -4.9675420869908976E-002  0.18906491832307606        0.0000000000000000     
  -5.0236276185227524E-002  0.19718099569837150        0.0000000000000000     
  -2.4547772536897664E-002  0.19679596697535906        0.0000000000000000     
  -2.4779809104693674E-002  0.20504080866994934        0.0000000000000000     
  -2.4982674005623651E-002  0.21334303963754608        0.0000000000000000     
  -2.5156367239687581E-002  0.22170265987814938        0.0000000000000000     
  -2.5300888806885472E-002  0.23011966939175915        0.0000000000000000     
  -3.0811607561021727E-002  0.19686450263883015        0.0000000000000000     
  -3.1105597327654683E-002  0.20510130507903299        0.0000000000000000     
  -3.1362619542353420E-002  0.21339899256668213        0.0000000000000000     
  -3.1582674205117907E-002  0.22175756510177758        0.0000000000000000     
  -3.1765761315948167E-002  0.23017702268431933        0.0000000000000000     
  -3.7180969843784724E-002  0.19695151931382260        0.0000000000000000     
  -3.7540693489480748E-002  0.20517752774307962        0.0000000000000000     
  -3.7855607637914304E-002  0.21346797114834495        0.0000000000000000     
  -3.8125712289085401E-002  0.22182284952961850        0.0000000000000000     
  -3.8351007442994023E-002  0.23024216288690039        0.0000000000000000     
  -4.3655859385186659E-002  0.19705701700033640        0.0000000000000000     
  -4.4085097590171853E-002  0.20526947666208920        0.0000000000000000     
  -4.4461638292306323E-002  0.21354997538253442        0.0000000000000000     
  -4.4785481491590041E-002  0.22189851316167217        0.0000000000000000     
  -4.5056627188023030E-002  0.23031508999950237        0.0000000000000000     
  -5.0236276185227524E-002  0.19718099569837150        0.0000000000000000     
  -5.0738809629727995E-002  0.20537715183606167        0.0000000000000000     
  -5.1180711505529428E-002  0.21364500526925065        0.0000000000000000     
  -5.1561981812631844E-002  0.22198455599793848        0.0000000000000000     
  -5.1882620551035208E-002  0.23039580402212517        0.0000000000000000     
  -2.5300888806885472E-002  0.23011966939175915        0.0000000000000000     
  -2.5422540958002744E-002  0.23856659405217365        0.0000000000000000     
  -2.5527625943824798E-002  0.24701595973319113        0.0000000000000000     
  -2.5616143764351638E-002  0.25546776643481156        0.0000000000000000     
  -2.5688094419583255E-002  0.26392201415703498        0.0000000000000000     
  -3.1765761315948167E-002  0.23017702268431933        0.0000000000000000     
  -3.1919819437244167E-002  0.23863251162063953        0.0000000000000000     
  -3.2052787131405892E-002  0.24709917821707017        0.0000000000000000     
  -3.2164664398433337E-002  0.25557702247361141        0.0000000000000000     
  -3.2255451238326509E-002  0.26406604439026315        0.0000000000000000     
  -3.8351007442994023E-002  0.23024216288690039        0.0000000000000000     
  -3.8540277243060667E-002  0.23870510922763685        0.0000000000000000     
  -3.8702305832705834E-002  0.24719088655927418        0.0000000000000000     
  -3.8837093211929512E-002  0.25569949488181232        0.0000000000000000     
  -3.8944639380731713E-002  0.26423093419525140        0.0000000000000000     
  -4.5056627188023030E-002  0.23031508999950237        0.0000000000000000     
  -4.5283914375452247E-002  0.23878438687316578        0.0000000000000000     
  -4.5476182047724620E-002  0.24729108475980313        0.0000000000000000     
  -4.5633430204840154E-002  0.25583518365941449        0.0000000000000000     
  -4.5755658846798865E-002  0.26441668357199977        0.0000000000000000     
  -5.1882620551035208E-002  0.23039580402212517        0.0000000000000000     
  -5.2150730834418908E-002  0.23887034455722619        0.0000000000000000     
  -5.2374415776462249E-002  0.24739977281865705        0.0000000000000000     
  -5.2553675377165272E-002  0.25598408880641776        0.0000000000000000     
  -5.2688509636527950E-002  0.26462329252050826        0.0000000000000000     
  -2.5688094419583255E-002  0.26392201415703498        0.0000000000000000     
  -2.5755663312350872E-002  0.27232356229082966        0.0000000000000000     
  -2.5831035845485680E-002  0.28061727022716387        0.0000000000000000     
  -2.5914212018987685E-002  0.28880313796603768        0.0000000000000000     
  -2.6005191832856888E-002  0.29688116550745114        0.0000000000000000     
  -3.2255451238326509E-002  0.26406604439026315        0.0000000000000000     
  -3.2339952771590304E-002  0.27251334362220475        0.0000000000000000     
  -3.2432974118729634E-002  0.28086601982461590        0.0000000000000000     
  -3.2534515279744491E-002  0.28912407299749637        0.0000000000000000     
  -3.2644576254634877E-002  0.29728750314084634        0.0000000000000000     
  -3.8944639380731713E-002  0.26423093419525140        0.0000000000000000     
  -3.9043729650874277E-002  0.27273403892892772        0.0000000000000000     
  -3.9153149334119099E-002  0.28115764351217803        0.0000000000000000     
  -3.9272898430466149E-002  0.28950174794500211        0.0000000000000000     
  -3.9402976939915450E-002  0.29776635222740011        0.0000000000000000     
  -4.5755658846798865E-002  0.26441668357199977        0.0000000000000000     
  -4.5866993950202807E-002  0.27298564821099847        0.0000000000000000     
  -4.5991561491654072E-002  0.28149214128985023        0.0000000000000000     
  -4.6129361471152659E-002  0.28993616280855494        0.0000000000000000     
  -4.6280393888698590E-002  0.29831771276711255        0.0000000000000000     
  -5.2688509636527950E-002  0.26462329252050826        0.0000000000000000     
  -5.2809745669575858E-002  0.27326817146841709        0.0000000000000000     
  -5.2948210591334560E-002  0.28186951315763259        0.0000000000000000     
  -5.3103904401804028E-002  0.29042731758815477        0.0000000000000000     
  -5.3276827100984303E-002  0.29894158475998361        0.0000000000000000     
  -2.8958337592615360E-002   5.7177422239837267E-002   0.0000000000000000     
  -3.0520100579336448E-002   6.2729463069366637E-002   0.0000000000000000     
  -3.2023725036373449E-002   6.8465452987145931E-002   0.0000000000000000     
  -3.3469210963726390E-002   7.4385391993175079E-002   0.0000000000000000     
  -3.4856558361395236E-002   8.0489280087454151E-002   0.0000000000000000     
  -3.2965518872671420E-002   5.7646824386431796E-002   0.0000000000000000     
  -3.4713574502953190E-002   6.3198622578167191E-002   0.0000000000000000     
  -3.6398334381460735E-002   6.8929339741772053E-002   0.0000000000000000     
  -3.8019798508194078E-002   7.4838975877246375E-002   0.0000000000000000     
  -3.9577966883153196E-002   8.0927530984590185E-002   0.0000000000000000     
  -3.7102394530454642E-002   5.8193553482858588E-002   0.0000000000000000     
  -3.9040387763302251E-002   6.3734019777471340E-002   0.0000000000000000     
  -4.0909016917931466E-002   6.9451292148831251E-002   0.0000000000000000     
  -4.2708281994342290E-002   7.5345370596938369E-002   0.0000000000000000     
  -4.4438182992534721E-002   8.1416255121792624E-002   0.0000000000000000     
  -4.1368964565965026E-002   5.8817609529117652E-002   0.0000000000000000     
  -4.3500540360383637E-002   6.4335654667279085E-002   0.0000000000000000     
  -4.5555772645785628E-002   7.0031310208323566E-002   0.0000000000000000     
  -4.7534661422171019E-002   7.5904576152251033E-002   0.0000000000000000     
  -4.9437206689539791E-002   8.1955452499061554E-002   0.0000000000000000     
  -4.5765228979202557E-002   5.9518992525208973E-002   0.0000000000000000     
  -4.8094032294197335E-002   6.5003527247590454E-002   0.0000000000000000     
  -5.0338601565023240E-002   7.0669393920248930E-002   0.0000000000000000     
  -5.2498936791680287E-002   7.6516592543184409E-002   0.0000000000000000     
  -5.4575037974168447E-002   8.2545123116396876E-002   0.0000000000000000     
  -3.4856558361395236E-002   8.0489280087454151E-002   0.0000000000000000     
  -3.6192385802167430E-002   8.6763785185675138E-002   0.0000000000000000     
  -3.7483311858830373E-002   9.3195575203530084E-002   0.0000000000000000     
  -3.8729336531384086E-002   9.9784650141019018E-002   0.0000000000000000     
  -3.9930459819828554E-002  0.10653100999814191        0.0000000000000000     
  -3.9577966883153196E-002   8.0927530984590185E-002   0.0000000000000000     
  -4.1079435543475470E-002   8.7184407839294903E-002   0.0000000000000000     
  -4.2530800526298269E-002   9.3599009216852061E-002   0.0000000000000000     
  -4.3932061831621592E-002  0.10017133511726162        0.0000000000000000     
  -4.5283219459445447E-002  0.10690138554052357        0.0000000000000000     
  -4.4438182992534721E-002   8.1416255121792624E-002   0.0000000000000000     
  -4.6105727282845656E-002   8.7654490684175440E-002   0.0000000000000000     
  -4.7717922235611998E-002   9.4050622244868126E-002   0.0000000000000000     
  -4.9274767850833762E-002  0.10060464980387070        0.0000000000000000     
  -5.0776264128510926E-002  0.10731657336118314        0.0000000000000000     
  -4.9437206689539791E-002   8.1955452499061554E-002   0.0000000000000000     
  -5.1271261020277986E-002   8.8174033720316750E-002   0.0000000000000000     
  -5.3044676986771580E-002   9.4550414287578308E-002   0.0000000000000000     
  -5.4757454589020579E-002  0.10108459420084626        0.0000000000000000     
  -5.6409593827025012E-002  0.10777657346012061        0.0000000000000000     
  -5.4575037974168447E-002   8.2545123116396876E-002   0.0000000000000000     
  -5.6576036755772434E-002   8.8743036947718817E-002   0.0000000000000000     
  -5.8511064779776974E-002   9.5098385344982633E-002   0.0000000000000000     
  -6.0380122046182066E-002  0.10161116830818837        0.0000000000000000     
  -6.2183208554987685E-002  0.10828138583733599        0.0000000000000000     
  -3.9930459819828554E-002  0.10653100999814191        0.0000000000000000     
  -4.1082272748936090E-002  0.11342330889406910        0.0000000000000000     
  -4.2180366343478978E-002  0.12045020094797092        0.0000000000000000     
  -4.3224740603457240E-002  0.12761168615984736        0.0000000000000000     
  -4.4215395528870854E-002  0.13490776452969844        0.0000000000000000     
  -4.5283219459445447E-002  0.10690138554052357        0.0000000000000000     
  -4.6579517870745227E-002  0.11377727595171527        0.0000000000000000     
  -4.7816201526496349E-002  0.12078712181591403        0.0000000000000000     
  -4.8993270426698814E-002  0.12793092313311985        0.0000000000000000     
  -5.0110724571352613E-002  0.13520867990333266        0.0000000000000000     
  -5.0776264128510926E-002  0.10731657336118314        0.0000000000000000     
  -5.2217314857020490E-002  0.11417423026536636        0.0000000000000000     
  -5.3592823824739441E-002  0.12116545786498117        0.0000000000000000     
  -5.4902791031667779E-002  0.12829025616002768        0.0000000000000000     
  -5.6147216477805524E-002  0.13554862515050581        0.0000000000000000     
  -5.6409593827025012E-002  0.10777657346012061        0.0000000000000000     
  -5.7995663707761894E-002  0.11461417183502233        0.0000000000000000     
  -5.9510233238208282E-002  0.12158520909517243        0.0000000000000000     
  -6.0953302418364184E-002  0.12868968524057095        0.0000000000000000     
  -6.2324871248229587E-002  0.13592760027121781        0.0000000000000000     
  -6.2183208554987685E-002  0.10828138583733599        0.0000000000000000     
  -6.3914564422969430E-002  0.11509710066068321        0.0000000000000000     
  -6.5568429766902872E-002  0.12204637550648771        0.0000000000000000     
  -6.7144804586787982E-002  0.12912921037474956        0.0000000000000000     
  -6.8643688882624787E-002  0.13634560526546871        0.0000000000000000     
  -4.4215395528870854E-002  0.13490776452969844        0.0000000000000000     
  -4.5153328619810557E-002  0.14232652593152936        0.0000000000000000     
  -4.6039537376367061E-002  0.14985606023934539        0.0000000000000000     
  -4.6874021798540375E-002  0.15749636745314649        0.0000000000000000     
  -4.7656781886330504E-002  0.16524744757293267        0.0000000000000000     
  -5.0110724571352613E-002  0.13520867990333266        0.0000000000000000     
  -5.1169733076110384E-002  0.14260874826407613        0.0000000000000000     
  -5.2171465056624733E-002  0.15011948435287376        0.0000000000000000     
  -5.3115920512895660E-002  0.15774088816972551        0.0000000000000000     
  -5.4003099444923146E-002  0.16547295971463141        0.0000000000000000     
  -5.6147216477805524E-002  0.13554862515050581        0.0000000000000000     
  -5.7327687972793126E-002  0.14292896249339213        0.0000000000000000     
  -5.8445793326271069E-002  0.15041966584566319        0.0000000000000000     
  -5.9501532538239338E-002  0.15802073520731907        0.0000000000000000     
  -6.0494905608697934E-002  0.16573217057835971        0.0000000000000000     
  -6.2324871248229587E-002  0.13592760027121781        0.0000000000000000     
  -6.3627193309858790E-002  0.14328716861947735        0.0000000000000000     
  -6.4862522185306082E-002  0.15075660471771379        0.0000000000000000     
  -6.6030857874571428E-002  0.15833590856592716        0.0000000000000000     
  -6.7132200377654883E-002  0.16602508016411741        0.0000000000000000     
  -6.8643688882624787E-002  0.13634560526546871        0.0000000000000000     
  -7.0068249087307355E-002  0.14368336664233181        0.0000000000000000     
  -7.1421651633729724E-002  0.15113030096902549        0.0000000000000000     
  -7.2703896521891950E-002  0.15868640824554972        0.0000000000000000     
  -7.3914983751793978E-002  0.16635168847190457        0.0000000000000000     
  -4.7656781886330504E-002  0.16524744757293267        0.0000000000000000     
  -4.8385673720460452E-002  0.17309814426035658        0.0000000000000000     
  -4.9058553381653283E-002  0.18103730117707109        0.0000000000000000     
  -4.9675420869908976E-002  0.18906491832307606        0.0000000000000000     
  -5.0236276185227524E-002  0.19718099569837150        0.0000000000000000     
  -5.4003099444923146E-002  0.16547295971463141        0.0000000000000000     
  -5.4831035092802516E-002  0.17330450990850629        0.0000000000000000     
  -5.5597760696629084E-002  0.18122434967226478        0.0000000000000000     
  -5.6303276256402808E-002  0.18923247900590703        0.0000000000000000     
  -5.6947581772123737E-002  0.19732889790943289        0.0000000000000000     
  -6.0494905608697934E-002  0.16573217057835971        0.0000000000000000     
  -6.1424062612562884E-002  0.17354300908245104        0.0000000000000000     
  -6.2287153624750152E-002  0.18144228784325914        0.0000000000000000     
  -6.3084178645259739E-002  0.18943000686078398        0.0000000000000000     
  -6.3815137674091679E-002  0.19750616613502550        0.0000000000000000     
  -6.7132200377654883E-002  0.16602508016411741        0.0000000000000000     
  -6.8164756279741542E-002  0.17381364178219091        0.0000000000000000     
  -6.9126732166016489E-002  0.18169111569005406        0.0000000000000000     
  -7.0018128036479776E-002  0.18965750188770686        0.0000000000000000     
  -7.0838943891131365E-002  0.19771280037514924        0.0000000000000000     
  -7.3914983751793978E-002  0.16635168847190457        0.0000000000000000     
  -7.5053116094338485E-002  0.17411640800772588        0.0000000000000000     
  -7.6116496320428134E-002  0.18197083321264962        0.0000000000000000     
  -7.7105124430062899E-002  0.18991496408667571        0.0000000000000000     
  -7.8019000423242807E-002  0.19794880062980424        0.0000000000000000     
  -5.0236276185227524E-002  0.19718099569837150        0.0000000000000000     
  -5.0738809629727995E-002  0.20537715183606167        0.0000000000000000     
  -5.1180711505529428E-002  0.21364500526925065        0.0000000000000000     
  -5.1561981812631844E-002  0.22198455599793848        0.0000000000000000     
  -5.1882620551035208E-002  0.23039580402212517        0.0000000000000000     
  -5.6947581772123737E-002  0.19732889790943289        0.0000000000000000     
  -5.7527589513028596E-002  0.20550680427210172        0.0000000000000000     
  -5.8040211748354158E-002  0.21375939598317259        0.0000000000000000     
  -5.8485448478100437E-002  0.22208667304264562        0.0000000000000000     
  -5.8863299702267426E-002  0.23048863545052070        0.0000000000000000     
  -6.3815137674091679E-002  0.19750616613502550        0.0000000000000000     
  -6.4477197144953050E-002  0.20566468497731383        0.0000000000000000     
  -6.5067523491550996E-002  0.21389948269897921        0.0000000000000000     
  -6.5586116713885478E-002  0.22221055930002148        0.0000000000000000     
  -6.6032976811956537E-002  0.23059791478044075        0.0000000000000000     
  -7.0838943891131365E-002  0.19771280037514924        0.0000000000000000     
  -7.1587632525501377E-002  0.20585079395169822        0.0000000000000000     
  -7.2262646735119937E-002  0.21406526541667045        0.0000000000000000     
  -7.2863986519986976E-002  0.22235621477006623        0.0000000000000000     
  -7.3391651880102562E-002  0.23072364201188528        0.0000000000000000     
  -7.8019000423242807E-002  0.19794880062980424        0.0000000000000000     
  -7.8858895654673578E-002  0.20606513119525466        0.0000000000000000     
  -7.9625581479060945E-002  0.21425674413624646        0.0000000000000000     
  -8.0319057896404908E-002  0.22252363945277970        0.0000000000000000     
  -8.0939324906705482E-002  0.23086581714485438        0.0000000000000000     
  -5.1882620551035208E-002  0.23039580402212517        0.0000000000000000     
  -5.2150730834418908E-002  0.23887034455722619        0.0000000000000000     
  -5.2374415776462249E-002  0.24739977281865705        0.0000000000000000     
  -5.2553675377165272E-002  0.25598408880641776        0.0000000000000000     
  -5.2688509636527950E-002  0.26462329252050826        0.0000000000000000     
  -5.8863299702267426E-002  0.23048863545052070        0.0000000000000000     
  -5.9179849026973590E-002  0.23896441541809824        0.0000000000000000     
  -5.9441180058337414E-002  0.24751314515667844        0.0000000000000000     
  -5.9647292796358907E-002  0.25613482466626153        0.0000000000000000     
  -5.9798187241038039E-002  0.26482945394684726        0.0000000000000000     
  -6.6032976811956537E-002  0.23059791478044075        0.0000000000000000     
  -6.6410391360129259E-002  0.23906803259406190        0.0000000000000000     
  -6.6720647932768759E-002  0.24762739619471003        0.0000000000000000     
  -6.6963746529875065E-002  0.25627600558238511        0.0000000000000000     
  -6.7139687151448163E-002  0.26501386075708705        0.0000000000000000     
  -7.3391651880102562E-002  0.23072364201188528        0.0000000000000000     
  -7.3842357833885944E-002  0.23918119608511726        0.0000000000000000     
  -7.4212819399756325E-002  0.24774252593275164        0.0000000000000000     
  -7.4503036577713816E-002  0.25640763155478846        0.0000000000000000     
  -7.4713009367758307E-002  0.26517651295122763        0.0000000000000000     
  -8.0939324906705482E-002  0.23086581714485438        0.0000000000000000     
  -8.1475748448243582E-002  0.23930390589126430        0.0000000000000000     
  -8.1917694459300097E-002  0.24785853437080338        0.0000000000000000     
  -8.2265162939875069E-002  0.25652970258347157        0.0000000000000000     
  -8.2518153889968499E-002  0.26531741052926888        0.0000000000000000     
  -5.2688509636527950E-002  0.26462329252050826        0.0000000000000000     
  -5.2809745669575858E-002  0.27326817146841709        0.0000000000000000     
  -5.2948210591334560E-002  0.28186951315763259        0.0000000000000000     
  -5.3103904401804028E-002  0.29042731758815477        0.0000000000000000     
  -5.3276827100984303E-002  0.29894158475998361        0.0000000000000000     
  -5.9798187241038039E-002  0.26482945394684726        0.0000000000000000     
  -5.9930736699042239E-002  0.27355289953629430        0.0000000000000000     
  -6.0081814477038857E-002  0.28226102797246105        0.0000000000000000     
  -6.0251420575027907E-002  0.29095383925534762        0.0000000000000000     
  -6.0439554993009396E-002  0.29963133338495385        0.0000000000000000     
  -6.7139687151448163E-002  0.26501386075708705        0.0000000000000000     
  -6.7288718928650681E-002  0.27381112324974094        0.0000000000000000     
  -6.7451090992645291E-002  0.28263795459127178        0.0000000000000000     
  -6.7626803343431935E-002  0.29149435478167934        0.0000000000000000     
  -6.7815855981010670E-002  0.30038032382096391        0.0000000000000000     
  -7.4713009367758307E-002  0.26517651295122763        0.0000000000000000     
  -7.4883692358401199E-002  0.27404284260875700        0.0000000000000000     
  -7.5056040138153798E-002  0.28300029301406443        0.0000000000000000     
  -7.5230052707016132E-002  0.29204886416715004        0.0000000000000000     
  -7.5405730064988158E-002  0.30118855606801381        0.0000000000000000     
  -8.2518153889968499E-002  0.26531741052926888        0.0000000000000000     
  -8.2715656988293806E-002  0.27424805761334248        0.0000000000000000     
  -8.2896661913564457E-002  0.28334804324083945        0.0000000000000000     
  -8.3061168665780463E-002  0.29261736741175981        0.0000000000000000     
  -8.3209177244941812E-002  0.30205603012610344        0.0000000000000000     
  -4.5765228979202557E-002   5.9518992525208973E-002   0.0000000000000000     
  -4.8094032294197335E-002   6.5003527247590454E-002   0.0000000000000000     
  -5.0338601565023240E-002   7.0669393920248930E-002   0.0000000000000000     
  -5.2498936791680287E-002   7.6516592543184409E-002   0.0000000000000000     
  -5.4575037974168447E-002   8.2545123116396876E-002   0.0000000000000000     
  -5.0334406611134690E-002   6.0275343672274398E-002   0.0000000000000000     
  -5.2858346198075987E-002   6.5726403614977405E-002   0.0000000000000000     
  -5.5290749042140507E-002   7.1361898669824453E-002   0.0000000000000000     
  -5.7631615143328228E-002   7.7181828836815528E-002   0.0000000000000000     
  -5.9880944501639166E-002   8.3186194115950685E-002   0.0000000000000000     
  -5.5119716302728855E-002   6.1064304171455780E-002   0.0000000000000000     
  -5.7830964705352206E-002   6.6493049866011941E-002   0.0000000000000000     
  -6.0445460443633602E-002   7.2105179842267192E-002   0.0000000000000000     
  -6.2963203517573035E-002   7.7900694100221532E-002   0.0000000000000000     
  -6.5384193927170500E-002   8.3879592639874906E-002   0.0000000000000000     
  -6.0121158053985081E-002   6.1885874022753098E-002   0.0000000000000000     
  -6.3011887816025999E-002   6.7303466000694076E-002   0.0000000000000000     
  -6.5802735769502560E-002   7.2899237437577161E-002   0.0000000000000000     
  -6.8493701914414687E-002   7.8673188333402352E-002   0.0000000000000000     
  -7.1084786250762436E-002   8.4625318688169623E-002   0.0000000000000000     
  -6.5338731864903327E-002   6.2740053226166367E-002   0.0000000000000000     
  -6.8401115530097367E-002   6.8157652019023796E-002   0.0000000000000000     
  -7.1362575019747326E-002   7.3744071455754345E-002   0.0000000000000000     
  -7.4223110333853204E-002   7.9499311536358003E-002   0.0000000000000000     
  -7.6982721472414986E-002   8.5423372260834796E-002   0.0000000000000000     
  -5.4575037974168447E-002   8.2545123116396876E-002   0.0000000000000000     
  -5.6576036755772434E-002   8.8743036947718817E-002   0.0000000000000000     
  -5.8511064779776974E-002   9.5098385344982633E-002   0.0000000000000000     
  -6.0380122046182066E-002  0.10161116830818837        0.0000000000000000     
  -6.2183208554987685E-002  0.10828138583733599        0.0000000000000000     
  -5.9880944501639166E-002   8.3186194115950685E-002   0.0000000000000000     
  -6.2048825044792859E-002   8.9361400419953871E-002   0.0000000000000000     
  -6.4145344700508880E-002   9.5693853661549144E-002   0.0000000000000000     
  -6.6170503468787195E-002  0.10218355384073649        0.0000000000000000     
  -6.8124301349627839E-002  0.10883050095751590        0.0000000000000000     
  -6.5384193927170500E-002   8.3879592639874906E-002   0.0000000000000000     
  -6.7718396442803100E-002   9.0029024190594123E-002   0.0000000000000000     
  -6.9975775834847945E-002   9.6336137481745895E-002   0.0000000000000000     
  -7.2156332103305035E-002  0.10280093251333018        0.0000000000000000     
  -7.4260065248174356E-002  0.10942340928534702        0.0000000000000000     
  -7.1084786250762436E-002   8.4625318688169623E-002   0.0000000000000000     
  -7.3584750949803157E-002   9.0745908259639629E-002   0.0000000000000000     
  -7.6002358182794161E-002   9.7025236805572887E-002   0.0000000000000000     
  -7.8337607949735544E-002  0.10346330432596949        0.0000000000000000     
  -8.0590500250627223E-002  0.11006011082082937        0.0000000000000000     
  -7.6982721472414986E-002   8.5423372260834796E-002   0.0000000000000000     
  -7.9647888565792996E-002   9.1512052627090307E-002   0.0000000000000000     
  -8.2225091744347584E-002   9.7761151633030161E-002   0.0000000000000000     
  -8.4714331008078736E-002  0.10417066927865437        0.0000000000000000     
  -8.7115606356986452E-002  0.11074060556396292        0.0000000000000000     
  -6.2183208554987685E-002  0.10828138583733599        0.0000000000000000     
  -6.3914564422969430E-002  0.11509710066068321        0.0000000000000000     
  -6.5568429766902872E-002  0.12204637550648771        0.0000000000000000     
  -6.7144804586787982E-002  0.12912921037474956        0.0000000000000000     
  -6.8643688882624787E-002  0.13634560526546871        0.0000000000000000     
  -6.8124301349627839E-002  0.10883050095751590        0.0000000000000000     
  -7.0000682920168686E-002  0.11562290452211413        0.0000000000000000     
  -7.1793592757547667E-002  0.12254897404475801        0.0000000000000000     
  -7.3503030861764754E-002  0.12960870952544745        0.0000000000000000     
  -7.5128997232819947E-002  0.13680211096418252        0.0000000000000000     
  -7.4260065248174356E-002  0.10942340928534702        0.0000000000000000     
  -7.6280685116885280E-002  0.11619147119908038        0.0000000000000000     
  -7.8211901556867164E-002  0.12309302165581421        0.0000000000000000     
  -8.0053714568120035E-002  0.13012806065554849        0.0000000000000000     
  -8.1806124150643852E-002  0.13729658819828325        0.0000000000000000     
  -8.0590500250627223E-002  0.11006011082082937        0.0000000000000000     
  -8.2754571013119185E-002  0.11680280069158186        0.0000000000000000     
  -8.4823356164861391E-002  0.12367851833965630        0.0000000000000000     
  -8.6796855705853826E-002  0.13068726376505266        0.0000000000000000     
  -8.8675069636096518E-002  0.13782903696777093        0.0000000000000000     
  -8.7115606356986452E-002  0.11074060556396292        0.0000000000000000     
  -8.9422340608870429E-002  0.11745689299961865        0.0000000000000000     
  -9.1627956581530334E-002  0.12430546409628432        0.0000000000000000     
  -9.3732454274966168E-002  0.13128631885395994        0.0000000000000000     
  -9.5735833689177957E-002  0.13839945727264555        0.0000000000000000     
  -6.8643688882624787E-002  0.13634560526546871        0.0000000000000000     
  -7.0068249087307355E-002  0.14368336664233181        0.0000000000000000     
  -7.1421651633729724E-002  0.15113030096902549        0.0000000000000000     
  -7.2703896521891950E-002  0.15868640824554972        0.0000000000000000     
  -7.3914983751793978E-002  0.16635168847190457        0.0000000000000000     
  -7.5128997232819947E-002  0.13680211096418252        0.0000000000000000     
  -7.6675561172054041E-002  0.14411667050106125        0.0000000000000000     
  -7.8146791980807873E-002  0.15153988027618173        0.0000000000000000     
  -7.9542689659081373E-002  0.15907174028954393        0.0000000000000000     
  -8.0863254206874610E-002  0.16671225054114791        0.0000000000000000     
  -8.1806124150643852E-002  0.13729658819828325        0.0000000000000000     
  -8.3473835431014110E-002  0.14458619413477145        0.0000000000000000     
  -8.5061553535806245E-002  0.15198446831576595        0.0000000000000000     
  -8.6569278465020300E-002  0.15949141074126685        0.0000000000000000     
  -8.7997010218656205E-002  0.16710702141127409        0.0000000000000000     
  -8.8675069636096518E-002  0.13782903696777093        0.0000000000000000     
  -9.0463071864187533E-002  0.14509193754346239        0.0000000000000000     
  -9.2165936298724882E-002  0.15246406508777821        0.0000000000000000     
  -9.3783662939708634E-002  0.15994541960071845        0.0000000000000000     
  -9.5316251787138720E-002  0.16753600108228309        0.0000000000000000     
  -9.5735833689177957E-002  0.13839945727264555        0.0000000000000000     
  -9.7643270471574284E-002  0.14563390072713406        0.0000000000000000     
  -9.9459940269563771E-002  0.15297867059221848        0.0000000000000000     
 -0.10118584308314642       0.16043376686789879        0.0000000000000000     
 -0.10282097891232221       0.16799918955417498        0.0000000000000000     
  -7.3914983751793978E-002  0.16635168847190457        0.0000000000000000     
  -7.5053116094338485E-002  0.17411640800772588        0.0000000000000000     
  -7.6116496320428134E-002  0.18197083321264962        0.0000000000000000     
  -7.7105124430062899E-002  0.18991496408667571        0.0000000000000000     
  -7.8019000423242807E-002  0.19794880062980424        0.0000000000000000     
  -8.0863254206874610E-002  0.16671225054114791        0.0000000000000000     
  -8.2106925878277948E-002  0.17445229270623841        0.0000000000000000     
  -8.3272144927381705E-002  0.18228274846006018        0.0000000000000000     
  -8.4358911354185911E-002  0.19020361780261325        0.0000000000000000     
  -8.5367225158690579E-002  0.19821490073389769        0.0000000000000000     
  -8.7997010218656205E-002  0.16710702141127409        0.0000000000000000     
  -8.9343969453484051E-002  0.17482228082491078        0.0000000000000000     
  -9.0609376826273846E-002  0.18262816948130017        0.0000000000000000     
  -9.1793232337025618E-002  0.19052468738044215        0.0000000000000000     
  -9.2895535985739325E-002  0.19851183452233678        0.0000000000000000     
  -9.5316251787138720E-002  0.16753600108228309        0.0000000000000000     
  -9.6764246819956864E-002  0.17522637236374317        0.0000000000000000     
  -9.8128192017104612E-002  0.18300709627636957        0.0000000000000000     
  -9.9408087378581991E-002  0.19087817282016245        0.0000000000000000     
 -0.10060393290438902       0.19883960199512166        0.0000000000000000     
 -0.10282097891232221       0.16799918955417498        0.0000000000000000     
 -0.10436775797769633       0.17566456732273544        0.0000000000000000     
 -0.10582859049987393       0.18341952884526846        0.0000000000000000     
 -0.10720347647885506       0.19126407412177407        0.0000000000000000     
 -0.10849241591463965       0.19919820315225226        0.0000000000000000     
  -7.8019000423242807E-002  0.19794880062980424        0.0000000000000000     
  -7.8858895654673578E-002  0.20606513119525466        0.0000000000000000     
  -7.9625581479060945E-002  0.21425674413624646        0.0000000000000000     
  -8.0319057896404908E-002  0.22252363945277970        0.0000000000000000     
  -8.0939324906705482E-002  0.23086581714485438        0.0000000000000000     
  -8.5367225158690579E-002  0.19821490073389769        0.0000000000000000     
  -8.6300263708047109E-002  0.20630851995500235        0.0000000000000000     
  -8.7161204369406858E-002  0.21447639816701652        0.0000000000000000     
  -8.7950047142769841E-002  0.22271853536993994        0.0000000000000000     
  -8.8666792028136057E-002  0.23103493156377283        0.0000000000000000     
  -9.2895535985739325E-002  0.19851183452233678        0.0000000000000000     
  -9.3921013861199443E-002  0.20658178347796058        0.0000000000000000     
  -9.4874392052190434E-002  0.21472670681828987        0.0000000000000000     
  -9.5755670558712272E-002  0.22294660454332485        0.0000000000000000     
  -9.6564849380765011E-002  0.23124147665306546        0.0000000000000000     
 -0.10060393290438902       0.19883960199512166        0.0000000000000000     
 -0.10172114611413061       0.20688492176412912        0.0000000000000000     
 -0.10276514452741167       0.21500767009006677        0.0000000000000000     
 -0.10373592814423227       0.22320784697293450        0.0000000000000000     
 -0.10463349696459236       0.23148545241273233        0.0000000000000000     
 -0.10849241591463965       0.19919820315225226        0.0000000000000000     
 -0.10970066046684056       0.20721793481350820        0.0000000000000000     
 -0.11083346179507059       0.21531928798234704        0.0000000000000000     
 -0.11189081989932977       0.22350226265876877        0.0000000000000000     
 -0.11287273477961807       0.23176685884277340        0.0000000000000000     
  -8.0939324906705482E-002  0.23086581714485438        0.0000000000000000     
  -8.1475748448243582E-002  0.23930390589126430        0.0000000000000000     
  -8.1917694459300097E-002  0.24785853437080338        0.0000000000000000     
  -8.2265162939875069E-002  0.25652970258347157        0.0000000000000000     
  -8.2518153889968499E-002  0.26531741052926888        0.0000000000000000     
  -8.8666792028136057E-002  0.23103493156377283        0.0000000000000000     
  -8.9297055132894265E-002  0.23945113180592564        0.0000000000000000     
  -8.9826452564433223E-002  0.24799268115380918        0.0000000000000000     
  -9.0254984322752946E-002  0.25665957960742330        0.0000000000000000     
  -9.0582650407853432E-002  0.26545182716676818        0.0000000000000000     
  -9.6564849380765011E-002  0.23124147665306546        0.0000000000000000     
  -9.7292769817530045E-002  0.23963784362252405        0.0000000000000000     
  -9.7930273168188864E-002  0.24816222592671311        0.0000000000000000     
  -9.8477359432741468E-002  0.25681462356563256        0.0000000000000000     
  -9.8934028611187844E-002  0.26559503653928251        0.0000000000000000     
 -0.10463349696459236       0.23148545241273233        0.0000000000000000     
 -0.10546289250215093       0.23986404134105946        0.0000000000000000     
 -0.10622915627056703       0.24836716868951506        0.0000000000000000     
 -0.10693228826984066       0.25699483445809929        0.0000000000000000     
 -0.10757228849997176       0.26574703864681198        0.0000000000000000     
 -0.11287273477961807       0.23176685884277340        0.0000000000000000     
 -0.11380742318675691       0.24012972496153190        0.0000000000000000     
 -0.11472310187156770       0.24860750944221524        0.0000000000000000     
 -0.11561977083405044       0.25720021228482343        0.0000000000000000     
 -0.11649743007420513       0.26590783348935648        0.0000000000000000     
  -8.2518153889968499E-002  0.26531741052926888        0.0000000000000000     
  -8.2715656988293806E-002  0.27424805761334248        0.0000000000000000     
  -8.2896661913564457E-002  0.28334804324083945        0.0000000000000000     
  -8.3061168665780463E-002  0.29261736741175981        0.0000000000000000     
  -8.3209177244941812E-002  0.30205603012610344        0.0000000000000000     
  -9.0582650407853432E-002  0.26545182716676818        0.0000000000000000     
  -9.0839799529479182E-002  0.27443245897600566        0.0000000000000000     
  -9.1056780397374679E-002  0.28366451017929772        0.0000000000000000     
  -9.1233593011539965E-002  0.29314798077664439        0.0000000000000000     
  -9.1370237371975027E-002  0.30288287076804576        0.0000000000000000     
  -9.8934028611187844E-002  0.26559503653928251        0.0000000000000000     
  -9.9311306693108017E-002  0.27460173740925459        0.0000000000000000     
  -9.9620219668081947E-002  0.28393299873714040        0.0000000000000000     
  -9.9860767536109632E-002  0.29358882052294005        0.0000000000000000     
 -0.10003295029719111       0.30356920276665356        0.0000000000000000     
 -0.10757228849997176       0.26574703864681198        0.0000000000000000     
 -0.10813017847918030       0.27475589291308933        0.0000000000000000     
 -0.10858697972568619       0.28415350891436764        0.0000000000000000     
 -0.10894269223948948       0.29393988665064674        0.0000000000000000     
 -0.10919731602059009       0.30411502612192681        0.0000000000000000     
 -0.11649743007420513       0.26590783348935648        0.0000000000000000     
 -0.11729641488769606       0.27489492548750993        0.0000000000000000     
 -0.11795706057018751       0.28432604071097917        0.0000000000000000     
 -0.11847936712167947       0.29420117915976446        0.0000000000000000     
 -0.11886333454217195       0.30452034083386559        0.0000000000000000     
 </DataArray>
 <DataArray  type="Float64" Name="stress" NumberOfComponents="3" format="ascii">
   5846783642.0353031       -334670086.42594337       -168631258.81166810     
   5685493894.5938931       -232372464.71924233       -134245310.28772321     
   5516516711.4129324       -155699628.81106830       -100640697.28468439     
   5339852092.4924240       -104651578.70137095       -67817419.802567631     
   5155500037.8323545       -79228314.390213490       -35775477.841355659     
   5596477172.9090385       -177072216.53989983        91977908.600926474     
   5422596751.6511965       -117751266.51096892        106834693.61453043     
   5243740707.5251369       -75015726.042760849        122705373.90820086     
   5059909040.5308647       -48865595.135275126        139589949.48193708     
   4871101750.6683702       -39300873.788516045        157488420.33573979     
   5308913576.0028763       -30651484.987818956        335928466.12082130     
   5127571711.7885284       -12768437.378679752        334419869.30730617     
   4943966037.5773153       -2431423.0924746990        335720398.57483768     
   4758096553.3692226        359557.87080621719        339830053.92341495     
   4569963259.1642399       -4395494.4888594151        346748835.35303813     
   4984092851.3168087        104592108.23028994        563220413.74800551     
   4800418775.0059128        82576022.677624702        548510216.79060066     
   4617192701.5694704        62053280.039811134        538404376.71522105     
   4434414631.0074873        43023880.316847563        532902893.52186406     
   4252084563.3199573        25487823.508743525        532005767.21052921     
   4622014998.8508387        228658563.11442542        773853751.48248088     
   4441137941.3033237        168282113.65793753        749105736.06441486     
   4263420699.5015988        118438383.35408235        730757308.32934821     
   4088863273.4456735        79127372.202878237        718808468.27728474     
   3917465663.1355371        50349080.204311609        713259215.90822065     
   5155500037.8323545       -79228314.390213490       -35775477.841355659     
   4998931631.3856916       -58833465.957045317       -29481505.090494648     
   4841239554.9585543       -42184184.125443220       -21742025.634035300     
   4682423808.5509653       -29280468.895349026       -12557039.471962243     
   4522484392.1629181       -20122320.266793251       -1926546.6042857231     
   4871101750.6683702       -39300873.788516045        157488420.33573979     
   4716984119.8650866       -27719061.005104303        157457433.55564731     
   4562310371.5248899       -17990973.344743490        159899929.56096122     
   4407080505.6477766       -10116610.807443380        164815908.35167345     
   4251294522.2337427       -4095973.3931913376        172205369.92779145     
   4569963259.1642399       -4395494.4888594151        346748835.35303813     
   4421233478.5180511       -745595.00109553337        341055033.55945879     
   4272515132.7784934        2942420.8420965672        338862690.63108933     
   4123808221.9455729        6668553.0407512188        340171806.56791776     
   3975112746.0192819        10432801.594831705        344982381.36995643     
   4252084563.3199573        25487823.508743525        532005767.21052921     
   4111679707.3445845        22086932.054985285        521311294.92094052     
   3971853838.7193861        20615998.435143232        515146257.57635796     
   3832606957.4443717        21075022.649243116        513510655.17677701     
   3693939063.5195293        23464004.697270393        516404487.72220105     
   3917465663.1355371        50349080.204311609        713259215.90822065     
   3788322806.3446832        40778520.163129568        698226217.64009273     
   3660326489.3475571        35029759.434370756        688750630.39676785     
   3533476712.1441607        33102798.018039703        684832454.17825186     
   3407773474.7344871        34997635.914118767        686471688.98452926     
   4522484392.1629181       -20122320.266793251       -1926546.6042857231     
   4325648936.9056625       -23444132.927937269       -6681251.3884586021     
   4129006723.3021092       -26121806.743396759       -6997475.2862578258     
   3932557751.3522553       -28155341.713202477       -2875218.2976840353     
   3736302021.0560956       -29544737.837350368        5685519.5772646908     
   4251294522.2337427       -4095973.3931913376        172205369.92779145     
   4066041067.1865764       -7535381.9487867355        165931941.13596311     
   3880935067.3818617       -10483273.029537201        164156399.90270019     
   3695976522.8196063       -12939646.635420561        166878746.22800621     
   3511165433.4998255       -14904502.766398668        174098980.11188853     
   3975112746.0192819        10432801.594831705        344982381.36995643     
   3801611024.5313330        6926717.1495034695        337136811.09068698     
   3628210971.8746028        3759528.8082318306        333848535.04218465     
   3454912588.0490952        931236.57104277611        335117553.22445279     
   3281715873.0548062       -1558159.5620882511        340943865.63748449     
   3693939063.5195293        23464004.697270393        516404487.72220105     
   3532358808.9399347        19942164.366940260        506933358.47571522     
   3370834436.7803230        16606598.769894600        502078930.13219368     
   3209365947.0406909        13457307.906104922        501841202.69163328     
   3047953339.7210412        10494291.775600076        506220176.15404510     
   3407773474.7344871        34997635.914118767        686471688.98452926     
   3258284420.4123869        31510959.703554153        675321583.29104757     
   3108805462.0990257        28057936.855447531        668847585.17272460     
   2959336599.7944083        24638567.369822383        667049694.62956405     
   2809877833.4985304        21252851.246661186        669927911.66157234     
   3736302021.0560956       -29544737.837350368        5685519.5772646908     
   3564318955.2478690       -24045113.202790737        1372912.4440514233     
   3391883672.8929358       -20052877.057242632        1172405.2640908009     
   3218996173.9913249       -17568029.400634885        5083998.0373789798     
   3045656458.5430012       -16590570.233047843        13107690.763909556     
   3511165433.4998255       -14904502.766398668        174098980.11188853     
   3349260785.6947603       -10234862.475297451        167695684.46067336     
   3187052131.4171648       -6578577.0926475525        165124452.93790239     
   3024539470.6670184       -3935646.6184877157        166385285.54359740     
   2861722803.4443207       -2306071.0528426170        171478182.27773660     
   3281715873.0548062       -1558159.5620882511        340943865.63748449     
   3129089540.8963771        2041465.6786464453        332622793.22142607     
   2976307412.3395538        5121769.5913945436        327853749.10902870     
   2823369487.3843312        7682752.1761450768        326636733.30028939     
   2670275766.0307136        9724413.4329180717        328971745.79521590     
   3047953339.7210412        10494291.775600076        506220176.15404510     
   2903805220.8526974        12783871.258998394        496154238.72631902     
   2759649515.6601071        15048162.994899631        489360293.77746069     
   2615486224.1432662        17287166.983304381        485838341.30747056     
   2471315346.3021669        19500883.224186778        485588381.31634796     
   2809877833.4985304        21252851.246661186        669927911.66157234     
   2673407825.5637217        21992354.265748143        658290020.97534823     
   2537078441.3788157        23200603.117843866        649644086.94320381     
   2400889680.9438033        24877597.802912831        643990109.56513357     
   2264841544.2586832        27023338.320967793        641328088.84113872     
   3045656458.5430012       -16590570.233047843        13107690.763909556     
   2882229342.5487785       -13109991.737390995        8714440.6274288259     
   2718944117.4914837       -9156443.4519819021        5109383.0730652986     
   2555800783.3711057       -4729925.3768484592        2292518.1008445974     
   2392799340.1876411        169562.48799920082        263845.71072572801     
   2861722803.4443207       -2306071.0528426170        171478182.27773660     
   2700647956.6608377       -491843.29892611504        164894193.52868202     
   2539654329.1343732        1593115.3117363453        159715992.53077981     
   2378741920.8649549        3948804.7791986465        155943579.28403896     
   2217910731.8525443        6575225.1033985615        153576953.78845048     
   2670275766.0307136        9724413.4329180717        328971745.79521590     
   2513317746.0837479        10401657.732767344        320126234.80705738     
   2356380273.7139339        11147393.956456304        313304106.73908782     
   2199463348.9212723        11961622.103986263        308505361.59129715     
   2042566971.7057521        12844342.175309300        305729999.36368954     
   2471315346.3021669        19500883.224186778        485588381.31634796     
   2320238710.8175373        19570511.357751250        474410564.46255374     
   2169121951.2301722        19506392.482192636        465873725.69796860     
   2017965067.5400634        19308526.597502589        459977865.02260119     
   1866768059.7472150        18976913.703680038        456722982.43645281     
   2264841544.2586832        27023338.320967793        641328088.84113872     
   2121410850.8621912        27014717.575981140        627747182.49516332     
   1977879361.6830759        26670110.888921976        617424849.40744066     
   1834247076.7213335        25989518.259774327        610361089.57796776     
   1690513995.9769776        24972939.688560605        606555903.00673866     
   2392799340.1876411        169562.48799920082        263845.71072572801     
   2249895535.5029683        6620321.2059152126       -6357300.8945413316     
   2103897298.7627385        2756306.4052767754       -10960757.281307777     
   1954804629.9670177       -11422481.913654327       -13546523.449574888     
   1802617529.1157088       -35916043.751200914       -14114599.399333699     
   2217910731.8525443        6575225.1033985615        153576953.78845048     
   2079145372.2360504        12832677.912324548        143390858.45213637     
   1938328211.1642632        12250792.536972761        134415101.23646635     
   1795459248.6371541        4829568.9772088528        126649682.14140964     
   1650538484.6547461       -9430992.7668960094        120094601.16698165     
   2042566971.7057521        12844342.175309300        305729999.36368954     
   1905633336.8777678        18216472.991390944        293195357.66329932     
   1767690531.1947269        20224700.957245588        281063701.98565573     
   1628738554.6566303        18869026.072927713        269335032.33075446     
   1488777407.2634540        14149448.338350117        258009348.69859144     
   1866768059.7472150        18976913.703680038        456722982.43645281     
   1729359429.4281154        22771706.443013072        443056196.73891073     
   1591984258.8541741        26678031.666239083        428985044.96624571     
   1454642548.0254188        30695889.373413265        414509527.11844856     
   1317334296.9418373        34825279.564478815        399629643.19551295     
   1690513995.9769776        24972939.688560605        606555903.00673866     
   1550323649.8870802        26498378.267227173        592973375.67900169     
   1411209394.1426110        31610784.663964450        578179130.17825580     
   1273171228.7435415        40310158.878701210        562173166.50449157     
   1136209153.6898851        52596500.911493480        544955484.65772498     
   1802617529.1157088       -35916043.751200914       -14114599.399333699     
   1771746694.1398604       -16600299.030623555       -8464480.3495117836     
   1748858924.2715225        29325662.714978099       -41577058.980699293     
   1733954219.5106633        101861841.48551977       -113452335.29291543     
   1727032579.8572984        201008237.28103083       -224090309.28614357     
   1650538484.6547461       -9430992.7668960094        120094601.16698165     
   1527912837.7005589       -13869220.258093596        135628216.54523349     
   1409405233.3958118       -4580638.9178523421        124825590.90081567     
   1295015671.7404864        18434751.253818929        87686724.233708322     
   1184744152.7345834        55176950.256877363        24211616.543947998     
   1488777407.2634540        14149448.338350117        258009348.69859144     
   1309901110.2119107       -3391502.8003643155        278917267.53752792     
   1131277833.3517327       -20089053.301190019        285915402.01214093     
   952907576.68291235       -35943203.164153337        279003752.12241250     
   774790340.20546985       -50953952.389195651        258182317.86835042     
   1317334296.9418373        34825279.564478815        399629643.19551295     
   1117711511.6739185        14832853.342573285        421402672.62738979     
   914476724.13929069       -17199580.435024917        441692374.35327107     
   707629934.33796000       -61272021.768299550        460498748.37316912     
   497171142.26992708       -117384470.65725082        477821794.68707198     
   1136209153.6898851        52596500.911493480        544955484.65772498     
   951344042.08657014        40803848.170674205        563084431.81479251     
   759001905.75848126        4087779.6806299388        592156507.92420828     
   559182744.70562172       -57551704.558651567        632171712.98598921     
   351886558.92799234       -144114604.54718357        683130047.00011849     
   1727032579.8572984        201008237.28103083       -224090309.28614357     
   1456513026.2859282        184467031.43351817       -96564440.984699026     
   1153873114.7712510        60857965.774981201        60118575.402105905     
   819112845.31326783       -169818959.69456965        245958739.87425071     
   452232217.91198325       -507563744.97513640        460956052.43174565     
   1184744152.7345834        55176950.256877363        24211616.543947998     
   977645883.02603149        11800627.233738005        155605047.24001330     
   732756715.62491238       -157545354.76461434        312819652.17034346     
   450076650.53124237       -452860995.73816395        495855431.33494741     
   129605687.74502593       -874146295.68686867        704712384.73380852     
   774790340.20546985       -50953952.389195651        258182317.86835042     
   621582000.49947047       -124024798.74607480        386827681.25157720     
   424912223.35168135       -341967103.24226439        537958245.01798868     
   184781008.76206103       -704780865.87787831        711574009.16756821     
  -98811643.269364595       -1212466086.6528575        907674973.70032990     
   497171142.26992708       -117384470.65725082        477821794.68707198     
   388321378.70625174       -223009246.50586817        597103461.05000198     
   230339637.95151311       -492407279.65804213        735534353.94502568     
   23225920.005705714       -925578570.11378503        893114473.37214053     
  -233019775.13117576       -1522523117.8730860        1069843819.3313291     
   351886558.92799234       -144114604.54718357        683130047.00011849     
   277864017.64637572       -285152716.04566550        786432386.63529313     
   149038959.42444590       -608865884.01186967        905547978.95144868     
  -34588615.737815142       -1115254108.4458163        1040476823.9486196     
  -273018707.84038246       -1804317389.3475063        1191218921.6267893     
   4622014998.8508387        228658563.11442542        773853751.48248088     
   4441137941.3033237        168282113.65793753        749105736.06441486     
   4263420699.5015988        118438383.35408235        730757308.32934821     
   4088863273.4456735        79127372.202878237        718808468.27728474     
   3917465663.1355371        50349080.204311609        713259215.90822065     
   4181526143.0180783        112784322.35013175        830870710.74565613     
   4024765559.4209785        80850720.555988312        816544649.48411715     
   3869530429.6577778        54001964.874835253        807806400.27166116     
   3715820753.7284784        32238055.306680918        804655963.10828710     
   3563636531.6330776        15558991.851519585        807093337.99400437     
   3764165195.9053044        3848454.2018303871        896997934.51277804     
   3629201727.3045826       -338107.61617946625        891187071.84388530     
   3494129350.6258554       -4887696.3608469963        890152245.59016490     
   3358948065.8691411       -9800312.0321640968        893893455.75161231     
   3223657873.0344276       -15075954.630132914        902410702.32822907     
   3369932157.5125289       -98149041.330469608        972235422.78385222     
   3254446444.9541292       -75284370.858562469        973033003.14372706     
   3137217462.4058437       -58230600.352953196        977794844.28486228     
   3018245209.8676624       -46987729.813648701        986520946.20725393     
   2897529687.3395967       -41555759.240641236        999211308.91089404     
   2998827027.8397408       -193208164.24677348        1056583175.5588634     
   2900499712.3696270       -143988069.17115867        1062082443.3836405     
   2798794764.9977298       -106026747.10149145        1070734196.3557521     
   2693712185.7240462       -79324198.037771702        1082538434.4752071     
   2585251974.5485802       -63880421.979998827        1097495157.7419999     
   3917465663.1355371        50349080.204311609        713259215.90822065     
   3788322806.3446832        40778520.163129568        698226217.64009273     
   3660326489.3475571        35029759.434370756        688750630.39676785     
   3533476712.1441607        33102798.018039703        684832454.17825186     
   3407773474.7344871        34997635.914118767        686471688.98452926     
   3563636531.6330776        15558991.851519585        807093337.99400437     
   3450183835.0494905        13784997.271053553        797528330.94661844     
   3337372021.7008948        14147280.140562057        792676059.46600842     
   3225201091.5872989        16645840.460055709        792536523.55217445     
   3113671044.7086897        21280678.229516506        797109723.20511830     
   3223657873.0344276       -15075954.630132914        902410702.32822907     
   3123481978.2066016       -9777391.2853398323        897723753.84973001     
   3023441310.0550385       -4028072.3530042171        896904865.47997868     
   2923535868.5797343        2172002.1668576002        899954037.21897686     
   2823765653.7806883        8822832.2742550373        906871269.06671941     
   2897529687.3395967       -41555759.240641236        999211308.91089404     
   2808217235.8160238       -29908645.506033778        998812486.34942472     
   2718534354.4099789       -19496298.046330214        1001437048.4386768     
   2628481043.1214609       -10318716.861546397        1007084995.1786515     
   2538057301.9504638       -2375901.9516763687        1015756326.5693439     
   2585251974.5485802       -63880421.979998827        1097495157.7419999     
   2504389607.8777504       -46608765.391043305        1100794528.4457073     
   2422651154.7657185       -32257396.939427853        1106272608.3421080     
   2340036615.2124805       -20826316.625172973        1113929397.4312000     
   2256545989.2180347       -12315524.448265672        1123764895.7129860     
   3407773474.7344871        34997635.914118767        686471688.98452926     
   3258284420.4123869        31510959.703554153        675321583.29104757     
   3108805462.0990257        28057936.855447531        668847585.17272460     
   2959336599.7944083        24638567.369822383        667049694.62956405     
   2809877833.4985304        21252851.246661186        669927911.66157234     
   3113671044.7086897        21280678.229516506        797109723.20511830     
   2976607950.1550050        19315843.116229534        787395917.81268919     
   2839603032.6431041        17544931.475545883        782213241.33681452     
   2702656292.1729803        15967943.307457566        781561693.77749276     
   2565767728.7446408        14584878.611971140        785441275.13472307     
   2823765653.7806883        8822832.2742550373        906871269.06671941     
   2698714294.2565341        8255570.8365907669        898649858.51389396     
   2573769192.8072004        8042502.9816455841        894814598.21901441     
   2448930349.4326906        8183628.7094374895        895365488.18207514     
   2324197764.1329861        8678948.0199465752        900302528.40308189     
   2538057301.9504638       -2375901.9516763687        1015756326.5693439     
   2424603452.7169623       -1669857.1353861094        1009083405.3946650     
   2311303942.5913124       -449348.62624967098        1006651655.8193222     
   2198158771.5735240        1285623.5757545233        1008461077.8433114     
   2085167939.6635864        3535059.4705976248        1014511671.4666319     
   2256545989.2180347       -12315524.448265672        1123764895.7129860     
   2154275425.5362949       -10460440.799683332        1118696558.4549994     
   2052207281.9954436       -7930623.3481342793        1117724414.1377394     
   1950341558.5954888       -4726072.0935971737        1120848462.7612021     
   1848678255.3364320       -846787.03607106209        1128068704.3253860     
   2809877833.4985304        21252851.246661186        669927911.66157234     
   2673407825.5637217        21992354.265748143        658290020.97534823     
   2537078441.3788157        23200603.117843866        649644086.94320381     
   2400889680.9438033        24877597.802912831        643990109.56513357     
   2264841544.2586832        27023338.320967793        641328088.84113872     
   2565767728.7446408        14584878.611971140        785441275.13472307     
   2437759019.5277882        16268525.088777065        775048882.52247000     
   2309957685.9563150        18643423.716833353        767955345.31817412     
   2182363728.0302148        21709574.496140003        764160663.52183640     
   2054977145.7494855        25466977.426682591        763664837.13344479     
   2324197764.1329861        8678948.0199465752        900302528.40308189     
   2205527207.2166109        11569794.029219389        891233511.07618535     
   2087130777.8410897        15374398.508005857        885770247.91112518     
   1969008476.0064178        20092761.456288099        883912738.90790248     
   1851160301.7125978        25724882.874080420        885660984.06652081     
   2085167939.6635864        3535059.4705976248        1014511671.4666319     
   1976712388.6302011        7896161.0870952606        1006843906.6364833     
   1868597717.0331461        13393527.491361022        1003088794.7220533     
   1760823924.8724158        20027158.683379889        1003246335.7233462     
   1653391012.1480188        27797054.663179278        1007316529.6403499     
   1848678255.3364320       -846787.03607106209        1128068704.3253860     
   1751314563.7685466        5247626.2623946667        1121880069.2033753     
   1654358503.5324771        12700810.666898549        1119910985.7509675     
   1557810074.6282094        21512766.177412510        1122161453.9681582     
   1461669277.0557473        31683492.793956757        1128631473.8549454     
   2264841544.2586832        27023338.320967793        641328088.84113872     
   2121410850.8621912        27014717.575981140        627747182.49516332     
   1977879361.6830759        26670110.888921976        617424849.40744066     
   1834247076.7213335        25989518.259774327        610361089.57796776     
   1690513995.9769776        24972939.688560605        606555903.00673866     
   2054977145.7494855        25466977.426682591        763664837.13344479     
   1920690235.1261532        27256556.958587766        752110926.38752890     
   1786263382.9920621        28579664.787962437        743917152.14497471     
   1651696589.3471889        29436300.914736986        739083514.40578198     
   1516989854.1915531        29826465.338962495        737610013.16994762     
   1851160301.7125978        25724882.874080420        885660984.06652081     
   1726307354.5627537        29399716.892999172        876088398.90448403     
   1601275320.1740015        32477593.448868930        869977513.49092627     
   1476064198.5463350        34958512.541693509        867328327.82584417     
   1350673989.6797452        36842474.171459317        868140841.90923584     
   1653391012.1480188        27797054.663179278        1007316529.6403499     
   1538262209.1719937        33444197.379195988        999679600.04602385     
   1422915173.2289135        38363896.871683776        995605933.44529748     
   1307349904.3187683        42556153.140629470        995095529.83815527     
   1191566402.4415660        46020966.186049819        998148389.22460783     
   1461669277.0557473        31683492.793956757        1128631473.8549454     
   1356554798.9538710        39389998.417180479        1122884529.8121643     
   1251182942.1567810        46238575.056372106        1120802412.0080881     
   1145553706.6644940        52229222.711569905        1122385120.4427209     
   1039667092.4769892        57361941.382707715        1127632655.1160510     
   1690513995.9769776        24972939.688560605        606555903.00673866     
   1550323649.8870802        26498378.267227173        592973375.67900169     
   1411209394.1426110        31610784.663964450        578179130.17825580     
   1273171228.7435415        40310158.878701210        562173166.50449157     
   1136209153.6898851        52596500.911493480        544955484.65772498     
   1516989854.1915531        29826465.338962495        737610013.16994762     
   1375015428.6134439        28203662.336851239        728212888.62571645     
   1233291278.4144938        27415110.598605156        719381630.70527256     
   1091817403.5947139        27460810.124255776        711116239.40863001     
   950593804.15408838        28340760.913760126        703416714.73577476     
   1350673989.6797452        36842474.171459317        868140841.90923584     
   1211994298.3185692        33595073.700087249        861965669.35455084     
   1072739067.3703095        28429207.938438177        858133948.22046685     
   932908296.83496857        21344876.886521459        856645678.50697720     
   792501986.71254563        12342080.544322938        857500860.21408617     
   1191566402.4415660        46020966.186049819        998148389.22460783     
   1061260259.0024662        42672612.356949687        994231717.86551690     
   929552761.01005399        34653076.683456928        994436082.72383213     
   796443908.46430516        21962359.165511847        998761483.79954338     
   661933701.36522603        4600459.8031327724        1007207921.0926636     
   1039667092.4769892        57361941.382707715        1127632655.1160510     
   922813310.66514969        55436278.307478160        1125011034.1586039     
   803732359.33372486        46086716.833638579        1128288034.2153680     
   682424238.48273647        29313256.961250216        1137463655.2863264     
   558888948.11215746        5115898.6902378201        1152537897.3714998     
   1136209153.6898851        52596500.911493480        544955484.65772498     
   951344042.08657014        40803848.170674205        563084431.81479251     
   759001905.75848126        4087779.6806299388        592156507.92420828     
   559182744.70562172       -57551704.558651567        632171712.98598921     
   351886558.92799234       -144114604.54718357        683130047.00011849     
   950593804.15408838        28340760.913760126        703416714.73577476     
   791452329.14607418        11159165.879340023        721364383.64988577     
   623696062.39378726       -34738401.635994881        749399938.44501781     
   447325003.89723641       -109351941.63221118        787523379.12116218     
   262339153.65641636       -212681454.10931620        835734705.67833197     
   792501986.71254563        12342080.544322938        857500860.21408617     
   656640596.66743267       -10961522.273456156        873939856.02916765     
   511026647.85855579       -66773654.303794324        899611494.65391910     
   355660140.28592581       -155094315.54663497        934515776.08836520     
   190541073.94952428       -275923506.00205028        978652700.33248770     
   661933701.36522603        4600459.8031327724        1007207921.0926636     
   546908844.65063131       -25558216.287717789        1020810848.9526227     
   420993662.15279013       -92017978.322733998        1042791176.5509393     
   284188153.87168926       -194778826.30194324        1073148903.8876014     
   136492319.80732208       -333840760.22537410        1111884030.9626048     
   558888948.11215746        5115898.6902378201        1152537897.3714998     
   462257073.09570324       -32630916.163367420        1161977362.4202795     
   353597105.27647889       -110471373.69286732        1178938984.1360662     
   232909044.65452939       -228405473.89812601        1203422762.5188670     
   100192891.22981220       -386433216.77927685        1235428697.5686746     
   351886558.92799234       -144114604.54718357        683130047.00011849     
   277864017.64637572       -285152716.04566550        786432386.63529313     
   149038959.42444590       -608865884.01186967        905547978.95144868     
  -34588615.737815142       -1115254108.4458163        1040476823.9486196     
  -273018707.84038246       -1804317389.3475063        1191218921.6267893     
   262339153.65641636       -212681454.10931620        835734705.67833197     
   223630535.68806225       -352296212.01168871        885077256.16221619     
   140678413.78904620       -639389316.34959817        945442644.14543200     
   13482787.959358871       -1073960767.1230950        1016830869.6279809     
  -157956341.80100411       -1656010564.3321471        1099241932.6098332     
   190541073.94952428       -275923506.00205028        978652700.33248770     
   173459478.77536547       -418220980.46401691        986354310.17636466     
   122693392.68018419       -672800091.32939196        1000288342.3378872     
   38242815.663988769       -1039660838.5981402        1020454796.8170556     
  -79892252.273215234       -1518803222.2702646        1046853673.6139028     
   136492319.80732208       -333840760.22537410        1111884030.9626048     
   127350846.90828747       -482927021.40266442        1090263548.6777306     
   95083896.097878397       -709098208.95119894        1070085073.5288322     
   39691467.376117349       -1012354322.8709078        1051348605.5159060     
  -38826439.257015884       -1392695363.1618588        1034054144.6389716     
   100192891.22981220       -386433216.77927685        1235428697.5686746     
   85304640.086823910       -546414334.82762766        1196804971.6663244     
   57849924.042113066       -748283669.21507037        1154832837.7182484     
   17828743.095706940       -992041219.94148326        1109512295.7244899     
  -34758902.752405941       -1277686987.0069301        1060843345.6850466     
   2998827027.8397408       -193208164.24677348        1056583175.5588634     
   2900499712.3696270       -143988069.17115867        1062082443.3836405     
   2798794764.9977298       -106026747.10149145        1070734196.3557521     
   2693712185.7240462       -79324198.037771702        1082538434.4752071     
   2585251974.5485802       -63880421.979998827        1097495157.7419999     
   2687699773.2487535       -79364597.201604128        1190407312.5862727     
   2589286954.5777907       -64296575.415317297        1184003235.2426565     
   2489979178.2972603       -52211745.660931230        1182262148.7408876     
   2389776444.4071565       -43110107.938451648        1185184053.0809767     
   2288678752.9074774       -36991662.247883081        1192768948.2629173     
   2347526078.2748318        25765037.728684783        1309657675.8935885     
   2253343486.9587808        7975705.3923776150        1294246706.7224860     
   2160748612.3253655       -4521238.0017982721        1285009234.0877535     
   2069741454.3745899       -11725792.453839660        1281945257.9893875     
   1980322013.1064594       -13637957.963745356        1285054778.4273865     
   1978305942.9179728        122180740.54409164        1414334265.4807982     
   1892669309.5125792        72828773.251913905        1392812857.8231337     
   1811103067.0820398        37044775.875903606        1378975452.3963473     
   1733607215.6263530        14828748.416073680        1372822049.2004428     
   1660181755.1455169        6180690.8724201918        1374352648.2354183     
   1580039367.1781764        209882511.24461901        1504437081.3479116     
   1507264422.2392015        130262628.16329563        1479701688.5445952     
   1441042542.5672870        72486295.972177148        1464160803.6666706     
   1381373728.1624398        36553514.671283305        1457814426.7141404     
   1328257979.0246580        22464284.260604084        1460662557.6870074     
   2585251974.5485802       -63880421.979998827        1097495157.7419999     
   2504389607.8777504       -46608765.391043305        1100794528.4457073     
   2422651154.7657185       -32257396.939427853        1106272608.3421080     
   2340036615.2124805       -20826316.625172973        1113929397.4312000     
   2256545989.2180347       -12315524.448265672        1123764895.7129860     
   2288678752.9074774       -36991662.247883081        1192768948.2629173     
   2212757475.3791299       -25578186.534469485        1191484328.6135764     
   2136242434.0305381       -16143923.555198312        1193173725.4678121     
   2059133628.8617043       -8688873.3100743294        1197837138.8256102     
   1981431059.8726273       -3213035.7990851402        1205474568.6869862     
   1980322013.1064594       -13637957.963745356        1285054778.4273865     
   1911614131.3230982       -7400971.1451226473        1279515544.8161247     
   1842594808.3404560       -2202121.6574324369        1277745635.0193162     
   1773264044.1585319        1958590.4993152618        1279745049.0369508     
   1703621838.7773259        5081165.3251240253        1285513786.8690376     
   1660181755.1455169        6180690.8724201918        1374352648.2354183     
   1600959575.7096505        7922880.7769996524        1364888177.0533588     
   1541708277.6954629        9568008.7538501620        1359988336.9966252     
   1482427861.1029582        11116074.802969635        1359653128.0652146     
   1423118325.9321370        12567078.924371839        1363882550.2591355     
   1328257979.0246580        22464284.260604084        1460662557.6870074     
   1280793808.5387917        20393369.231898546        1447602225.3252702     
   1233582842.0955698        19166467.678670943        1439901831.3997381     
   1186625079.6949904        18783579.600919485        1437561375.9104090     
   1139920521.3370533        19244704.998644531        1440580858.8572826     
   2256545989.2180347       -12315524.448265672        1123764895.7129860     
   2154275425.5362949       -10460440.799683332        1118696558.4549994     
   2052207281.9954436       -7930623.3481342793        1117724414.1377394     
   1950341558.5954888       -4726072.0935971737        1120848462.7612021     
   1848678255.3364320       -846787.03607106209        1128068704.3253860     
   1981431059.8726273       -3213035.7990851402        1205474568.6869862     
   1889851418.0004649       -2457160.2351427078        1199856032.4632187     
   1798498392.6416583       -945896.29335117340        1198618752.7102420     
   1707371983.7962065        1320756.0262942314        1201762729.4280565     
   1616472191.4641104        4342796.7237854004        1209287962.6166620     
   1703621838.7773259        5081165.3251240253        1285513786.8690376     
   1623547585.9435110        4982172.9730615616        1279373280.7806892     
   1543724145.9955115        5719223.5737259984        1277899094.6932013     
   1464151518.9333243        7292317.1270987391        1281091228.6065724     
   1384829704.7569561        9701453.6331922412        1288949682.5208025     
   1423118325.9321370        12567078.924371839        1363882550.2591355     
   1355363929.3654332        11857558.824938357        1357248303.4074111     
   1287884542.0570049        12064736.253090501        1355565440.0866172     
   1220680164.0068507        13188611.208829224        1358833960.2967503     
   1153750795.2149754        15229183.692150891        1367053864.0378091     
   1139920521.3370533        19244704.998644531        1440580858.8572826     
   1085300448.2662249        18168997.320464253        1433481100.3433883     
   1030979580.8261377        18090641.744755268        1431617788.8904884     
   976957919.01678014        19009638.271479368        1434990924.4985857     
   923235462.83815837        20925986.900658906        1443600507.1676784     
   1848678255.3364320       -846787.03607106209        1128068704.3253860     
   1751314563.7685466        5247626.2623946667        1121880069.2033753     
   1654358503.5324771        12700810.666898549        1119910985.7509675     
   1557810074.6282094        21512766.177412510        1122161453.9681582     
   1461669277.0557473        31683492.793956757        1128631473.8549454     
   1616472191.4641104        4342796.7237854004        1209287962.6166620     
   1529989769.3585079        9478843.6913171411        1203781686.9501638     
   1443800815.4881833        15593118.109772086        1202647228.3537240     
   1357905329.8531308        22685619.979134679        1205884586.8273492     
   1272303312.4533634        30756349.299448848        1213493762.3710351     
   1384829704.7569561        9701453.6331922412        1288949682.5208025     
   1309663596.1149607        14009647.470178902        1283992576.0305264     
   1234676792.6117136        18915525.102992892        1283559552.0107727     
   1159869294.2472124        24419086.531621516        1287650610.4615500     
   1085241101.0214596        30520331.756088197        1296265751.3828545     
   1153750795.2149754        15229183.692150891        1367053864.0378091     
   1090336044.0379133        18840037.598998129        1362512736.4444678     
   1026986434.9030724        22668031.646568954        1362647956.7221124     
   963701967.81044662        26713165.834862411        1367459524.8707583     
   900482642.76003623        30975440.163870007        1376947440.8903952     
   923235462.83815837        20925986.900658906        1443600507.1676784     
   872007113.12735963        23970014.077752054        1439342168.1919854     
   820729742.36225152        26850637.740477741        1439912442.4877534     
   769403350.54282451        29567857.888811469        1445311330.0549777     
   718027937.66909266        32121674.522795767        1455538830.8936589     
   1461669277.0557473        31683492.793956757        1128631473.8549454     
   1356554798.9538710        39389998.417180479        1122884529.8121643     
   1251182942.1567810        46238575.056372106        1120802412.0080881     
   1145553706.6644940        52229222.711569905        1122385120.4427209     
   1039667092.4769892        57361941.382707715        1127632655.1160510     
   1272303312.4533634        30756349.299448848        1213493762.3710351     
   1176612799.8693535        35911111.800773323        1208528543.7810776     
   1080701730.0849743        40330683.634210408        1207736566.9942908     
   984570103.10023832        44015064.799786210        1211117832.0106702     
   888217918.91514134        46964255.297492117        1218672338.8302174     
   1085241101.0214596        30520331.756088197        1296265751.3828545     
   1000427169.8537858        33559135.905039430        1292125216.6563685     
   915429502.98059475        35985487.702276826        1292666339.2975173     
   830248100.40188944        37799387.147797972        1297889119.3063064     
   744882962.11767185        39000834.241606712        1307793556.6827264     
   900482642.76003623        30975440.163870007        1376947440.8903952     
   827997908.90717220        32334070.729990959        1373674548.4380374     
   755366260.84364271        33202987.260571569        1375591728.9177828     
   682587698.56944573        33582189.755582869        1382698982.3296254     
   609662222.08457756        33471678.215028822        1394996308.6735778     
   718027937.66909266        32121674.522795767        1455538830.8936589     
   659325017.02951610        32235916.275643021        1453176539.1260865     
   600512003.67411816        31983182.309091151        1456512735.8550789     
   541588897.60289276        31363472.623114198        1465547421.0806413     
   482555698.81585449        30376787.217755720        1480280594.8027682     
   1039667092.4769892        57361941.382707715        1127632655.1160510     
   922813310.66514969        55436278.307478160        1125011034.1586039     
   803732359.33372486        46086716.833638579        1128288034.2153680     
   682424238.48273647        29313256.961250216        1137463655.2863264     
   558888948.11215746        5115898.6902378201        1152537897.3714998     
   888217918.91514134        46964255.297492117        1218672338.8302174     
   786499580.21342301        44585919.204454422        1216265227.6346428     
   682550580.97420561        34772047.986425936        1219706606.9752219     
   576370921.19747972        17522641.643370092        1228996476.8519478     
   467960600.88325202       -7162299.8246997893        1244134837.2648315     
   744882962.11767185        39000834.241606712        1307793556.6827264     
   658156836.58877480        36126856.149579287        1305596882.3947794     
   569196559.50445199        25805706.206130475        1309198568.1649275     
   478002130.86469257        8037384.4112311006        1318598613.9931703     
   384573550.66951579       -17178109.235066727        1333797019.8795025     
   609662222.08457756        33471678.215028822        1394996308.6735778     
   537785079.79120159        30059089.142830759        1393005998.4390054     
   463670294.92446297        19187691.492764011        1396763917.7844801     
   387317867.48437393        857485.26485584676        1406270066.7099810     
   308727797.47092909       -24931529.540898710        1421524445.2155282     
   482555698.81585449        30376787.217755720        1480280594.8027682     
   425384309.82068849        26382618.184173629        1478492575.7673266     
   365971787.23424691        14918003.846342713        1482402655.8338754     
   304318131.05650979       -4017055.7958096862        1492010835.0023992     
   240423341.28750592       -30422560.742181659        1507317113.2729034     
   558888948.11215746        5115898.6902378201        1152537897.3714998     
   462257073.09570324       -32630916.163367420        1161977362.4202795     
   353597105.27647889       -110471373.69286732        1178938984.1360662     
   232909044.65452939       -228405473.89812601        1203422762.5188670     
   100192891.22981220       -386433216.77927685        1235428697.5686746     
   467960600.88325202       -7162299.8246997893        1244134837.2648315     
   390391008.60910547       -41400098.915982872        1242670470.0029523     
   302653125.64042640       -109532200.32237707        1247537467.6229956     
   204746951.97720844       -211558604.04389268        1258735830.1249614     
   96672487.619465277       -347479310.08050054        1276265557.5088463     
   384573550.66951579       -17178109.235066727        1333797019.8795025     
   322663978.89456600       -48927571.236952528        1323598589.4332223     
   252445918.53329495       -108371995.19323550        1318540732.0837767     
   173919369.58571410       -195511381.10389093        1318623447.8311641     
   87084332.051814944       -310345728.96893513        1323846736.6753800     
   308727797.47092909       -24931529.540898710        1421524445.2155282     
   259075983.95205796       -55213333.126336887        1404761720.7111070     
   202975483.95509574       -106990758.30541174        1391948777.5184195     
   140426297.48003513       -180263805.07814816        1383085615.6374819     
   71428424.526875913       -275032473.44454640        1378172235.0682766     
   240423341.28750592       -30422560.742181659        1507317113.2729034     
   199627023.78160587       -60257384.584084481        1486159863.8365884     
   154241821.90583217       -105388489.65889400        1467761603.9269221     
   104267735.66017208       -165815875.96666229        1452122333.5439072     
   49704765.044631556       -241539543.50736257        1439242052.6875436     
   100192891.22981220       -386433216.77927685        1235428697.5686746     
   85304640.086823910       -546414334.82762766        1196804971.6663244     
   57849924.042113066       -748283669.21507037        1154832837.7182484     
   17828743.095706940       -992041219.94148326        1109512295.7244899     
  -34758902.752405941       -1277686987.0069301        1060843345.6850466     
   96672487.619465277       -347479310.08050054        1276265557.5088463     
   79744643.636726379       -488721067.51725125        1221957422.8452947     
   51447702.977557868       -667859813.87543118        1165104310.8249581     
   11781665.641957581       -884895549.15504766        1105706221.4478202     
  -39253468.370060563       -1139828273.3560762        1043763154.7139025     
   87084332.051814944       -310345728.96893513        1323846736.6753800     
   70412411.483350396       -432159470.91783166        1255251122.8468051     
   43568762.463722587       -587878974.37059605        1184913962.3503466     
   6553384.9929499626       -777504239.32716596        1112835255.1859946     
  -40633720.928980649       -1001035265.7876154        1039015001.3537560     
   71428424.526875913       -275032473.44454640        1378172235.0682766     
   57307943.626684457       -376729545.02940577        1296686071.6708400     
   34213102.500617653       -508341150.70052510        1214261792.2944057     
   2143901.1486670971       -669867290.45791185        1130899396.9389961     
  -38899660.429145932       -861307964.30152130        1046598885.6046019     
   49704765.044631556       -241539543.50736257        1439242052.6875436     
   40431240.066726804       -322431289.85198730        1346262269.3173964     
   23380723.088227659       -429246342.86526299        1253147800.6571591     
  -1446785.8908655941       -561984702.54717863        1159898646.7068486     
  -34051286.870570421       -720646368.89780509        1066514807.4664454     
   1580039367.1781764        209882511.24461901        1504437081.3479116     
   1507264422.2392015        130262628.16329563        1479701688.5445952     
   1441042542.5672870        72486295.972177148        1464160803.6666706     
   1381373728.1624398        36553514.671283305        1457814426.7141404     
   1328257979.0246580        22464284.260604084        1460662557.6870074     
   1125177975.8199534        107382351.82370919        1475223706.8359277     
   1085697165.0400403        68476854.215913296        1465623579.6652532     
   1049430633.0476311        40285619.233137429        1463044189.5822701     
   1016378379.8427312        22808646.875387251        1467485536.5869694     
   986540405.42533839        16045937.142662525        1478947620.6793501     
   700386680.70841229        13903221.276805729        1459775705.9341226     
   687989230.26552844        13848876.995931804        1461415593.5032854     
   675467272.13059402        13379507.074883223        1467902447.3224194     
   662820806.30360866        12495111.513668716        1479236267.3915277     
   650049832.78457105        11195690.312279910        1495417053.7106073     
   305665481.84354973       -70554880.396095887        1458093078.6425045     
   314140617.91566807       -33621303.496654764        1467077730.0586791     
   319152459.81617463       -8232040.5025839657        1478735576.8871157     
   320701007.54507351        5612908.5861272216        1493066619.1278145     
   318786261.10236120        7913543.7694695741        1510070856.7807751     
  -58985620.774629913       -145991953.19499096        1470175824.9610658     
  -35848672.009544149       -73933687.261848584        1482609989.3314369     
  -19513803.895627249       -24549023.499268372        1495543578.2763574     
  -9981016.4328782726        2162038.0927534755        1508976591.7958317     
  -7250309.6212957334        6199497.5142184533        1522909029.8898535     
   1328257979.0246580        22464284.260604084        1460662557.6870074     
   1280793808.5387917        20393369.231898546        1447602225.3252702     
   1233582842.0955698        19166467.678670943        1439901831.3997381     
   1186625079.6949904        18783579.600919485        1437561375.9104090     
   1139920521.3370533        19244704.998644531        1440580858.8572826     
   986540405.42533839        16045937.142662525        1478947620.6793501     
   952415700.63262153        13437072.567929864        1467914396.9340241     
   918663440.74729586        12069691.017827809        1461906504.4116948     
   885283625.76935983        11943792.492361784        1460923943.1123590     
   852276255.69881380        13059376.991528779        1464966713.0360181     
   650049832.78457105        11195690.312279910        1495417053.7106073     
   628308573.07584167        7762070.0087781549        1486550052.9238954     
   607058999.13924670        5967402.2790587842        1482373776.1469700     
   586301110.97478676        5811687.1231213212        1482888223.3798327     
   566034908.58246291        7294924.5409730077        1488093394.6224794     
   318786261.10236120        7913543.7694695741        1510070856.7807751     
   308472425.86844969        3368361.5544429123        1503509193.2948787     
   298769517.27141905        859601.46235123277        1501303646.6055615     
   289677535.31127280        387263.49320861697        1503454216.7128243     
   281196479.98800248        1951347.6469843388        1509960903.6166630     
  -7250309.6212957334        6199497.5142184533        1522909029.8898535     
  -7092740.9895520387        255947.20492636506        1518791818.0469778     
  -6205004.8561843503       -3253711.4322857410        1518696115.7874720     
  -4587101.2211893722       -4329478.3974068854        1522621923.1113360     
  -2239030.0845660074       -2971353.6904334072        1530569240.0185711     
   1139920521.3370533        19244704.998644531        1440580858.8572826     
   1085300448.2662249        18168997.320464253        1433481100.3433883     
   1030979580.8261377        18090641.744755268        1431617788.8904884     
   976957919.01678014        19009638.271479368        1434990924.4985857     
   923235462.83815837        20925986.900658906        1443600507.1676784     
   852276255.69881380        13059376.991528779        1464966713.0360181     
   811475800.62427723        12667841.573347986        1458634641.3793845     
   770850684.54378819        12860769.468657523        1457538712.1373675     
   730400907.45734322        13638160.677447170        1461678925.3099625     
   690126469.36494970        15000015.199743390        1471055280.8971736     
   566034908.58246291        7294924.5409730077        1488093394.6224794     
   539053201.08598375        7587300.2573105097        1482384498.7469728     
   512122965.94686460        8051250.4981801212        1481911440.6396983     
   485244203.16510510        8686775.2635811567        1486674220.3006592     
   458416912.74070311        9493874.5535098314        1496672837.7298527     
   281196479.98800248        1951347.6469843388        1509960903.6166630     
   268032649.65135312        2927373.3723822534        1504730672.4461446     
   254796425.03537184        3662084.8333390504        1504735974.3974810     
   241487806.14006174        4155482.0298669934        1509976809.4706681     
   228106792.96542335        4407564.9619663358        1520453177.6657073     
  -2239030.0845660074       -2971353.6904334072        1530569240.0185711     
  -1585853.6796197547       -1311939.0814553038        1525673162.4769068     
  -1128938.1906946646       -306727.52587830176        1526012313.4107134     
  -868283.61778177042        44280.976325060939        1531586692.8199925     
  -803889.96089058835       -258913.57488075268        1542396300.7047393     
   923235462.83815837        20925986.900658906        1443600507.1676784     
   872007113.12735963        23970014.077752054        1439342168.1919854     
   820729742.36225152        26850637.740477741        1439912442.4877534     
   769403350.54282451        29567857.888811469        1445311330.0549777     
   718027937.66909266        32121674.522795767        1455538830.8936589     
   690126469.36494970        15000015.199743390        1471055280.8971736     
   651265050.57726669        17024958.696216613        1467293346.8561585     
   612385995.99296999        18991116.203977406        1468450996.4877691     
   573489305.61205339        20898487.723006040        1474528229.7919946     
   534574979.43452770        22747073.253336072        1485525046.7688422     
   458416912.74070311        9493874.5535098314        1496672837.7298527     
   432182340.30802870        10577708.998930961        1493443924.7574959     
   405961517.33643413        11707374.981284097        1495225565.8589213     
   379754443.82592446        12882872.500586554        1502017761.0341325     
   353561119.77649885        14104201.556837246        1513820510.2831242     
   228106792.96542335        4407564.9619663358        1520453177.6657073     
   214758982.31964982        4628264.9858997613        1517793901.8959882     
   201456306.39265695        4999414.0724367350        1520236150.6012197     
   188198765.18444121        5521012.2215641364        1527779923.7813923     
   174986358.69500619        6193059.4332926124        1540425221.4365129     
  -803889.96089058835       -258913.57488075268        1542396300.7047393     
  -1005023.3878744058       -823373.34288172633        1540343278.2716436     
  -1129636.8383782348       -1132766.5226146835        1543482750.7146556     
  -1177730.3124010684       -1187093.1140776568        1551814718.0337753     
  -1149303.8099440967       -986353.11727599939        1565339180.2290025     
   718027937.66909266        32121674.522795767        1455538830.8936589     
   659325017.02951610        32235916.275643021        1453176539.1260865     
   600512003.67411816        31983182.309091151        1456512735.8550789     
   541588897.60289276        31363472.623114198        1465547421.0806413     
   482555698.81585449        30376787.217755720        1480280594.8027682     
   534574979.43452770        22747073.253336072        1485525046.7688422     
   490697722.06407464        22945093.444812834        1483894342.3253779     
   446731494.34894222        22846545.820688784        1487950172.2603722     
   402676296.28913438        22451430.380980372        1497692536.5738287     
   358532127.88464707        21759747.125679031        1513121435.2657464     
   353561119.77649885        14104201.556837246        1513820510.2831242     
   324475371.05200922        14375753.800002158        1512946035.9301019     
   295321774.35398364        14421146.131378323        1517746141.8374329     
   266100329.68241915        14240378.550959468        1528220828.0051126     
   236811037.03731850        13833451.058752671        1544370094.4331498     
   174986358.69500619        6193059.4332926124        1540425221.4365129     
   160657963.99331892        6527897.3412039801        1540331619.9402628     
   146282843.68923369        6706983.2411237434        1545900644.5862572     
   131860997.78275189        6730317.1330562830        1557132295.3744988     
   117392426.27387330        6597899.0169979855        1574026572.3049800     
  -1149303.8099440967       -986353.11727599939        1565339180.2290025     
  -754499.11200279789       -598475.93159693154        1566051094.3558571     
  -385297.64530916198       -295942.85007535282        1572413680.5068517     
  -41699.409873162935       -78753.872745896704        1584426938.6819828     
   276295.59431059798        53091.000408044390        1602090868.8812485     
   482555698.81585449        30376787.217755720        1480280594.8027682     
   425384309.82068849        26382618.184173629        1478492575.7673266     
   365971787.23424691        14918003.846342713        1482402655.8338754     
   304318131.05650979       -4017055.7958096862        1492010835.0023992     
   240423341.28750592       -30422560.742181659        1507317113.2729034     
   358532127.88464707        21759747.125679031        1513121435.2657464     
   316324804.42644620        18965955.402895674        1509770675.9788532     
   272437333.54282498        10571672.262046024        1511955627.0851517     
   226869715.23376694       -3423102.2969298810        1519676288.5846419     
   179621949.49927512       -23018368.274012774        1532932660.4773288     
   236811037.03731850        13833451.058752671        1544370094.4331498     
   209103811.37669423        12100846.324981473        1540111078.7549660     
   180277424.45649144        6637704.0592824891        1541225384.7611828     
   150331876.27670789       -2555975.7383515984        1547713012.4517996     
   119267166.83734012       -15480193.067935154        1559573961.8268237     
   117392426.27387330        6597899.0169979855        1574026572.3049800     
   103721330.67142490        5787290.9504103810        1569513784.0956647     
   89492059.975243136        3116099.2380478792        1570211928.8619592     
   74704614.185334980       -1415676.1200707853        1576121006.6038604     
   59358993.301691107       -7808035.1239750646        1587241017.3213851     
   276295.59431059798        53091.000408044390        1602090868.8812485     
   177362.31063678756        25289.279177003624        1597978792.0009561     
   81240.099076294297        6857.7983243805720        1598915259.3874798     
  -12071.040348349454       -2203.4420764516772        1604900271.0408289     
  -102571.10767088505       -1894.4421355355917        1615933826.9610007     
   240423341.28750592       -30422560.742181659        1507317113.2729034     
   199627023.78160587       -60257384.584084481        1486159863.8365884     
   154241821.90583217       -105388489.65889400        1467761603.9269221     
   104267735.66017208       -165815875.96666229        1452122333.5439072     
   49704765.044631556       -241539543.50736257        1439242052.6875436     
   179621949.49927512       -23018368.274012774        1532932660.4773288     
   148379495.46746561       -45581775.893964708        1507323165.1270533     
   113694286.56195870       -79621033.092914790        1484625786.8712916     
   75566322.782752708       -125136139.87085980        1464840525.7100322     
   33995604.129844777       -182127096.22780851        1447967381.6432807     
   119267166.83734012       -15480193.067935154        1559573961.8268237     
   98016083.616347983       -30640932.264944784        1530849371.6414683     
   74468375.017843112       -53457089.386994928        1505190026.1184766     
   48624041.041816540       -83928664.434119046        1482595925.2578492     
   20483081.688273586       -122055657.40629642        1463067069.0595891     
   59358993.301691107       -7808035.1239750646        1587241017.3213851     
   48536788.228254125       -15434853.697001085        1556738483.3798230     
   36564087.273481041       -26896658.541148987        1529454321.6684864     
   23440890.437368214       -42193449.656428598        1505388532.1873701     
   9167197.7199234441       -61325227.042814702        1484541114.9364765     
  -102571.10767088505       -1894.4421355355917        1615933826.9610007     
  -58390.696821539765        36459.809834750828        1584990500.3421214     
  -18576.671128290611        60259.444619437956        1557418673.5213153     
   16870.969408061785        69504.462214122279        1533218346.4985852     
   47952.224789553336        64194.862625243230        1512389519.2739360     
   49704765.044631556       -241539543.50736257        1439242052.6875436     
   40431240.066726804       -322431289.85198730        1346262269.3173964     
   23380723.088227659       -429246342.86526299        1253147800.6571591     
  -1446785.8908655941       -561984702.54717863        1159898646.7068486     
  -34051286.870570421       -720646368.89780509        1066514807.4664454     
   33995604.129844777       -182127096.22780851        1447967381.6432807     
   29838938.042069823       -241959418.65249449        1347491051.9907846     
   19851016.825397119       -321229258.17350763        1246225585.8700187     
   4031840.4798192680       -419936614.79087275        1144170983.2810030     
  -17618590.994662583       -538081488.50458860        1041327244.2237033     
   20483081.688273586       -122055657.40629642        1463067069.0595891     
   19573413.981530219       -161389514.06376970        1357364219.4750664     
   14778228.017581865       -213675098.24525601        1250217782.2440891     
   6097523.7964230776       -278912409.95077825        1141627757.3666573     
  -6468698.6819446683       -357101449.18032891        1031594144.8427820     
   9167197.7199234441       -61325227.042814702        1484541114.9364765     
   9634667.8851169124       -80721576.085778713        1375881771.7702279     
   8162356.6647821665       -106583863.08050224        1265124389.7793446     
   4750264.0589481071       -138912088.02688727        1152268968.9638312     
  -601609.93240941316       -177706250.92502409        1037315509.3236715     
   47952.224789553336        64194.862625243230        1512389519.2739360     
   22699.752809492049        44395.281410707190        1403043708.8762836     
   3402.7669997192606        44447.320761717820        1290945408.4758055     
  -9938.7326227914273        64350.980736241559        1176094618.0725136     
  -17324.746062294849        104106.26132425896        1058491337.6663921     
  -58985620.774629913       -145991953.19499096        1470175824.9610658     
  -35848672.009544149       -73933687.261848584        1482609989.3314369     
  -19513803.895627249       -24549023.499268372        1495543578.2763574     
  -9981016.4328782726        2162038.0927534755        1508976591.7958317     
  -7250309.6212957334        6199497.5142184533        1522909029.8898535     
  -377956242.11449718       -78122408.326646462        1489965744.1597016     
  -360671060.80567116       -38675575.245782405        1488725719.6295319     
  -347264625.67125565       -12157896.079624578        1490010626.2166753     
  -337736936.71125323        1430629.1718240678        1493820463.9211345     
  -332087993.92566431        2090000.5085630715        1500155232.7429068     
  -721088177.33150828       -17501257.621448457        1496182730.0614896     
  -703867601.92818785       -8929708.9276322722        1484679073.5203266     
  -687602438.22252452       -3542865.8926750422        1477725854.6392415     
  -672292686.21451879       -1340728.5165742934        1475323073.4182327     
  -657938345.90417004       -2323296.7993317842        1477470729.8573031     
  -1088381426.4256580        35871498.920610487        1488826782.6664226     
  -1065438295.3770965        15303911.692593992        1470470051.0038166     
  -1040527241.5494318        1296067.0615840554        1458689263.5440521     
  -1013648264.9426723       -6152034.9724414349        1453484420.2871253     
  -984801365.55681360       -7040394.4094688296        1454855521.2330368     
  -1479835989.3969505        81995861.299524963        1467897901.9745076     
  -1445383141.1523910        34025286.614917934        1446098652.0800061     
  -1406039035.6519799        2358902.7831484079        1432900852.9311066     
  -1361803672.8957145       -13003290.195770919        1428304504.5278108     
  -1312677052.8835952       -12061292.321847260        1432309606.8701174     
  -7250309.6212957334        6199497.5142184533        1522909029.8898535     
  -7092740.9895520387        255947.20492636506        1518791818.0469778     
  -6205004.8561843503       -3253711.4322857410        1518696115.7874720     
  -4587101.2211893722       -4329478.3974068854        1522621923.1113360     
  -2239030.0845660074       -2971353.6904334072        1530569240.0185711     
  -332087993.92566431        2090000.5085630715        1500155232.7429068     
  -320538074.98736101       -903062.21219038963        1496306178.7340510     
  -308684834.20649761       -2885052.1244104505        1496518079.7802823     
  -296528271.58307761       -3855969.2281068265        1500790935.8816030     
  -284068387.11709416       -3815813.5232613087        1509124747.0380175     
  -657938345.90417004       -2323296.7993317842        1477470729.8573031     
  -634883375.31153846       -2332061.5272119045        1473391847.0802212     
  -611951928.53541970       -2752572.3101310730        1473413364.8299453     
  -589144005.57580280       -3584829.1480578780        1477535283.1064768     
  -566459606.43269610       -4828832.0410197079        1485757601.9098175     
  -984801365.55681360       -7040394.4094688296        1454855521.2330368     
  -950128641.96209252       -4031050.7401592731        1450048823.0854864     
  -916006287.84294462       -2856271.9894276261        1449381970.9364619     
  -882434303.19936836       -3516058.1572676897        1452854964.7859602     
  -849412688.03136790       -6010409.2436965108        1460467804.6339872     
  -1312677052.8835952       -12061292.321847260        1432309606.8701174     
  -1266273874.9390097       -6000029.8509939313        1426277106.7498510     
  -1220847912.1290751       -3196151.1623091102        1424423898.0998292     
  -1176399164.4537663       -3649656.2557122111        1426749980.9200532     
  -1132927631.9131110       -7360545.1312913299        1433255355.2105207     
  -2239030.0845660074       -2971353.6904334072        1530569240.0185711     
  -1585853.6796197547       -1311939.0814553038        1525673162.4769068     
  -1128938.1906946646       -306727.52587830176        1526012313.4107134     
  -868283.61778177042        44280.976325060939        1531586692.8199925     
  -803889.96089058835       -258913.57488075268        1542396300.7047393     
  -284068387.11709416       -3815813.5232613087        1509124747.0380175     
  -270116371.82631755       -3067502.6782117039        1503825629.7566500     
  -256295909.65758961       -2757702.2399940193        1503731414.7805939     
  -242607000.61091346       -2886412.2086133659        1508842102.1098428     
  -229049644.68628854       -3453632.5840703994        1519157691.7443948     
  -566459606.43269610       -4828832.0410197079        1485757601.9098175     
  -539295398.45655859       -5017618.8200293779        1480130937.3150535     
  -512198035.80850643       -5429223.3593225777        1479678848.8554263     
  -485167518.48853779       -6063645.6588961482        1484401336.5309422     
  -458203846.49665433       -6920885.7187504172        1494298400.3415918     
  -849412688.03136790       -6010409.2436965108        1460467804.6339872     
  -809122933.57034481       -7162287.5069081783        1454589085.1521132     
  -768835316.64344418       -8321290.8838625550        1453854615.6352124     
  -728549837.25065482       -9487419.3745218217        1458264396.0832825     
  -688266495.39198732       -10660672.978920549        1467818426.4963288     
  -1132927631.9131110       -7360545.1312913299        1433255355.2105207     
  -1079598977.1676781       -9501508.7388576865        1427200073.2678297     
  -1026207752.1623964       -11433904.813591897        1426258715.1199493     
  -972753956.89726901       -13157733.355507016        1430431280.7668738     
  -919237591.37228835       -14672994.364581108        1439717770.2086065     
  -803889.96089058835       -258913.57488075268        1542396300.7047393     
  -1005023.3878744058       -823373.34288172633        1540343278.2716436     
  -1129636.8383782348       -1132766.5226146835        1543482750.7146556     
  -1177730.3124010684       -1187093.1140776568        1551814718.0337753     
  -1149303.8099440967       -986353.11727599939        1565339180.2290025     
  -229049644.68628854       -3453632.5840703994        1519157691.7443948     
  -215972825.74251604       -4356857.6467888355        1516787800.9935067     
  -202890943.95779392       -5243206.5730064064        1519517401.4889431     
  -189803999.33212072       -6112679.3627214208        1527346493.2307191     
  -176711991.86549911       -6965276.0159417689        1540275076.2188206     
  -458203846.49665433       -6920885.7187504172        1494298400.3415918     
  -432114799.83863175       -8242593.4731414914        1491528274.6147912     
  -406092147.47518766       -9785615.5427915454        1493764636.5045395     
  -380135889.40632254       -11549951.927706495        1501007486.0108466     
  -354246025.63204116       -13535602.627896965        1513256823.1337059     
  -688266495.39198732       -10660672.978920549        1467818426.4963288     
  -649430945.67621756       -12480580.821926892        1464564699.1354952     
  -610733247.39055943       -14759993.431966752        1466224455.7614419     
  -572173400.53501296       -17498910.809046507        1472797696.3741646     
  -533751405.10957015       -20697332.953141600        1484284420.9736669     
  -919237591.37228835       -14672994.364581108        1439717770.2086065     
  -867921263.25528407       -17070819.693173110        1435897074.5556283     
  -816814243.70391250       -20166340.240546376        1436896859.2596500     
  -765916532.71818018       -23959556.006713659        1442717124.3206716     
  -715228130.29809308       -28450466.991697758        1453357869.7386925     
  -1149303.8099440967       -986353.11727599939        1565339180.2290025     
  -754499.11200279789       -598475.93159693154        1566051094.3558571     
  -385297.64530916198       -295942.85007535282        1572413680.5068517     
  -41699.409873162935       -78753.872745896704        1584426938.6819828     
   276295.59431059798        53091.000408044390        1602090868.8812485     
  -176711991.86549911       -6965276.0159417689        1540275076.2188206     
  -161855651.61051616       -7188326.2590985596        1540299635.8418238     
  -146938277.55456877       -7207930.4990408942        1545938764.8142982     
  -131959869.69766511       -7024088.7357966378        1557192463.1362481     
  -116920428.03980415       -6636800.9693592079        1574060730.8076589     
  -354246025.63204116       -13535602.627896965        1513256823.1337059     
  -325031300.31906652       -14400525.449614629        1512695104.7904408     
  -295668904.17291081       -14773212.160731182        1517711853.1219823     
  -266158837.19358975       -14653662.761293858        1528307068.1283293     
  -236501099.38109332       -14041877.251272127        1544480749.8094802     
  -533751405.10957015       -20697332.953141600        1484284420.9736669     
  -490281445.23765296       -22235073.503143162        1483237501.2017169     
  -446577177.50033951       -22991787.835157454        1487732945.4299047     
  -402638601.89764476       -22967475.949233472        1497770753.6582336     
  -358465718.42955387       -22162137.845323130        1513350925.8867006     
  -715228130.29809308       -28450466.991697758        1453357869.7386925     
  -657606086.36627579       -30691970.419682622        1451926825.0756412     
  -599663097.53684628       -31863657.522293806        1456002041.7380645     
  -541399163.80982709       -31965528.299603015        1465583519.7259560     
  -482814285.18520206       -30997582.751563728        1480671259.0393233     
   276295.59431059798        53091.000408044390        1602090868.8812485     
   177362.31063678756        25289.279177003624        1597978792.0009561     
   81240.099076294297        6857.7983243805720        1598915259.3874798     
  -12071.040348349454       -2203.4420764516772        1604900271.0408289     
  -102571.10767088505       -1894.4421355355917        1615933826.9610007     
  -116920428.03980415       -6636800.9693592079        1574060730.8076589     
  -103402358.72697710       -5777672.0095444508        1569523755.5849471     
  -89333288.338045850       -3081872.7960493937        1570208177.1663272     
  -74713216.873018786        1450596.6710984744        1576113995.5517933     
  -59542144.331884429        7819736.3919375576        1587241210.7413499     
  -236501099.38109332       -14041877.251272127        1544480749.8094802     
  -208872163.07957610       -12147658.292751446        1540158431.2489989     
  -180144035.69798145       -6589469.0673071668        1541230362.0298691     
  -150316717.23629183        2632690.4251192585        1547696542.1521010     
  -119390207.69451760        15518820.184494756        1559556971.6156807     
  -358465718.42955387       -22162137.845323130        1513350925.8867006     
  -316232050.74716634       -19084669.570467472        1509882818.9930937     
  -272351001.98070860       -10515931.015379101        1511981813.9781144     
  -226822572.13017669        3544077.8199565113        1519647910.8417530     
  -179646761.19557819        23095356.935515404        1532881109.5840197     
  -482814285.18520206       -30997582.751563728        1480671259.0393233     
  -425482021.72974151       -26588705.842668980        1478696918.8172436     
  -365954187.18623984       -14861258.640303910        1482462533.0110574     
  -304230781.55467618        4184758.8556014448        1491968101.6207564     
  -240311804.83505943        30549346.645016521        1507213624.6463428     
  -102571.10767088505       -1894.4421355355917        1615933826.9610007     
  -58390.696821539765        36459.809834750828        1584990500.3421214     
  -18576.671128290611        60259.444619437956        1557418673.5213153     
   16870.969408061785        69504.462214122279        1533218346.4985852     
   47952.224789553336        64194.862625243230        1512389519.2739360     
  -59542144.331884429        7819736.3919375576        1587241210.7413499     
  -48650150.430688150        15482661.250990689        1556743275.7460032     
  -36609701.299978800        26973770.208419643        1529458796.5742991     
  -23420796.939754039        42293063.264232621        1505387773.2262197     
  -9083437.3500016294        61440540.418470770        1484530205.7017779     
  -119390207.69451760        15518820.184494756        1559556971.6156807     
  -98101954.515677869        30670849.386803031        1530849386.7943320     
  -74512424.492646754        53493801.403082952        1505197213.8221691     
  -48621617.625428937        83987676.233317673        1482600452.6991994     
  -20429533.914019763        122152473.87752488        1463059103.4254093     
  -179646761.19557819        23095356.935515404        1532881109.5840197     
  -148413802.95178911        45601024.217282243        1507308833.4871092     
  -113726746.24913698        79620353.028595388        1484633925.2649450     
  -75585591.087628007        125153343.36942863        1464856384.9175212     
  -33990337.467254713        182199995.23981228        1447976212.4448483     
  -240311804.83505943        30549346.645016521        1507213624.6463428     
  -199585695.73901734        60273185.742439687        1486121615.8243258     
  -154252666.56944561        105353425.08496733        1467768930.9026122     
  -104312717.32634547        165790064.67258865        1452155569.8811927     
  -49765848.009700343        241583104.50535646        1439281532.7600803     
   47952.224789553336        64194.862625243230        1512389519.2739360     
   22699.752809492049        44395.281410707190        1403043708.8762836     
   3402.7669997192606        44447.320761717820        1290945408.4758055     
  -9938.7326227914273        64350.980736241559        1176094618.0725136     
  -17324.746062294849        104106.26132425896        1058491337.6663921     
  -9083437.3500016294        61440540.418470770        1484530205.7017779     
  -9589379.3268117830        80827060.195211425        1375875836.5156736     
  -8150128.3402776867        106697556.51643433        1265125814.7845485     
  -4765684.3903938457        139052029.38215029        1152280140.5083702     
   563952.52282475680        177890478.79232067        1037338813.6871719     
  -20429533.914019763        122152473.87752488        1463059103.4254093     
  -19539486.944824398        161508316.54752472        1357358619.1742249     
  -14765009.535133094        213812260.68584105        1250219319.8357916     
  -6106101.6849368662        279064306.29251629        1141641205.4100957     
   6437236.6057655364        357264453.36753321        1031624275.8971720     
  -33990337.467254713        182199995.23981228        1447976212.4448483     
  -29827623.101242751        242088164.33829466        1347492056.8519258     
  -19841240.817571536        321388559.82897580        1246225923.6295335     
  -4031190.6162341237        420101181.71187764        1144177812.7776845     
   17602527.502758235        538226029.98696125        1041347724.2963673     
  -49765848.009700343        241583104.50535646        1439281532.7600803     
  -40453787.796061814        322566603.56754434        1346276149.5487759     
  -23378822.187597334        429426453.94581592        1253145626.1657913     
   1459048.8156954646        562162655.64018571        1159889962.6111286     
   34059825.213804692        720775208.65060544        1066509158.8847917     
  -1479835989.3969505        81995861.299524963        1467897901.9745076     
  -1445383141.1523910        34025286.614917934        1446098652.0800061     
  -1406039035.6519799        2358902.7831484079        1432900852.9311066     
  -1361803672.8957145       -13003290.195770919        1428304504.5278108     
  -1312677052.8835952       -12061292.321847260        1432309606.8701174     
  -1904568166.5534401        29844106.028559327        1369273912.5782526     
  -1841727219.1423211        7511524.4811747074        1356765079.8448496     
  -1776244616.3600428       -6015539.1623470783        1351575335.7699955     
  -1708120358.2066092       -10737084.902018905        1353704680.3536811     
  -1637354444.6820190       -6653112.7378288507        1363153113.5959187     
  -2313479203.2179127       -17561307.094802976        1278547407.6354711     
  -2225914048.3175349       -15355063.008147001        1272704456.5310254     
  -2137956839.9307001       -11841973.966624737        1272898231.9980652     
  -2049607578.0574012       -7022039.9702364206        1279128734.0365975     
  -1960866262.6976440       -895261.01897752285        1291395962.6466162     
  -2706569099.3903704       -60220378.070561290        1195718387.1461790     
  -2597943628.6780410       -34574475.853056073        1193916782.1385372     
  -2491175706.3639483       -15120401.629680991        1196869541.6153297     
  -2386265332.4480929       -1858155.4004203081        1204576665.5765536     
  -2283212506.9304748        5212262.8347122669        1217038154.0222137     
  -3083837855.0708137       -98133106.898712039        1120786851.1103613     
  -2957815960.2238340       -50146714.053558230        1120402056.6673844     
  -2835901215.6597919       -15850822.151513219        1123489264.6217792     
  -2718093621.3786831        4754568.8074209690        1130048474.9735527     
  -2604393177.3805065        11669458.823245049        1140079687.7227025     
  -1312677052.8835952       -12061292.321847260        1432309606.8701174     
  -1266273874.9390097       -6000029.8509939313        1426277106.7498510     
  -1220847912.1290751       -3196151.1623091102        1424423898.0998292     
  -1176399164.4537663       -3649656.2557122111        1426749980.9200532     
  -1132927631.9131110       -7360545.1312913299        1433255355.2105207     
  -1637354444.6820190       -6653112.7378288507        1363153113.5959187     
  -1581198317.5330572       -3919467.9519831538        1356539743.1282713     
  -1525684323.6446986       -3326267.3681420684        1354017261.5825937     
  -1470812463.0169382       -4873510.9862960577        1355585668.9588854     
  -1416582735.6497762       -8561198.8064422011        1361244965.2571421     
  -1960866262.6976440       -895261.01897752285        1291395962.6466162     
  -1895209765.0536640       -1565007.5309377909        1284592650.6846359     
  -1829860318.7962427       -3258258.6647578478        1281791825.0963490     
  -1764817923.9253790       -5975014.4204404354        1282993485.8817556     
  -1700082580.4410756       -9715274.7979867458        1288197633.0408535     
  -2283212506.9304748        5212262.8347122669        1217038154.0222137     
  -2208308217.5008311        1063351.4121415615        1210435829.4189436     
  -2133375897.5837073       -2992125.0521529913        1207747588.6410937     
  -2058415547.1791017       -6954166.5581761599        1208973431.6886625     
  -1983427166.2870119       -10822773.105920672        1214113358.5616474     
  -2604393177.3805065        11669458.823245049        1140079687.7227025     
  -2520493674.8745589        3965608.8772561550        1134069279.3311954     
  -2436231060.0070887       -2527866.5303157568        1131884552.2168314     
  -2351605332.7781010       -7810967.3994995356        1133525506.3796091     
  -2266616493.1875815       -11883693.730244398        1138992141.8195307     
  -1132927631.9131110       -7360545.1312913299        1433255355.2105207     
  -1079598977.1676781       -9501508.7388576865        1427200073.2678297     
  -1026207752.1623964       -11433904.813591897        1426258715.1199493     
  -972753956.89726901       -13157733.355507016        1430431280.7668738     
  -919237591.37228835       -14672994.364581108        1439717770.2086065     
  -1416582735.6497762       -8561198.8064422011        1361244965.2571421     
  -1349875691.4950192       -9591822.9109260440        1355140852.6801925     
  -1283242644.6207249       -10869104.616952956        1353957652.8918169     
  -1216683595.0268936       -12393043.924522877        1357695365.8920186     
  -1150198542.7135241       -14163640.833626449        1366353991.6808000     
  -1700082580.4410756       -9715274.7979867458        1288197633.0408535     
  -1620548606.8947980       -9800997.4047324061        1281885361.0326095     
  -1541225198.1692922       -10588602.747384906        1280300990.8067131     
  -1462112354.2645619       -12078090.825954854        1283444522.3631623     
  -1383210075.1806033       -14269461.640431345        1291315955.7019558     
  -1983427166.2870119       -10822773.105920672        1214113358.5616474     
  -1891617723.3670137       -10129032.220264673        1207433598.3250833     
  -1800155412.8080964       -10592399.204884887        1205288728.8646338     
  -1709040234.6102667       -12212874.059796214        1207678750.1802998     
  -1618272188.7735245       -14990456.784988880        1214603662.2720773     
  -2266616493.1875815       -11883693.730244398        1138992141.8195307     
  -2163083040.9116645       -10575927.357530832        1131785564.5576141     
  -2060033288.5371406       -10880493.989462018        1128920867.0655804     
  -1957467236.0640147       -12797393.626053572        1130398049.3434355     
  -1855384883.4922836       -16326626.267291188        1136217111.3911724     
  -919237591.37228835       -14672994.364581108        1439717770.2086065     
  -867921263.25528407       -17070819.693173110        1435897074.5556283     
  -816814243.70391250       -20166340.240546376        1436896859.2596500     
  -765916532.71818018       -23959556.006713659        1442717124.3206716     
  -715228130.29809308       -28450466.991697758        1453357869.7386925     
  -1150198542.7135241       -14163640.833626449        1366353991.6808000     
  -1086715162.0877182       -17186714.765920997        1361532585.1449025     
  -1023389855.9508532       -20736703.661345661        1361394257.5519412     
  -960222624.30291867       -24813607.519877851        1365939008.9019074     
  -897213467.14392030       -29417426.341525912        1375166839.1948106     
  -1383210075.1806033       -14269461.640431345        1291315955.7019558     
  -1307952217.5147769       -18035556.817081213        1285553611.3726366     
  -1232801200.2611754       -22157786.701152742        1284336944.5721767     
  -1157757023.4198098       -26636151.292674541        1287665955.3005755     
  -1082819686.9906759       -31470650.591635883        1295540643.5578387     
  -1618272188.7735245       -14990456.784988880        1214603662.2720773     
  -1531632429.5364416       -19617345.846604109        1207960153.2388213     
  -1445048276.6348848       -24429589.359979331        1205724920.3203506     
  -1358519730.0688634       -29427187.325133324        1207897963.5166705     
  -1272046789.8383610       -34610139.742023110        1214479282.8277853     
  -1855384883.4922836       -16326626.267291188        1136217111.3911724     
  -1757755798.1527214       -21932081.854521513        1128752210.7434607     
  -1660131085.0719783       -27552111.637821138        1125558184.7964678     
  -1562510744.2500653       -33186715.617219865        1126635033.5501990     
  -1464894775.6869740       -38835893.792688727        1131982757.0046468     
  -715228130.29809308       -28450466.991697758        1453357869.7386925     
  -657606086.36627579       -30691970.419682622        1451926825.0756412     
  -599663097.53684628       -31863657.522293806        1456002041.7380645     
  -541399163.80982709       -31965528.299603015        1465583519.7259560     
  -482814285.18520206       -30997582.751563728        1480671259.0393233     
  -897213467.14392030       -29417426.341525912        1375166839.1948106     
  -825706288.92036426       -31426030.137429923        1372572834.0962439     
  -754010832.66519666       -32807040.494630456        1375099694.1353731     
  -682127098.37843394       -33560457.413177967        1382747419.3121953     
  -610055086.06006336       -33686280.893035650        1395516009.6267111     
  -1082819686.9906759       -31470650.591635883        1295540643.5578387     
  -998528506.44047058       -33576694.344992518        1291628900.0134325     
  -914181714.72465456       -35497367.546312720        1292452625.4189405     
  -829779311.84323061       -37232670.195609868        1298011819.7743592     
  -745321297.79620385       -38782602.292891294        1308306483.0796914     
  -1272046789.8383610       -34610139.742023110        1214479282.8277853     
  -1176072738.9265919       -37143963.042354643        1209095022.8272119     
  -1080175743.7152095       -39934638.677317441        1208060835.5887656     
  -984355804.20421314       -42982166.646897614        1211376721.1124525     
  -888612920.39361477       -46286546.951134771        1219042679.3982747     
  -1464894775.6869740       -38835893.792688727        1131982757.0046468     
  -1358338986.3787286       -42127836.229528069        1124971202.5375702     
  -1251992919.6368649       -46118853.887645662        1121924324.6448457     
  -1145856575.4613893       -50808946.767048299        1122842123.3264701     
  -1039929953.8523010       -56198114.867754161        1127724598.5824504     
  -482814285.18520206       -30997582.751563728        1480671259.0393233     
  -425482021.72974151       -26588705.842668980        1478696918.8172436     
  -365954187.18623984       -14861258.640303910        1482462533.0110574     
  -304230781.55467618        4184758.8556014448        1491968101.6207564     
  -240311804.83505943        30549346.645016521        1507213624.6463428     
  -610055086.06006336       -33686280.893035650        1395516009.6267111     
  -538018031.88670385       -30155099.360938966        1393331277.4393585     
  -463751128.85123920       -19191088.288493007        1396920513.3983772     
  -387254376.95367187       -794247.67570753396        1406283717.5037670     
  -308527776.19400513        25035422.477410570        1421420889.7555366     
  -745321297.79620385       -38782602.292891294        1308306483.0796914     
  -658482270.81782651       -36099961.511422127        1305951349.6634502     
  -569379117.20330238       -25870231.942802101        1309404198.1240671     
  -478011836.95262271       -8093413.5869965851        1318665028.4615479     
  -384380430.06580240        17230493.555949181        1333733840.6758869     
  -888612920.39361477       -46286546.951134771        1219042679.3982747     
  -786874738.52312231       -44423292.294181347        1216557135.4895291     
  -682838152.24242508       -34898689.603215247        1219913587.1881354     
  -576503161.55154192       -17712738.878292710        1229112034.4940856     
  -467869766.45045209        7134559.8806486726        1244152477.4073868     
  -1039929953.8523010       -56198114.867754161        1127724598.5824504     
  -923195435.00258541       -55125091.709174126        1125148634.9175935     
  -804128233.96862233       -46276461.269780785        1128448680.5905743     
  -682728350.75041068       -29652223.549551219        1137624735.6013892     
  -558995785.34796476       -5252378.5485440195        1152676799.9500339     
  -240311804.83505943        30549346.645016521        1507213624.6463428     
  -199585695.73901734        60273185.742439687        1486121615.8243258     
  -154252666.56944561        105353425.08496733        1467768930.9026122     
  -104312717.32634547        165790064.67258865        1452155569.8811927     
  -49765848.009700343        241583104.50535646        1439281532.7600803     
  -308527776.19400513        25035422.477410570        1421420889.7555366     
  -258958694.84177461        55286959.992137983        1404708645.3020005     
  -202936523.98866817        107048795.84311901        1391937586.7412345     
  -140461263.63469398        180320930.03032455        1383107714.0732450     
  -71532913.779848993        275103362.55376887        1378219027.2980382     
  -384380430.06580240        17230493.555949181        1333733840.6758869     
  -322534485.05030107        49039896.910125509        1323555224.9227142     
  -252389281.10659212        108513496.69166110        1318519657.0547962     
  -173944818.23467398        195651292.90055788        1318627137.0721374     
  -87201096.434547827        310453285.53681952        1323877664.9747202     
  -467869766.45045209        7134559.8806486726        1244152477.4073868     
  -390313066.36460966        41531996.496371716        1242661354.6864779     
  -302610937.92321932        109747527.63058515        1247515141.8433030     
  -204763381.12627909        211781153.28329694        1258713838.8778546     
  -96770395.973784909        347632873.45452702        1276257445.7901349     
  -558995785.34796476       -5252378.5485440195        1152676799.9500339     
  -462294438.78469336        32763258.750882089        1162027034.5932903     
  -353601494.43854320        110750888.65991518        1178924041.1067457     
  -232916952.30950749        228710511.17856279        1203367819.4904101     
  -100240812.39758429        386642126.30683249        1235358369.7442822     
  -49765848.009700343        241583104.50535646        1439281532.7600803     
  -40453787.796061814        322566603.56754434        1346276149.5487759     
  -23378822.187597334        429426453.94581592        1253145626.1657913     
   1459048.8156954646        562162655.64018571        1159889962.6111286     
   34059825.213804692        720775208.65060544        1066509158.8847917     
  -71532913.779848993        275103362.55376887        1378219027.2980382     
  -57367794.961268365        376847234.08577079        1296704896.9216185     
  -34233518.399957150        508488298.09353828        1214258173.5353303     
  -2130084.0959285796        670026554.57703316        1130878857.1391835     
   38942507.950824410        861462003.53627336        1046566947.7331723     
  -87201096.434547827        310453285.53681952        1323877664.9747202     
  -70489927.120117396        432265427.10592449        1255262081.8390663     
  -43603347.715060890        587995602.31044984        1184906452.8553641     
  -6541358.2193859518        777643811.15036035        1112810778.0236065     
   40696041.366896093        1001210053.6256568        1038975057.3438230     
  -96770395.973784909        347632873.45452702        1276257445.7901349     
  -79820184.272613227        488821182.62798071        1221947704.3011310     
  -51488310.132913947        667948366.59652376        1165090464.1258867     
  -11774773.554701149        885014425.36010861        1105685725.2644198     
   39320425.462030292        1140019358.9187589        1043733487.7167077     
  -100240812.39758429        386642126.30683249        1235358369.7442822     
  -85358566.418756396        546514500.65194285        1196761764.3077948     
  -57888405.653509378        748346590.95178676        1154810207.3468983     
  -17830330.101851702        992138397.20633256        1109503698.8615830     
   34815660.236216247        1277889919.4155765        1060842238.8518472     
  -3083837855.0708137       -98133106.898712039        1120786851.1103613     
  -2957815960.2238340       -50146714.053558230        1120402056.6673844     
  -2835901215.6597919       -15850822.151513219        1123489264.6217792     
  -2718093621.3786831        4754568.8074209690        1130048474.9735527     
  -2604393177.3805065        11669458.823245049        1140079687.7227025     
  -3433390037.2022929       -54531017.860212326        1026690636.4659843     
  -3303506106.0478964       -26677392.033860207        1019899632.5074916     
  -3175882820.2921658       -6359250.8697113991        1017253446.4693595     
  -3050520179.9350972        6423405.6322182417        1018752078.3515891     
  -2927418184.9766855        11670577.471951842        1024395528.1541806     
  -3791593847.3225565       -13524417.218346119        923328302.46820974     
  -3655925549.7950702       -5226859.3910920620        912285344.69251633     
  -3520671392.7819791        1690230.0548503399        906060020.36017060     
  -3385831376.2832742        7226851.1194932461        904652329.47117400     
  -3251405500.2989664        11383003.802822948        908062272.02552080     
  -4158449285.4316168        24886695.026880264        810699849.11703110     
  -4015074291.4653625        14204883.874738216        797559193.22245753     
  -3870266933.1292391        8297620.6221837997        789908986.29421365     
  -3724027210.4232311        7164905.2692308426        787749228.33230686     
  -3576355123.3473458        10806737.815870523        791079919.33672726     
  -4533956351.5294590        60702318.875471830        688805276.41245663     
  -4380952331.0587711        31617837.763624191        675721178.09731734     
  -4224669441.3339429        13462920.832279444        668800344.27149010     
  -4065107682.3549528        6237568.0814397335        668042774.93498397     
  -3902267054.1218238        9941779.5110816956        673448470.08779645     
  -2604393177.3805065        11669458.823245049        1140079687.7227025     
  -2520493674.8745589        3965608.8772561550        1134069279.3311954     
  -2436231060.0070887       -2527866.5303157568        1131884552.2168314     
  -2351605332.7781010       -7810967.3994995356        1133525506.3796091     
  -2266616493.1875815       -11883693.730244398        1138992141.8195307     
  -2927418184.9766855        11670577.471951842        1024395528.1541806     
  -2833183641.5947118        5122186.0818822384        1018388954.4308848     
  -2738755701.8845344       -781550.88085091114        1016240086.5914099     
  -2644134365.8461494       -6040633.4162324667        1017948924.6357570     
  -2549319633.4795685       -10655061.524274349        1023515468.5639262     
  -3251405500.2989664        11383003.802822948        908062272.02552080     
  -3146744417.1647353        6017520.6315405369        901861530.93156338     
  -3042059653.7356200        730971.77653455734        899550520.32810509     
  -2937351210.0116239       -4476642.7622064352        901129240.21514928     
  -2832619085.9927444       -9605322.9846678972        906597690.59269524     
  -3576355123.3473458        10806737.815870523        791079919.33672726     
  -3461176001.5846310        6651612.5262439251        784487008.83323193     
  -3346142915.5603561        2009701.4418134689        781815853.42691720     
  -3231255865.2745161       -3118995.4374022484        783066453.11778033     
  -3116514850.7271166       -8734478.1114085913        788238807.90582776     
  -3902267054.1218238        9941779.5110816956        673448470.08779645     
  -3776478394.8543973        7024461.7659857273        666265388.13589013     
  -3651005487.3587351        3054638.1150128841        663036085.88784397     
  -3525848331.6348300       -1967691.4418253899        663760563.34365702     
  -3401006927.6826835       -8042526.9045209885        668438820.50332701     
  -2266616493.1875815       -11883693.730244398        1138992141.8195307     
  -2163083040.9116645       -10575927.357530832        1131785564.5576141     
  -2060033288.5371406       -10880493.989462018        1128920867.0655804     
  -1957467236.0640147       -12797393.626053572        1130398049.3434355     
  -1855384883.4922836       -16326626.267291188        1136217111.3911724     
  -2549319633.4795685       -10655061.524274349        1023515468.5639262     
  -2434502669.7090669       -9466284.4673453569        1015640923.3129995     
  -2320009298.4796486       -9356149.2140161991        1012131581.5916640     
  -2205839519.7913089       -10324655.764283419        1012987443.3999150     
  -2091993333.6440518       -12371804.118159533        1018208508.7377565     
  -2832619085.9927444       -9605322.9846678972        906597690.59269524     
  -2706451971.4142251       -8515543.4494931698        898241969.27312541     
  -2580448342.0164680       -7970714.5168684721        894274775.24285150     
  -2454608197.7994781       -7970836.1867891550        894696108.50187027     
  -2328931538.7632461       -8515908.4592491388        899505969.05018365     
  -3116514850.7271166       -8734478.1114085913        788238807.90582776     
  -2978930946.0271363       -7723704.3039702177        779588702.43798804     
  -2841350419.1476002       -6724189.8980054855        775350448.01914394     
  -2703773270.0885124       -5735934.8935444355        775524044.64930391     
  -2566199498.8498697       -4758939.2905672789        780109492.32845378     
  -3401006927.6826835       -8042526.9045209885        668438820.50332701     
  -3251939593.5477982       -7090767.0307608843        659681122.80758631     
  -3102715529.8730445       -5616575.3574478626        655358599.92054415     
  -2953334736.6584177       -3619951.8845654726        655471251.84221077     
  -2803797213.9039245       -1100896.6121184826        660019078.57257080     
  -1855384883.4922836       -16326626.267291188        1136217111.3911724     
  -1757755798.1527214       -21932081.854521513        1128752210.7434607     
  -1660131085.0719783       -27552111.637821138        1125558184.7964678     
  -1562510744.2500653       -33186715.617219865        1126635033.5501990     
  -1464894775.6869740       -38835893.792688727        1131982757.0046468     
  -2091993333.6440518       -12371804.118159533        1018208508.7377565     
  -1983306742.9063292       -16652923.483666778        1010379727.9600626     
  -1874748928.2355208       -21363296.405555129        1006480229.8136796     
  -1766319889.6316175       -26502922.883799434        1006510014.2986077     
  -1658019627.0946355       -32071802.918438792        1010469081.4148511     
  -2328931538.7632461       -8515908.4592491388        899505969.05018365     
  -2210163419.9685340       -11765484.805399299        891168170.36640692     
  -2091648481.0488188       -15858994.068202615        886418062.24453390     
  -1973386722.0041060       -20796436.247673154        885255644.68456101     
  -1855378142.8343842       -26577811.343795061        887680917.68649948     
  -2566199498.8498697       -4758939.2905672789        780109492.32845378     
  -2438325829.3393383       -7269765.8197175264        771117537.96249354     
  -2310829743.5118804       -11039204.625788689        765371682.08902884     
  -2183711241.3675103       -16067255.708815098        762871924.70806456     
  -2056970322.9062214       -22353919.068777800        763618265.81959403     
  -2803797213.9039245       -1100896.6121184826        660019078.57257080     
  -2667793971.0187302       -3165766.5266021490        650227830.74832761     
  -2532292715.6246991       -6903928.0782898664        643341089.34717155     
  -2397293447.7218423       -12315381.267230511        639358854.36910498     
  -2262796167.3101583       -19400126.093404055        638281125.81412613     
  -1464894775.6869740       -38835893.792688727        1131982757.0046468     
  -1358338986.3787286       -42127836.229528069        1124971202.5375702     
  -1251992919.6368649       -46118853.887645662        1121924324.6448457     
  -1145856575.4613893       -50808946.767048299        1122842123.3264701     
  -1039929953.8523010       -56198114.867754161        1127724598.5824504     
  -1658019627.0946355       -32071802.918438792        1010469081.4148511     
  -1541487618.5433919       -35376056.352334499        1001723470.3498861     
  -1424961930.9825392       -38701379.754193425        996690038.51219797     
  -1308442564.4120727       -42047773.124019682        995368785.90178108     
  -1191929518.8319905       -45415236.461773098        997759712.51864386     
  -1855378142.8343842       -26577811.343795061        887680917.68649948     
  -1729591336.0318055       -30110802.072282553        877438551.86231875     
  -1603607448.6436114       -32986857.515380502        870655867.91833019     
  -1477426480.6698012       -35205977.673091233        867332865.85454023     
  -1351048432.1103728       -36768162.545409739        867469545.67094970     
  -2056970322.9062214       -22353919.068777800        763618265.81959403     
  -1922650138.8439522       -26332073.389335513        752116447.07485461     
  -1787929472.6200647       -28975287.171168566        743821812.86324263     
  -1652808324.2345567       -30283560.414267480        738734363.18475008     
  -1517286693.6874340       -30256893.118645132        736854098.03937697     
  -2262796167.3101583       -19400126.093404055        638281125.81412613     
  -2120664026.9798441       -24039870.303518891        625757155.98750782     
  -1977928002.9119120       -26666668.721583247        616187873.34693754     
  -1834588095.1063592       -27280521.347568154        609573277.89240777     
  -1690644303.5631871       -25881428.181494892        605913369.62392354     
  -1039929953.8523010       -56198114.867754161        1127724598.5824504     
  -923195435.00258541       -55125091.709174126        1125148634.9175935     
  -804128233.96862233       -46276461.269780785        1128448680.5905743     
  -682728350.75041068       -29652223.549551219        1137624735.6013892     
  -558995785.34796476       -5252378.5485440195        1152676799.9500339     
  -1191929518.8319905       -45415236.461773098        997759712.51864386     
  -1061665090.6599771       -42467711.595870733        994010052.37463057     
  -929950666.71115780       -34686867.473961830        994359428.13132441     
  -796786246.98552442       -22072704.095994055        998807839.78872061     
  -662171831.48307693       -4625221.4619907141        1007355287.3468283     
  -1351048432.1103728       -36768162.545409739        867469545.67094970     
  -1212331161.5792873       -33469256.061164498        861516388.23910904     
  -1073046581.6788288       -28279318.345661938        857885293.27084041     
  -933194692.40899861       -21198349.398924649        856576260.76615024     
  -792775493.76979351       -12226349.220931977        857589290.72503400     
  -1517286693.6874340       -30256893.118645132        736854098.03937697     
  -1375193647.7605095       -28129725.105014384        727667642.51102555     
  -1233415978.8716435       -27053813.884922683        719026276.00912619     
  -1091953687.0208480       -27029159.458388031        710929998.53366685     
  -950806772.20809901       -28055761.825353324        703378810.08466184     
  -1690644303.5631871       -25881428.181494892        605913369.62392354     
  -1550252549.2036514       -26449118.727453530        592463815.19039249     
  -1411058858.2895994       -31010354.091715753        577782376.34618175     
  -1273063230.8210576       -39565134.274333537        561869053.09128761     
  -1136265666.7980027       -52113459.275240839        544723845.42570627     
  -558995785.34796476       -5252378.5485440195        1152676799.9500339     
  -462294438.78469336        32763258.750882089        1162027034.5932903     
  -353601494.43854320        110750888.65991518        1178924041.1067457     
  -232916952.30950749        228710511.17856279        1203367819.4904101     
  -100240812.39758429        386642126.30683249        1235358369.7442822     
  -662171831.48307693       -4625221.4619907141        1007355287.3468283     
  -547067018.92142928        25660409.685872346        1020867389.7036681     
  -421088446.49081564        92191907.063614577        1042773080.0701885     
  -284236114.19123483        194969270.67125514        1073072358.4463905     
  -136510022.02268362        333992500.50878870        1111765224.8322661     
  -792775493.76979351       -12226349.220931977        857589290.72503400     
  -656847740.52556300        11055118.180614948        873959116.56256926     
  -511164065.32627857        66856325.432342649        899569346.54925394     
  -355724468.17194331        155177272.53423959        934419980.68508399     
  -190528949.06254712        276017959.48633903        978511018.97007048     
  -950806772.20809901       -28055761.825353324        703378810.08466184     
  -791636603.59708166       -11052615.764843822        721302215.16998756     
  -623828350.94492686        34744143.766118854        749312840.54393184     
  -447382014.25163722        109334516.76754186        787410686.20649803     
  -262297593.51719755        212718503.23944825        835595752.15768695     
  -1136265666.7980027       -52113459.275240839        544723845.42570627     
  -951433608.13599312       -40662792.150523722        562896685.52592313     
  -759081303.34676051       -4144637.9350522161        592003562.05423045     
  -559208752.43030763        57441003.371144950        632044475.01062763     
  -351815955.38662589        144094131.76811081        683019424.39511406     
  -100240812.39758429        386642126.30683249        1235358369.7442822     
  -85358566.418756396        546514500.65194285        1196761764.3077948     
  -57888405.653509378        748346590.95178676        1154810207.3468983     
  -17830330.101851702        992138397.20633256        1109503698.8615830     
   34815660.236216247        1277889919.4155765        1060842238.8518472     
  -136510022.02268362        333992500.50878870        1111765224.8322661     
  -127375861.03243855        483020951.76114368        1090191052.2605393     
  -95104822.041956246        709172329.68097258        1070052671.1664898     
  -39696905.051236689        1012446634.2682619        1051350081.5501142     
   38847889.939730585        1392843865.5230324        1034083283.4114287     
  -190528949.06254712        276017959.48633903        978511018.97007048     
  -173455035.91205114        418308838.79059207        986266403.01256192     
  -122695281.54748681        672885855.47506094        1000248321.5348281     
  -38249685.968856275        1039749009.5397577        1020456774.5368780     
   79881750.823838472        1518898300.9846663        1046891762.0186843     
  -262297593.51719755        212718503.23944825        835595752.15768695     
  -223596091.05760002        352378161.74025279        884987816.56386220     
  -140659784.17011708        639487168.33402574        945397158.45190692     
  -13488672.854751170        1074045523.0207393        1016823777.8218094     
   157917242.88852084        1656053225.8004723        1099267674.6735978     
  -351815955.38662589        144094131.76811081        683019424.39511406     
  -277799026.46909523        285228920.61010969        786355292.91443729     
  -148998329.90984190        608976268.25784540        905499181.91772974     
   34586134.291120231        1115336174.7112799        1040451091.4049776     
   272954366.13380593        1804308639.9704595        1191211021.3761816     
  -4533956351.5294590        60702318.875471830        688805276.41245663     
  -4380952331.0587711        31617837.763624191        675721178.09731734     
  -4224669441.3339429        13462920.832279444        668800344.27149010     
  -4065107682.3549528        6237568.0814397335        668042774.93498397     
  -3902267054.1218238        9941779.5110816956        673448470.08779645     
  -4932735742.8241072        3678457.5496990681        503334442.97932261     
  -4757259582.0441675        2763839.0713796616        498322185.74591160     
  -4581133892.1987829        4014317.4778952599        497932188.26871949     
  -4404358673.2879477        7429892.7692353725        502164450.54774410     
  -4226933925.3116555        13010564.945421696        511018972.58298576     
  -5312798626.2277584       -47730451.408778191        327639014.60783124     
  -5119253195.8045616       -21796068.453362465        327631034.90267181     
  -4927687576.5046215       -2461055.9087843895        330704310.22062498     
  -4738101768.3279295        10274586.224953175        336858840.56169897     
  -4550495771.2744942        16410857.947849274        346094625.92588556     
  -5674145001.7403965       -93524407.999953508        161718991.29798883     
  -5466933172.3399658       -42061884.810612202        163647725.56759134     
  -5264330494.2514658       -5963199.3277745247        167116710.12720752     
  -5066336967.4749260        14771648.448557615        172125944.97684658     
  -4872952592.0103436        20142658.518366098        178675430.11649844     
  -6016774869.3620510       -133703412.22382665        5574373.0497958250     
  -5800299511.6503553       -58033610.000363827        6372257.7406811500     
  -5591062645.4393139       -6492112.7790594101        7169387.9884751411     
  -5389064270.7289276        20921079.440053940        7965763.7931883670     
  -5194304387.5191889        24205966.657003641        8761385.1548198685     
  -3902267054.1218238        9941779.5110816956        673448470.08779645     
  -3776478394.8543973        7024461.7659857273        666265388.13589013     
  -3651005487.3587351        3054638.1150128841        663036085.88784397     
  -3525848331.6348300       -1967691.4418253899        663760563.34365702     
  -3401006927.6826835       -8042526.9045209885        668438820.50332701     
  -4226933925.3116555        13010564.945421696        511018972.58298576     
  -4091714137.3261895        7033511.9624507427        504110717.00964785     
  -3956416122.6887350        1317214.4860987663        501209488.87814599     
  -3821039881.3992934       -4138327.4836318493        502315288.18847573     
  -3685585413.4578714       -9333113.9467494488        507428114.94064218     
  -4550495771.2744942        16410857.947849274        346094625.92588556     
  -4405692718.1767645        7419710.6452887058        339920838.22548503     
  -4260417460.0033045        2580.2618200778961        337807325.70489055     
  -4114669996.7541184       -5840533.2025499344        339754088.36410928     
  -3968450328.4291992       -10109629.747821331        345761126.20314014     
  -4872952592.0103436        20142658.518366098        178675430.11649844     
  -4718414137.4061317        8183057.8144800663        173695751.78339881     
  -4563009499.3024473       -889264.55782890320        172829596.36808142     
  -4406738677.6992922       -7074308.5985710621        176076963.87055951     
  -4249601672.5966635       -10372074.307736635        183437854.29081652     
  -5194304387.5191889        24205966.657003641        8761385.1548198685     
  -5029878395.0142879        9323553.4700415134        5435457.6833948176     
  -4864192240.5861597       -1358319.9728536606        6276300.8677240415     
  -4697245924.2348242       -7839653.6717002392        11283914.707821472     
  -4529039445.9602652       -10120447.626493454        20458299.203685027     
  -3401006927.6826835       -8042526.9045209885        668438820.50332701     
  -3251939593.5477982       -7090767.0307608843        659681122.80758631     
  -3102715529.8730445       -5616575.3574478626        655358599.92054415     
  -2953334736.6584177       -3619951.8845654726        655471251.84221077     
  -2803797213.9039245       -1100896.6121184826        660019078.57257080     
  -3685585413.4578714       -9333113.9467494488        507428114.94064218     
  -3524550589.6094933       -6769460.0215501785        499330114.45892543     
  -3363538387.8309698       -4281212.9958701134        495630724.93624353     
  -3202548808.1223092       -1868372.8697266579        496329946.37260050     
  -3041581850.4834957        469060.35691666603        501427778.76798940     
  -3968450328.4291992       -10109629.747821331        345761126.20314014     
  -3795552483.0092373       -5965422.2137532234        338113579.39077109     
  -3622856611.2688494       -2494460.2782893181        334828079.68777257     
  -3450362713.2080450        303256.05857229233        335904627.09414202     
  -3278070788.8268194        2427726.7968444824        341343221.60987747     
  -4249601672.5966635       -10372074.307736635        183437854.29081652     
  -4064945273.7470222       -4678653.6073892117        176031517.60311833     
  -3880670200.1866698       -256317.20468568802        172950664.17512766     
  -3696776451.9156375        2894934.9003036022        174195294.00683251     
  -3513264028.9338999        4775102.7076225281        179765407.09823960     
  -4529039445.9602652       -10120447.626493454        20458299.203685027     
  -4332728961.8228445       -2909154.2024028301        13083929.095969876     
  -4136979154.5844445        2433216.2249252796        9998478.3983029742     
  -3941790024.2450843        5906663.6554777622        11201947.110668952     
  -3747161570.8047414        7511188.0892858505        16694335.233062681     
  -2803797213.9039245       -1100896.6121184826        660019078.57257080     
  -2667793971.0187302       -3165766.5266021490        650227830.74832761     
  -2532292715.6246991       -6903928.0782898664        643341089.34717155     
  -2397293447.7218423       -12315381.267230511        639358854.36910498     
  -2262796167.3101583       -19400126.093404055        638281125.81412613     
  -3041581850.4834957        469060.35691666603        501427778.76798940     
  -2897877626.6437306       -2648895.2510737181        491882942.13874727     
  -2754333133.7197657       -6299287.2450618744        485600450.36535686     
  -2610948371.7116003       -10482115.625048757        482580303.44781995     
  -2467723340.6192369       -15197380.391047955        482822501.38612902     
  -3278070788.8268194        2427726.7968444824        341343221.60987747     
  -3125643188.5103016       -1436595.8480011225        332444095.51356363     
  -2973033062.5342174       -4692499.6276226044        327165152.70586479     
  -2820240410.8985653       -7339984.5420224667        325506393.18678695     
  -2667265233.6033511       -9379050.5912060738        327467816.95631915     
  -3513264028.9338999        4775102.7076225281        179765407.09823960     
  -3351090656.6184483        471131.68258810043        171911290.87277272     
  -3188392502.0680547       -2083565.2259821892        168035196.36870223     
  -3025169565.2827406       -2888988.0181456804        168137123.58600041     
  -2861421846.2624903       -1945136.6938563585        172217072.52467707     
  -3747161570.8047414        7511188.0892858505        16694335.233062681     
  -3574220030.9681740        3074287.3406898975        10284528.216385309     
  -3400411452.3213024        1527515.9597980976        8210581.3538536802     
  -3225735834.8641353        2870873.9465473890        10472494.645469874     
  -3050193178.5966754        7104361.3009392023        17070268.091221243     
  -2262796167.3101583       -19400126.093404055        638281125.81412613     
  -2120664026.9798441       -24039870.303518891        625757155.98750782     
  -1977928002.9119120       -26666668.721583247        616187873.34693754     
  -1834588095.1063592       -27280521.347568154        609573277.89240777     
  -1690644303.5631871       -25881428.181494892        605913369.62392354     
  -2467723340.6192369       -15197380.391047955        482822501.38612902     
  -2317850242.1291695       -17717168.141244173        472484145.14463216     
  -2167684847.8025393       -19262636.436240911        464656464.19538069     
  -2017227157.6393504       -19833785.276036024        459339458.53837943     
  -1866477171.6395941       -19430614.660621405        456533128.17362809     
  -2667265233.6033511       -9379050.5912060738        327467816.95631915     
  -2510919782.3643579       -10159463.504718304        318951555.08202904     
  -2354593623.1898713       -11004183.299922824        312501956.60620064     
  -2198286756.0798717       -11913209.976752758        308119021.52882230     
  -2041999181.0343778       -12886543.535257578        305802749.84990555     
  -2861421846.2624903       -1945136.6938563585        172217072.52467707     
  -2699872647.6854253       -1366756.3939778805        165159385.79970419     
  -2538654329.0739193       -1891309.3126196861        159724350.57939383     
  -2377766890.4279652       -3518795.4497694969        155911966.86374068     
  -2217210331.7475600       -6249214.8054215908        153722234.65276265     
  -3050193178.5966754        7104361.3009392023        17070268.091221243     
  -2884708838.0923529        8660953.1910243034        11107637.297659887     
  -2719866965.4546614        8075985.5256984234        6323646.1149614919     
  -2555667560.6835876        5349458.3049675226        2718294.5431372672     
  -2392110623.7791138        481371.52890276909        291582.58218689234     
  -1690644303.5631871       -25881428.181494892        605913369.62392354     
  -1550252549.2036514       -26449118.727453530        592463815.19039249     
  -1411058858.2895994       -31010354.091715753        577782376.34618175     
  -1273063230.8210576       -39565134.274333537        561869053.09128761     
  -1136265666.7980027       -52113459.275240839        544723845.42570627     
  -1866477171.6395941       -19430614.660621405        456533128.17362809     
  -1729037565.7893555       -22725078.339126229        442847714.43432373     
  -1591695433.9618726       -26344455.426836193        428752556.97529387     
  -1454450776.1571708       -30288745.923791051        414247655.79652983     
  -1317303592.3752139       -34557949.829916239        399333010.89804232     
  -2041999181.0343778       -12886543.535257578        305802749.84990555     
  -1905162750.2907169       -18203088.325502753        293165497.79801387     
  -1767323204.1470840       -20175915.115849733        280940642.71735620     
  -1628480542.6034756       -18805023.906279087        269128184.60791558     
  -1488634765.6599078       -14090414.696832955        257728123.46970072     
  -2217210331.7475600       -6249214.8054215908        153722234.65276265     
  -2078628102.7077403       -12883148.686574578        143417165.28147629     
  -1937942168.8452139       -12504733.158699512        134346633.57237035     
  -1795152530.1599936       -5113968.2218579054        126510639.52544294     
  -1650259186.6520669        9289146.1240221262        119909183.14070125     
  -2392110623.7791138        481371.52890276909        291582.58218689234     
  -2249433623.0404196       -6765259.4223563671       -6397283.1153088408     
  -2103552328.0562854       -3330909.5554852486       -11029470.459669091     
  -1954466738.8267136        10784421.129512787       -13604979.450887775     
  -1802176855.3517094        35580732.632619143       -14123810.088983146     
  -1136265666.7980027       -52113459.275240839        544723845.42570627     
  -951433608.13599312       -40662792.150523722        562896685.52592313     
  -759081303.34676051       -4144637.9350522161        592003562.05423045     
  -559208752.43030763        57441003.371144950        632044475.01062763     
  -351815955.38662589        144094131.76811081        683019424.39511406     
  -1317303592.3752139       -34557949.829916239        399333010.89804232     
  -1117692360.7060187       -14727486.202435493        421191958.43072903     
  -914449290.28829026        17209106.586835086        441551664.96329391     
  -707574381.12200069        61251828.537964612        460412130.49573272     
  -497067633.20716977        117400679.65090898        477773355.02805412     
  -1488634765.6599078       -14090414.696832955        257728123.46970072     
  -1309768010.7784288        3462750.4949389696        278736703.15974426     
  -1131157824.5270903        20160686.919573843        285812764.42144293     
  -952804206.90587175        36003394.577143967        278956307.25480497     
  -774707157.91478789        50990873.467598230        258167331.65982628     
  -1650259186.6520669        9289146.1240221262        119909183.14070125     
  -1527660558.3532221        13907917.941577673        135530919.71297115     
  -1409206906.0631719        4710103.0631352663        124786860.42867766     
  -1294898229.7819324       -18304298.511346817        87677005.287830546     
  -1184734529.5095100       -55135286.781863689        24201354.290428273     
  -1802176855.3517094        35580732.632619143       -14123810.088983146     
  -1771370003.4303820        16608016.137533069       -8425391.9096064158     
  -1748596534.8965516       -29142644.982542753       -41526047.015009254     
  -1733856449.7501824       -101671250.72748852       -113425775.40517694     
  -1727149747.9913094       -200977801.09742218       -224124577.08012035     
  -351815955.38662589        144094131.76811081        683019424.39511406     
  -277799026.46909523        285228920.61010969        786355292.91443729     
  -148998329.90984190        608976268.25784540        905499181.91772974     
   34586134.291120231        1115336174.7112799        1040451091.4049776     
   272954366.13380593        1804308639.9704595        1191211021.3761816     
  -497067633.20716977        117400679.65090898        477773355.02805412     
  -388247262.32716608        223058425.37744877        597058452.07951260     
  -230301714.11393934        492466762.21475661        735494417.02940571     
  -23230988.567470014        925625690.16286349        893081249.87771285     
   232964914.31223333        1522535209.2217453        1069818950.6244622     
  -774707157.91478789        50990873.467598230        258167331.65982628     
  -621532352.45956612        124036873.86250576        386799968.55019480     
  -424890959.97960865        341971497.67317808        537926320.75346708     
  -184782980.47487932        704794744.89978218        711546388.26962733     
   98791586.054600477        1212506615.5422130        907660171.09867525     
  -1184734529.5095100       -55135286.781863689        24201354.290428273     
  -977654296.86631465       -11835733.934796810        155579842.32649672     
  -732766067.50684643        157490474.63318467        312794893.08991700     
  -450069841.43111032        452843338.92208409        495846506.58069342     
  -129565618.63908970        874222858.93187690        704734682.79882479     
  -1727149747.9913094       -200977801.09742218       -224124577.08012035     
  -1456613095.5473886       -184559398.01435703       -96601926.591599613     
  -1153927036.6956909       -60976306.905390620        60100134.038748376     
  -819091571.43615127        169771472.22971451        245981604.81091189     
  -452106699.76885718        507683939.39069086        461042485.72489405     
 </DataArray>
 <DataArray  type="Float64" Name="VM" NumberOfComponents="1" format="ascii">
   6028178507.1992455     
   5809824044.4319706     
   5598705587.5315456     
   5394218560.7757492     
   5195936777.7303638     
   5689312062.2440863     
   5485542770.0773029     
   5285922512.6389036     
   5090263143.8285103     
   4898471515.3584976     
   5356003431.5548143     
   5166540014.1483698     
   4979252104.8633509     
   4794186638.6331778     
   4611439582.5228863     
   5028168253.3606672     
   4853558498.5755100     
   4680325300.6473961     
   4508553529.8344822     
   4338385274.6053715     
   4706909067.0850697     
   4548421617.9973850     
   4391793459.1022367     
   4236930474.5347657     
   4083876539.0357428     
   5195936777.7303638     
   5028865755.1548214     
   4862614710.3902235     
   4697182844.1253672     
   4532580280.5042791     
   4898471515.3584976     
   4738758955.0563602     
   4579714398.0766773     
   4421372920.0650978     
   4263789294.6671576     
   4611439582.5228863     
   4460892072.7596321     
   4311183880.2574873     
   4162389873.7478538     
   4014622915.6279202     
   4338385274.6053715     
   4198914128.2795143     
   4060823956.1821103     
   3924235918.9193931     
   3789338008.9130349     
   4083876539.0357428     
   3957414550.9202027     
   3833292191.9556532     
   3711680478.6357350     
   3592855551.4533010     
   4532580280.5042791     
   4337433960.1610756     
   4142147133.9766517     
   3946713886.1240878     
   3751174579.1383262     
   4263789294.6671576     
   4079949281.7628279     
   3896574619.9779086     
   3713728593.9732785     
   3531539095.7982626     
   4014622915.6279202     
   3842778339.3199339     
   3672145579.8846593     
   3502872512.7739568     
   3335191612.9116540     
   3789338008.9130349     
   3630214574.2160625     
   3473193377.9367270     
   3318517023.2476931     
   3166531253.5718594     
   3592855551.4533010     
   3447160622.6553140     
   3304588213.1091657     
   3165475041.9197645     
   3030273490.5822577     
   3751174579.1383262     
   3576402926.0758243     
   3401955043.5305934     
   3227828056.8148537     
   3054069927.5782857     
   3531539095.7982626     
   3366941834.1127110     
   3203140504.1093960     
   3040199040.7230778     
   2878241886.7821093     
   3335191612.9116540     
   3180680958.7472515     
   3027482836.7616706     
   2875736028.4845080     
   2725649939.7269268     
   3166531253.5718594     
   3022190166.3742867     
   2879719557.8996964     
   2739337396.0466046     
   2601341042.9132581     
   3030273490.5822577     
   2896348699.4113898     
   2764878994.6031513     
   2636158487.4085884     
   2510565485.0511398     
   3054069927.5782857     
   2888846081.4354482     
   2723548260.9906702     
   2558172107.2624478     
   2392714607.0913100     
   2878241886.7821093     
   2715952541.6517963     
   2553884939.0916915     
   2392068295.7293758     
   2230548279.6692595     
   2725649939.7269268     
   2568691113.1799903     
   2412646503.2027788     
   2257653567.0097179     
   2103906338.0914357     
   2601341042.9132581     
   2452280280.2839074     
   2305270868.9915252     
   2160632039.4190588     
   2018797974.9911666     
   2510565485.0511398     
   2371919908.7479196     
   2236874635.7994862     
   2105964998.4363840     
   1979892498.2593114     
   2392714607.0913100     
   2246619674.9846787     
   2102606208.9621210     
   1960681223.4161861     
   1821005347.1269584     
   2230548279.6692595     
   2087585200.2926974     
   1946207218.5794425     
   1806418104.9595630     
   1668292716.8664334     
   2103906338.0914357     
   1963401866.5472803     
   1823836136.8137167     
   1685240839.8320808     
   1547675504.8467391     
   2018797974.9911666     
   1881679702.2636757     
   1744918077.6636102     
   1608642308.7915282     
   1473030030.2393134     
   1979892498.2593114     
   1848777107.6392922     
   1717782023.2120473     
   1587256803.2652380     
   1457705885.2267587     
   1821005347.1269584     
   1780165269.1071784     
   1735876447.2303340     
   1696750894.3297954     
   1681233912.6032507     
   1668292716.8664334     
   1552767205.3246431     
   1428161179.6540086     
   1294835519.7280602     
   1158900876.3578043     
   1547675504.8467391     
   1397740848.8346214     
   1244251686.0794196     
   1084944512.5322902     
   917795911.09671438     
   1473030030.2393134     
   1328781706.4616876     
   1198986480.8320198     
   1088131238.9243968     
   1002127453.1978486     
   1457705885.2267587     
   1348737993.3272202     
   1274733681.9707808     
   1243825825.7853601     
   1263053896.4060495     
   1681233912.6032507     
   1383746263.2330158     
   1129489803.3129356     
   1010134807.2678663     
   1152871657.6761568     
   1158900876.3578043     
   1008480384.0176417     
   985273446.39573085     
   1161504222.6722896     
   1544047391.7574010     
   917795911.09671438     
   963195141.96889138     
   1144986951.6959057     
   1476517159.0700290     
   1957460998.1667645     
   1002127453.1978486     
   1164784746.1434727     
   1425473447.6281800     
   1808782168.8315141     
   2334800689.3064127     
   1263053896.4060495     
   1446783280.0183585     
   1715729127.9427564     
   2110494981.3869493     
   2663549438.6033306     
   4706909067.0850697     
   4548421617.9973850     
   4391793459.1022367     
   4236930474.5347657     
   4083876539.0357428     
   4370046797.1872959     
   4228487311.7429347     
   4089605513.1116185     
   3953604176.9476619     
   3820798318.2527084     
   4070415715.7298527     
   3943979658.1114631     
   3821407477.9823990     
   3703064059.0157232     
   3589405565.5012546     
   3812159065.8191066     
   3698983377.6717753     
   3591163396.1775479     
   3489054774.0027952     
   3393093564.2546506     
   3599832610.4415498     
   3497903064.4611669     
   3403036301.6215110     
   3315376692.4948039     
   3235157234.3674231     
   4083876539.0357428     
   3957414550.9202027     
   3833292191.9556532     
   3711680478.6357350     
   3592855551.4533010     
   3820798318.2527084     
   3710060924.4355111     
   3602227564.3821692     
   3497549914.7047014     
   3396364371.3230515     
   3589405565.5012546     
   3493493750.6332479     
   3400986214.9428287     
   3312169768.2251191     
   3227392631.0679579     
   3393093564.2546506     
   3311170139.5553069     
   3233023195.6675262     
   3158924213.1093326     
   3089183295.4825239     
   3235157234.3674231     
   3166403634.1418500     
   3101603589.9505548     
   3040962930.8570132     
   2984708468.7466111     
   3592855551.4533010     
   3447160622.6553140     
   3304588213.1091657     
   3165475041.9197645     
   3030273490.5822577     
   3396364371.3230515     
   3265432481.7245598     
   3138376209.4049296     
   3015620365.6832771     
   2897707600.1103153     
   3227392631.0679579     
   3111842263.6874690     
   3000955262.7201872     
   2895224302.8337064     
   2795251850.4248352     
   3089183295.4825239     
   2989565418.2262931     
   2895376895.4481783     
   2807144255.2366800     
   2725484990.8226447     
   2984708468.7466111     
   2901377719.3160362     
   2824148810.5137587     
   2753538780.4019804     
   2690129076.9436307     
   3030273490.5822577     
   2896348699.4113898     
   2764878994.6031513     
   2636158487.4085884     
   2510565485.0511398     
   2897707600.1103153     
   2775856132.6779985     
   2657527573.7906404     
   2543153380.7731290     
   2433268898.0733213     
   2795251850.4248352     
   2687351510.3515582     
   2584188397.1331868     
   2486310614.1520729     
   2394372879.5628076     
   2725484990.8226447     
   2633068501.6295328     
   2546639175.4776711     
   2466809135.6564417     
   2394279617.6753340     
   2690129076.9436307     
   2614150849.4304547     
   2545319925.4102392     
   2484242582.7912316     
   2431583258.3988385     
   2510565485.0511398     
   2371919908.7479196     
   2236874635.7994862     
   2105964998.4363840     
   1979892498.2593114     
   2433268898.0733213     
   2309643919.1328163     
   2191059344.1792450     
   2078240025.8507235     
   1972081891.0569701     
   2394372879.5628076     
   2287540409.7767239     
   2187170431.8973012     
   2094077814.1653812     
   2009209045.0956733     
   2394279617.6753340     
   2305211726.0254140     
   2223795029.2146502     
   2150810162.7683187     
   2087106131.5553827     
   2431583258.3988385     
   2360289559.5733433     
   2297463380.4430089     
   2243754639.5847378     
   2199824299.1963649     
   1979892498.2593114     
   1848777107.6392922     
   1717782023.2120473     
   1587256803.2652380     
   1457705885.2267587     
   1972081891.0569701     
   1855684358.4293854     
   1743696630.9231927     
   1637038810.2688727     
   1536839761.0696733     
   2009209045.0956733     
   1912667304.0011568     
   1824900496.9537139     
   1747107935.0871553     
   1680581381.0546770     
   2087106131.5553827     
   2012038187.5030479     
   1949299021.6962109     
   1899970252.9096432     
   1865083263.2307370     
   2199824299.1963649     
   2144865900.8696358     
   2104796895.1218910     
   2080391485.4024906     
   2072330722.6734445     
   1457705885.2267587     
   1348737993.3272202     
   1274733681.9707808     
   1243825825.7853601     
   1263053896.4060495     
   1536839761.0696733     
   1476072183.3511653     
   1447988446.8918085     
   1456555039.1092117     
   1505060596.7729061     
   1680581381.0546770     
   1652212887.1780372     
   1651554599.8831356     
   1680972473.1244316     
   1743071360.2122147     
   1865083263.2307370     
   1854698058.8053322     
   1867265988.3537967     
   1904993764.4995289     
   1970914711.8261089     
   2072330722.6734445     
   2068913826.7328453     
   2084703475.3572385     
   2122331835.5887740     
   2185621034.8705044     
   1263053896.4060495     
   1446783280.0183585     
   1715729127.9427564     
   2110494981.3869493     
   2663549438.6033306     
   1505060596.7729061     
   1613379272.2822104     
   1788894286.6732094     
   2066370865.1826668     
   2476033582.8886719     
   1743071360.2122147     
   1787799163.2652678     
   1884672932.0367997     
   2060606878.3513486     
   2340836011.2664042     
   1970914711.8261089     
   1969000184.8922484     
   2003629514.5125198     
   2093470846.9806561     
   2257174868.5406928     
   2185621034.8705044     
   2156266125.9018812     
   2146504103.4129982     
   2166841733.3265324     
   2228328304.4943666     
   3599832610.4415498     
   3497903064.4611669     
   3403036301.6215110     
   3315376692.4948039     
   3235157234.3674231     
   3419728897.1334729     
   3328755660.8887663     
   3244373575.7975521     
   3167001290.6769223     
   3097123526.8113093     
   3255252388.2880015     
   3175668762.9351792     
   3103606041.5377827     
   3039471578.1426301     
   2983783867.5979943     
   3112544922.6565876     
   3044576051.3006058     
   2986485329.4032073     
   2938337587.9757652     
   2900433794.4473486     
   2999824200.7348223     
   2942962015.9137893     
   2899776304.0146766     
   2869617427.4040337     
   2852286952.6721950     
   3235157234.3674231     
   3166403634.1418500     
   3101603589.9505548     
   3040962930.8570132     
   2984708468.7466111     
   3097123526.8113093     
   3035202287.8102603     
   2978132017.7606378     
   2926164688.2409120     
   2879575070.1811934     
   2983783867.5979943     
   2929155381.8042665     
   2880472151.9967976     
   2837998992.2260919     
   2802023178.3975124     
   2900433794.4473486     
   2852929955.4719548     
   2812633945.6655021     
   2779785430.1136012     
   2754644458.6298175     
   2852286952.6721950     
   2810940336.7472053     
   2778201290.1027946     
   2754249619.1360641     
   2739282999.6549735     
   2984708468.7466111     
   2901377719.3160362     
   2824148810.5137587     
   2753538780.4019804     
   2690129076.9436307     
   2879575070.1811934     
   2809831237.5344815     
   2747063759.5555720     
   2691759050.7211204     
   2644449531.5871806     
   2802023178.3975124     
   2745583866.0827684     
   2696917932.3023272     
   2656444992.6779490     
   2624611670.4039669     
   2754644458.6298175     
   2710617927.0622835     
   2675056476.2781291     
   2648287016.3823338     
   2630648388.5616369     
   2739282999.6549735     
   2706121310.9650359     
   2682011104.6674218     
   2667177044.2566724     
   2661846967.1362619     
   2690129076.9436307     
   2614150849.4304547     
   2545319925.4102392     
   2484242582.7912316     
   2431583258.3988385     
   2644449531.5871806     
   2583355774.6574721     
   2530093209.9617434     
   2485173939.2163253     
   2449136909.3518639     
   2624611670.4039669     
   2577397502.4876223     
   2538504557.8279800     
   2508326614.8428478     
   2487262051.7715306     
   2630648388.5616369     
   2595759722.0852194     
   2569506485.3009257     
   2552161476.4721341     
   2543990641.9855108     
   2661846967.1362619     
   2637268771.9587574     
   2621511906.4851141     
   2614742948.6422749     
   2617118936.2069955     
   2431583258.3988385     
   2360289559.5733433     
   2297463380.4430089     
   2243754639.5847378     
   2199824299.1963649     
   2449136909.3518639     
   2392713425.8756676     
   2345600178.9813890     
   2308332494.6815896     
   2281426971.8629150     
   2487262051.7715306     
   2444825145.6875057     
   2412327247.1597199     
   2390168682.4479518     
   2378716585.9118981     
   2543990641.9855108     
   2514119882.0686874     
   2494665914.3158064     
   2485900313.2255874     
   2488060703.4798980     
   2617118936.2069955     
   2598010940.6873393     
   2589733452.4501081     
   2592451315.4863877     
   2606303163.0887837     
   2199824299.1963649     
   2144865900.8696358     
   2104796895.1218910     
   2080391485.4024906     
   2072330722.6734445     
   2281426971.8629150     
   2241295607.2300935     
   2215040254.8603091     
   2203113242.8928595     
   2205902213.7292109     
   2378716585.9118981     
   2350414451.0875936     
   2334944284.4084477     
   2332555607.9670091     
   2343467862.0565925     
   2488060703.4798980     
   2468875887.1790514     
   2461566548.6435137     
   2466266459.2381177     
   2483108281.0331063     
   2606303163.0887837     
   2593886271.9004569     
   2592537604.2461863     
   2602333014.7836180     
   2623367654.1495657     
   2072330722.6734445     
   2068913826.7328453     
   2084703475.3572385     
   2122331835.5887740     
   2185621034.8705044     
   2205902213.7292109     
   2191568165.7702303     
   2192212507.8383284     
   2209805875.3548069     
   2247274004.1989613     
   2343467862.0565925     
   2319058600.6319523     
   2306183098.8644829     
   2306247873.6937847     
   2321343350.1980534     
   2483108281.0331063     
   2450416250.7925701     
   2426298985.7188673     
   2411701852.1599903     
   2408000445.6167693     
   2623367654.1495657     
   2584864469.5617142     
   2552278386.8372779     
   2526189566.5362983     
   2507403166.5605097     
   2185621034.8705044     
   2156266125.9018812     
   2146504103.4129982     
   2166841733.3265324     
   2228328304.4943666     
   2247274004.1989613     
   2182594833.4794106     
   2134349459.6187861     
   2112193937.2352061     
   2127047644.9436774     
   2321343350.1980534     
   2224660704.6271276     
   2141302496.0242794     
   2079629291.2909205     
   2049805706.4296048     
   2408000445.6167693     
   2282757817.0768132     
   2168010214.5632334     
   2070498309.6786101     
   1998991667.7317264     
   2507403166.5605097     
   2357095503.3890457     
   2214943205.1025872     
   2085931551.9558794     
   1976945433.3742058     
   2999824200.7348223     
   2942962015.9137893     
   2899776304.0146766     
   2869617427.4040337     
   2852286952.6721950     
   2772289152.5095100     
   2748315796.8214974     
   2735351078.7122970     
   2733295525.5702314     
   2742179365.4757085     
   2621799478.5987735     
   2621297332.4166431     
   2628994182.6387205     
   2644924447.5961161     
   2669125112.3832603     
   2549133548.3663020     
   2562679795.6497025     
   2581575111.0762339     
   2605537250.3584895     
   2634408197.8516822     
   2549594555.3692260     
   2568754179.4200482     
   2590454821.4237986     
   2613648204.7511239     
   2637781584.7783289     
   2852286952.6721950     
   2810940336.7472053     
   2778201290.1027946     
   2754249619.1360641     
   2739282999.6549735     
   2742179365.4757085     
   2712710189.6489100     
   2691563132.0575399     
   2678841617.3764844     
   2674658403.8605680     
   2669125112.3832603     
   2649424110.4708395     
   2637656101.4839673     
   2633865565.8435478     
   2638102614.5829720     
   2634408197.8516822     
   2622164605.7575173     
   2617392797.9164281     
   2620100148.4976707     
   2630298908.3711123     
   2637781584.7783289     
   2630634514.2475190     
   2630464327.0251694     
   2637262309.3547130     
   2651025044.1520252     
   2739282999.6549735     
   2706121310.9650359     
   2682011104.6674218     
   2667177044.2566724     
   2661846967.1362619     
   2674658403.8605680     
   2651644556.3879638     
   2637748990.4161553     
   2633101973.3751631     
   2637832169.6063781     
   2638102614.5829720     
   2622772839.6891103     
   2616561881.2282209     
   2619527228.5946345     
   2631724300.9998174     
   2630298908.3711123     
   2619868055.6381359     
   2618528709.1972528     
   2626293971.6878700     
   2643176183.4086738     
   2651025044.1520252     
   2642543841.0137086     
   2643131053.1924348     
   2652786117.8759851     
   2671508852.7684650     
   2661846967.1362619     
   2637268771.9587574     
   2621511906.4851141     
   2614742948.6422749     
   2617118936.2069955     
   2637832169.6063781     
   2621487660.0740829     
   2613961048.7207246     
   2615347428.6580806     
   2625734528.7547889     
   2631724300.9998174     
   2621725812.0094776     
   2620551001.3869257     
   2628242595.5976796     
   2644839372.9458795     
   2643176183.4086738     
   2637469216.0750275     
   2640635592.9619899     
   2652686316.8566809     
   2673631325.9887309     
   2671508852.7684650     
   2667952980.3308206     
   2673390784.1701012     
   2687822195.6598883     
   2711247205.1903238     
   2617118936.2069955     
   2598010940.6873393     
   2589733452.4501081     
   2592451315.4863877     
   2606303163.0887837     
   2625734528.7547889     
   2614551373.4141741     
   2613784969.4519634     
   2623520613.5675640     
   2643828027.3995285     
   2644839372.9458795     
   2639667303.5778723     
   2644583917.1005387     
   2659623939.9315557     
   2684815055.7306967     
   2673631325.9887309     
   2672577283.1305671     
   2681396827.4385524     
   2700097796.2783461     
   2728686299.5973873     
   2711247205.1903238     
   2712480150.3960032     
   2723500407.5537925     
   2744307959.5264997     
   2774902794.8645554     
   2606303163.0887837     
   2593886271.9004569     
   2592537604.2461863     
   2602333014.7836180     
   2623367654.1495657     
   2643828027.3995285     
   2632991486.7623711     
   2632391155.8853755     
   2642064770.1792026     
   2662062380.7262468     
   2684815055.7306967     
   2675288191.2119222     
   2675345667.4957914     
   2685002263.9474978     
   2704278720.7417765     
   2728686299.5973873     
   2720351428.9615808     
   2721109365.1954451     
   2730963350.8034697     
   2749918194.0205398     
   2774902794.8645554     
   2767780462.1512299     
   2769402467.3557744     
   2779768810.5460758     
   2798879491.8110676     
   2623367654.1495657     
   2584864469.5617142     
   2552278386.8372779     
   2526189566.5362983     
   2507403166.5605097     
   2662062380.7262468     
   2616663323.0632477     
   2576947717.2403102     
   2543245701.4345441     
   2516017908.4922867     
   2704278720.7417765     
   2654062681.9127221     
   2609439615.3279696     
   2570556613.2023807     
   2537619546.3152766     
   2749918194.0205398     
   2696970027.5777116     
   2649667032.0438972     
   2608045765.1453724     
   2572157453.8270240     
   2798879491.8110676     
   2745284077.3573890     
   2697528272.1399589     
   2655612075.9746633     
   2619535488.8550472     
   2507403166.5605097     
   2357095503.3890457     
   2214943205.1025872     
   2085931551.9558794     
   1976945433.3742058     
   2516017908.4922867     
   2348159053.4258308     
   2183848359.9407105     
   2026188009.6794562     
   1879747098.4256861     
   2537619546.3152766     
   2357308106.8220906     
   2176733031.8794250     
   1997366214.9059849     
   1821486411.2634571     
   2572157453.8270240     
   2384646404.5884295     
   2194063783.0939045     
   2000787428.1938694     
   1805420549.7215917     
   2619535488.8550472     
   2430142989.3177915     
   2235983037.6883879     
   2037055634.2075660     
   1833360779.7392852     
   2549594555.3692260     
   2568754179.4200482     
   2590454821.4237986     
   2613648204.7511239     
   2637781584.7783289     
   2603732116.8023629     
   2601257976.1206918     
   2603250569.2238822     
   2609415681.0906248     
   2619614100.3715920     
   2687627725.1042614     
   2664965264.6862750     
   2649791442.0063376     
   2642122708.0503387     
   2641991474.5171213     
   2806192853.9109631     
   2763791753.5974030     
   2732648955.8698936     
   2712772665.1955400     
   2704212208.7059398     
   2963469428.7575874     
   2900529892.1310382     
   2853047950.2780848     
   2820838824.4781284     
   2803919821.9774251     
   2637781584.7783289     
   2630634514.2475190     
   2630464327.0251694     
   2637262309.3547130     
   2651025044.1520252     
   2619614100.3715920     
   2611369860.5842810     
   2610192170.6812973     
   2616088832.6143246     
   2629067888.6949153     
   2641991474.5171213     
   2629496597.6002908     
   2624052043.7936115     
   2625704299.4548984     
   2634500222.0420694     
   2704212208.7059398     
   2684558704.3080626     
   2671812794.2620478     
   2666076258.8319831     
   2667457843.5006890     
   2803919821.9774251     
   2774650789.0864892     
   2752004387.6950049     
   2736143524.3266497     
   2727251908.3375125     
   2651025044.1520252     
   2642543841.0137086     
   2643131053.1924348     
   2652786117.8759851     
   2671508852.7684650     
   2629067888.6949153     
   2618514513.1059027     
   2616985463.0507274     
   2624496083.3672719     
   2641061319.0820003     
   2634500222.0420694     
   2619259723.5374742     
   2613033477.4093738     
   2615879276.3738589     
   2627852852.6034880     
   2667457843.5006890     
   2645075475.0751691     
   2631702683.7961874     
   2627464170.1259274     
   2632481687.3217344     
   2727251908.3375125     
   2695564237.4947934     
   2672852650.3320599     
   2659327940.7418065     
   2655199964.5452237     
   2671508852.7684650     
   2667952980.3308206     
   2673390784.1701012     
   2687822195.6598883     
   2711247205.1903238     
   2641061319.0820003     
   2635841038.5564942     
   2639493858.2060423     
   2652030287.0016971     
   2673459692.3468027     
   2627852852.6034880     
   2618625436.3471065     
   2618211430.8621140     
   2626655014.2219734     
   2643996437.9819574     
   2632481687.3217344     
   2616994519.7793818     
   2610295194.4508061     
   2612484519.4165592     
   2623656311.0547566     
   2655199964.5452237     
   2631380594.0712905     
   2616321423.0088730     
   2610201003.3285317     
   2613189512.0184727     
   2711247205.1903238     
   2712480150.3960032     
   2723500407.5537925     
   2744307959.5264997     
   2774902794.8645554     
   2673459692.3468027     
   2672574481.1483521     
   2681485350.4069705     
   2700200168.3104677     
   2728724978.5975480     
   2643996437.9819574     
   2639301335.5770974     
   2644544984.7870927     
   2659759864.7397518     
   2684971393.6118698     
   2623656311.0547566     
   2613417170.1011043     
   2613377152.4231887     
   2623613814.5363755     
   2644189391.7843394     
   2613189512.0184727     
   2595665435.1912055     
   2588692623.7554255     
   2592418542.4345107     
   2606965005.5940447     
   2774902794.8645554     
   2767780462.1512299     
   2769402467.3557744     
   2779768810.5460758     
   2798879491.8110676     
   2728724978.5975480     
   2720357046.8610997     
   2721098267.1403303     
   2730951945.5077591     
   2749922908.4337554     
   2684971393.6118698     
   2675350784.1944227     
   2675346954.6354947     
   2684975147.6858187     
   2704256181.2416143     
   2644189391.7843394     
   2633167319.3338599     
   2632430178.7773719     
   2642017077.0340242     
   2661978371.2026601     
   2606965005.5940447     
   2594236424.6412334     
   2592641562.1226778     
   2602259299.5070338     
   2623185682.6597342     
   2798879491.8110676     
   2745284077.3573890     
   2697528272.1399589     
   2655612075.9746633     
   2619535488.8550472     
   2749922908.4337554     
   2696981398.4298186     
   2649676959.0714836     
   2608046168.5931149     
   2572140224.6113129     
   2704256181.2416143     
   2654067274.9384394     
   2609455038.6094522     
   2570566847.0534401     
   2537609097.3958130     
   2661978371.2026601     
   2616641681.6720762     
   2576963681.0123572     
   2543275253.6193700     
   2516038663.4647818     
   2623185682.6597342     
   2584795803.0828848     
   2552289399.6648364     
   2526247988.2431908     
   2507479933.2604270     
   2619535488.8550472     
   2430142989.3177915     
   2235983037.6883879     
   2037055634.2075660     
   1833360779.7392852     
   2572140224.6113129     
   2384638967.1643944     
   2194071642.7775431     
   2000817188.8852940     
   1805480673.3523445     
   2537609097.3958130     
   2357305618.8467412     
   2176748876.5280037     
   1997411347.7763708     
   1821572252.6704941     
   2516038663.4647818     
   2348174144.0474153     
   2183872291.8743567     
   2026233787.8619201     
   1879823986.0492613     
   2507479933.2604270     
   2357140890.1774631     
   2214975172.4387717     
   2085963310.6939030     
   1976980741.7952440     
   2963469428.7575874     
   2900529892.1310382     
   2853047950.2780848     
   2820838824.4781284     
   2803919821.9774251     
   3051203672.1622968     
   2988023459.9954491     
   2936777778.3811216     
   2897757632.1420541     
   2871348040.7354927     
   3196234835.7399631     
   3127311941.4309320     
   3067000453.1439290     
   3015801562.0152225     
   2974281831.2274375     
   3384579671.5912528     
   3307112910.2176309     
   3235120948.0099039     
   3169045040.3118854     
   3109426446.8256230     
   3603546715.3920774     
   3516925859.6192117     
   3432829732.2902632     
   3351418740.0296669     
   3273031765.9124584     
   2803919821.9774251     
   2774650789.0864892     
   2752004387.6950049     
   2736143524.3266497     
   2727251908.3375125     
   2871348040.7354927     
   2831007991.7807803     
   2796915643.9694133     
   2769292788.6805539     
   2748384227.3150401     
   2974281831.2274375     
   2922223694.3511453     
   2876005579.4394917     
   2835893165.7073684     
   2802180904.7153792     
   3109426446.8256230     
   3045396396.7409601     
   2986784401.2147455     
   2933881155.7947130     
   2887013684.8487082     
   3273031765.9124584     
   3197067214.5259795     
   3126109022.3370395     
   3060454306.2445397     
   3000444145.5453906     
   2727251908.3375125     
   2695564237.4947934     
   2672852650.3320599     
   2659327940.7418065     
   2655199964.5452237     
   2748384227.3150401     
   2705277954.0704727     
   2670671470.1228232     
   2644882656.0745287     
   2628238191.0857682     
   2802180904.7153792     
   2745920809.2473259     
   2697532148.0557737     
   2657432674.0127430     
   2626066784.9199033     
   2887013684.8487082     
   2816531135.0798683     
   2753137574.5146265     
   2697324466.1279163     
   2649633393.6328897     
   3000444145.5453906     
   2915300872.1970925     
   2836340657.8732543     
   2764089456.7101173     
   2699147165.6240764     
   2655199964.5452237     
   2631380594.0712905     
   2616321423.0088730     
   2610201003.3285317     
   2613189512.0184727     
   2628238191.0857682     
   2593044755.5696487     
   2566460217.7815208     
   2548761413.7321582     
   2540219515.3918848     
   2626066784.9199033     
   2577871001.6636195     
   2538018475.5859361     
   2506895182.4753361     
   2484892052.7240200     
   2649633393.6328897     
   2587226192.6286898     
   2532741033.1659966     
   2486667825.1350298     
   2449521374.7607961     
   2699147165.6240764     
   2621808512.8177052     
   2551802873.1811566     
   2489699998.1403480     
   2436121778.3647738     
   2613189512.0184727     
   2595665435.1912055     
   2588692623.7554255     
   2592418542.4345107     
   2606965005.5940447     
   2540219515.3918848     
   2511712235.6889424     
   2493505420.1255374     
   2485860507.3599901     
   2489005079.5312347     
   2484892052.7240200     
   2443271358.6852341     
   2411604982.8205419     
   2390298962.7788720     
   2379726872.7148976     
   2449521374.7607961     
   2393026343.6835761     
   2345947768.4070473     
   2308851392.3731661     
   2282288260.8560905     
   2436121778.3647738     
   2363538934.2585216     
   2299568505.5386000     
   2244921463.3486128     
   2200331507.9271064     
   2606965005.5940447     
   2594236424.6412334     
   2592641562.1226778     
   2602259299.5070338     
   2623185682.6597342     
   2489005079.5312347     
   2469466519.6182704     
   2461847737.1239634     
   2466284794.9413686     
   2482912064.8514996     
   2379726872.7148976     
   2351097128.2857313     
   2335326516.8659697     
   2332664665.9939914     
   2343332273.2257137     
   2282288260.8560905     
   2241924063.8895941     
   2215451011.5523210     
   2203317354.9103160     
   2205909614.2600656     
   2200331507.9271064     
   2145300842.7482431     
   2105170015.1383941     
   2080702515.6797721     
   2072573094.8448281     
   2623185682.6597342     
   2584795803.0828848     
   2552289399.6648364     
   2526247988.2431908     
   2507479933.2604270     
   2482912064.8514996     
   2450316801.3828754     
   2426280594.6828728     
   2411749148.7025452     
   2408099006.3897667     
   2343332273.2257137     
   2318975153.7463908     
   2306153817.4462295     
   2306274341.1516557     
   2321424854.7104135     
   2205909614.2600656     
   2191552281.9924603     
   2192193145.9677067     
   2209802232.9360733     
   2247299023.0196671     
   2072573094.8448281     
   2069023039.7337911     
   2084717520.4442098     
   2122289256.1516871     
   2185549949.1535478     
   2507479933.2604270     
   2357140890.1774631     
   2214975172.4387717     
   2085963310.6939030     
   1976980741.7952440     
   2408099006.3897667     
   2282817243.1657953     
   2168042518.6285253     
   2070514018.9280674     
   1998997983.9416475     
   2321424854.7104135     
   2224711502.6579404     
   2141328691.0294042     
   2079640116.9866261     
   2049814616.7037947     
   2247299023.0196671     
   2182613979.4790249     
   2134362895.0960107     
   2112210404.2920356     
   2127087908.0292532     
   2185549949.1535478     
   2156230516.4601345     
   2146498107.0810342     
   2166873796.1344690     
   2228426117.7531943     
   3603546715.3920774     
   3516925859.6192117     
   3432829732.2902632     
   3351418740.0296669     
   3273031765.9124584     
   3842680771.9416227     
   3734477356.9578547     
   3629116919.5512109     
   3526879179.7101889     
   3428153539.0262408     
   4108855458.4236884     
   3980389878.8099432     
   3855374811.7294106     
   3734108025.6101809     
   3616975163.1650476     
   4400967234.8612757     
   4252806015.8972292     
   4108894937.9102335     
   3969478409.3426313     
   3834905970.4721441     
   4717947091.6649885     
   4549951272.9605570     
   4387114225.8325586     
   4229579081.8652868     
   4077644050.7848015     
   3273031765.9124584     
   3197067214.5259795     
   3126109022.3370395     
   3060454306.2445397     
   3000444145.5453906     
   3428153539.0262408     
   3339583217.2783198     
   3255284114.9862070     
   3175558348.8568797     
   3100763246.3007593     
   3616975163.1650476     
   3515826346.6626344     
   3418175616.7322540     
   3324305103.6216593     
   3234559173.2275577     
   3834905970.4721441     
   3721433266.9855280     
   3610693740.0595942     
   3502930934.6171832     
   3398452770.0159945     
   4077644050.7848015     
   3952226567.4229102     
   3828818806.5806713     
   3707614705.4764547     
   3588870502.6698723     
   3000444145.5453906     
   2915300872.1970925     
   2836340657.8732543     
   2764089456.7101173     
   2699147165.6240764     
   3100763246.3007593     
   2999737758.5179772     
   2904144511.6852217     
   2814514297.9445658     
   2731474535.7784042     
   3234559173.2275577     
   3118080144.0608654     
   3006225421.0143099     
   2899490134.2807980     
   2798480771.8156276     
   3398452770.0159945     
   3267163370.5623112     
   3139700079.7951007     
   3016492459.9669971     
   2898086021.4701800     
   3588870502.6698723     
   3443492442.9089403     
   3301201789.2151494     
   3162346585.5490851     
   3027386478.4751654     
   2699147165.6240764     
   2621808512.8177052     
   2551802873.1811566     
   2489699998.1403480     
   2436121778.3647738     
   2731474535.7784042     
   2638817289.0334706     
   2552272806.0164423     
   2472440685.6903076     
   2400005270.6493187     
   2798480771.8156276     
   2691003390.7610097     
   2588297583.0327220     
   2490919690.5007162     
   2399532199.7393532     
   2898086021.4701800     
   2776981529.2520390     
   2659309624.7664232     
   2545523014.2339983     
   2436182223.5968938     
   3027386478.4751654     
   2894318188.5665731     
   2763464232.9464283     
   2635143865.9527168     
   2509767462.4211979     
   2436121778.3647738     
   2363538934.2585216     
   2299568505.5386000     
   2244921463.3486128     
   2200331507.9271064     
   2400005270.6493187     
   2309383797.4176273     
   2226440973.2410336     
   2151987435.6832285     
   2086911615.8568566     
   2399532199.7393532     
   2291289746.9711819     
   2189491249.7465858     
   2094949432.2132282     
   2008611070.6968632     
   2436182223.5968938     
   2311641628.7584677     
   2192153795.7663088     
   2078418848.0670061     
   1971301066.4262238     
   2509767462.4211979     
   2370976464.9471679     
   2235895353.2968578     
   2105029199.1371319     
   1979036319.7372847     
   2200331507.9271064     
   2145300842.7482431     
   2105170015.1383941     
   2080702515.6797721     
   2072573094.8448281     
   2086911615.8568566     
   2011968622.2797172     
   1949360500.9589977     
   1900163046.4421070     
   1865401903.2244921     
   2008611070.6968632     
   1912308206.3237932     
   1824769900.4660513     
   1747194376.2315102     
   1680871170.4932613     
   1971301066.4262238     
   1855199618.6045146     
   1743466270.4569848     
   1637022671.8579767     
   1537000418.6511226     
   1979036319.7372847     
   1848247771.6454363     
   1717494900.1459513     
   1587128529.8666406     
   1457660093.0790126     
   2072573094.8448281     
   2069023039.7337911     
   2084717520.4442098     
   2122289256.1516871     
   2185549949.1535478     
   1865401903.2244921     
   1854855634.7406452     
   1867287568.6347086     
   1904907701.8018503     
   1970747331.7367778     
   1680871170.4932613     
   1652345699.7669053     
   1651547168.1986959     
   1680845720.7080402     
   1742850552.6495204     
   1537000418.6511226     
   1476106931.7947183     
   1447913170.0110219     
   1456387917.3585246     
   1504827406.6329145     
   1457660093.0790126     
   1348610196.4732821     
   1274550955.5930986     
   1243614114.0526059     
   1262845517.9519439     
   2185549949.1535478     
   2156230516.4601345     
   2146498107.0810342     
   2166873796.1344690     
   2228426117.7531943     
   1970747331.7367778     
   1968910523.7994196     
   2003610287.9012623     
   2093520005.0030725     
   2257299018.3357916     
   1742850552.6495204     
   1787677532.9690604     
   1884643080.3467743     
   2060656982.7391396     
   2340950228.3027153     
   1504827406.6329145     
   1613247118.9332023     
   1788856199.3773837     
   2066406292.0778339     
   2476105620.6344485     
   1262845517.9519439     
   1446661015.1689153     
   1715685096.3691890     
   2110500233.9265239     
   2663548558.8730927     
   4717947091.6649885     
   4549951272.9605570     
   4387114225.8325586     
   4229579081.8652868     
   4077644050.7848015     
   5010995607.9691610     
   4836284697.1702108     
   4663582675.4965363     
   4493068199.4729242     
   4324991983.0128450     
   5319451770.0459528     
   5139812743.9979343     
   4959645109.9048281     
   4778997552.2811642     
   4597967278.1159124     
   5634931797.2725210     
   5453395248.2717590     
   5269307624.8022203     
   5082490397.5323858     
   4892852096.5477295     
   5951057580.0705738     
   5771512091.4715881     
   5587833215.4672089     
   5399572835.6515341     
   5206471688.5279427     
   4077644050.7848015     
   3952226567.4229102     
   3828818806.5806713     
   3707614705.4764547     
   3588870502.6698723     
   4324991983.0128450     
   4187282653.1330891     
   4051181873.8214760     
   3916824240.7446179     
   3784399401.9899287     
   4597967278.1159124     
   4448540308.1283302     
   4300408038.1284571     
   4153650195.7872462     
   4008395304.7959490     
   4892852096.5477295     
   4732084174.3095713     
   4572374543.6078749     
   4413754692.0588341     
   4256300401.8156199     
   5206471688.5279427     
   5034555449.0982838     
   4863525372.0729485     
   4693371701.8628464     
   4524126484.3096485     
   3588870502.6698723     
   3443492442.9089403     
   3301201789.2151494     
   3162346585.5490851     
   3027386478.4751654     
   3784399401.9899287     
   3625828880.3543954     
   3469287857.3911481     
   3315021727.0652113     
   3163374228.6737432     
   4008395304.7959490     
   3837521927.2532477     
   3667749814.9516616     
   3499220633.7365232     
   3332155133.7730517     
   4256300401.8156199     
   4074032987.4778810     
   3892087149.9098258     
   3710511884.4463625     
   3529414957.1779556     
   4524126484.3096485     
   4331334403.0138388     
   4138232535.6991940     
   3944794387.8793664     
   3751034256.5095634     
   3027386478.4751654     
   2894318188.5665731     
   2763464232.9464283     
   2635143865.9527168     
   2509767462.4211979     
   3163374228.6737432     
   3019250249.2615867     
   2876884382.3020697     
   2736502194.3341269     
   2598410902.7316551     
   3332155133.7730517     
   3177532745.6356802     
   3024253257.4787197     
   2872450620.2255273     
   2722330048.1094155     
   3529414957.1779556     
   3364527915.1180649     
   3200611714.4070687     
   3037717867.6304183     
   2875960547.2610607     
   3751034256.5095634     
   3575802535.7914734     
   3401205198.4678435     
   3227223205.5813694     
   3053894686.3380399     
   2509767462.4211979     
   2370976464.9471679     
   2235895353.2968578     
   2105029199.1371319     
   1979036319.7372847     
   2598410902.7316551     
   2449775847.4518299     
   2303299852.9456134     
   2159297975.9101095     
   2018196044.4176002     
   2722330048.1094155     
   2566028459.2620764     
   2410662618.7084336     
   2256375396.3153958     
   2103368339.6997511     
   2875960547.2610607     
   2714305985.2735848     
   2552744327.8766861     
   2391306445.4511476     
   2230044049.0137939     
   3053894686.3380399     
   2889113109.5396338     
   2723935957.9584756     
   2558350816.8090353     
   2392351399.1729832     
   1979036319.7372847     
   1848247771.6454363     
   1717494900.1459513     
   1587128529.8666406     
   1457660093.0790126     
   2018196044.4176002     
   1881259448.7474494     
   1744632425.6852102     
   1608444695.7775414     
   1472874826.8959272     
   2103368339.6997511     
   1962940304.4920514     
   1823448366.8888621     
   1684923983.5312197     
   1547426211.8172312     
   2230044049.0137939     
   2087052213.0189526     
   1945684923.6960611     
   1805943861.7957051     
   1667904615.5871706     
   2392351399.1729832     
   2246085966.0485687     
   2101975665.1625066     
   1960022861.0176306     
   1820392437.1907566     
   1457660093.0790126     
   1348610196.4732821     
   1274550955.5930986     
   1243614114.0526059     
   1262845517.9519439     
   1472874826.8959272     
   1328608411.3649549     
   1198813635.0820642     
   1087975875.5195937     
   1002006669.5685974     
   1547426211.8172312     
   1397541441.8156412     
   1244104579.5918956     
   1084843837.1518323     
   917728368.18643486     
   1667904615.5871706     
   1552511732.6488843     
   1428019285.7727029     
   1294780306.0231330     
   1158909937.7709329     
   1820392437.1907566     
   1779791959.3429959     
   1735699756.6735699     
   1696734539.4361405     
   1681372965.2153823     
   1262845517.9519439     
   1446661015.1689153     
   1715685096.3691890     
   2110500233.9265239     
   2663548558.8730927     
   1002006669.5685974     
   1164701337.8660471     
   1425424302.9135501     
   1808758732.8316188     
   2334786198.2229519     
   917728368.18643486     
   963131968.24022734     
   1144933015.8150461     
   1476485436.3913639     
   1957469687.4164703     
   1158909937.7709329     
   1008460219.6695890     
   985228384.93710554     
   1161478521.4452121     
   1544109776.4009454     
   1681372965.2153823     
   1383816477.0391841     
   1129486425.4250960     
   1010105235.5425692     
   1152974970.0600109     
 </DataArray>
 <DataArray  type="Float64" Name="strain" NumberOfComponents="3" format="ascii">
   9.9119744466051429E-002  -3.4811752983942235E-002  -7.3073545485056179E-003
   9.5920093900161096E-002  -3.2300343884956839E-002  -5.8172967791346730E-003
   9.2720443334270874E-002  -3.0177577370582465E-002  -4.3610968823363239E-003
   8.9520792768380597E-002  -2.8443453440818306E-002  -2.9387548581112644E-003
   8.6321142202490320E-002  -2.7097972095665335E-002  -1.5502707064587451E-003
   9.4159980631183471E-002  -3.0933589473543521E-002   3.9857093727068138E-003
   9.0965368860074780E-002  -2.9075504866772128E-002   4.6295033899629856E-003
   8.7770757088966089E-002  -2.7468965638338366E-002   5.3172328693553705E-003
   8.4576145317857454E-002  -2.6113971788242242E-002   6.0488978108839409E-003
   8.1381533546748763E-002  -2.5010523316483790E-002   6.8244982145487243E-003
   8.8635150358320369E-002  -2.7055425963144697E-002   1.4556900198568923E-002
   8.5523370716702213E-002  -2.5850665848587306E-002   1.4491527669983267E-002
   8.2411591075084306E-002  -2.4760353906094490E-002   1.4547883938242967E-002
   7.9299811433466344E-002  -2.3784490135666012E-002   1.4725969003347980E-002
   7.6188031791848299E-002  -2.2923074537302190E-002   1.5025782865298321E-002
   8.2545253647462014E-002  -2.3177262452745873E-002   2.4406217929080237E-002
   7.9594099470043755E-002  -2.2625826830402485E-002   2.3768776060926027E-002
   7.6642945292625456E-002  -2.2051742173850503E-002   2.3330856324326243E-002
   7.3691791115207211E-002  -2.1455008483089975E-002   2.3092458719280777E-002
   7.0740636937788912E-002  -2.0835625758120729E-002   2.3053583245789599E-002
   7.5890290498608515E-002  -1.9299098942347104E-002   3.3533662564240840E-002
   7.3177555120099047E-002  -1.9400987812217663E-002   3.2461248562791312E-002
   7.0464819741589579E-002  -1.9343130441606626E-002   3.1666150027605089E-002
   6.7752084363080167E-002  -1.9125526830513731E-002   3.1148366958682339E-002
   6.5039348984570727E-002  -1.8748176978939157E-002   3.0907899356022894E-002
   8.6321142202490320E-002  -2.7097972095665335E-002  -1.5502707064587451E-003
   8.3609694519546751E-002  -2.5975215922879213E-002  -1.2775318872547681E-003
   8.0898246836603127E-002  -2.4909267510216826E-002  -9.4215444414152971E-004
   7.8186799153659503E-002  -2.3900126857677312E-002  -5.4413837711836388E-004
   7.5475351470715935E-002  -2.2947793965261143E-002  -8.3483686185714667E-005
   8.1381533546748763E-002  -2.5010523316483790E-002   6.8244982145487243E-003
   7.8754997302776963E-002  -2.4046904949410502E-002   6.8231554540780504E-003
   7.6128461058805219E-002  -2.3111401413370175E-002   6.9289969476416524E-003
   7.3501924814833502E-002  -2.2204012708362940E-002   7.1420226952391835E-003
   7.0875388570861675E-002  -2.1324738834388568E-002   7.4622326968709629E-003
   7.6188031791848299E-002  -2.2923074537302190E-002   1.5025782865298321E-002
   7.3690952616972991E-002  -2.2118593975941847E-002   1.4779051454243214E-002
   7.1193873442097738E-002  -2.1313535316524190E-002   1.4684049927347204E-002
   6.8696794267222458E-002  -2.0507898559048679E-002   1.4740778284609769E-002
   6.6199715092347206E-002  -1.9701683703515882E-002   1.4949236526031445E-002
   7.0740636937788912E-002  -2.0835625758120729E-002   2.3053583245789599E-002
   6.8417560462134805E-002  -2.0190283002473164E-002   2.2590156113240757E-002
   6.6094483986480712E-002  -1.9515669219677872E-002   2.2323004494975512E-002
   6.3771407510826647E-002  -1.8811784409734474E-002   2.2252128390993671E-002
   6.1448331035172471E-002  -1.8078628572643141E-002   2.2377527801295378E-002
   6.5039348984570727E-002  -1.8748176978939157E-002   3.0907899356022894E-002
   6.2934820838262406E-002  -1.8261972029004592E-002   3.0256469431070687E-002
   6.0830292691954099E-002  -1.7717803122831610E-002   2.9845860650526607E-002
   5.8725764545645813E-002  -1.7115670260420143E-002   2.9676073014390916E-002
   5.6621236399337527E-002  -1.6455573441770455E-002   2.9747106522662936E-002
   7.5475351470715935E-002  -2.2947793965261143E-002  -8.3483686185714667E-005
   7.2211369613067400E-002  -2.2018980233327268E-002  -2.8952089349987276E-004
   6.8947387755418810E-002  -2.1080397062233830E-002  -3.0322392907117246E-004
   6.5683405897770275E-002  -2.0132044451981322E-002  -1.2459279289964154E-004
   6.2419424040121685E-002  -1.9173922402569654E-002   2.4637251501480328E-004
   7.0875388570861675E-002  -2.1324738834388568E-002   7.4622326968709629E-003
   6.7805028029520209E-002  -2.0455795035079327E-002   7.1903841158917348E-003
   6.4734667488178715E-002  -1.9579396554068262E-002   7.1134439957836748E-003
   6.1664306946837208E-002  -1.8695543391355041E-002   7.2314123365469357E-003
   5.8593946405495756E-002  -1.7804235546939107E-002   7.5442891381818367E-003
   6.6199715092347206E-002  -1.9701683703515882E-002   1.4949236526031445E-002
   6.3325550156441368E-002  -1.8892609836831609E-002   1.4609261813929769E-002
   6.0451385220535558E-002  -1.8078396045902487E-002   1.4466769851828001E-002
   5.7577220284629707E-002  -1.7259042330728096E-002   1.4521760639726287E-002
   5.4703055348723884E-002  -1.6434548691308837E-002   1.4774234177624329E-002
   6.1448331035172471E-002  -1.8078628572643141E-002   2.2377527801295378E-002
   5.8772935993830877E-002  -1.7329424638584001E-002   2.1967112200614328E-002
   5.6097540952489242E-002  -1.6577395537736704E-002   2.1756753639061727E-002
   5.3422145911147662E-002  -1.5822541270101707E-002   2.1746452116637442E-002
   5.0746750869806019E-002  -1.5064861835678539E-002   2.1936207633341955E-002
   5.6621236399337527E-002  -1.6455573441770455E-002   2.9747106522662936E-002
   5.4147185541688680E-002  -1.5766239440336033E-002   2.9263935275945396E-002
   5.1673134684039862E-002  -1.5076395029571005E-002   2.8983395357484731E-002
   4.9199083826391030E-002  -1.4386040209475003E-002   2.8905486767281108E-002
   4.6725032968742197E-002  -1.3695174980048297E-002   2.9030209505334803E-002
   6.2419424040121685E-002  -1.9173922402569654E-002   2.4637251501480328E-004
   5.9525541486811773E-002  -1.8222346662952527E-002   5.9492872575561684E-005
   5.6631658933501805E-002  -1.7293632982085388E-002   5.0804228110601368E-005
   5.3737776380191921E-002  -1.6387781359967206E-002   2.2030658161975580E-004
   5.0843893826881925E-002  -1.5504791796599138E-002   5.6799993310274743E-004
   5.8593946405495756E-002  -1.7804235546939107E-002   7.5442891381818367E-003
   5.5872187407289164E-002  -1.6916884969728763E-002   7.2668129932958458E-003
   5.3150428409082656E-002  -1.6044903608629951E-002   7.1553929606424371E-003
   5.0428669410876079E-002  -1.5188291463643221E-002   7.2100290402225542E-003
   4.7706910412669556E-002  -1.4347048534768980E-002   7.4307212320352534E-003
   5.4703055348723884E-002  -1.6434548691308837E-002   1.4774234177624329E-002
   5.2141285019879718E-002  -1.5611423276504444E-002   1.4413654372928464E-002
   4.9579514691035595E-002  -1.4796174235174528E-002   1.4206995794724578E-002
   4.7017744362191465E-002  -1.3988801567319239E-002   1.4154258443012539E-002
   4.4455974033347306E-002  -1.3189305272938268E-002   1.4255442317792688E-002
   5.0746750869806019E-002  -1.5064861835678539E-002   2.1936207633341955E-002
   4.8332834324583296E-002  -1.4305961583280180E-002   2.1500017011473825E-002
   4.5918917779360621E-002  -1.3547444861718876E-002   2.1205612730356631E-002
   4.3505001234137912E-002  -1.2789311670994589E-002   2.1052994789990391E-002
   4.1091084688915182E-002  -1.2031562011107721E-002   2.1042163190375079E-002
   4.6725032968742197E-002  -1.3695174980048297E-002   2.9030209505334803E-002
   4.4446835321399952E-002  -1.3000499890056139E-002   2.8525900908931756E-002
   4.2168637674057707E-002  -1.2298715488263348E-002   2.8151243767538831E-002
   3.9890440026715490E-002  -1.1589821774670470E-002   2.7906238081155790E-002
   3.7612242379373217E-002  -1.0873818749277286E-002   2.7790883849782677E-002
   5.0843893826881925E-002  -1.5504791796599138E-002   5.6799993310274743E-004
   4.8102705667833257E-002  -1.4629646575033739E-002   3.7762576052191577E-004
   4.5361517508784643E-002  -1.3747327978323787E-002   2.2140659983282962E-004
   4.2620329349736003E-002  -1.2857836006469670E-002   9.9342451036599222E-005
   3.9879141190687362E-002  -1.1961170659471554E-002   1.1433314131448213E-005
   4.7706910412669556E-002  -1.4347048534768980E-002   7.4307212320352534E-003
   4.5013258494175257E-002  -1.3511437171619622E-002   7.1454150529095539E-003
   4.2319606575680874E-002  -1.2671719723809594E-002   6.9210263430004582E-003
   3.9625954657186588E-002  -1.1827896191338130E-002   6.7575551023083547E-003
   3.6932302738692080E-002  -1.0979966574206079E-002   6.6550013308328548E-003
   4.4455974033347306E-002  -1.3189305272938268E-002   1.4255442317792688E-002
   4.1836620812731956E-002  -1.2393227768205950E-002   1.3872136841639154E-002
   3.9217267592116620E-002  -1.1596111469295400E-002   1.3576511292027138E-002
   3.6597914371501276E-002  -1.0797956376206591E-002   1.3368565668956209E-002
   3.3978561150885989E-002  -9.9987624889402715E-003   1.3248299972426547E-002
   4.1091084688915182E-002  -1.2031562011107721E-002   2.1042163190375079E-002
   3.8572792623503535E-002  -1.1275018364791833E-002   2.0557791126710662E-002
   3.6054500558091909E-002  -1.0520503214780985E-002   2.0187861446911974E-002
   3.3536208492680214E-002  -9.7680165610752739E-003   1.9932374150979384E-002
   3.1017916427268519E-002  -9.0175584036747414E-003   1.9791329238912955E-002
   3.7612242379373217E-002  -1.0873818749277286E-002   2.7790883849782677E-002
   3.5221773926489952E-002  -1.0156808961377939E-002   2.7202377908123743E-002
   3.2831305473606659E-002  -9.4448949602666810E-003   2.6755076807655764E-002
   3.0440837020723352E-002  -8.7380767459437625E-003   2.6448980548378603E-002
   2.8050368567840156E-002  -8.0363543184088782E-003   2.6284089130292010E-002
   3.9879141190687362E-002  -1.1961170659471554E-002   1.1433314131448213E-005
   3.7465157319019893E-002  -1.1139138990749586E-002  -2.7548303876345770E-004
   3.5051173447352590E-002  -1.0473548053725745E-002  -4.7496614885667032E-004
   3.2637189575685233E-002  -9.9643978483959922E-003  -5.8701601614824517E-004
   3.0223205704017819E-002  -9.6116883747652260E-003  -6.1163264063779366E-004
   3.6932302738692080E-002  -1.0979966574206079E-002   6.6550013308328548E-003
   3.4588259481039219E-002  -1.0181848895974843E-002   6.2136038662592430E-003
   3.2244216223386191E-002  -9.4874611802051034E-003   5.8246543869135414E-003
   2.9900172965733190E-002  -8.8968034268989554E-003   5.4881528927944179E-003
   2.7556129708080246E-002  -8.4098756360553306E-003   5.2040993839025385E-003
   3.3978561150885989E-002  -9.9987624889402715E-003   1.3248299972426547E-002
   3.1669473249672508E-002  -9.2245588011989899E-003   1.2705132165409638E-002
   2.9360385348459223E-002  -8.5013743066862102E-003   1.2179427086045080E-002
   2.7051297447245867E-002  -7.8292090054010235E-003   1.1671184734332693E-002
   2.4742209546032484E-002  -7.2080628973447691E-003   1.1180405110272296E-002
   3.1017916427268519E-002  -9.0175584036747414E-003   1.9791329238912955E-002
   2.8708798624920193E-002  -8.2672687064236916E-003   1.9199101858686132E-002
   2.6399680822571707E-002  -7.5152874331668867E-003   1.8589351948537315E-002
   2.4090563020223246E-002  -6.7616145839035392E-003   1.7962079508466105E-002
   2.1781445217874895E-002  -6.0062501586345407E-003   1.7317284538472227E-002
   2.8050368567840156E-002  -8.0363543184088782E-003   2.6284089130292010E-002
   2.5706235606781869E-002  -7.3099786116482823E-003   2.5695512946090071E-002
   2.3362102645723692E-002  -6.5292005596469804E-003   2.5054428974391085E-002
   2.1017969684665516E-002  -5.6940201624060202E-003   2.4360837215194636E-002
   1.8673836723607284E-002  -4.8044374199245343E-003   2.3614737668501418E-002
   3.0223205704017819E-002  -9.6116883747652260E-003  -6.1163264063779366E-004
   2.9612113064150791E-002  -9.1354051212096943E-003  -3.6679414847884395E-004
   2.9001020424283819E-002  -8.2555335761079762E-003  -1.8016725558303026E-003
   2.8389927784416791E-002  -6.9720737394613208E-003  -4.9162678626930023E-003
   2.7778835144549818E-002  -5.2850256112693117E-003  -9.7105800690662214E-003
   2.7556129708080246E-002  -8.4098756360553306E-003   5.2040993839025385E-003
   2.5534560062966449E-002  -7.8707178594710214E-003   5.8772227169601177E-003
   2.3512990417852792E-002  -7.1233701489432644E-003   5.4091089390353453E-003
   2.1491420772739009E-002  -6.1678325044721150E-003   3.7997580501273609E-003
   1.9469851127625337E-002  -5.0041049260582948E-003   1.0491700502377466E-003
   2.4742209546032484E-002  -7.2080628973447691E-003   1.1180405110272296E-002
   2.1848642684200337E-002  -6.6060305977322931E-003   1.2086414926626210E-002
   1.8955075822368161E-002  -5.9912067217784970E-003   1.2389667420526107E-002
   1.6061508960535972E-002  -5.3635912694837834E-003   1.2090162591971210E-002
   1.3167942098703811E-002  -4.7231842408472779E-003   1.1187900440961851E-002
   2.1781445217874895E-002  -6.0062501586345407E-003   1.7317284538472227E-002
   1.8554360927852440E-002  -5.3413433359933704E-003   1.8260782480520224E-002
   1.5327276637829970E-002  -4.8590432946135353E-003   1.9140002888641747E-002
   1.2100192347807497E-002  -4.5593500344947926E-003   1.9954945762837330E-002
   8.8731080577850382E-003  -4.4422635556371493E-003   2.0705611103106453E-002
   1.8673836723607284E-002  -4.8044374199245343E-003   2.3614737668501418E-002
   1.5651714793922800E-002  -4.0766560742549474E-003   2.4400325378641008E-002
   1.2629592864238204E-002  -3.7268798674485737E-003   2.5660115343382361E-002
   9.6074709345536219E-003  -3.7551087995056354E-003   2.7394107562726200E-002
   6.5853490048691232E-003  -4.1613428704263544E-003   2.9602302036671801E-002
   2.7778835144549818E-002  -5.2850256112693117E-003  -9.7105800690662214E-003
   2.3352881947597881E-002  -4.2081146075376719E-003  -4.1844591093369576E-003
   1.8926928750645944E-002  -4.7550661442732345E-003   2.6051382674245893E-003
   1.4500975553693979E-002  -6.9258802214758330E-003   1.0658212061217531E-002
   1.0075022356742069E-002  -1.0720556839145523E-002   1.9974762272042312E-002
   1.9469851127625337E-002  -5.0041049260582948E-003   1.0491700502377466E-003
   1.6235094914265169E-002  -4.6915522945678578E-003   6.7428853804005762E-003
   1.3000338700904945E-002  -6.2895394908681346E-003   1.3555518260714883E-002
   9.7655824875448605E-003  -9.7980665149589447E-003   2.1487068691181055E-002
   6.5308262741847756E-003  -1.5217133366839608E-002   3.0537536671798371E-002
   1.3167942098703811E-002  -4.7231842408472779E-003   1.1187900440961851E-002
   1.0979824002054883E-002  -5.1749899815985989E-003   1.6762532854235013E-002
   8.7917059054060109E-003  -7.8240128374628126E-003   2.3311523950779511E-002
   6.6035878087570762E-003  -1.2670252808441612E-002   3.0834873730594625E-002
   4.4154697121082109E-003  -1.9713709894534137E-002   3.9332582193680965E-002
   8.8731080577850382E-003  -4.4422635556371493E-003   2.0705611103106453E-002
   7.5870692109668708E-003  -5.6584276686290624E-003   2.5874483312166754E-002
   6.3010303641487624E-003  -9.3584861840582678E-003   3.1873155337617781E-002
   5.0149915173306869E-003  -1.5542439101924946E-002   3.8701627179459422E-002
   3.7289526705125003E-003  -2.4210286422228888E-002   4.6359898837690927E-002
   6.5853490048691232E-003  -4.1613428704263544E-003   2.9602302036671801E-002
   6.0568305410012568E-003  -6.1418653556596370E-003   3.4078736754196037E-002
   5.5283120771334460E-003  -1.0892959530653390E-002   3.9240412421229443E-002
   4.9997936132654963E-003  -1.8414625395407863E-002   4.5087329037773516E-002
   4.4712751493978242E-003  -2.8706862949923195E-002   5.1619486603827536E-002
   7.5890290498608515E-002  -1.9299098942347104E-002   3.3533662564240840E-002
   7.3177555120099047E-002  -1.9400987812217663E-002   3.2461248562791312E-002
   7.0464819741589579E-002  -1.9343130441606626E-002   3.1666150027605089E-002
   6.7752084363080167E-002  -1.9125526830513731E-002   3.1148366958682339E-002
   6.5039348984570727E-002  -1.8748176978939157E-002   3.0907899356022894E-002
   6.9128180771883985E-002  -1.9027892009254865E-002   3.6004397465645099E-002
   6.6675172387569703E-002  -1.8776315787838421E-002   3.5383601477645077E-002
   6.4222164003255450E-002  -1.8447619400374968E-002   3.5004944011771982E-002
   6.1769155618941238E-002  -1.8041802846864376E-002   3.4868425068025774E-002
   5.9316147234627026E-002  -1.7558866127306727E-002   3.4974044646406854E-002
   6.2716844327412591E-002  -1.8756685076162682E-002   3.8869910495553717E-002
   6.0488385993157270E-002  -1.8151643763459235E-002   3.8618106446568365E-002
   5.8259927658901825E-002  -1.7552108359143392E-002   3.8573263975573813E-002
   5.6031469324646505E-002  -1.6958078863215105E-002   3.8735383082569866E-002
   5.3803010990391122E-002  -1.6369555275674352E-002   3.9104463767556594E-002
   5.6656281165194500E-002  -1.8485478143070472E-002   4.2130201653966928E-002
   5.4617195936861637E-002  -1.7526971739080022E-002   4.2164763469561509E-002
   5.2578110708528837E-002  -1.6656597317911775E-002   4.2371109919010698E-002
   5.0539025480195954E-002  -1.5874354879565792E-002   4.2749241002314337E-002
   4.8499940251863154E-002  -1.5180244424042005E-002   4.3299156719472078E-002
   5.0946491285229545E-002  -1.8214271209978261E-002   4.5785270940884082E-002
   4.9061602218682915E-002  -1.6902299714700780E-002   4.6023572546624425E-002
   4.7176713152136285E-002  -1.5761086276680172E-002   4.6398481842082590E-002
   4.5291824085589627E-002  -1.4790630895916427E-002   4.6909998827258978E-002
   4.3406935019042997E-002  -1.3990933572409547E-002   4.7558123502153327E-002
   6.5039348984570727E-002  -1.8748176978939157E-002   3.0907899356022894E-002
   6.2934820838262406E-002  -1.8261972029004592E-002   3.0256469431070687E-002
   6.0830292691954099E-002  -1.7717803122831610E-002   2.9845860650526607E-002
   5.8725764545645813E-002  -1.7115670260420143E-002   2.9676073014390916E-002
   5.6621236399337527E-002  -1.6455573441770455E-002   2.9747106522662936E-002
   5.9316147234627026E-002  -1.7558866127306727E-002   3.4974044646406854E-002
   5.7434138931136247E-002  -1.7021169220729895E-002   3.4559561007686798E-002
   5.5552130627645441E-002  -1.6451072106161771E-002   3.4349295910193700E-002
   5.3670122324154704E-002  -1.5848574783602232E-002   3.4343249353927560E-002
   5.1788114020663911E-002  -1.5213677253051505E-002   3.4541421338888462E-002
   5.3803010990391122E-002  -1.6369555275674352E-002   3.9104463767556594E-002
   5.2106919926536724E-002  -1.5780366412455338E-002   3.8901362666821634E-002
   5.0410828862682333E-002  -1.5184341089491932E-002   3.8865877504132409E-002
   4.8714737798827949E-002  -1.4581479306784377E-002   3.8998008279488995E-002
   4.7018646734973538E-002  -1.3971781064332528E-002   3.9297754992891176E-002
   4.8499940251863154E-002  -1.5180244424042005E-002   4.3299156719472078E-002
   4.6953163824463899E-002  -1.4539563604180683E-002   4.3281874408475071E-002
   4.5406387397064631E-002  -1.3917610072822065E-002   4.3395605432342665E-002
   4.3859610969665411E-002  -1.3314383829966411E-002   4.3640349791074895E-002
   4.2312834542266115E-002  -1.2729884875613592E-002   4.4016107484671572E-002
   4.3406935019042997E-002  -1.3990933572409547E-002   4.7558123502153327E-002
   4.1972870624917724E-002  -1.3298760795906139E-002   4.7701096232647316E-002
   4.0538806230792451E-002  -1.2650879056152392E-002   4.7938479694824676E-002
   3.9104741836667206E-002  -1.2047288353148618E-002   4.8270273888685336E-002
   3.7670677442541906E-002  -1.1487988686894601E-002   4.8696478814229394E-002
   5.6621236399337527E-002  -1.6455573441770455E-002   2.9747106522662936E-002
   5.4147185541688680E-002  -1.5766239440336033E-002   2.9263935275945396E-002
   5.1673134684039862E-002  -1.5076395029571005E-002   2.8983395357484731E-002
   4.9199083826391030E-002  -1.4386040209475003E-002   2.8905486767281108E-002
   4.6725032968742197E-002  -1.3695174980048297E-002   2.9030209505334803E-002
   5.1788114020663911E-002  -1.5213677253051505E-002   3.4541421338888462E-002
   4.9513553287002271E-002  -1.4561109032171199E-002   3.4120489771883200E-002
   4.7238992553340672E-002  -1.3905599638623090E-002   3.3895907124595295E-002
   4.4964431819679053E-002  -1.3247149072407274E-002   3.3867673397024685E-002
   4.2689871086017489E-002  -1.2585757333523684E-002   3.4035788589171334E-002
   4.7018646734973538E-002  -1.3971781064332528E-002   3.9297754992891176E-002
   4.4937293716759280E-002  -1.3355978624006157E-002   3.8941493868935403E-002
   4.2855940698545113E-002  -1.2734804247675244E-002   3.8775299256157289E-002
   4.0774587680330987E-002  -1.2108257935339494E-002   3.8799171154556590E-002
   3.8693234662116702E-002  -1.1476339686999154E-002   3.9013109564133550E-002
   4.2312834542266115E-002  -1.2729884875613592E-002   4.4016107484671572E-002
   4.0418406830959638E-002  -1.2150848215841246E-002   4.3726947567102152E-002
   3.8523979119653121E-002  -1.1564008856727391E-002   4.3621571752170629E-002
   3.6629551408346631E-002  -1.0969366798271712E-002   4.3699980039876830E-002
   3.4735123697040120E-002  -1.0366922040474638E-002   4.3962172430220714E-002
   3.7670677442541906E-002  -1.1487988686894601E-002   4.8696478814229394E-002
   3.5956892629603332E-002  -1.0945717807676197E-002   4.8476850866383314E-002
   3.4243107816664731E-002  -1.0393213465779455E-002   4.8434724612635371E-002
   3.2529323003726129E-002  -9.8304756612040620E-003   4.8570100052985427E-002
   3.0815538190787556E-002  -9.2575043939500112E-003   4.8882977187433396E-002
   4.6725032968742197E-002  -1.3695174980048297E-002   2.9030209505334803E-002
   4.4446835321399952E-002  -1.3000499890056139E-002   2.8525900908931756E-002
   4.2168637674057707E-002  -1.2298715488263348E-002   2.8151243767538831E-002
   3.9890440026715490E-002  -1.1589821774670470E-002   2.7906238081155790E-002
   3.7612242379373217E-002  -1.0873818749277286E-002   2.7790883849782677E-002
   4.2689871086017489E-002  -1.2585757333523684E-002   3.4035788589171334E-002
   4.0547974366685918E-002  -1.1917653012825991E-002   3.3585451575973702E-002
   3.8406077647354417E-002  -1.1239064701167686E-002   3.3278064963787546E-002
   3.6264180928022881E-002  -1.0549992398548740E-002   3.3113628752612909E-002
   3.4122284208691345E-002  -9.8504361049693845E-003   3.3092142942449276E-002
   3.8693234662116702E-002  -1.1476339686999154E-002   3.9013109564133550E-002
   3.6700937816797417E-002  -1.0834806135596065E-002   3.8620118813301366E-002
   3.4708640971478133E-002  -1.0179413914072018E-002   3.8383377409482090E-002
   3.2716344126158856E-002  -9.5101630224272860E-003   3.8302885352675772E-002
   3.0724047280839564E-002  -8.8270534606616491E-003   3.8378642642882571E-002
   3.4735123697040120E-002  -1.0366922040474638E-002   4.3962172430220714E-002
   3.2905725671734540E-002  -9.7519592583660830E-003   4.3629902620914277E-002
   3.1076327646428963E-002  -9.1197631269763803E-003   4.3467181104622311E-002
   2.9246929621123366E-002  -8.4703336463057485E-003   4.3474007881345006E-002
   2.7417531595817755E-002  -7.8036708163537749E-003   4.3650382951081826E-002
   3.0815538190787556E-002  -9.2575043939500112E-003   4.8882977187433396E-002
   2.9162337931497140E-002  -8.6691123811361570E-003   4.8614802998812934E-002
   2.7509137672206793E-002  -8.0601123398807428E-003   4.8529476049208597E-002
   2.5855937412916426E-002  -7.4305042701841711E-003   4.8626996338620193E-002
   2.4202737153626003E-002  -6.7802881720461228E-003   4.8907363867047637E-002
   3.7612242379373217E-002  -1.0873818749277286E-002   2.7790883849782677E-002
   3.5221773926489952E-002  -1.0156808961377939E-002   2.7202377908123743E-002
   3.2831305473606659E-002  -9.4448949602666810E-003   2.6755076807655764E-002
   3.0440837020723352E-002  -8.7380767459437625E-003   2.6448980548378603E-002
   2.8050368567840156E-002  -8.0363543184088782E-003   2.6284089130292010E-002
   3.4122284208691345E-002  -9.8504361049693845E-003   3.3092142942449276E-002
   3.1875221133976284E-002  -9.1491752263209714E-003   3.2591473476792920E-002
   2.9628158059261223E-002  -8.4549891684942702E-003   3.2236409926282239E-002
   2.7381094984546134E-002  -7.7678779314903287E-003   3.2026952290917218E-002
   2.5134031909831073E-002  -7.0878415153083907E-003   3.1963100570697733E-002
   3.0724047280839564E-002  -8.8270534606616491E-003   3.8378642642882571E-002
   2.8624790658247565E-002  -8.1415414912637818E-003   3.7963830619194311E-002
   2.6525534035655683E-002  -7.4650833767221925E-003   3.7699025584606805E-002
   2.4426277413063784E-002  -6.7976791170367840E-003   3.7584227539119913E-002
   2.2327020790471788E-002  -6.1393287122077367E-003   3.7619436482733554E-002
   2.7417531595817755E-002  -7.8036708163537749E-003   4.3650382951081826E-002
   2.5470482499303917E-002  -7.1339077562067033E-003   4.3319449335327699E-002
   2.3523433402790138E-002  -6.4751775849498372E-003   4.3142923782629558E-002
   2.1576384306276324E-002  -5.8274803025833502E-003   4.3120806292986730E-002
   1.9629335209762518E-002  -5.1908159091069994E-003   4.3253096866399672E-002
   2.4202737153626003E-002  -6.7802881720461228E-003   4.8907363867047637E-002
   2.2412296657145281E-002  -6.1262740211496802E-003   4.8658329625193786E-002
   2.0621856160664490E-002  -5.4852717931777040E-003   4.8568104520350486E-002
   1.8831415664183719E-002  -4.8572814881296389E-003   4.8636688552517904E-002
   1.7040975167702949E-002  -4.2423031060064842E-003   4.8864081721695540E-002
   2.8050368567840156E-002  -8.0363543184088782E-003   2.6284089130292010E-002
   2.5706235606781869E-002  -7.3099786116482823E-003   2.5695512946090071E-002
   2.3362102645723692E-002  -6.5292005596469804E-003   2.5054428974391085E-002
   2.1017969684665516E-002  -5.6940201624060202E-003   2.4360837215194636E-002
   1.8673836723607284E-002  -4.8044374199245343E-003   2.3614737668501418E-002
   2.5134031909831073E-002  -7.0878415153083907E-003   3.1963100570697733E-002
   2.2775905498539806E-002  -6.4050161041196985E-003   3.1555891840447714E-002
   2.0417779087248539E-002  -5.7095378820957166E-003   3.1173203997228477E-002
   1.8059652675957286E-002  -5.0014068492359731E-003   3.0815037041040633E-002
   1.5701526264666005E-002  -4.2806230055411065E-003   3.0481390971883571E-002
   2.2327020790471788E-002  -6.1393287122077367E-003   3.7619436482733554E-002
   2.0031929603475718E-002  -5.5000535965913921E-003   3.7351845672030537E-002
   1.7736838416479633E-002  -4.8898752045442445E-003   3.7185804422886895E-002
   1.5441747229483535E-002  -4.3087935360661515E-003   3.7121312735302343E-002
   1.3146656042487478E-002  -3.7568085911573457E-003   3.7158370609277069E-002
   1.9629335209762518E-002  -5.1908159091069994E-003   4.3253096866399672E-002
   1.7474307921589688E-002  -4.5950910890631691E-003   4.3083374440839067E-002
   1.5319280633416948E-002  -4.0702125269926545E-003   4.3092230251366062E-002
   1.3164253345244193E-002  -3.6161802228963282E-003   4.3279664297980212E-002
   1.1009226057071438E-002  -3.2329941767739179E-003   4.3645676580682094E-002
   1.7040975167702949E-002  -4.2423031060064842E-003   4.8864081721695540E-002
   1.5103040452881772E-002  -3.6901285815344465E-003   4.8750478146872833E-002
   1.3165105738060554E-002  -3.2505498494413143E-003   4.8892481482665950E-002
   1.1227171023239356E-002  -2.9235669097261788E-003   4.9290091729074142E-002
   9.2892363084181029E-003  -2.7091797623901570E-003   4.9943308886098325E-002
   1.8673836723607284E-002  -4.8044374199245343E-003   2.3614737668501418E-002
   1.5651714793922800E-002  -4.0766560742549474E-003   2.4400325378641008E-002
   1.2629592864238204E-002  -3.7268798674485737E-003   2.5660115343382361E-002
   9.6074709345536219E-003  -3.7551087995056354E-003   2.7394107562726200E-002
   6.5853490048691232E-003  -4.1613428704263544E-003   2.9602302036671801E-002
   1.5701526264666005E-002  -4.2806230055411065E-003   3.0481390971883571E-002
   1.3135076323037870E-002  -3.7712755477413706E-003   3.1259123291495050E-002
   1.0568626381409763E-002  -3.6974536725688512E-003   3.2473997332617438E-002
   8.0021764397816622E-003  -4.0591573800230346E-003   3.4126013095250360E-002
   5.4357264981535203E-003  -4.8563866701040181E-003   3.6215170579394385E-002
   1.3146656042487478E-002  -3.7568085911573457E-003   3.7158370609277069E-002
   1.0998817555824492E-002  -3.4658950212280992E-003   3.7870727094597267E-002
   8.8509790691615672E-003  -3.6680274776893507E-003   3.8983164768336492E-002
   6.7031405824986047E-003  -4.3632059605402118E-003   4.0495683630495827E-002
   4.5553020958356560E-003  -5.5514304697817929E-003   4.2408283681074466E-002
   1.1009226057071438E-002  -3.2329941767739179E-003   4.3645676580682094E-002
   9.2429384922824431E-003  -3.1605144947151192E-003   4.4235136787946980E-002
   7.4766509274935052E-003  -3.6386012828095171E-003   4.5187617650540704E-002
   5.7103633627045370E-003  -4.6672545410575000E-003   4.6503119168462725E-002
   3.9440757979155722E-003  -6.2464742694595121E-003   4.8181641341712877E-002
   9.2892363084181029E-003  -2.7091797623901570E-003   4.9943308886098325E-002
   7.8674391324118909E-003  -2.8551339682013066E-003   5.0352352371545450E-002
   6.4456419564056511E-003  -3.6091750879301832E-003   5.1087355979229532E-002
   5.0238447803994529E-003  -4.9713031215747466E-003   5.2148319709150903E-002
   3.6020476043932548E-003  -6.9415180691370093E-003   5.3535243561309231E-002
   6.5853490048691232E-003  -4.1613428704263544E-003   2.9602302036671801E-002
   6.0568305410012568E-003  -6.1418653556596370E-003   3.4078736754196037E-002
   5.5283120771334460E-003  -1.0892959530653390E-002   3.9240412421229443E-002
   4.9997936132654963E-003  -1.8414625395407863E-002   4.5087329037773516E-002
   4.4712751493978242E-003  -2.8706862949923195E-002   5.1619486603827536E-002
   5.4357264981535203E-003  -4.8563866701040181E-003   3.6215170579394385E-002
   5.4886566548594806E-003  -6.9897562119684564E-003   3.8353347767029367E-002
   5.5415868115654271E-003  -1.1359880674771866E-002   4.0969181246302055E-002
   5.5945169682714568E-003  -1.7966760058515045E-002   4.4062671017212507E-002
   5.6474471249773339E-003  -2.6810394363197432E-002   4.7633817079759444E-002
   4.5553020958356560E-003  -5.5514304697817929E-003   4.2408283681074466E-002
   4.9820962152428427E-003  -7.8376470682771093E-003   4.2742020107642470E-002
   5.4088903346500294E-003  -1.1826801818890786E-002   4.3345828167975109E-002
   5.8356844540571814E-003  -1.7518894721622283E-002   4.4219707862072410E-002
   6.2624785734644028E-003  -2.4913925776471668E-002   4.5363659189935790E-002
   3.9440757979155722E-003  -6.2464742694595121E-003   4.8181641341712877E-002
   4.5371492221514473E-003  -8.6855379245858455E-003   4.7244753776034994E-002
   5.1302226463873016E-003  -1.2293722963009374E-002   4.6370353186249394E-002
   5.7232960706231611E-003  -1.7071029384729049E-002   4.5558439572355926E-002
   6.3163694948590310E-003  -2.3017457189745905E-002   4.4809012934355436E-002
   3.6020476043932548E-003  -6.9415180691370093E-003   5.3535243561309231E-002
   4.1538156755852040E-003  -9.5334287808945817E-003   5.1861548772207389E-002
   4.7055837467772366E-003  -1.2760644107128405E-002   5.0042756301124092E-002
   5.2573518179691997E-003  -1.6623164047836592E-002   4.8078866148061228E-002
   5.8091198891612184E-003  -2.1120988603020141E-002   4.5969878313018686E-002
   5.0946491285229545E-002  -1.8214271209978261E-002   4.5785270940884082E-002
   4.9061602218682915E-002  -1.6902299714700780E-002   4.6023572546624425E-002
   4.7176713152136285E-002  -1.5761086276680172E-002   4.6398481842082590E-002
   4.5291824085589627E-002  -1.4790630895916427E-002   4.6909998827258978E-002
   4.3406935019042997E-002  -1.3990933572409547E-002   4.7558123502153327E-002
   4.5191819206820583E-002  -1.4761242152937171E-002   5.1584316878738490E-002
   4.3476265453373103E-002  -1.4018044363144244E-002   5.1306806860515114E-002
   4.1760711699925665E-002  -1.3320091652501823E-002   5.1231359778771801E-002
   4.0045157946478206E-002  -1.2667384021009979E-002   5.1357975633508995E-002
   3.8329604193030706E-002  -1.2059921468668772E-002   5.1686654424726419E-002
   3.8996609449270442E-002  -1.1308213095896080E-002   5.6751832622055506E-002
   3.7515846255684458E-002  -1.1133789011587611E-002   5.6084023957974391E-002
   3.6035083062098419E-002  -1.0879097028323466E-002   5.5683733477135990E-002
   3.4554319868512366E-002  -1.0544137146103612E-002   5.5550961179540129E-002
   3.3073556674926383E-002  -1.0128909364928051E-002   5.5685707065186746E-002
   3.2360862012579088E-002  -7.8551840388550037E-003   6.1287818170834590E-002
   3.1180344625616752E-002  -8.2495336600309985E-003   6.0355223839002464E-002
   2.9999827238654481E-002  -8.4381024041451404E-003   5.9755602937175051E-002
   2.8819309851692183E-002  -8.4208902711972039E-003   5.9488955465352517E-002
   2.7638792464729847E-002  -8.1978972611872480E-003   5.9555281423534799E-002
   2.5284576896746513E-002  -4.4021549818138994E-003   6.5192273525076172E-002
   2.4469760563170212E-002  -5.3652783084744138E-003   6.4120406503599126E-002
   2.3654944229593897E-002  -5.9971077799668149E-003   6.3446968158889061E-002
   2.2840127896017581E-002  -6.2976433962908113E-003   6.3171958490946090E-002
   2.2025311562441280E-002  -6.2668851574465556E-003   6.3295377499770322E-002
   4.3406935019042997E-002  -1.3990933572409547E-002   4.7558123502153327E-002
   4.1972870624917724E-002  -1.3298760795906139E-002   4.7701096232647316E-002
   4.0538806230792451E-002  -1.2650879056152392E-002   4.7938479694824676E-002
   3.9104741836667206E-002  -1.2047288353148618E-002   4.8270273888685336E-002
   3.7670677442541906E-002  -1.1487988686894601E-002   4.8696478814229394E-002
   3.8329604193030706E-002  -1.2059921468668772E-002   5.1686654424726419E-002
   3.7007182188991183E-002  -1.1490090485803475E-002   5.1630987573254974E-002
   3.5684760184951626E-002  -1.0950277562739329E-002   5.1704194770271855E-002
   3.4362338180912111E-002  -1.0440482699476427E-002   5.1906276015776437E-002
   3.3039916176872547E-002  -9.9607058960145545E-003   5.2237231309769400E-002
   3.3073556674926383E-002  -1.0128909364928051E-002   5.5685707065186746E-002
   3.1897240377777247E-002  -9.6814201757008667E-003   5.5445673608698738E-002
   3.0720924080628098E-002  -9.2496760693261543E-003   5.5368977517503706E-002
   2.9544607783478956E-002  -8.8336770458040705E-003   5.5455618791601206E-002
   2.8368291486329814E-002  -8.4334231051345632E-003   5.5705597430991627E-002
   2.7638792464729847E-002  -8.1978972611872480E-003   5.9555281423534799E-002
   2.6643045191275843E-002  -7.8727498655982581E-003   5.9145154338978885E-002
   2.5647297917821801E-002  -7.5490745759131464E-003   5.8932827936520424E-002
   2.4651550644367786E-002  -7.2268713921319633E-003   5.8918302216159305E-002
   2.3655803370913758E-002  -6.9061403142544886E-003   5.9101577177895874E-002
   2.2025311562441280E-002  -6.2668851574465556E-003   6.3295377499770322E-002
   2.1244596629487036E-002  -6.0640795554956495E-003   6.2729429764095040E-002
   2.0463881696532807E-002  -5.8484730824999998E-003   6.2395746027321980E-002
   1.9683166763578577E-002  -5.6200657384596273E-003   6.2294326289451057E-002
   1.8902451830624334E-002  -5.3788575233745251E-003   6.2425170550482245E-002
   3.7670677442541906E-002  -1.1487988686894601E-002   4.8696478814229394E-002
   3.5956892629603332E-002  -1.0945717807676197E-002   4.8476850866383314E-002
   3.4243107816664731E-002  -1.0393213465779455E-002   4.8434724612635371E-002
   3.2529323003726129E-002  -9.8304756612040620E-003   4.8570100052985427E-002
   3.0815538190787556E-002  -9.2575043939500112E-003   4.8882977187433396E-002
   3.3039916176872547E-002  -9.9607058960145545E-003   5.2237231309769400E-002
   3.1509809434516797E-002  -9.4902097605880364E-003   5.1993761406739475E-002
   2.9979702692161062E-002  -9.0082569014308111E-003   5.1940145950777158E-002
   2.8449595949805305E-002  -8.5148473185427953E-003   5.2076384941882443E-002
   2.6919489207449576E-002  -8.0099810119241277E-003   5.2402478380055351E-002
   2.8368291486329814E-002  -8.4334231051345632E-003   5.5705597430991627E-002
   2.7034215567526540E-002  -8.0347017134998616E-003   5.5439508833829865E-002
   2.5700139648723232E-002  -7.6233003370821256E-003   5.5375627436705391E-002
   2.4366063729919913E-002  -7.1992189758816431E-003   5.5513953239618143E-002
   2.3031987811116643E-002  -6.7624576298982442E-003   5.5854486242568113E-002
   2.3655803370913758E-002  -6.9061403142544886E-003   5.9101577177895874E-002
   2.2530111028632529E-002  -6.5791936664115272E-003   5.8814093147654484E-002
   2.1404418686351297E-002  -6.2383437727335164E-003   5.8741169070420082E-002
   2.0278726344070033E-002  -5.8835906332204337E-003   5.8882804946192517E-002
   1.9153034001788832E-002  -5.5149342478723606E-003   5.9239000774971726E-002
   1.8902451830624334E-002  -5.3788575233745251E-003   6.2425170550482245E-002
   1.7997495817834760E-002  -5.1236856193233871E-003   6.2117514348213498E-002
   1.7092539805045187E-002  -4.8533872083847684E-003   6.2036770851921164E-002
   1.6187583792255607E-002  -4.5679622905592451E-003   6.2182940061605380E-002
   1.5282627779466013E-002  -4.2674108658464771E-003   6.2556021977266063E-002
   3.0815538190787556E-002  -9.2575043939500112E-003   4.8882977187433396E-002
   2.9162337931497140E-002  -8.6691123811361570E-003   4.8614802998812934E-002
   2.7509137672206793E-002  -8.0601123398807428E-003   4.8529476049208597E-002
   2.5855937412916426E-002  -7.4305042701841711E-003   4.8626996338620193E-002
   2.4202737153626003E-002  -6.7802881720461228E-003   4.8907363867047637E-002
   2.6919489207449576E-002  -8.0099810119241277E-003   5.2402478380055351E-002
   2.5452435270851878E-002  -7.4919681186039200E-003   5.2163873101173763E-002
   2.3985381334254194E-002  -6.9591187756113809E-003   5.2114713228661375E-002
   2.2518327397656510E-002  -6.4114329829467430E-003   5.2254998762518462E-002
   2.1051273461058811E-002  -5.8489107406093366E-003   5.2584729702744859E-002
   2.3031987811116643E-002  -6.7624576298982442E-003   5.5854486242568113E-002
   2.1757678364565117E-002  -6.3148238560718217E-003   5.5639678294656145E-002
   2.0483368918013594E-002  -5.8581252113420190E-003   5.5620913920466822E-002
   1.9209059471462099E-002  -5.3923616957090373E-003   5.5798193120000505E-002
   1.7934750024910552E-002  -4.9175333091724949E-003   5.6171515893257029E-002
   1.9153034001788832E-002  -5.5149342478723606E-003   5.9239000774971726E-002
   1.8078067212636901E-002  -5.1376795935395986E-003   5.9042218579260272E-002
   1.7003100423485028E-002  -4.7571316470725461E-003   5.9048078124624877E-002
   1.5928133634333132E-002  -4.3732904084711928E-003   5.9256579411066199E-002
   1.4853166845181254E-002  -3.9861558777356809E-003   5.9667722438583787E-002
   1.5282627779466013E-002  -4.2674108658464771E-003   6.2556021977266063E-002
   1.4413601815067234E-002  -3.9605353310075975E-003   6.2371493954986035E-002
   1.3544575850668469E-002  -3.6561380828032952E-003   6.2396205841135977E-002
   1.2675549886269684E-002  -3.3542191212339312E-003   6.2630157635715694E-002
   1.1806523921870898E-002  -3.0547784462988670E-003   6.3073349338725215E-002
   2.4202737153626003E-002  -6.7802881720461228E-003   4.8907363867047637E-002
   2.2412296657145281E-002  -6.1262740211496802E-003   4.8658329625193786E-002
   2.0621856160664490E-002  -5.4852717931777040E-003   4.8568104520350486E-002
   1.8831415664183719E-002  -4.8572814881296389E-003   4.8636688552517904E-002
   1.7040975167702949E-002  -4.2423031060064842E-003   4.8864081721695540E-002
   2.1051273461058811E-002  -5.8489107406093366E-003   5.2584729702744859E-002
   1.9430657772152027E-002  -5.2845454693338789E-003   5.2369570230513363E-002
   1.7810042083245187E-002  -4.7313305898546987E-003   5.2335251236419272E-002
   1.6189426394338374E-002  -4.1892661021714211E-003   5.2481772720462380E-002
   1.4568810705431562E-002  -3.6583520062841712E-003   5.2809134682642755E-002
   1.7934750024910552E-002  -4.9175333091724949E-003   5.6171515893257029E-002
   1.6505990484704566E-002  -4.4428169175182719E-003   5.5992092721775966E-002
   1.5077230944498528E-002  -3.9773893865316934E-003   5.6015541369559080E-002
   1.3648471404292503E-002  -3.5212507162128148E-003   5.6241861836606608E-002
   1.2219711864086498E-002  -3.0744009065615807E-003   5.6671054122918146E-002
   1.4853166845181254E-002  -3.9861558777356809E-003   5.9667722438583787E-002
   1.3638294794802917E-002  -3.6010883657026788E-003   5.9525897098981623E-002
   1.2423422744424522E-002  -3.2234481832086881E-003   5.9608974919770588E-002
   1.1208550694046181E-002  -2.8532353302541807E-003   5.9916955900950433E-002
   9.9936786436678141E-003  -2.4904498068390735E-003   6.0449840042521706E-002
   1.1806523921870898E-002  -3.0547784462988670E-003   6.3073349338725215E-002
   1.0827570702447054E-002  -2.7593598138868636E-003   6.2970983362130417E-002
   9.8486174830231810E-003  -2.4695069798857383E-003   6.3115551887053423E-002
   8.8696642635993084E-003  -2.1852199442958936E-003   6.3507054913494454E-002
   7.8907110441754635E-003  -1.9064987071166772E-003   6.4145492441453289E-002
   1.7040975167702949E-002  -4.2423031060064842E-003   4.8864081721695540E-002
   1.5103040452881772E-002  -3.6901285815344465E-003   4.8750478146872833E-002
   1.3165105738060554E-002  -3.2505498494413143E-003   4.8892481482665950E-002
   1.1227171023239356E-002  -2.9235669097261788E-003   4.9290091729074142E-002
   9.2892363084181029E-003  -2.7091797623901570E-003   4.9943308886098325E-002
   1.4568810705431562E-002  -3.6583520062841712E-003   5.2809134682642755E-002
   1.2885396740868110E-002  -3.1893992476595412E-003   5.2704826530834525E-002
   1.1201982776304631E-002  -2.8332187717639290E-003   5.2853952968926282E-002
   9.5185688117411446E-003  -2.5898105785978967E-003   5.3256513996917734E-002
   7.8351548471776999E-003  -2.4591746681612570E-003   5.3912509614809367E-002
   1.2219711864086498E-002  -3.0744009065615807E-003   5.6671054122918146E-002
   1.0788646329065017E-002  -2.6886699137842196E-003   5.6575864903773782E-002
   9.3575807940435470E-003  -2.4158876940867519E-003   5.6731937953813524E-002
   7.9265152590220541E-003  -2.2560542474696112E-003   5.7139273273037382E-002
   6.4954497240005959E-003  -2.2091695739320238E-003   5.7797870861445111E-002
   9.9936786436678141E-003  -2.4904498068390735E-003   6.0449840042521706E-002
   8.8127892174725397E-003  -2.1879405799088286E-003   6.0363593265690234E-002
   7.6318997912772297E-003  -1.9985566164095817E-003   6.0526436437327469E-002
   6.4510103650819526E-003  -1.9222979163409388E-003   6.0938369557432509E-002
   5.2701209388866452E-003  -1.9591644797029573E-003   6.1599392626006222E-002
   7.8907110441754635E-003  -1.9064987071166772E-003   6.4145492441453289E-002
   6.9578254060906064E-003  -1.6872112460338817E-003   6.4068011616584153E-002
   6.0249397680057354E-003  -1.5812255387321894E-003   6.4237448419467935E-002
   5.0920541299208782E-003  -1.5885415852127105E-003   6.4653802850103970E-002
   4.1591684918360072E-003  -1.7091593854738907E-003   6.5317074908492478E-002
   9.2892363084181029E-003  -2.7091797623901570E-003   4.9943308886098325E-002
   7.8674391324118909E-003  -2.8551339682013066E-003   5.0352352371545450E-002
   6.4456419564056511E-003  -3.6091750879301832E-003   5.1087355979229532E-002
   5.0238447803994529E-003  -4.9713031215747466E-003   5.2148319709150903E-002
   3.6020476043932548E-003  -6.9415180691370093E-003   5.3535243561309231E-002
   7.8351548471776999E-003  -2.4591746681612570E-003   5.3912509614809367E-002
   6.7135173047316726E-003  -2.6419566916452419E-003   5.3849053700127936E-002
   5.5918797622856592E-003  -3.3388023002417500E-003   5.4059956930329806E-002
   4.4702422198396041E-003  -4.5497114939509198E-003   5.4545219305414991E-002
   3.3486046773935907E-003  -6.2746842727723351E-003   5.5304840825383339E-002
   6.4954497240005959E-003  -2.2091695739320238E-003   5.7797870861445111E-002
   5.6223708377608622E-003  -2.4287794150887054E-003   5.7355938875439633E-002
   4.7492919515210938E-003  -3.0684295125537331E-003   5.7136765056963662E-002
   3.8762130652813566E-003  -4.1281198663267529E-003   5.7140349406017116E-002
   3.0031341790415916E-003  -5.6078504764079939E-003   5.7366691922599800E-002
   5.2701209388866452E-003  -1.9591644797029573E-003   6.1599392626006222E-002
   4.5939997314993174E-003  -2.2156021385325714E-003   6.0873007897481304E-002
   3.9178785241119878E-003  -2.7980567248656746E-003   6.0317780359131511E-002
   3.2417573167246591E-003  -3.7065282387026451E-003   5.9933710010957555E-002
   2.5656361093373305E-003  -4.9410166800434863E-003   5.9720796852958655E-002
   4.1591684918360072E-003  -1.7091593854738907E-003   6.5317074908492478E-002
   3.6284039859471873E-003  -2.0024248619761043E-003   6.4400260766252160E-002
   3.0976394800583396E-003  -2.5276839371773940E-003   6.3603002836833289E-002
   2.5668749741695127E-003  -3.2849366110785649E-003   6.2925301120235977E-002
   2.0361104682806719E-003  -4.2741828836792006E-003   6.2367155616460224E-002
   3.6020476043932548E-003  -6.9415180691370093E-003   5.3535243561309231E-002
   4.1538156755852040E-003  -9.5334287808945817E-003   5.1861548772207389E-002
   4.7055837467772366E-003  -1.2760644107128405E-002   5.0042756301124092E-002
   5.2573518179691997E-003  -1.6623164047836592E-002   4.8078866148061228E-002
   5.8091198891612184E-003  -2.1120988603020141E-002   4.5969878313018686E-002
   3.3486046773935907E-003  -6.2746842727723351E-003   5.5304840825383339E-002
   3.7726827315316958E-003  -8.5440743434711530E-003   5.2951488323296103E-002
   4.1967607856697869E-003  -1.1388235412811643E-002   5.0487853469081523E-002
   4.6208388398078643E-003  -1.4807167480793915E-002   4.7913936262738877E-002
   5.0449168939460387E-003  -1.8800870547417636E-002   4.5229736704269108E-002
   3.0031341790415916E-003  -5.6078504764079939E-003   5.7366691922599800E-002
   3.3343375459783317E-003  -7.5547199060472803E-003   5.4394215323361556E-002
   3.6655409129150232E-003  -1.0015826718495213E-002   5.1346271701848356E-002
   3.9967442798516627E-003  -1.2991170913750849E-002   4.8222861058059771E-002
   4.3279476467883993E-003  -1.6480752491815354E-002   4.5023983391996092E-002
   2.5656361093373305E-003  -4.9410166800434863E-003   5.9720796852958655E-002
   2.8387801189251032E-003  -6.5653654686235186E-003   5.6189729772403066E-002
   3.1119241285129193E-003  -8.6434180241785064E-003   5.2618010999424245E-002
   3.3850681381006774E-003  -1.1175174346708533E-002   4.9005640534023162E-002
   3.6582121476885082E-003  -1.4160634436212960E-002   4.5352618376199416E-002
   2.0361104682806719E-003  -4.2741828836792006E-003   6.2367155616460224E-002
   2.2860104503720502E-003  -5.5760110312000899E-003   5.8338031670420509E-002
   2.5359104324634424E-003  -7.2710093298621881E-003   5.4303071361810229E-002
   2.7858104145547999E-003  -9.3591777796653147E-003   5.0262274690630104E-002
   3.0357103966461851E-003  -1.1840516380610566E-002   4.6215641656879303E-002
   2.5284576896746513E-002  -4.4021549818138994E-003   6.5192273525076172E-002
   2.4469760563170212E-002  -5.3652783084744138E-003   6.4120406503599126E-002
   2.3654944229593897E-002  -5.9971077799668149E-003   6.3446968158889061E-002
   2.2840127896017581E-002  -6.2976433962908113E-003   6.3171958490946090E-002
   2.2025311562441280E-002  -6.2668851574465556E-003   6.3295377499770322E-002
   1.8216054504547344E-002  -3.8361840153712801E-003   6.3926360629556866E-002
   1.7752568479587769E-002  -4.2872049216016450E-003   6.3510355118827633E-002
   1.7289082454628166E-002  -4.5757261780191988E-003   6.3398581548565036E-002
   1.6825596429668584E-002  -4.7017477846238685E-003   6.3591039918768674E-002
   1.6362110404708995E-002  -4.6652697414156508E-003   6.4087730229438505E-002
   1.1603595238756176E-002  -3.2702130489286330E-003   6.3256947257145313E-002
   1.1397242786112483E-002  -3.2091315347287791E-003   6.3328009051809034E-002
   1.1190890333468817E-002  -3.1543445760715827E-003   6.3609106050638173E-002
   1.0984537880825134E-002  -3.1058521729568980E-003   6.4100238253632869E-002
   1.0778185428181451E-002  -3.0636543253848569E-003   6.4801405660792982E-002
   5.4471990993729749E-003  -2.7042420824860136E-003   6.3184033407841858E-002
   5.4037834827444092E-003  -2.1310581478559201E-003   6.3573368302542760E-002
   5.3603678661158297E-003  -1.7329629741239388E-003   6.4078541665108346E-002
   5.3169522494872553E-003  -1.5099565612899137E-003   6.4699553495538631E-002
   5.2735366328586723E-003  -1.4620389093539798E-003   6.5436403793833586E-002
  -2.5313391360221038E-004  -2.1382711160433665E-003   6.3707619081646183E-002
  -2.2780943051649294E-004  -1.0529847609830889E-003   6.4246432871028936E-002
  -2.0248494743077897E-004  -3.1158137217633664E-004   6.4806888391975487E-002
  -1.7716046434507193E-004   8.5939050376949294E-005   6.5388985644486045E-002
  -1.5183598125935449E-004   1.3957650667678623E-004   6.5992724628560318E-002
   2.2025311562441280E-002  -6.2668851574465556E-003   6.3295377499770322E-002
   2.1244596629487036E-002  -6.0640795554956495E-003   6.2729429764095040E-002
   2.0463881696532807E-002  -5.8484730824999998E-003   6.2395746027321980E-002
   1.9683166763578577E-002  -5.6200657384596273E-003   6.2294326289451057E-002
   1.8902451830624334E-002  -5.3788575233745251E-003   6.2425170550482245E-002
   1.6362110404708995E-002  -4.6652697414156508E-003   6.4087730229438505E-002
   1.5806409647704044E-002  -4.5381272936976108E-003   6.3609623867141044E-002
   1.5250708890699124E-002  -4.3921556867726821E-003   6.3349281857840112E-002
   1.4695008133694188E-002  -4.2273549206407694E-003   6.3306704201535557E-002
   1.4139307376689253E-002  -4.0437249953019228E-003   6.3481890898227450E-002
   1.0778185428181451E-002  -3.0636543253848569E-003   6.4801405660792982E-002
   1.0432999201220136E-002  -3.0121750318995721E-003   6.4417168960035465E-002
   1.0087812974258818E-002  -2.9358382910452535E-003   6.4236196966368703E-002
   9.7426267472975059E-003  -2.8346441028219115E-003   6.4258489679792752E-002
   9.3974405203361838E-003  -2.7085924672294315E-003   6.4484047100307446E-002
   5.2735366328586723E-003  -1.4620389093539798E-003   6.5436403793833586E-002
   5.1243652900352810E-003  -1.4862227701015335E-003   6.5152065042778082E-002
   4.9751939472118950E-003  -1.4795208953179081E-003   6.5056491352907669E-002
   4.8260226043885029E-003  -1.4419332850028870E-003   6.5149682724222391E-002
   4.6768512615651195E-003  -1.3734599391569402E-003   6.5431639156722066E-002
  -1.5183598125935449E-004   1.3957650667678623E-004   6.5992724628560318E-002
  -1.1949208585049914E-004   3.9729491696532948E-005   6.5814312115369034E-002
  -8.7148190441643791E-005  -2.3203499590507271E-005   6.5810165017457123E-002
  -5.4804295032788441E-005  -4.9222467184167895E-005   6.5980283334824558E-002
  -2.2460399623933092E-005  -3.8327411084393415E-005   6.6324667067471421E-002
   1.8902451830624334E-002  -5.3788575233745251E-003   6.2425170550482245E-002
   1.7997495817834760E-002  -5.1236856193233871E-003   6.2117514348213498E-002
   1.7092539805045187E-002  -4.8533872083847684E-003   6.2036770851921164E-002
   1.6187583792255607E-002  -4.5679622905592451E-003   6.2182940061605380E-002
   1.5282627779466013E-002  -4.2674108658464771E-003   6.2556021977266063E-002
   1.4139307376689253E-002  -4.0437249953019228E-003   6.3481890898227450E-002
   1.3461257469204548E-002  -3.8462483102322531E-003   6.3207501126439997E-002
   1.2783207561719849E-002  -3.6399072649079822E-003   6.3160010859285923E-002
   1.2105157654235150E-002  -3.4247018593292627E-003   6.3339420096765048E-002
   1.1427107746750445E-002  -3.2006320934956922E-003   6.3745728838877525E-002
   9.3974405203361838E-003  -2.7085924672294315E-003   6.4484047100307446E-002
   8.9462835168131784E-003  -2.5688110011414106E-003   6.4236661612368823E-002
   8.4951265132901764E-003  -2.4264273214313209E-003   6.4216162427720255E-002
   8.0439695097671796E-003  -2.2814414280991728E-003   6.4422549546361896E-002
   7.5928125062441690E-003  -2.1338533211450184E-003   6.4855822968293619E-002
   4.6768512615651195E-003  -1.3734599391569402E-003   6.5431639156722066E-002
   4.4525739606606409E-003  -1.2913736920503946E-003   6.5204995805999602E-002
   4.2282966597561684E-003  -1.2129473779545416E-003   6.5205225557224175E-002
   4.0040193588516942E-003  -1.1381809968691921E-003   6.5432328410395618E-002
   3.7797420579472243E-003  -1.0670745487943445E-003   6.5886304365513987E-002
  -2.2460399623933092E-005  -3.8327411084393415E-005   6.6324667067471421E-002
  -1.9871199253052724E-005  -1.3936382959489624E-005   6.6112503707332626E-002
  -1.7281998882186234E-005   5.3256552216829345E-007   6.6127200247797585E-002
  -1.4692798511321478E-005   5.0794343609932013E-006   6.6368756688866340E-002
  -1.2103598140439376E-005  -2.9577644355960331E-007   6.6837173030538710E-002
   1.5282627779466013E-002  -4.2674108658464771E-003   6.2556021977266063E-002
   1.4413601815067234E-002  -3.9605353310075975E-003   6.2371493954986035E-002
   1.3544575850668469E-002  -3.6561380828032952E-003   6.2396205841135977E-002
   1.2675549886269684E-002  -3.3542191212339312E-003   6.2630157635715694E-002
   1.1806523921870898E-002  -3.0547784462988670E-003   6.3073349338725215E-002
   1.1427107746750445E-002  -3.2006320934956922E-003   6.3745728838877525E-002
   1.0769292716140029E-002  -2.9725759412827235E-003   6.3582711697100197E-002
   1.0111477685529613E-002  -2.7454113765652266E-003   6.3632876514469999E-002
   9.4536626549191934E-003  -2.5191383993434999E-003   6.3896223290986431E-002
   8.7958476243087808E-003  -2.2937570096170368E-003   6.4372752026649827E-002
   7.5928125062441690E-003  -2.1338533211450184E-003   6.4855822968293619E-002
   7.1501504601391569E-003  -1.9846165515579606E-003   6.4715903406158154E-002
   6.7074884140341483E-003  -1.8346846703274355E-003   6.4793107853886589E-002
   6.2648263679291414E-003  -1.6840576774531796E-003   6.5087436311479077E-002
   5.8221643218241276E-003  -1.5327355729352066E-003   6.5598888778935383E-002
   3.7797420579472243E-003  -1.0670745487943445E-003   6.5886304365513987E-002
   3.5561750470646646E-003  -9.9665716183325315E-004   6.5771069082159489E-002
   3.3326080361820989E-003  -9.2395796408933917E-004   6.5876899859386190E-002
   3.1090410252995328E-003  -8.4897695556280378E-004   6.6203796697193673E-002
   2.8854740144169735E-003  -7.7171413625348739E-004   6.6751759595582230E-002
  -1.2103598140439376E-005  -2.9577644355960331E-007   6.6837173030538710E-002
  -1.2633523083498133E-005  -8.6977721086567428E-006   6.6748208725104563E-002
  -1.3163448026563829E-005  -1.3231257851686884E-005   6.6884252530968413E-002
  -1.3693372969629525E-005  -1.3896233672622271E-005   6.7245304448130261E-002
  -1.4223297912688282E-005  -1.0692699571546171E-005   6.7831364476590106E-002
   1.1806523921870898E-002  -3.0547784462988670E-003   6.3073349338725215E-002
   1.0827570702447054E-002  -2.7593598138868636E-003   6.2970983362130417E-002
   9.8486174830231810E-003  -2.4695069798857383E-003   6.3115551887053423E-002
   8.8696642635993084E-003  -2.1852199442958936E-003   6.3507054913494454E-002
   7.8907110441754635E-003  -1.9064987071166772E-003   6.4145492441453289E-002
   8.7958476243087808E-003  -2.2937570096170368E-003   6.4372752026649827E-002
   8.0635699005105130E-003  -2.0710703862401592E-003   6.4302088167433047E-002
   7.3312921767122591E-003  -1.8528817080665644E-003   6.4477840797949465E-002
   6.5990144529140052E-003  -1.6391909750959992E-003   6.4900009918199247E-002
   5.8667367291157235E-003  -1.4299981873285850E-003   6.5568595528182338E-002
   5.8221643218241276E-003  -1.5327355729352066E-003   6.5598888778935383E-002
   5.3360440818668101E-003  -1.3827809585933437E-003   6.5560994890304411E-002
   4.8499238419095030E-003  -1.2362564362469464E-003   6.5768999479622087E-002
   4.3638036019521889E-003  -1.0931620058961047E-003   6.6222902546888215E-002
   3.8776833619948783E-003  -9.5349766754071474E-004   6.6922704092103158E-002
   2.8854740144169735E-003  -7.7171413625348739E-004   6.6751759595582230E-002
   2.6449932465159622E-003  -6.9449153094652827E-004   6.6747703530744718E-002
   2.4045124786149430E-003  -6.1963116442743937E-004   6.6989027932071149E-002
   2.1640317107139168E-003  -5.4713303669615479E-004   6.7475732799561622E-002
   1.9235509428128985E-003  -4.7699714775273350E-004   6.8207818133215803E-002
  -1.4223297912688282E-005  -1.0692699571546171E-005   6.7831364476590106E-002
  -9.5826055420619727E-006  -6.2021032999348691E-006   6.7862214088753814E-002
  -4.9419131714426023E-006  -3.0058926080434034E-006   6.8137926155296902E-002
  -3.0122080082323199E-007  -1.1040674963991304E-006   6.8658500676219258E-002
   4.3394715698030772E-006  -4.9662796475224980E-007   6.9423937651520773E-002
   7.8907110441754635E-003  -1.9064987071166772E-003   6.4145492441453289E-002
   6.9578254060906064E-003  -1.6872112460338817E-003   6.4068011616584153E-002
   6.0249397680057354E-003  -1.5812255387321894E-003   6.4237448419467935E-002
   5.0920541299208782E-003  -1.5885415852127105E-003   6.4653802850103970E-002
   4.1591684918360072E-003  -1.7091593854738907E-003   6.5317074908492478E-002
   5.8667367291157235E-003  -1.4299981873285850E-003   6.5568595528182338E-002
   5.1772502967596251E-003  -1.2655247654173030E-003   6.5423395959083641E-002
   4.4877638644035198E-003  -1.1859921300133580E-003   6.5518077173689904E-002
   3.7982774320474318E-003  -1.1914002811176660E-003   6.5852639172001154E-002
   3.1087909996913160E-003  -1.2817492187299218E-003   6.6427081954017586E-002
   3.8776833619948783E-003  -9.5349766754071474E-004   6.6922704092103158E-002
   3.4245592913199965E-003  -8.4383828480044665E-004   6.6738146746048527E-002
   2.9714352206451113E-003  -7.9075872129441560E-004   6.6786433339651258E-002
   2.5183111499702225E-003  -7.9425897702273263E-004   6.7067563872911323E-002
   2.0651870792953442E-003  -8.5433905198561977E-004   6.7581538345829029E-002
   1.9235509428128985E-003  -4.7699714775273350E-004   6.8207818133215803E-002
   1.6997523897716964E-003  -4.2215180418361808E-004   6.8012263977478810E-002
   1.4759538367304795E-003  -3.9552531257541768E-004   6.8042516917351567E-002
   1.2521552836892704E-003  -3.9711767292785471E-004   6.8298576952833950E-002
   1.0283567306480605E-003  -4.2692888524137329E-004   6.8780444083926695E-002
   4.3394715698030772E-006  -4.9662796475224980E-007   6.9423937651520773E-002
   2.8295921147281078E-006  -4.6532356690054399E-007   6.9245747653374767E-002
   1.3197126596496689E-006  -2.9190385664179530E-007   6.9286327906790790E-002
  -1.9016679542356585E-007   2.3631167134219311E-008   6.9545678411769257E-002
  -1.7000462505037395E-006   4.8128150276216530E-007   7.0023799168310030E-002
   4.1591684918360072E-003  -1.7091593854738907E-003   6.5317074908492478E-002
   3.6284039859471873E-003  -2.0024248619761043E-003   6.4400260766252160E-002
   3.0976394800583396E-003  -2.5276839371773940E-003   6.3603002836833289E-002
   2.5668749741695127E-003  -3.2849366110785649E-003   6.2925301120235977E-002
   2.0361104682806719E-003  -4.2741828836792006E-003   6.2367155616460224E-002
   3.1087909996913160E-003  -1.2817492187299218E-003   6.6427081954017586E-002
   2.7009004705942502E-003  -1.5015937422367398E-003   6.5317337155505639E-002
   2.2930099414972191E-003  -1.8954886510250402E-003   6.4333784097755975E-002
   1.8851194124001776E-003  -2.4634339450947604E-003   6.3476422780768066E-002
   1.4772288833031222E-003  -3.2054296244460323E-003   6.2745253204542162E-002
   2.0651870792953442E-003  -8.5433905198561977E-004   6.7581538345829029E-002
   1.7868060549305238E-003  -1.0007626224974864E-003   6.6336806104463630E-002
   1.5084250305656931E-003  -1.2632933648724642E-003   6.5224901131800656E-002
   1.2300440062008710E-003  -1.6419312791110668E-003   6.4245823427840132E-002
   9.5166298183604198E-004  -2.1366763652129750E-003   6.3399572992582198E-002
   1.0283567306480605E-003  -4.2692888524137329E-004   6.8780444083926695E-002
   8.8612073895590754E-004  -4.9993150275795539E-004   6.7458667613125661E-002
   7.4388474726376237E-004  -6.3109807871988832E-004   6.6276353938967747E-002
   6.0164875557161329E-004  -8.2042861312731780E-004   6.5233503061452702E-002
   4.5941276387946421E-004  -1.0679231059798622E-003   6.4330114980580652E-002
  -1.7000462505037395E-006   4.8128150276216530E-007   7.0023799168310030E-002
  -1.1554773295327503E-006   8.9961698135354595E-007   6.8682921681491926E-002
  -6.1090840856869999E-007   1.0972074326320858E-006   6.7488142519256999E-002
  -6.6339487602914970E-008   1.0740528565283958E-006   6.6439461681605361E-002
   4.7822943336633950E-007   8.3015325313962052E-007   6.5536879168537232E-002
   2.0361104682806719E-003  -4.2741828836792006E-003   6.2367155616460224E-002
   2.2860104503720502E-003  -5.5760110312000899E-003   5.8338031670420509E-002
   2.5359104324634424E-003  -7.2710093298621881E-003   5.4303071361810229E-002
   2.7858104145547999E-003  -9.3591777796653147E-003   5.0262274690630104E-002
   3.0357103966461851E-003  -1.1840516380610566E-002   4.6215641656879303E-002
   1.4772288833031222E-003  -3.2054296244460323E-003   6.2745253204542162E-002
   1.7071127272969694E-003  -4.1818516677519235E-003   5.8391278919600664E-002
   1.9369965712908235E-003  -5.4530760536854461E-003   5.4003108721034143E-002
   2.1668804152846846E-003  -7.0191027822469748E-003   4.9580742608843459E-002
   2.3967642592785665E-003  -8.8799318534364957E-003   4.5124180583027140E-002
   9.5166298183604198E-004  -2.1366763652129750E-003   6.3399572992582198E-002
   1.1331711366776853E-003  -2.7876923043038127E-003   5.8819116177252884E-002
   1.3146792915193113E-003  -3.6351427775088430E-003   5.4176103897243866E-002
   1.4961874463609425E-003  -4.6790277848284198E-003   4.9470536152555145E-002
   1.6776956012025668E-003  -5.9193473262624252E-003   4.4702412943187220E-002
   4.5941276387946421E-004  -1.0679231059798622E-003   6.4330114980580652E-002
   5.6418567851417543E-004  -1.3935329408552299E-003   5.9621543443376543E-002
   6.6895859314888059E-004  -1.8172095013322814E-003   5.4822056890438266E-002
   7.7373150778357143E-004  -2.3389527874095283E-003   4.9931655321766022E-002
   8.7850442241829696E-004  -2.9587627990883547E-003   4.4950338737359097E-002
   4.7822943336633950E-007   8.3015325313962052E-007   6.5536879168537232E-002
   1.5635280643799820E-007   6.2642259279765966E-007   6.0798560717972294E-002
  -1.6552382047993475E-007   7.2377484436336736E-007   5.5940967700618238E-002
  -4.8740044739439825E-007   1.1222100087179832E-006   5.0964100116475591E-002
  -8.0927707432620899E-007   1.8217280857157903E-006   4.5867957965543660E-002
  -2.5313391360221038E-004  -2.1382711160433665E-003   6.3707619081646183E-002
  -2.2780943051649294E-004  -1.0529847609830889E-003   6.4246432871028936E-002
  -2.0248494743077897E-004  -3.1158137217633664E-004   6.4806888391975487E-002
  -1.7716046434507193E-004   8.5939050376949294E-005   6.5388985644486045E-002
  -1.5183598125935449E-004   1.3957650667678623E-004   6.5992724628560318E-002
  -5.9086586602750540E-003   5.8774107179504487E-004   6.4565182246920400E-002
  -5.8178064705322746E-003   1.1587623832653160E-003   6.4511447850613052E-002
  -5.7269542807894709E-003   1.5336915270292018E-003   6.4567127136055932E-002
  -5.6361020910466741E-003   1.7125285030866674E-003   6.4732220103249166E-002
  -5.5452499013038878E-003   1.6952733114377061E-003   6.5006726752192628E-002
  -1.1930630000751230E-002   3.3137532596334007E-003   6.4834584969331213E-002
  -1.1686478154164969E-002   3.3705095275137348E-003   6.4336093185880822E-002
  -1.1442326307578701E-002   3.3789644262347054E-003   6.4034787034367130E-002
  -1.1198174460992442E-002   3.3391179557963561E-003   6.3930666514790083E-002
  -1.0954022614406174E-002   3.2509701161986537E-003   6.4023731627149805E-002
  -1.8319047935030686E-002   6.0397654474717982E-003   6.4515827248878319E-002
  -1.7833824481414580E-002   5.5822566717620495E-003   6.3720368876832051E-002
  -1.7348601027798449E-002   5.2242373254402265E-003   6.3209868086908927E-002
  -1.6863377574182329E-002   4.9657074085060040E-003   6.2984324879108766E-002
  -1.6378154120566216E-002   4.8066669209595875E-003   6.3043739253431597E-002
  -2.5073912463113468E-002   8.7657776353101680E-003   6.3608909085561993E-002
  -2.4259845452281104E-002   7.7940038160105862E-003   6.2664274923466934E-002
  -2.3445778441448739E-002   7.0695102246457059E-003   6.2092370293681282E-002
  -2.2631711430616389E-002   6.5922968612157247E-003   6.1893195196205134E-002
  -2.1817644419784017E-002   6.3623637257205212E-003   6.2066749631038420E-002
  -1.5183598125935449E-004   1.3957650667678623E-004   6.5992724628560318E-002
  -1.1949208585049914E-004   3.9729491696532948E-005   6.5814312115369034E-002
  -8.7148190441643791E-005  -2.3203499590507271E-005   6.5810165017457123E-002
  -5.4804295032788441E-005  -4.9222467184167895E-005   6.5980283334824558E-002
  -2.2460399623933092E-005  -3.8327411084393415E-005   6.6324667067471421E-002
  -5.5452499013038878E-003   1.6952733114377061E-003   6.5006726752192628E-002
  -5.3377859387283982E-003   1.5876393380669651E-003   6.4839934411808881E-002
  -5.1303219761529087E-003   1.4953399689589808E-003   6.4849116790478903E-002
  -4.9228580135774261E-003   1.4183752041136075E-003   6.5034273888202793E-002
  -4.7153940510019296E-003   1.3567450435311157E-003   6.5395405704980758E-002
  -1.0954022614406174E-002   3.2509701161986537E-003   6.4023731627149805E-002
  -1.0569729280889582E-002   3.1355491844374944E-003   6.3846980040142914E-002
  -1.0185435947373006E-002   3.0138834375082468E-003   6.3847912475964302E-002
  -9.8011426138564246E-003   2.8859728754113828E-003   6.4026528934613997E-002
  -9.4168492803398379E-003   2.7518174981464860E-003   6.4382829416092094E-002
  -1.6378154120566216E-002   4.8066669209595875E-003   6.3043739253431597E-002
  -1.5815322112334079E-002   4.6834590308078086E-003   6.2835449000371080E-002
  -1.5252490104101939E-002   4.5324269060575961E-003   6.2806552073913349E-002
  -1.4689658095869801E-002   4.3535705467090471E-003   6.2957048474058280E-002
  -1.4126826087637649E-002   4.1468899527618980E-003   6.3286938200806109E-002
  -2.1817644419784017E-002   6.3623637257205212E-003   6.2066749631038420E-002
  -2.1074564433061861E-002   6.2313688771784836E-003   6.1805341292493543E-002
  -2.0331484446339705E-002   6.0509703746068899E-003   6.1725035584325932E-002
  -1.9588404459617546E-002   5.8211682180069613E-003   6.1825832506535644E-002
  -1.8845324472895393E-002   5.5419624073773655E-003   6.2107732059122567E-002
  -2.2460399623933092E-005  -3.8327411084393415E-005   6.6324667067471421E-002
  -1.9871199253052724E-005  -1.3936382959489624E-005   6.6112503707332626E-002
  -1.7281998882186234E-005   5.3256552216829345E-007   6.6127200247797585E-002
  -1.4692798511321478E-005   5.0794343609932013E-006   6.6368756688866340E-002
  -1.2103598140439376E-005  -2.9577644355960331E-007   6.6837173030538710E-002
  -4.7153940510019296E-003   1.3567450435311157E-003   6.5395405704980758E-002
  -4.4866020170475675E-003   1.2994568144947261E-003   6.5165777289454829E-002
  -4.2578099830931897E-003   1.2355178442880477E-003   6.5161694640492401E-002
  -4.0290179491388241E-003   1.1649281329110112E-003   6.5383157758093183E-002
  -3.8002259151844568E-003   1.0876876803636026E-003   6.5830166642257104E-002
  -9.4168492803398379E-003   2.7518174981464860E-003   6.4382829416092094E-002
  -8.9631685468424954E-003   2.6128500119489695E-003   6.4139007283652322E-002
  -8.5094878133451617E-003   2.4705031230538230E-003   6.4119416783735145E-002
  -8.0558070798478158E-003   2.3247768314610864E-003   6.4324057916340827E-002
  -7.6021263463504872E-003   2.1756711371707649E-003   6.4752930681468979E-002
  -1.4126826087637649E-002   4.1468899527618980E-003   6.3286938200806109E-002
  -1.3449570788637873E-002   3.9262432094032546E-003   6.3032193689924909E-002
  -1.2772315489638090E-002   3.7054884018195115E-003   6.3000366677525871E-002
  -1.2095060190638305E-002   3.4846255300112440E-003   6.3191457163608911E-002
  -1.1417804891638518E-002   3.2636545939779271E-003   6.3605465148174251E-002
  -1.8845324472895393E-002   5.5419624073773655E-003   6.2107732059122567E-002
  -1.7945808742433678E-002   5.2396364068574286E-003   6.1845336508272619E-002
  -1.7046293011971980E-002   4.9404736805854499E-003   6.1804544321864469E-002
  -1.6146777281510281E-002   4.6444742285612281E-003   6.1985355499897865E-002
  -1.5247261551048566E-002   4.3516380507850894E-003   6.2387770042372948E-002
  -1.2103598140439376E-005  -2.9577644355960331E-007   6.6837173030538710E-002
  -1.2633523083498133E-005  -8.6977721086567428E-006   6.6748208725104563E-002
  -1.3163448026563829E-005  -1.3231257851686884E-005   6.6884252530968413E-002
  -1.3693372969629525E-005  -1.3896233672622271E-005   6.7245304448130261E-002
  -1.4223297912688282E-005  -1.0692699571546171E-005   6.7831364476590106E-002
  -3.8002259151844568E-003   1.0876876803636026E-003   6.5830166642257104E-002
  -3.5777628074746565E-003   1.0072498345994330E-003   6.5727471376385294E-002
  -3.3552996997648667E-003   9.2706794357219624E-004   6.5845754064520867E-002
  -3.1328365920550716E-003   8.4714200728191330E-004   6.6185014706664491E-002
  -2.9103734843452765E-003   7.6747202572846618E-004   6.6745253302815555E-002
  -7.6021263463504872E-003   2.1756711371707649E-003   6.4752930681468979E-002
  -7.1607003632781548E-003   2.0231974413074671E-003   6.4632891899974287E-002
  -6.7192743802058372E-003   1.8673671449960794E-003   6.4729800915196714E-002
  -6.2778483971335092E-003   1.7081802482365044E-003   6.5043657727136689E-002
  -5.8364224140612011E-003   1.5456367510285896E-003   6.5574462335793920E-002
  -1.1417804891638518E-002   3.2636545939779271E-003   6.3605465148174251E-002
  -1.0761446190493993E-002   3.0391450480156401E-003   6.3464470295871461E-002
  -1.0105087489349490E-002   2.8076663464200180E-003   6.3536393082995815E-002
  -9.4487287882049839E-003   2.5692184891909567E-003   6.3821233509547132E-002
  -8.7923700870604603E-003   2.3238014763288239E-003   6.4318991575525564E-002
  -1.5247261551048566E-002   4.3516380507850894E-003   6.2387770042372948E-002
  -1.4380000289122202E-002   4.0550926547235355E-003   6.2222206564077231E-002
  -1.3512739027195811E-002   3.7479655478437901E-003   6.2265530567918170E-002
  -1.2645477765269433E-002   3.4302567301456727E-003   6.2517742053895764E-002
  -1.1778216503343063E-002   3.1019662016288363E-003   6.2978841022010013E-002
  -1.4223297912688282E-005  -1.0692699571546171E-005   6.7831364476590106E-002
  -9.5826055420619727E-006  -6.2021032999348691E-006   6.7862214088753814E-002
  -4.9419131714426023E-006  -3.0058926080434034E-006   6.8137926155296902E-002
  -3.0122080082323199E-007  -1.1040674963991304E-006   6.8658500676219258E-002
   4.3394715698030772E-006  -4.9662796475224980E-007   6.9423937651520773E-002
  -2.9103734843452765E-003   7.6747202572846618E-004   6.6745253302815555E-002
  -2.6616525622131099E-003   6.8947282040093816E-004   6.6746317553145695E-002
  -2.4129316400809415E-003   6.1455921278882886E-004   6.6990679808619585E-002
  -2.1642107179487688E-003   5.4273120289171500E-004   6.7478340069237419E-002
  -1.9154897958166064E-003   4.7398879070970068E-004   6.8209298334998558E-002
  -5.8364224140612011E-003   1.5456367510285896E-003   6.5574462335793920E-002
  -5.3451857114030360E-003   1.3851477441017557E-003   6.5550121207585771E-002
  -4.8539490087448579E-003   1.2321243181857011E-003   6.5767513635285907E-002
  -4.3627123060866937E-003   1.0865664732797181E-003   6.6226639618894273E-002
  -3.8714756034285286E-003   9.4847420938426463E-004   6.6927499158410814E-002
  -8.7923700870604603E-003   2.3238014763288239E-003   6.4318991575525564E-002
  -8.0601820531118334E-003   2.0808226678025454E-003   6.4273625052074401E-002
  -7.3279940191632049E-003   1.8496894235824068E-003   6.4468427635295866E-002
  -6.5958059852145780E-003   1.6304017436676657E-003   6.4903399325190125E-002
  -5.8636179512659495E-003   1.4229596280590506E-003   6.5578540121757026E-002
  -1.1778216503343063E-002   3.1019662016288363E-003   6.2978841022010013E-002
  -1.0806641587339516E-002   2.7764975915033352E-003   6.2916829086611115E-002
  -9.8350666713359694E-003   2.4672545289793346E-003   6.3093421808649464E-002
  -8.8634917553324366E-003   2.1742370140557521E-003   6.3508619188124754E-002
  -7.8919168393288830E-003   1.8974450467332815E-003   6.4162421225037347E-002
   4.3394715698030772E-006  -4.9662796475224980E-007   6.9423937651520773E-002
   2.8295921147281078E-006  -4.6532356690054399E-007   6.9245747653374767E-002
   1.3197126596496689E-006  -2.9190385664179530E-007   6.9286327906790790E-002
  -1.9016679542356585E-007   2.3631167134219311E-008   6.9545678411769257E-002
  -1.7000462505037395E-006   4.8128150276216530E-007   7.0023799168310030E-002
  -1.9154897958166064E-003   4.7398879070970068E-004   6.8209298334998558E-002
  -1.6944842854018961E-003   4.2071726014247801E-004   6.8012696075347712E-002
  -1.4734787749871841E-003   3.9530189508940605E-004   6.8042354343874178E-002
  -1.2524732645724720E-003   3.9774269555006847E-004   6.8298273140577709E-002
  -1.0314677541577617E-003   4.2803966152504813E-004   6.8780452465458497E-002
  -3.8714756034285286E-003   9.4847420938426463E-004   6.6927499158410814E-002
  -3.4204644265291781E-003   8.4189984385202310E-004   6.6740198687456620E-002
  -2.9694532496298215E-003   7.9089569403478777E-004   6.6786649021294331E-002
  -2.5184420727304602E-003   7.9546175993344681E-004   6.7066850159924377E-002
  -2.0674308958311006E-003   8.5559804154750063E-004   6.7580802103346160E-002
  -5.8636179512659495E-003   1.4229596280590506E-003   6.5578540121757026E-002
  -5.1751108312671022E-003   1.2630824275613739E-003   6.5428255489700729E-002
  -4.4866037112682479E-003   1.1864894929805581E-003   6.5519211939051622E-002
  -3.7980965912693941E-003   1.1931808243168252E-003   6.5851409469809302E-002
  -3.1095894712705467E-003   1.2831564215698144E-003   6.6424848081974186E-002
  -7.8919168393288830E-003   1.8974450467332815E-003   6.4162421225037347E-002
  -6.9584234996156805E-003   1.6842650112708912E-003   6.4076866482080552E-002
  -6.0249301599024779E-003   1.5820832919261341E-003   6.4240043097145816E-002
  -5.0914368201892771E-003   1.5908998887000717E-003   6.4651951070232777E-002
  -4.1579434804760729E-003   1.7107148015922391E-003   6.5312590401341519E-002
  -1.7000462505037395E-006   4.8128150276216530E-007   7.0023799168310030E-002
  -1.1554773295327503E-006   8.9961698135354595E-007   6.8682921681491926E-002
  -6.1090840856869999E-007   1.0972074326320858E-006   6.7488142519256999E-002
  -6.6339487602914970E-008   1.0740528565283958E-006   6.6439461681605361E-002
   4.7822943336633950E-007   8.3015325313962052E-007   6.5536879168537232E-002
  -1.0314677541577617E-003   4.2803966152504813E-004   6.8780452465458497E-002
  -8.8824914676642261E-004   5.0129510633661889E-004   6.7458875282326802E-002
  -7.4503053937507828E-004   6.3261134330688806E-004   6.6276547851552958E-002
  -6.0181193198373048E-004   8.2198837243598055E-004   6.5233470173136188E-002
  -4.5859332459238095E-004   1.0694261937245209E-003   6.4329642247077046E-002
  -2.0674308958311006E-003   8.5559804154750063E-004   6.7580802103346160E-002
  -1.7883868221953130E-003   1.0016905956917732E-003   6.6336806761087719E-002
  -1.5093427485595272E-003   1.2641254791812828E-003   6.5225212598960663E-002
  -1.2302986749237375E-003   1.6429026920157727E-003   6.4246019616965314E-002
  -9.5125460128795379E-004   2.1380222341955135E-003   6.3399227815101072E-002
  -3.1095894712705467E-003   1.2831564215698144E-003   6.6424848081974186E-002
  -2.7015685036162296E-003   1.5020860850469830E-003   6.5316716117774731E-002
  -2.2935475359619267E-003   1.8956396150556082E-003   6.4334136761480948E-002
  -1.8855265683076100E-003   2.4638170115952839E-003   6.3477110013092586E-002
  -1.4775056006533067E-003   3.2066182746664784E-003   6.2745635872610089E-002
  -4.1579434804760729E-003   1.7107148015922391E-003   6.5312590401341519E-002
  -3.6277941910291545E-003   2.0024815744024149E-003   6.4398603352387451E-002
  -3.0976449015822638E-003   2.5271537509300168E-003   6.3603320339113201E-002
  -2.5674956121353679E-003   3.2847313311748713E-003   6.2926741361518351E-002
  -2.0373463226884547E-003   4.2752143151377764E-003   6.2368866419603486E-002
   4.7822943336633950E-007   8.3015325313962052E-007   6.5536879168537232E-002
   1.5635280643799820E-007   6.2642259279765966E-007   6.0798560717972294E-002
  -1.6552382047993475E-007   7.2377484436336736E-007   5.5940967700618238E-002
  -4.8740044739439825E-007   1.1222100087179832E-006   5.0964100116475591E-002
  -8.0927707432620899E-007   1.8217280857157903E-006   4.5867957965543660E-002
  -4.5859332459238095E-004   1.0694261937245209E-003   6.4329642247077046E-002
  -5.6395828975625353E-004   1.3950645665542494E-003   5.9621286249012528E-002
  -6.6932325492013306E-004   1.8190432503086273E-003   5.4822118640663775E-002
  -7.7468822008398223E-004   2.3413622449878074E-003   4.9932139422029370E-002
  -8.8005318524785742E-004   2.9620215505912206E-003   4.4951348593110785E-002
  -9.5125460128795379E-004   2.1380222341955135E-003   6.3399227815101072E-002
  -1.1331996984846968E-003   2.7895027105162007E-003   5.8818873497549745E-002
  -1.3151447956814234E-003   3.6373627257730162E-003   5.4176170526217635E-002
  -1.4970898928781959E-003   4.6816022799666228E-003   4.9471118901104151E-002
  -1.6790349900749069E-003   5.9222213730967255E-003   4.4703718622210786E-002
  -1.4775056006533067E-003   3.2066182746664784E-003   6.2745635872610089E-002
  -1.7075678733788524E-003   4.1839408544777912E-003   5.8391322463583459E-002
  -1.9376301461044045E-003   5.4556822012374537E-003   5.4003123357279789E-002
  -2.1676924188299565E-003   7.0218423149457972E-003   4.9581038553699656E-002
  -2.3977546915555023E-003   8.8824211956022303E-003   4.5125068052842582E-002
  -2.0373463226884547E-003   4.2752143151377764E-003   6.2368866419603486E-002
  -2.2870628144387520E-003   5.5783789984393817E-003   5.8338633147113628E-002
  -2.5367793061890354E-003   7.2740016767015858E-003   5.4302977133850960E-002
  -2.7864957979393378E-003   9.3620823499246178E-003   5.0261898379815567E-002
  -3.0362122896896160E-003   1.1842621018107735E-002   4.6215396885007642E-002
  -2.5073912463113468E-002   8.7657776353101680E-003   6.3608909085561993E-002
  -2.4259845452281104E-002   7.7940038160105862E-003   6.2664274923466934E-002
  -2.3445778441448739E-002   7.0695102246457059E-003   6.2092370293681282E-002
  -2.2631711430616389E-002   6.5922968612157247E-003   6.1893195196205134E-002
  -2.1817644419784017E-002   6.3623637257205212E-003   6.2066749631038420E-002
  -3.1892023306033468E-002   1.0020242599909857E-002   5.9335202878390947E-002
  -3.0733011274777892E-002   9.3338281703978510E-003   5.8793153459943487E-002
  -2.9573999243522310E-002   8.7809640957610957E-003   5.8568264550033139E-002
  -2.8414987212266724E-002   8.3616503759993965E-003   5.8660536148659514E-002
  -2.7255975181011173E-002   8.0758870111129477E-003   5.9069968255823141E-002
  -3.8470180184824537E-002   1.1274707564509517E-002   5.5403720997537084E-002
  -3.7021792156918185E-002   1.0873652524785227E-002   5.5150526449677773E-002
  -3.5573404129011880E-002   1.0492417966876423E-002   5.5158923386582827E-002
  -3.4125016101105507E-002   1.0131003890783067E-002   5.5428911808252559E-002
  -3.2676628073199182E-002   9.7894102965052632E-003   5.5960491714686700E-002
  -4.4808383099486704E-002   1.2529172529109164E-002   5.1814463443001085E-002
  -4.3126188098702063E-002   1.2413476879172602E-002   5.1736393892669943E-002
  -4.1443993097917402E-002   1.2203871837991726E-002   5.1864346803330956E-002
  -3.9761798097132782E-002   1.1900357405566792E-002   5.2198322174983991E-002
  -3.8079603096348141E-002   1.1502933581897579E-002   5.2738320007629264E-002
  -5.0906632050019995E-002   1.3783637493708867E-002   4.8567430214782326E-002
  -4.9046199100129445E-002   1.3953301233559867E-002   4.8550755788919986E-002
  -4.7185766150238964E-002   1.3915325709107071E-002   4.8684534800277096E-002
  -4.5325333200348490E-002   1.3669710920350433E-002   4.8968767248853948E-002
  -4.3464900250458002E-002   1.3216456867289950E-002   4.9403453134650444E-002
  -2.1817644419784017E-002   6.3623637257205212E-003   6.2066749631038420E-002
  -2.1074564433061861E-002   6.2313688771784836E-003   6.1805341292493543E-002
  -2.0331484446339705E-002   6.0509703746068899E-003   6.1725035584325932E-002
  -1.9588404459617546E-002   5.8211682180069613E-003   6.1825832506535644E-002
  -1.8845324472895393E-002   5.5419624073773655E-003   6.2107732059122567E-002
  -2.7255975181011173E-002   8.0758870111129477E-003   5.9069968255823141E-002
  -2.6333707952457704E-002   7.8406671217988999E-003   5.8783388868891756E-002
  -2.5411440723904267E-002   7.5729838287544593E-003   5.8674081335245723E-002
  -2.4489173495350826E-002   7.2728371319797577E-003   5.8742045654885035E-002
  -2.3566906266797392E-002   6.9402270314748438E-003   5.8987281827809490E-002
  -3.2676628073199182E-002   9.7894102965052632E-003   5.5960491714686700E-002
  -3.1579004379906378E-002   9.4499653664193578E-003   5.5665681529667554E-002
  -3.0481380686613591E-002   9.0949972829019177E-003   5.5544312420841790E-002
  -2.9383756993320784E-002   8.7245060459528873E-003   5.5596384388209408E-002
  -2.8286133300027994E-002   8.3384916555722666E-003   5.5821897431770323E-002
  -3.8079603096348141E-002   1.1502933581897579E-002   5.2738320007629264E-002
  -3.6810453715407900E-002   1.1059263611039850E-002   5.2452219274820890E-002
  -3.5541304334467692E-002   1.0617010737049321E-002   5.2335728841114058E-002
  -3.4272154953527478E-002   1.0176174959925906E-002   5.2388848706508714E-002
  -3.3003005572587264E-002   9.7367562796697171E-003   5.2611578871004726E-002
  -4.3464900250458002E-002   1.3216456867289950E-002   4.9403453134650444E-002
  -4.2028055958962265E-002   1.2668561855660398E-002   4.9143002104351796E-002
  -4.0591211667466563E-002   1.2139024191196848E-002   4.9048330596062700E-002
  -3.9154367375970847E-002   1.1627843873898844E-002   4.9119438609783059E-002
  -3.7717523084475138E-002   1.1135020903767168E-002   4.9356326145512996E-002
  -1.8845324472895393E-002   5.5419624073773655E-003   6.2107732059122567E-002
  -1.7945808742433678E-002   5.2396364068574286E-003   6.1845336508272619E-002
  -1.7046293011971980E-002   4.9404736805854499E-003   6.1804544321864469E-002
  -1.6146777281510281E-002   4.6444742285612281E-003   6.1985355499897865E-002
  -1.5247261551048566E-002   4.3516380507850894E-003   6.2387770042372948E-002
  -2.3566906266797392E-002   6.9402270314748438E-003   5.8987281827809490E-002
  -2.2449969077029022E-002   6.5895147422929956E-003   5.8722770282808340E-002
  -2.1333031887260649E-002   6.2350614794877413E-003   5.8671498291978735E-002
  -2.0216094697492280E-002   5.8768672430590876E-003   5.8833465855320802E-002
  -1.9099157507723938E-002   5.5149320330071805E-003   5.9208672972834664E-002
  -2.8286133300027994E-002   8.3384916555722666E-003   5.5821897431770323E-002
  -2.6960138461222975E-002   7.9393930777284516E-003   5.5548365644746411E-002
  -2.5634143622417945E-002   7.5296492783900465E-003   5.5479709601624239E-002
  -2.4308148783612923E-002   7.1092602575568951E-003   5.5615929302403701E-002
  -2.2982153944807897E-002   6.6782260152291606E-003   5.5957024747084749E-002
  -3.3003005572587264E-002   9.7367562796697171E-003   5.2611578871004726E-002
  -3.1476316895015573E-002   9.2892714131639909E-003   5.2322122594086938E-002
  -2.9949628217443850E-002   8.8242370772924003E-003   5.2229178250800798E-002
  -2.8422939539872131E-002   8.3416532720547287E-003   5.2332745841146319E-002
  -2.6896250862300464E-002   7.8415199974511407E-003   5.2632825365123356E-002
  -3.7717523084475138E-002   1.1135020903767168E-002   4.9356326145512996E-002
  -3.5998504378406751E-002   1.0639149748599475E-002   4.9044041130829941E-002
  -3.4279485672338371E-002   1.0118824876194671E-002   4.8919904239508483E-002
  -3.2560466966269977E-002   9.5740462865525136E-003   4.8983915471548872E-002
  -3.0841448260201604E-002   9.0048139796732318E-003   4.9236074826950804E-002
  -1.5247261551048566E-002   4.3516380507850894E-003   6.2387770042372948E-002
  -1.4380000289122202E-002   4.0550926547235355E-003   6.2222206564077231E-002
  -1.3512739027195811E-002   3.7479655478437901E-003   6.2265530567918170E-002
  -1.2645477765269433E-002   3.4302567301456727E-003   6.2517742053895764E-002
  -1.1778216503343063E-002   3.1019662016288363E-003   6.2978841022010013E-002
  -1.9099157507723938E-002   5.5149320330071805E-003   5.9208672972834664E-002
  -1.8025985794299034E-002   5.1471305643399079E-003   5.8999745356279110E-002
  -1.6952814080874158E-002   4.7713375520651718E-003   5.8993751160584113E-002
  -1.5879642367449254E-002   4.3875529961832950E-003   5.9190690385749326E-002
  -1.4806470654024375E-002   3.9957768966941698E-003   5.9590563031775123E-002
  -2.2982153944807897E-002   6.6782260152291606E-003   5.5957024747084749E-002
  -2.1709025841160877E-002   6.2391684739558639E-003   5.5707323159480918E-002
  -2.0435897737513826E-002   5.7947095562866646E-003   5.5654600931460990E-002
  -1.9162769633866789E-002   5.3448492622211394E-003   5.5798858063024939E-002
  -1.7889641530219751E-002   4.8895875917594478E-003   5.6140094554173015E-002
  -2.6896250862300464E-002   7.8415199974511407E-003   5.2632825365123356E-002
  -2.5429120429707672E-002   7.3312063835721392E-003   5.2344939973682253E-002
  -2.3961989997114849E-002   6.8180815605081019E-003   5.2248079880548533E-002
  -2.2494859564522057E-002   6.3021455282587617E-003   5.2342245085722383E-002
  -2.1027729131929237E-002   5.7833982868247535E-003   5.2627435589204033E-002
  -3.0841448260201604E-002   9.0048139796732318E-003   4.9236074826950804E-002
  -2.9186269559939415E-002   8.4232442931882479E-003   4.8912595798883296E-002
  -2.7531090859677199E-002   7.8414535647295391E-003   4.8774188007846941E-002
  -2.5875912159414989E-002   7.2594417942966616E-003   4.8820851453841962E-002
  -2.4220733459152793E-002   6.6772089818900593E-003   4.9052586136868026E-002
  -1.1778216503343063E-002   3.1019662016288363E-003   6.2978841022010013E-002
  -1.0806641587339516E-002   2.7764975915033352E-003   6.2916829086611115E-002
  -9.8350666713359694E-003   2.4672545289793346E-003   6.3093421808649464E-002
  -8.8634917553324366E-003   2.1742370140557521E-003   6.3508619188124754E-002
  -7.8919168393288830E-003   1.8974450467332815E-003   6.4162421225037347E-002
  -1.4806470654024375E-002   3.9957768966941698E-003   5.9590563031775123E-002
  -1.3604641331318921E-002   3.6047642756446563E-003   5.9478156144170569E-002
  -1.2402812008613458E-002   3.2232701550821419E-003   5.9587653412532832E-002
  -1.1200982685908009E-002   2.8512945350058702E-003   5.9919054836861801E-002
  -9.9991533632025446E-003   2.4888374154163895E-003   6.0472360417157478E-002
  -1.7889641530219751E-002   4.8895875917594478E-003   5.6140094554173015E-002
  -1.6474258302282881E-002   4.4330309597858109E-003   5.5970585667248746E-002
  -1.5058875074346013E-002   3.9792857811847271E-003   5.6006280434820754E-002
  -1.3643491846409127E-002   3.5283520559559883E-003   5.6247178856888902E-002
  -1.2228108618472273E-002   3.0802297840994974E-003   5.6693280933453299E-002
  -2.1027729131929237E-002   5.7833982868247535E-003   5.2627435589204033E-002
  -1.9415492500231425E-002   5.2612976439270487E-003   5.2394117655845847E-002
  -1.7803255868533572E-002   4.7353014072874233E-003   5.2349302875513176E-002
  -1.6191019236835733E-002   4.2054095769061065E-003   5.2492991248206278E-002
  -1.4578782605137907E-002   3.6716221527824944E-003   5.2825182773925235E-002
  -2.4220733459152793E-002   6.6772089818900593E-003   4.9052586136868026E-002
  -2.2428343925164504E-002   6.0895643280681755E-003   4.8748752109961380E-002
  -2.0635954391176187E-002   5.4913170333902306E-003   4.8616720734609986E-002
  -1.8843564857187911E-002   4.8824670978561413E-003   4.8656492010813707E-002
  -1.7051175323199580E-002   4.2630145214656023E-003   4.8868065938572847E-002
  -7.8919168393288830E-003   1.8974450467332815E-003   6.4162421225037347E-002
  -6.9584234996156805E-003   1.6842650112708912E-003   6.4076866482080552E-002
  -6.0249301599024779E-003   1.5820832919261341E-003   6.4240043097145816E-002
  -5.0914368201892771E-003   1.5908998887000717E-003   6.4651951070232777E-002
  -4.1579434804760729E-003   1.7107148015922391E-003   6.5312590401341519E-002
  -9.9991533632025446E-003   2.4888374154163895E-003   6.0472360417157478E-002
  -8.8161917013070343E-003   2.1875051700845360E-003   6.0377688689038866E-002
  -7.6332300394115222E-003   1.9989041727813128E-003   6.0533222247263013E-002
  -6.4502683775159936E-003   1.9230344235065672E-003   6.0938961091829905E-002
  -5.2673067156204720E-003   1.9598959222602019E-003   6.1594905222739915E-002
  -1.2228108618472273E-002   3.0802297840994974E-003   5.6693280933453299E-002
  -1.0794204706073332E-002   2.6907453288987637E-003   5.6591225152082841E-002
  -9.3603007936743643E-003   2.4157250536364777E-003   5.6740848585376244E-002
  -7.9263968812753952E-003   2.2551689583131702E-003   5.7142151233333736E-002
  -6.4924929688764520E-003   2.2090770429281648E-003   5.7795133095955104E-002
  -1.4578782605137907E-002   3.6716221527824944E-003   5.2825182773925235E-002
  -1.2892462513914465E-002   3.1939854877125889E-003   5.2717475871212935E-002
  -1.1206142422691009E-002   2.8325459344918716E-003   5.2862922111485869E-002
  -9.5198223314675676E-003   2.5873034931194975E-003   5.3261521494743704E-002
  -7.8335022402441119E-003   2.4582581635964051E-003   5.3913274020986758E-002
  -1.7051175323199580E-002   4.2630145214656023E-003   4.8868065938572847E-002
  -1.5110965124830553E-002   3.6972256465266917E-003   4.8756440846429050E-002
  -1.3170754926461470E-002   3.2493668153467659E-003   4.8899442825591555E-002
  -1.1230544728092422E-002   2.9194380279261994E-003   4.9297071876060194E-002
  -9.2903345297233597E-003   2.7074392842640904E-003   4.9949327997834803E-002
  -4.1579434804760729E-003   1.7107148015922391E-003   6.5312590401341519E-002
  -3.6277941910291545E-003   2.0024815744024149E-003   6.4398603352387451E-002
  -3.0976449015822638E-003   2.5271537509300168E-003   6.3603320339113201E-002
  -2.5674956121353679E-003   3.2847313311748713E-003   6.2926741361518351E-002
  -2.0373463226884547E-003   4.2752143151377764E-003   6.2368866419603486E-002
  -5.2673067156204720E-003   1.9598959222602019E-003   6.1594905222739915E-002
  -4.5924130473236000E-003   2.2162428074111729E-003   6.0870707963086690E-002
  -3.9175193790267314E-003   2.7988292173286577E-003   6.0317295425453499E-002
  -3.2426257107298559E-003   3.7076551520122125E-003   5.9934667609840619E-002
  -2.5677320424329943E-003   4.9427206114620592E-003   5.9722824516248330E-002
  -6.4924929688764520E-003   2.2090770429281648E-003   5.7795133095955104E-002
  -5.6207742353889794E-003   2.4300040404202639E-003   5.7354059746650948E-002
  -4.7490555019015076E-003   3.0705046837273126E-003   5.7135851805707835E-002
  -3.8773367684140224E-003   4.1305789728493351E-003   5.7140509273125951E-002
  -3.0056180349265615E-003   5.6102269077863975E-003   5.7368032148904541E-002
  -7.8335022402441119E-003   2.4582581635964051E-003   5.3913274020986758E-002
  -6.7128777552253535E-003   2.6437652734292438E-003   5.3848658703080712E-002
  -5.5922532702065812E-003   3.3421801501258494E-003   5.4058989479876460E-002
  -4.4716287851878029E-003   4.5535027936863450E-003   5.4544266351373695E-002
  -3.3510043001690501E-003   6.2777332041110412E-003   5.5304489317572515E-002
  -9.2903345297233597E-003   2.7074392842640904E-003   4.9949327997834803E-002
  -7.8687236068326338E-003   2.8575265064381683E-003   5.0354504832375913E-002
  -6.4471126839419635E-003   3.6138556165246360E-003   5.1086708447958984E-002
  -5.0255017610512723E-003   4.9764266145235839E-003   5.2145938844584433E-002
  -3.6038908381605672E-003   6.9452395004351297E-003   5.3532196022252232E-002
  -2.0373463226884547E-003   4.2752143151377764E-003   6.2368866419603486E-002
  -2.2870628144387520E-003   5.5783789984393817E-003   5.8338633147113628E-002
  -2.5367793061890354E-003   7.2740016767015858E-003   5.4302977133850960E-002
  -2.7864957979393378E-003   9.3620823499246178E-003   5.0261898379815567E-002
  -3.0362122896896160E-003   1.1842621018107735E-002   4.6215396885007642E-002
  -2.5677320424329943E-003   4.9427206114620592E-003   5.9722824516248330E-002
  -2.8403660864499934E-003   6.5676262095691884E-003   5.6190545533270131E-002
  -3.1130001304669769E-003   8.6459725602254234E-003   5.2617854186530977E-002
  -3.3856341744839752E-003   1.1177759663430195E-002   4.9004750476031284E-002
  -3.6582682185009596E-003   1.4162987519183767E-002   4.5351234401770801E-002
  -3.0056180349265615E-003   5.6102269077863975E-003   5.7368032148904541E-002
  -3.3361592541982458E-003   7.5568734206993282E-003   5.4394690213026203E-002
  -3.6667004734699310E-003   1.0017943443749469E-002   5.1345946290399111E-002
  -3.9972416927415676E-003   1.2993436976936269E-002   4.8221800381022951E-002
  -4.3277829120133490E-003   1.6483354020259799E-002   4.5022252484898995E-002
  -3.3510043001690501E-003   6.2777332041110412E-003   5.5304489317572515E-002
  -3.7744423176834575E-003   8.5461206318294125E-003   5.2951067186382345E-002
  -4.1978803351978514E-003   1.1389914327273300E-002   5.0487253445455085E-002
  -4.6213183527122285E-003   1.4809114290441983E-002   4.7913048094791529E-002
  -5.0447563702266237E-003   1.8803720521335832E-002   4.5228451134390668E-002
  -3.6038908381605672E-003   6.9452395004351297E-003   5.3532196022252232E-002
  -4.1552152769056550E-003   9.5353678429594968E-003   5.1859676453337777E-002
  -4.7065397156507566E-003   1.2761885210797325E-002   5.0041775651698928E-002
  -5.2578641543958582E-003   1.6624791603948134E-002   4.8078493617335266E-002
  -5.8091885931409459E-003   2.1124087022411864E-002   4.5969830350246710E-002
  -5.0906632050019995E-002   1.3783637493708867E-002   4.8567430214782326E-002
  -4.9046199100129445E-002   1.3953301233559867E-002   4.8550755788919986E-002
  -4.7185766150238964E-002   1.3915325709107071E-002   4.8684534800277096E-002
  -4.5325333200348490E-002   1.3669710920350433E-002   4.8968767248853948E-002
  -4.3464900250458002E-002   1.3216456867289950E-002   4.9403453134650444E-002
  -5.6950512197403824E-002   1.6258099888341260E-002   4.4489927580192656E-002
  -5.4925048140628971E-002   1.6072907329675146E-002   4.4195650741991305E-002
  -5.2899584083854201E-002   1.5773426586965636E-002   4.4080982680338915E-002
  -5.0874120027079375E-002   1.5359657660212456E-002   4.4145923395235528E-002
  -4.8848655970304515E-002   1.4831600549415958E-002   4.4390472886681159E-002
  -6.3125608702617547E-002   1.8732562282973680E-002   4.0010893106955756E-002
  -6.0905958199629039E-002   1.8192513425790480E-002   3.9532364936675710E-002
  -5.8686307696640572E-002   1.7631527464824069E-002   3.9262600882274061E-002
  -5.6466657193652042E-002   1.7049604400074594E-002   3.9201600943750872E-002
  -5.4247006690663555E-002   1.6446744231541882E-002   3.9349365121105900E-002
  -6.9431921565661345E-002   2.1207024677606087E-002   3.5130326795071345E-002
  -6.6988929277129738E-002   2.0312119521905786E-002   3.4560898372973159E-002
  -6.4545936988598243E-002   1.9489628342682596E-002   3.4229389406082590E-002
  -6.2102944700066678E-002   1.8739551139936673E-002   3.4135799894399965E-002
  -5.9659952411535114E-002   1.8061887913667904E-002   3.4280129837924847E-002
  -7.5869450786535009E-002   2.3681487072238494E-002   2.9848228644539787E-002
  -7.3173961373130980E-002   2.2431725618020926E-002   2.9281251050883750E-002
  -7.0478471959727118E-002   2.1347729220541040E-002   2.8981348251764572E-002
  -6.7782982546323076E-002   2.0429497879798759E-002   2.8948520247182641E-002
  -6.5087493132919144E-002   1.9677031595793815E-002   2.9182767037137847E-002
  -4.3464900250458002E-002   1.3216456867289950E-002   4.9403453134650444E-002
  -4.2028055958962265E-002   1.2668561855660398E-002   4.9143002104351796E-002
  -4.0591211667466563E-002   1.2139024191196848E-002   4.9048330596062700E-002
  -3.9154367375970847E-002   1.1627843873898844E-002   4.9119438609783059E-002
  -3.7717523084475138E-002   1.1135020903767168E-002   4.9356326145512996E-002
  -4.8848655970304515E-002   1.4831600549415958E-002   4.4390472886681159E-002
  -4.7245338290321279E-002   1.4251287976004931E-002   4.4130188025338343E-002
  -4.5642020610337980E-002   1.3680752661408488E-002   4.4037070418961100E-002
  -4.4038702930354667E-002   1.3119994605626874E-002   4.4111120067549470E-002
  -4.2435385250371431E-002   1.2569013808659935E-002   4.4352336971103468E-002
  -5.4247006690663555E-002   1.6446744231541882E-002   3.9349365121105900E-002
  -5.2475827889236625E-002   1.5834014096349353E-002   3.9080666340367748E-002
  -5.0704649087809674E-002   1.5222481131620343E-002   3.8980522547551223E-002
  -4.8933470286382702E-002   1.4612145337354681E-002   3.9048933742656472E-002
  -4.7162291484955737E-002   1.4003006713552590E-002   3.9285899925683460E-002
  -5.9659952411535114E-002   1.8061887913667904E-002   3.4280129837924847E-002
  -5.7719524755708407E-002   1.7416740216693885E-002   3.3994437049440052E-002
  -5.5779097099881672E-002   1.6764209601832007E-002   3.3878686981833078E-002
  -5.3838669444054923E-002   1.6104296069082542E-002   3.3932879635103816E-002
  -5.1898241788228237E-002   1.5436999618445441E-002   3.4157015009252535E-002
  -6.5087493132919144E-002   1.9677031595793815E-002   2.9182767037137847E-002
  -6.2976428889736549E-002   1.8999466337038418E-002   2.8871500152555241E-002
  -6.0865364646553982E-002   1.8305938072043892E-002   2.8731563721806574E-002
  -5.8754300403371373E-002   1.7596446800810392E-002   2.8762957744891807E-002
  -5.6643236160188792E-002   1.6870992523338069E-002   2.8965682221810840E-002
  -3.7717523084475138E-002   1.1135020903767168E-002   4.9356326145512996E-002
  -3.5998504378406751E-002   1.0639149748599475E-002   4.9044041130829941E-002
  -3.4279485672338371E-002   1.0118824876194671E-002   4.8919904239508483E-002
  -3.2560466966269977E-002   9.5740462865525136E-003   4.8983915471548872E-002
  -3.0841448260201604E-002   9.0048139796732318E-003   4.9236074826950804E-002
  -4.2435385250371431E-002   1.2569013808659935E-002   4.4352336971103468E-002
  -4.0527713072814393E-002   1.2014741940756246E-002   4.4011106676896644E-002
  -3.8620040895257390E-002   1.1444110672164637E-002   4.3859035202305441E-002
  -3.6712368717700401E-002   1.0857120002885155E-002   4.3896122547329650E-002
  -3.4804696540143398E-002   1.0253769932917600E-002   4.4122368711969451E-002
  -4.7162291484955737E-002   1.4003006713552590E-002   3.9285899925683460E-002
  -4.5064955139656290E-002   1.3390334132912907E-002   3.8923818668502100E-002
  -4.2967618794356795E-002   1.2769396468134533E-002   3.8751906927190230E-002
  -4.0870282449057355E-002   1.2140193719217571E-002   3.8770164701747711E-002
  -3.8772946103757859E-002   1.1502725886162080E-002   3.8978591992174627E-002
  -5.1898241788228237E-002   1.5436999618445441E-002   3.4157015009252535E-002
  -4.9610230578932421E-002   1.4765926325069512E-002   3.3782177105646148E-002
  -4.7322219369636639E-002   1.4094682264104576E-002   3.3598519414162906E-002
  -4.5034208160340816E-002   1.3423267435550156E-002   3.3606041934803169E-002
  -4.2746196951044986E-002   1.2751681839406559E-002   3.3804744667566333E-002
  -5.6643236160188792E-002   1.6870992523338069E-002   2.8965682221810840E-002
  -5.4163539390642834E-002   1.6141518517226311E-002   2.8586181988328740E-002
  -5.1683842621096834E-002   1.5419968060074424E-002   2.8398872663223579E-002
  -4.9204145851550800E-002   1.4706341151882664E-002   2.8403754246495799E-002
  -4.6724449082004821E-002   1.4000637792650983E-002   2.8600826738144736E-002
  -3.0841448260201604E-002   9.0048139796732318E-003   4.9236074826950804E-002
  -2.9186269559939415E-002   8.4232442931882479E-003   4.8912595798883296E-002
  -2.7531090859677199E-002   7.8414535647295391E-003   4.8774188007846941E-002
  -2.5875912159414989E-002   7.2594417942966616E-003   4.8820851453841962E-002
  -2.4220733459152793E-002   6.6772089818900593E-003   4.9052586136868026E-002
  -3.4804696540143398E-002   1.0253769932917600E-002   4.4122368711969451E-002
  -3.2971847764353822E-002   9.6389849898038671E-003   4.3783121544936049E-002
  -3.1138998988564238E-002   9.0176897010850188E-003   4.3614143291926116E-002
  -2.9306150212774631E-002   8.3898840667614299E-003   4.3615433952939667E-002
  -2.7473301436985065E-002   7.7555680868325316E-003   4.3786993527976881E-002
  -3.8772946103757859E-002   1.1502725886162080E-002   3.8978591992174627E-002
  -3.6777229575448572E-002   1.0854725686419348E-002   3.8617287382544302E-002
  -3.4781513047139306E-002   1.0193925837440720E-002   3.8411449363929803E-002
  -3.2785796518830068E-002   9.5203263392259763E-003   3.8361077936330978E-002
  -3.0790079990520761E-002   8.8339271917753370E-003   3.8466173099748313E-002
  -4.2746196951044986E-002   1.2751681839406559E-002   3.3804744667566333E-002
  -4.0602414993223715E-002   1.2070466383034731E-002   3.3415093311708055E-002
  -3.8458633035402395E-002   1.1370161973796256E-002   3.3166106223857919E-002
  -3.6314851077581096E-002   1.0650768611690634E-002   3.3057783404016133E-002
  -3.4171069119759798E-002   9.9122862967181424E-003   3.3090124852182407E-002
  -4.6724449082004821E-002   1.4000637792650983E-002   2.8600826738144736E-002
  -4.4447404017679160E-002   1.3286207079650281E-002   2.8176539332427530E-002
  -4.2170358953353540E-002   1.2546398110151999E-002   2.7878113871710769E-002
  -3.9893313889027886E-002   1.1781210884155371E-002   2.7705550355994549E-002
  -3.7616268824702287E-002   1.0990645401660726E-002   2.7658848785278800E-002
  -2.4220733459152793E-002   6.6772089818900593E-003   4.9052586136868026E-002
  -2.2428343925164504E-002   6.0895643280681755E-003   4.8748752109961380E-002
  -2.0635954391176187E-002   5.4913170333902306E-003   4.8616720734609986E-002
  -1.8843564857187911E-002   4.8824670978561413E-003   4.8656492010813707E-002
  -1.7051175323199580E-002   4.2630145214656023E-003   4.8868065938572847E-002
  -2.7473301436985065E-002   7.7555680868325316E-003   4.3786993527976881E-002
  -2.5514580027294863E-002   7.1178371535113860E-003   4.3408017048495062E-002
  -2.3555858617604689E-002   6.4797866590094733E-003   4.3189901668861913E-002
  -2.1597137207914448E-002   5.8414166033267031E-003   4.3132647389077183E-002
  -1.9638415798224312E-002   5.2027269864637349E-003   4.3236254209141234E-002
  -3.0790079990520761E-002   8.8339271917753370E-003   3.8466173099748313E-002
  -2.8675968256835344E-002   8.1461099789543190E-003   3.8022337247367144E-002
  -2.6561856523149956E-002   7.4682562846283829E-003   3.7728420943127644E-002
  -2.4447744789464567E-002   6.8003661087974870E-003   3.7584424187030077E-002
  -2.2333633055779165E-002   6.1424394514617009E-003   3.7590346979074485E-002
  -3.4171069119759798E-002   9.9122862967181424E-003   3.3090124852182407E-002
  -3.1912508613785862E-002   9.1743828043975018E-003   3.2591712706577035E-002
  -2.9653948107811905E-002   8.4567259102475145E-003   3.2232278557407179E-002
  -2.7395387601837941E-002   7.7593156142683264E-003   3.2011822404672506E-002
  -2.5136827095864005E-002   7.0821519164597502E-003   3.1930344248373002E-002
  -3.7616268824702287E-002   1.0990645401660726E-002   2.7658848785278800E-002
  -3.5224201098146474E-002   1.0202655629840574E-002   2.7116143426125339E-002
  -3.2832133371590619E-002   9.4451955358665074E-003   2.6701474511700629E-002
  -3.0440065645034813E-002   8.7182651197389924E-003   2.6414842042004338E-002
  -2.8047997918478978E-002   8.0218643814576884E-003   2.6256246017036688E-002
  -1.7051175323199580E-002   4.2630145214656023E-003   4.8868065938572847E-002
  -1.5110965124830553E-002   3.6972256465266917E-003   4.8756440846429050E-002
  -1.3170754926461470E-002   3.2493668153467659E-003   4.8899442825591555E-002
  -1.1230544728092422E-002   2.9194380279261994E-003   4.9297071876060194E-002
  -9.2903345297233597E-003   2.7074392842640904E-003   4.9949327997834803E-002
  -1.9638415798224312E-002   5.2027269864637349E-003   4.3236254209141234E-002
  -1.7482079619686931E-002   4.6005302600353737E-003   4.3073768936233992E-002
  -1.5325743441149488E-002   4.0716388756564248E-003   4.3088908552357391E-002
  -1.3169407262612103E-002   3.6160528333277209E-003   4.3281673057511225E-002
  -1.1013071084074663E-002   3.2337721330488733E-003   4.3652062451695894E-002
  -2.2333633055779165E-002   6.1424394514617009E-003   3.7590346979074485E-002
  -2.0038173079348964E-002   5.5038348735436948E-003   3.7332376823694724E-002
  -1.7742713102918837E-002   4.8939109359664446E-003   3.7175029375069751E-002
  -1.5447253126488687E-002   4.3126676387295823E-003   3.7118304633199845E-002
  -1.3151793150058565E-002   3.7601049818334342E-003   3.7162202598084809E-002
  -2.5136827095864005E-002   7.0821519164597502E-003   3.1930344248373002E-002
  -2.2779245503816752E-002   6.4071394870523074E-003   3.1532264508811109E-002
  -2.0421663911769444E-002   5.7161829962761729E-003   3.1157805293728802E-002
  -1.8064082319722195E-002   5.0092824441311072E-003   3.0806966603125565E-002
  -1.5706500727674884E-002   4.2864378306179396E-003   3.0479748437002012E-002
  -2.8047997918478978E-002   8.0218643814576884E-003   2.6256246017036688E-002
  -2.5705296893090257E-002   7.3104441005606979E-003   2.5673431991583673E-002
  -2.3362595867701411E-002   6.5384550565860677E-003   2.5037236308334543E-002
  -2.1019894842312627E-002   5.7058972495330623E-003   2.4347658967289132E-002
  -1.8677193816923843E-002   4.8127706794026670E-003   2.3604699968447274E-002
  -9.2903345297233597E-003   2.7074392842640904E-003   4.9949327997834803E-002
  -7.8687236068326338E-003   2.8575265064381683E-003   5.0354504832375913E-002
  -6.4471126839419635E-003   3.6138556165246360E-003   5.1086708447958984E-002
  -5.0255017610512723E-003   4.9764266145235839E-003   5.2145938844584433E-002
  -3.6038908381605672E-003   6.9452395004351297E-003   5.3532196022252232E-002
  -1.1013071084074663E-002   3.2337721330488733E-003   4.3652062451695894E-002
  -9.2460856971198491E-003   3.1630085893716853E-003   4.4237586887158953E-002
  -7.4791003101650003E-003   3.6419740168476544E-003   4.5186833469708171E-002
  -5.7121149232101896E-003   4.6706684154770930E-003   4.6499802199343590E-002
  -3.9451295362553374E-003   6.2490917852598971E-003   4.8176493076064864E-002
  -1.3151793150058565E-002   3.7601049818334342E-003   3.7162202598084809E-002
  -1.1002737932995790E-002   3.4684906723047304E-003   3.7871561717711333E-002
  -8.8536827159330228E-003   3.6700924171704369E-003   3.8981338350467673E-002
  -6.7046274988702536E-003   4.3649102164303767E-003   4.0491532496353642E-002
  -4.5555722818074809E-003   5.5529440700850530E-003   4.2402144155369720E-002
  -1.5706500727674884E-002   4.2864378306179396E-003   3.0479748437002012E-002
  -1.3138680314460477E-002   3.7739727552380115E-003   3.1256429324032796E-002
  -1.0570859901246041E-002   3.6982108174932818E-003   3.2470223090237046E-002
  -8.0030394880316637E-003   4.0591520173838842E-003   3.4121129735614916E-002
  -5.4352190748172009E-003   4.8567963549101256E-003   3.6209149260166433E-002
  -1.8677193816923843E-002   4.8127706794026670E-003   2.3604699968447274E-002
  -1.5653912841513934E-002   4.0794548381712370E-003   2.4392189706123335E-002
  -1.2630631866104081E-002   3.7263292178162655E-003   2.5653487689016652E-002
  -9.6073508906941857E-003   3.7533938183372875E-003   2.7388593917127196E-002
  -6.5840699152843185E-003   4.1606486397349762E-003   2.9597508390454941E-002
  -3.6038908381605672E-003   6.9452395004351297E-003   5.3532196022252232E-002
  -4.1552152769056550E-003   9.5353678429594968E-003   5.1859676453337777E-002
  -4.7065397156507566E-003   1.2761885210797325E-002   5.0041775651698928E-002
  -5.2578641543958582E-003   1.6624791603948134E-002   4.8078493617335266E-002
  -5.8091885931409459E-003   2.1124087022411864E-002   4.5969830350246710E-002
  -3.9451295362553374E-003   6.2490917852598971E-003   4.8176493076064864E-002
  -4.5380357760130274E-003   8.6872285011812544E-003   4.7241612264623367E-002
  -5.1309420157708008E-003   1.2295062938225992E-002   4.6368949083881228E-002
  -5.7238482555285880E-003   1.7072595096393882E-002   4.5558503533838279E-002
  -6.3167544952863197E-003   2.3019824975685221E-002   4.4810275614495243E-002
  -4.5555722818074809E-003   5.5529440700850530E-003   4.2402144155369720E-002
  -4.9824614591538127E-003   7.8390891594034562E-003   4.2738210797211018E-002
  -5.4093506365000855E-003   1.1828240665655118E-002   4.3344093933175884E-002
  -5.8362398138463931E-003   1.7520398588840243E-002   4.4219793563264713E-002
  -6.2631289911926902E-003   2.4915562928958579E-002   4.5365309687476318E-002
  -5.4352190748172009E-003   4.8567963549101256E-003   3.6209149260166433E-002
  -5.4884923263279310E-003   6.9909498176255469E-003   3.8349472051100696E-002
  -5.5417655778387462E-003   1.1361418393084348E-002   4.0967210199582632E-002
  -5.5950388293495492E-003   1.7968202081286078E-002   4.4062363705611743E-002
  -5.6483120808603487E-003   2.6811300882231937E-002   4.7634932569189242E-002
  -6.5840699152843185E-003   4.1606486397349762E-003   2.9597508390454941E-002
  -6.0561283775354691E-003   6.1428104758473046E-003   3.4075396026292282E-002
  -5.5281868397865919E-003   1.0894596120513300E-002   3.9238297883101625E-002
  -5.0002453020377285E-003   1.8416005573732394E-002   4.5086213960882360E-002
  -4.4723037642888652E-003   2.8707038835505294E-002   5.1619144259634542E-002
  -7.5869450786535009E-002   2.3681487072238494E-002   2.9848228644539787E-002
  -7.3173961373130980E-002   2.2431725618020926E-002   2.9281251050883750E-002
  -7.0478471959727118E-002   2.1347729220541040E-002   2.8981348251764572E-002
  -6.7782982546323076E-002   2.0429497879798759E-002   2.8948520247182641E-002
  -6.5087493132919144E-002   1.9677031595793815E-002   2.9182767037137847E-002
  -8.2230654668150271E-002   2.4724986339948851E-002   2.1811159195770646E-002
  -7.9301478896093028E-002   2.3832361894743831E-002   2.1593961382322835E-002
  -7.6372303124035854E-002   2.2972574752292169E-002   2.1577061491644511E-002
  -7.3443127351978638E-002   2.2145624912593663E-002   2.1760459523735579E-002
  -7.0513951579921366E-002   2.1351512375648640E-002   2.2144155478596050E-002
  -8.8307991513418740E-002   2.5768485607659153E-002   1.4197690633006022E-002
  -8.5211906254475875E-002   2.5232998171466764E-002   1.4197344845782445E-002
  -8.2115820995533106E-002   2.4597420284043367E-002   1.4330520109560416E-002
  -7.9019735736590269E-002   2.3861751945388868E-002   1.4597216424340288E-002
  -7.5923650477647500E-002   2.3025993155503299E-002   1.4997433790121709E-002
  -9.4101461322340180E-002   2.6811984875369427E-002   7.0078229562461833E-003
  -9.0905243448279702E-002   2.6633634448189628E-002   7.0914014412622912E-003
  -8.7709025574218891E-002   2.6222265815794420E-002   7.2417241055123260E-003
  -8.4512807700158218E-002   2.5577878978183921E-002   7.4587909489966849E-003
  -8.1316589826097560E-002   2.4700473935357820E-002   7.7426019717149325E-003
  -9.9611064094915047E-002   2.7855484143079812E-002   2.4155616549115244E-004
  -9.6381490477504106E-002   2.8034270724912380E-002   2.7613116876284982E-004
  -9.3151916860093276E-002   2.7847111347545583E-002   3.1067347950058943E-004
  -8.9922343242682390E-002   2.7294006010978866E-002   3.4518309770482924E-004
  -8.6692769625271504E-002   2.6374954715212673E-002   3.7966002337552762E-004
  -6.5087493132919144E-002   1.9677031595793815E-002   2.9182767037137847E-002
  -6.2976428889736549E-002   1.8999466337038418E-002   2.8871500152555241E-002
  -6.0865364646553982E-002   1.8305938072043892E-002   2.8731563721806574E-002
  -5.8754300403371373E-002   1.7596446800810392E-002   2.8762957744891807E-002
  -5.6643236160188792E-002   1.6870992523338069E-002   2.8965682221810840E-002
  -7.0513951579921366E-002   2.1351512375648640E-002   2.2144155478596050E-002
  -6.8230403181915408E-002   2.0575795886005124E-002   2.1844797737084740E-002
  -6.5946854783909409E-002   1.9804034188211986E-002   2.1719077851386326E-002
  -6.3663306385903395E-002   1.9036227282269270E-002   2.1766995821500615E-002
  -6.1379757987897451E-002   1.8272375168176869E-002   2.1988551647427829E-002
  -7.5923650477647500E-002   2.3025993155503299E-002   1.4997433790121709E-002
  -7.3465310522839194E-002   2.2152125434971970E-002   1.4729902989771018E-002
  -7.1006970568030847E-002   2.1302130304380190E-002   1.4638317447211925E-002
  -6.8548630613222555E-002   2.0476007763728092E-002   1.4722677162444735E-002
  -6.6090290658414208E-002   1.9673757813015641E-002   1.4982982135469405E-002
  -8.1316589826097560E-002   2.4700473935357820E-002   7.7426019717149325E-003
  -7.8681150912507936E-002   2.3728454983938663E-002   7.5268159106139480E-003
  -7.6045711998918311E-002   2.2800226420548422E-002   7.4892825092835284E-003
  -7.3410273085328687E-002   2.1915788245186942E-002   7.6300017677242461E-003
  -7.0774834171739034E-002   2.1075140457854372E-002   7.9489736859353829E-003
  -8.6692769625271504E-002   2.6374954715212673E-002   3.7966002337552762E-004
  -8.3877924350921673E-002   2.5304784532905467E-002   2.3553649961377543E-004
  -8.1063079076571731E-002   2.4298322536716571E-002   2.7197303760137514E-004
  -7.8248233802221900E-002   2.3355568726645785E-002   4.8896963733893045E-004
  -7.5433388527871958E-002   2.2476523102693102E-002   8.8652629882635114E-004
  -5.6643236160188792E-002   1.6870992523338069E-002   2.8965682221810840E-002
  -5.4163539390642834E-002   1.6141518517226311E-002   2.8586181988328740E-002
  -5.1683842621096834E-002   1.5419968060074424E-002   2.8398872663223579E-002
  -4.9204145851550800E-002   1.4706341151882664E-002   2.8403754246495799E-002
  -4.6724449082004821E-002   1.4000637792650983E-002   2.8600826738144736E-002
  -6.1379757987897451E-002   1.8272375168176869E-002   2.1988551647427829E-002
  -5.8708662526717137E-002   1.7509928614354964E-002   2.1637638293220102E-002
  -5.6037567065536815E-002   1.6746338389223681E-002   2.1477331413903886E-002
  -5.3366471604356522E-002   1.5981604492782769E-002   2.1507631009479354E-002
  -5.0695376143176180E-002   1.5215726925032758E-002   2.1728537079946209E-002
  -6.6090290658414208E-002   1.9673757813015641E-002   1.4982982135469405E-002
  -6.3229380939085186E-002   1.8878338711483630E-002   1.4651588440266747E-002
  -6.0368471219756040E-002   1.8072708718372757E-002   1.4509216786470144E-002
  -5.7507561500426942E-002   1.7256867833683093E-002   1.4555867174079487E-002
  -5.4646651781097878E-002   1.6430816057414838E-002   1.4791539603094692E-002
  -7.0774834171739034E-002   2.1075140457854372E-002   7.9489736859353829E-003
  -6.7725694627746760E-002   2.0246748808611957E-002   7.6280324294684607E-003
  -6.4676555083754403E-002   1.9399079047521924E-002   7.4945287809221987E-003
  -6.1627415539762150E-002   1.8532131174583251E-002   7.5484627402960750E-003
  -5.8578275995769778E-002   1.7645905189796543E-002   7.7898343075903827E-003
  -7.5433388527871958E-002   2.2476523102693102E-002   8.8652629882635114E-004
  -7.2197603592702053E-002   2.1615158905740839E-002   5.6697026082536128E-004
  -6.8961818657532037E-002   2.0725449376670979E-002   4.3326739725979557E-004
  -6.5726033722362132E-002   1.9807394515483384E-002   4.8541770812898788E-004
  -6.2490248787192115E-002   1.8860994322178470E-002   7.2342119343271616E-004
  -4.6724449082004821E-002   1.4000637792650983E-002   2.8600826738144736E-002
  -4.4447404017679160E-002   1.3286207079650281E-002   2.8176539332427530E-002
  -4.2170358953353540E-002   1.2546398110151999E-002   2.7878113871710769E-002
  -3.9893313889027886E-002   1.1781210884155371E-002   2.7705550355994549E-002
  -3.7616268824702287E-002   1.0990645401660726E-002   2.7658848785278800E-002
  -5.0695376143176180E-002   1.5215726925032758E-002   2.1728537079946209E-002
  -4.8284715967806813E-002   1.4445239879034094E-002   2.1314927492679048E-002
  -4.5874055792437446E-002   1.3666677547847797E-002   2.1042686182498799E-002
  -4.3463395617068093E-002   1.2880039931473856E-002   2.0911813149405531E-002
  -4.1052735441698712E-002   1.2085327029912052E-002   2.0922308393398925E-002
  -5.4646651781097878E-002   1.6430816057414838E-002   1.4791539603094692E-002
  -5.2086870162598359E-002   1.5604272678418157E-002   1.4405910805587757E-002
  -4.9527088544098846E-002   1.4786956985544046E-002   1.4177156617254140E-002
  -4.6967306925599313E-002   1.3978868978792454E-002   1.4105277038094100E-002
  -4.4407525307099828E-002   1.3180008658163322E-002   1.4190272068107163E-002
  -5.8578275995769778E-002   1.7645905189796543E-002   7.7898343075903827E-003
  -5.5853866602053742E-002   1.6763305477802040E-002   7.4494892711534852E-003
  -5.3129457208337665E-002   1.5907236423240569E-002   7.2815251759770962E-003
  -5.0405047814621615E-002   1.5077698026111273E-002   7.2859420220600180E-003
  -4.7680638420905551E-002   1.4274690286414843E-002   7.4627398094026728E-003
  -6.2490248787192115E-002   1.8860994322178470E-002   7.2342119343271616E-004
  -5.9585705286173019E-002   1.7922338277185701E-002   4.4566288937669674E-004
  -5.6681161785154033E-002   1.7027515860936482E-002   3.5579185866699281E-004
  -5.3776618284134992E-002   1.6176527073429800E-002   4.5380810130369459E-004
  -5.0872074783115950E-002   1.5369371914665697E-002   7.3971161728625390E-004
  -3.7616268824702287E-002   1.0990645401660726E-002   2.7658848785278800E-002
  -3.5224201098146474E-002   1.0202655629840574E-002   2.7116143426125339E-002
  -3.2832133371590619E-002   9.4451955358665074E-003   2.6701474511700629E-002
  -3.0440065645034813E-002   8.7182651197389924E-003   2.6414842042004338E-002
  -2.8047997918478978E-002   8.0218643814576884E-003   2.6256246017036688E-002
  -4.1052735441698712E-002   1.2085327029912052E-002   2.0922308393398925E-002
  -3.8542251528113275E-002   1.1293965074958445E-002   2.0474312956267393E-002
  -3.6031767614527782E-002   1.0517380298408679E-002   2.0135113448466496E-002
  -3.3521283700942324E-002   9.7555727002628170E-003   1.9904709869996443E-002
  -3.1010799787356796E-002   9.0085422805209481E-003   1.9783102220857218E-002
  -4.4407525307099828E-002   1.3180008658163322E-002   1.4190272068107163E-002
  -4.1797865721882370E-002   1.2385274520076484E-002   1.3821234053554593E-002
  -3.9188206136664905E-002   1.1589565060950643E-002   1.3541751452935361E-002
  -3.6578546551447433E-002   1.0792880280786812E-002   1.3351824266248966E-002
  -3.3968886966230009E-002   9.9952201795842632E-003   1.3251452493495908E-002
  -4.7680638420905551E-002   1.4274690286414843E-002   7.4627398094026728E-003
  -4.4991043679453863E-002   1.3476583965194161E-002   7.1569067179871812E-003
  -4.2301448938002223E-002   1.2661749823492600E-002   6.9213885251070660E-003
  -3.9611854196550569E-002   1.1830187861310333E-002   6.7561852307620966E-003
  -3.6922259455098895E-002   1.0981898078647440E-002   6.6612968349530483E-003
  -5.0872074783115950E-002   1.5369371914665697E-002   7.3971161728625390E-004
  -4.8121785400827677E-002   1.4567893410312172E-002   4.8133094956526179E-004
  -4.5371496018539514E-002   1.3733934586034946E-002   2.7402466498166467E-004
  -4.2621206636251296E-002   1.2867495441834062E-002   1.1779276353594825E-004
  -3.9870917253963079E-002   1.1968575977710616E-002   1.2635245228098668E-005
  -2.8047997918478978E-002   8.0218643814576884E-003   2.6256246017036688E-002
  -2.5705296893090257E-002   7.3104441005606979E-003   2.5673431991583673E-002
  -2.3362595867701411E-002   6.5384550565860677E-003   2.5037236308334543E-002
  -2.1019894842312627E-002   5.7058972495330623E-003   2.4347658967289132E-002
  -1.8677193816923843E-002   4.8127706794026670E-003   2.3604699968447274E-002
  -3.1010799787356796E-002   9.0085422805209481E-003   1.9783102220857218E-002
  -2.8703667371460295E-002   8.2664365232946735E-003   1.9190067625487361E-002
  -2.6396534955563697E-002   7.5194029126954276E-003   1.8579277468929400E-002
  -2.4089402539667223E-002   6.7674414487226692E-003   1.7950731751182961E-002
  -2.1782270123770653E-002   6.0105521313774668E-003   1.7304430472248500E-002
  -3.3968886966230009E-002   9.9952201795842632E-003   1.3251452493495908E-002
  -3.1661697063217767E-002   9.2224289460285380E-003   1.2703838237913934E-002
  -2.9354507160205486E-002   8.5003507688045932E-003   1.2174094517752101E-002
  -2.7047317257193199E-002   7.8289856479127271E-003   1.1662221333009676E-002
  -2.4740127354180963E-002   7.2083335833523221E-003   1.1168218683687031E-002
  -3.6922259455098895E-002   1.0981898078647440E-002   6.6612968349530483E-003
  -3.4579385968362797E-002   1.0178421368762458E-002   6.2147438288639723E-003
  -3.2236512481626733E-002   9.4812986249144110E-003   5.8216874548027153E-003
  -2.9893638994890608E-002   8.8905298471023374E-003   5.4821277127691942E-003
  -2.7550765508154561E-002   8.4061150353273717E-003   5.1960646027637211E-003
  -3.9870917253963079E-002   1.1968575977710616E-002   1.2635245228098668E-005
  -3.7456734086895205E-002   1.1134413791496156E-002  -2.7721560166338310E-004
  -3.5042550919827331E-002   1.0462246481023341E-002  -4.7794371991899398E-004
  -3.2628367752759457E-002   9.9520740462921142E-003  -5.8954910953847028E-004
  -3.0214184585691584E-002   9.6038964873021992E-003  -6.1203177052260305E-004
  -1.8677193816923843E-002   4.8127706794026670E-003   2.3604699968447274E-002
  -1.5653912841513934E-002   4.0794548381712370E-003   2.4392189706123335E-002
  -1.2630631866104081E-002   3.7263292178162655E-003   2.5653487689016652E-002
  -9.6073508906941857E-003   3.7533938183372875E-003   2.7388593917127196E-002
  -6.5840699152843185E-003   4.1606486397349762E-003   2.9597508390454941E-002
  -2.1782270123770653E-002   6.0105521313774668E-003   1.7304430472248500E-002
  -1.8554568580754799E-002   5.3430037001561681E-003   1.8251651531998259E-002
  -1.5326867037739014E-002   4.8590648945553705E-003   1.9133905481742736E-002
  -1.2099165494723167E-002   4.5587357145760801E-003   1.9951192321481750E-002
  -8.8714639517073757E-003   4.4420161602176655E-003   2.0703512051215678E-002
  -2.4740127354180963E-002   7.2083335833523221E-003   1.1168218683687031E-002
  -2.1846780598781840E-002   6.6065525621411270E-003   1.2078590470255585E-002
  -1.8953433843382710E-002   5.9918005712950168E-003   1.2385219791595861E-002
  -1.6060087087983583E-002   5.3640776108150913E-003   1.2088106647708215E-002
  -1.3166740332584456E-002   4.7233836807005769E-003   1.1187251038592472E-002
  -2.7550765508154561E-002   8.4061150353273717E-003   5.1960646027637211E-003
  -2.5530548895594925E-002   7.8701014241257389E-003   5.8730065208954171E-003
  -2.3510332283035208E-002   7.1245362480347810E-003   5.4074306185760319E-003
  -2.1490115670475474E-002   6.1694195070538822E-003   3.7993368958059905E-003
  -1.9469899057915848E-002   5.0047512011831552E-003   1.0487253525852253E-003
  -3.0214184585691584E-002   9.6038964873021992E-003  -6.1203177052260305E-004
  -2.9605873471194033E-002   9.1336502861107949E-003  -3.6510031608294469E-004
  -2.8997562356696482E-002   8.2572719247737125E-003  -1.7994620373170678E-003
  -2.8389251242198932E-002   6.9747614032927702E-003  -4.9151169342243339E-003
  -2.7780940127701381E-002   5.2861187216661776E-003  -9.7120650068052150E-003
  -6.5840699152843185E-003   4.1606486397349762E-003   2.9597508390454941E-002
  -6.0561283775354691E-003   6.1428104758473046E-003   3.4075396026292282E-002
  -5.5281868397865919E-003   1.0894596120513300E-002   3.9238297883101625E-002
  -5.0002453020377285E-003   1.8416005573732394E-002   4.5086213960882360E-002
  -4.4723037642888652E-003   2.8707038835505294E-002   5.1619144259634542E-002
  -8.8714639517073757E-003   4.4420161602176655E-003   2.0703512051215678E-002
  -7.5860798323400119E-003   5.6588767345933100E-003   2.5872532923445546E-002
  -6.3006957129727731E-003   9.3592879408156415E-003   3.1871424737940912E-002
  -5.0153115936054857E-003   1.5543249778885077E-002   3.8700187494700888E-002
  -3.7299274742381705E-003   2.4210762248801254E-002   4.6358821193726696E-002
  -1.3166740332584456E-002   4.7233836807005769E-003   1.1187251038592472E-002
  -1.0979056910305297E-002   5.1749429933395930E-003   1.6761331970508442E-002
  -8.7913734880260344E-003   7.8239797611176776E-003   2.3310140565983573E-002
  -6.6036900657468998E-003   1.2670493984037433E-002   3.0833676825017184E-002
  -4.4160066434677236E-003   1.9714485662097214E-002   3.9331940747609262E-002
  -1.9469899057915848E-002   5.0047512011831552E-003   1.0487253525852253E-003
  -1.6235059611431259E-002   4.6910092520849600E-003   6.7417931674815246E-003
  -1.3000220164946697E-002   6.2886715814206434E-003   1.3554445367229738E-002
  -9.7653807184622590E-003   9.7977381891902852E-003   2.1486681951830049E-002
  -6.5305412719775455E-003   1.5218209075393396E-002   3.0538502921282407E-002
  -2.7780940127701381E-002   5.2861187216661776E-003  -9.7120650068052150E-003
  -2.3354087935718026E-002   4.2070755108309932E-003  -4.1860834856359830E-003
  -1.8927235743734561E-002   4.7533634017219439E-003   2.6043391416790962E-003
  -1.4500383551751095E-002   6.9249823943426658E-003   1.0659202875139516E-002
  -1.0073531359767740E-002   1.0721932488689134E-002   1.9978507714745408E-002
 </DataArray>
 </PointData>
 </Piece>
 </UnstructuredGrid>
 </VTKFile>
