 <VTKFile type="UnstructuredGrid"  version="0.1"   >
 <UnstructuredGrid>
 <Piece  NumberOfPoints="          1600 "  NumberOfCells="         1024 ">
 <Points>
 <DataArray  type="Float64" NumberOfComponents="3"  format="ascii" >
   0.0000000000000000        0.0000000000000000        0.0000000000000000     
   3.1250000000000000E-002   0.0000000000000000        0.0000000000000000     
   6.2500000000000000E-002   0.0000000000000000        0.0000000000000000     
   9.3750000000000000E-002   0.0000000000000000        0.0000000000000000     
  0.12500000000000000        0.0000000000000000        0.0000000000000000     
   0.0000000000000000        3.1250000000000000E-002   0.0000000000000000     
   3.1250000000000000E-002   3.1250000000000000E-002   0.0000000000000000     
   6.2500000000000000E-002   3.1250000000000000E-002   0.0000000000000000     
   9.3750000000000000E-002   3.1250000000000000E-002   0.0000000000000000     
  0.12500000000000000        3.1250000000000000E-002   0.0000000000000000     
   0.0000000000000000        6.2500000000000000E-002   0.0000000000000000     
   3.1250000000000000E-002   6.2500000000000000E-002   0.0000000000000000     
   6.2500000000000000E-002   6.2500000000000000E-002   0.0000000000000000     
   9.3750000000000000E-002   6.2500000000000000E-002   0.0000000000000000     
  0.12500000000000000        6.2500000000000000E-002   0.0000000000000000     
   0.0000000000000000        9.3750000000000000E-002   0.0000000000000000     
   3.1250000000000000E-002   9.3750000000000000E-002   0.0000000000000000     
   6.2500000000000000E-002   9.3750000000000000E-002   0.0000000000000000     
   9.3750000000000000E-002   9.3750000000000000E-002   0.0000000000000000     
  0.12500000000000000        9.3750000000000000E-002   0.0000000000000000     
   0.0000000000000000       0.12500000000000000        0.0000000000000000     
   3.1250000000000000E-002  0.12500000000000000        0.0000000000000000     
   6.2500000000000000E-002  0.12500000000000000        0.0000000000000000     
   9.3750000000000000E-002  0.12500000000000000        0.0000000000000000     
  0.12500000000000000       0.12500000000000000        0.0000000000000000     
  0.12500000000000000        0.0000000000000000        0.0000000000000000     
  0.15625000000000000        0.0000000000000000        0.0000000000000000     
  0.18750000000000000        0.0000000000000000        0.0000000000000000     
  0.21875000000000000        0.0000000000000000        0.0000000000000000     
  0.25000000000000000        0.0000000000000000        0.0000000000000000     
  0.12500000000000000        3.1250000000000000E-002   0.0000000000000000     
  0.15625000000000000        3.1250000000000000E-002   0.0000000000000000     
  0.18750000000000000        3.1250000000000000E-002   0.0000000000000000     
  0.21875000000000000        3.1250000000000000E-002   0.0000000000000000     
  0.25000000000000000        3.1250000000000000E-002   0.0000000000000000     
  0.12500000000000000        6.2500000000000000E-002   0.0000000000000000     
  0.15625000000000000        6.2500000000000000E-002   0.0000000000000000     
  0.18750000000000000        6.2500000000000000E-002   0.0000000000000000     
  0.21875000000000000        6.2500000000000000E-002   0.0000000000000000     
  0.25000000000000000        6.2500000000000000E-002   0.0000000000000000     
  0.12500000000000000        9.3750000000000000E-002   0.0000000000000000     
  0.15625000000000000        9.3750000000000000E-002   0.0000000000000000     
  0.18750000000000000        9.3750000000000000E-002   0.0000000000000000     
  0.21875000000000000        9.3750000000000000E-002   0.0000000000000000     
  0.25000000000000000        9.3750000000000000E-002   0.0000000000000000     
  0.12500000000000000       0.12500000000000000        0.0000000000000000     
  0.15625000000000000       0.12500000000000000        0.0000000000000000     
  0.18750000000000000       0.12500000000000000        0.0000000000000000     
  0.21875000000000000       0.12500000000000000        0.0000000000000000     
  0.25000000000000000       0.12500000000000000        0.0000000000000000     
  0.25000000000000000        0.0000000000000000        0.0000000000000000     
  0.28125000000000000        0.0000000000000000        0.0000000000000000     
  0.31250000000000000        0.0000000000000000        0.0000000000000000     
  0.34375000000000000        0.0000000000000000        0.0000000000000000     
  0.37500000000000000        0.0000000000000000        0.0000000000000000     
  0.25000000000000000        3.1250000000000000E-002   0.0000000000000000     
  0.28125000000000000        3.1250000000000000E-002   0.0000000000000000     
  0.31250000000000000        3.1250000000000000E-002   0.0000000000000000     
  0.34375000000000000        3.1250000000000000E-002   0.0000000000000000     
  0.37500000000000000        3.1250000000000000E-002   0.0000000000000000     
  0.25000000000000000        6.2500000000000000E-002   0.0000000000000000     
  0.28125000000000000        6.2500000000000000E-002   0.0000000000000000     
  0.31250000000000000        6.2500000000000000E-002   0.0000000000000000     
  0.34375000000000000        6.2500000000000000E-002   0.0000000000000000     
  0.37500000000000000        6.2500000000000000E-002   0.0000000000000000     
  0.25000000000000000        9.3750000000000000E-002   0.0000000000000000     
  0.28125000000000000        9.3750000000000000E-002   0.0000000000000000     
  0.31250000000000000        9.3750000000000000E-002   0.0000000000000000     
  0.34375000000000000        9.3750000000000000E-002   0.0000000000000000     
  0.37500000000000000        9.3750000000000000E-002   0.0000000000000000     
  0.25000000000000000       0.12500000000000000        0.0000000000000000     
  0.28125000000000000       0.12500000000000000        0.0000000000000000     
  0.31250000000000000       0.12500000000000000        0.0000000000000000     
  0.34375000000000000       0.12500000000000000        0.0000000000000000     
  0.37500000000000000       0.12500000000000000        0.0000000000000000     
  0.37500000000000000        0.0000000000000000        0.0000000000000000     
  0.40625000000000000        0.0000000000000000        0.0000000000000000     
  0.43750000000000000        0.0000000000000000        0.0000000000000000     
  0.46875000000000000        0.0000000000000000        0.0000000000000000     
  0.50000000000000000        0.0000000000000000        0.0000000000000000     
  0.37500000000000000        3.1250000000000000E-002   0.0000000000000000     
  0.40625000000000000        3.1250000000000000E-002   0.0000000000000000     
  0.43750000000000000        3.1250000000000000E-002   0.0000000000000000     
  0.46875000000000000        3.1250000000000000E-002   0.0000000000000000     
  0.50000000000000000        3.1250000000000000E-002   0.0000000000000000     
  0.37500000000000000        6.2500000000000000E-002   0.0000000000000000     
  0.40625000000000000        6.2500000000000000E-002   0.0000000000000000     
  0.43750000000000000        6.2500000000000000E-002   0.0000000000000000     
  0.46875000000000000        6.2500000000000000E-002   0.0000000000000000     
  0.50000000000000000        6.2500000000000000E-002   0.0000000000000000     
  0.37500000000000000        9.3750000000000000E-002   0.0000000000000000     
  0.40625000000000000        9.3750000000000000E-002   0.0000000000000000     
  0.43750000000000000        9.3750000000000000E-002   0.0000000000000000     
  0.46875000000000000        9.3750000000000000E-002   0.0000000000000000     
  0.50000000000000000        9.3750000000000000E-002   0.0000000000000000     
  0.37500000000000000       0.12500000000000000        0.0000000000000000     
  0.40625000000000000       0.12500000000000000        0.0000000000000000     
  0.43750000000000000       0.12500000000000000        0.0000000000000000     
  0.46875000000000000       0.12500000000000000        0.0000000000000000     
  0.50000000000000000       0.12500000000000000        0.0000000000000000     
  0.50000000000000000        0.0000000000000000        0.0000000000000000     
  0.53125000000000000        0.0000000000000000        0.0000000000000000     
  0.56250000000000000        0.0000000000000000        0.0000000000000000     
  0.59375000000000000        0.0000000000000000        0.0000000000000000     
  0.62500000000000000        0.0000000000000000        0.0000000000000000     
  0.50000000000000000        3.1250000000000000E-002   0.0000000000000000     
  0.53125000000000000        3.1250000000000000E-002   0.0000000000000000     
  0.56250000000000000        3.1250000000000000E-002   0.0000000000000000     
  0.59375000000000000        3.1250000000000000E-002   0.0000000000000000     
  0.62500000000000000        3.1250000000000000E-002   0.0000000000000000     
  0.50000000000000000        6.2500000000000000E-002   0.0000000000000000     
  0.53125000000000000        6.2500000000000000E-002   0.0000000000000000     
  0.56250000000000000        6.2500000000000000E-002   0.0000000000000000     
  0.59375000000000000        6.2500000000000000E-002   0.0000000000000000     
  0.62500000000000000        6.2500000000000000E-002   0.0000000000000000     
  0.50000000000000000        9.3750000000000000E-002   0.0000000000000000     
  0.53125000000000000        9.3750000000000000E-002   0.0000000000000000     
  0.56250000000000000        9.3750000000000000E-002   0.0000000000000000     
  0.59375000000000000        9.3750000000000000E-002   0.0000000000000000     
  0.62500000000000000        9.3750000000000000E-002   0.0000000000000000     
  0.50000000000000000       0.12500000000000000        0.0000000000000000     
  0.53125000000000000       0.12500000000000000        0.0000000000000000     
  0.56250000000000000       0.12500000000000000        0.0000000000000000     
  0.59375000000000000       0.12500000000000000        0.0000000000000000     
  0.62500000000000000       0.12500000000000000        0.0000000000000000     
  0.62500000000000000        0.0000000000000000        0.0000000000000000     
  0.65625000000000000        0.0000000000000000        0.0000000000000000     
  0.68750000000000000        0.0000000000000000        0.0000000000000000     
  0.71875000000000000        0.0000000000000000        0.0000000000000000     
  0.75000000000000000        0.0000000000000000        0.0000000000000000     
  0.62500000000000000        3.1250000000000000E-002   0.0000000000000000     
  0.65625000000000000        3.1250000000000000E-002   0.0000000000000000     
  0.68750000000000000        3.1250000000000000E-002   0.0000000000000000     
  0.71875000000000000        3.1250000000000000E-002   0.0000000000000000     
  0.75000000000000000        3.1250000000000000E-002   0.0000000000000000     
  0.62500000000000000        6.2500000000000000E-002   0.0000000000000000     
  0.65625000000000000        6.2500000000000000E-002   0.0000000000000000     
  0.68750000000000000        6.2500000000000000E-002   0.0000000000000000     
  0.71875000000000000        6.2500000000000000E-002   0.0000000000000000     
  0.75000000000000000        6.2500000000000000E-002   0.0000000000000000     
  0.62500000000000000        9.3750000000000000E-002   0.0000000000000000     
  0.65625000000000000        9.3750000000000000E-002   0.0000000000000000     
  0.68750000000000000        9.3750000000000000E-002   0.0000000000000000     
  0.71875000000000000        9.3750000000000000E-002   0.0000000000000000     
  0.75000000000000000        9.3750000000000000E-002   0.0000000000000000     
  0.62500000000000000       0.12500000000000000        0.0000000000000000     
  0.65625000000000000       0.12500000000000000        0.0000000000000000     
  0.68750000000000000       0.12500000000000000        0.0000000000000000     
  0.71875000000000000       0.12500000000000000        0.0000000000000000     
  0.75000000000000000       0.12500000000000000        0.0000000000000000     
  0.75000000000000000        0.0000000000000000        0.0000000000000000     
  0.78125000000000000        0.0000000000000000        0.0000000000000000     
  0.81250000000000000        0.0000000000000000        0.0000000000000000     
  0.84375000000000000        0.0000000000000000        0.0000000000000000     
  0.87500000000000000        0.0000000000000000        0.0000000000000000     
  0.75000000000000000        3.1250000000000000E-002   0.0000000000000000     
  0.78125000000000000        3.1250000000000000E-002   0.0000000000000000     
  0.81250000000000000        3.1250000000000000E-002   0.0000000000000000     
  0.84375000000000000        3.1250000000000000E-002   0.0000000000000000     
  0.87500000000000000        3.1250000000000000E-002   0.0000000000000000     
  0.75000000000000000        6.2500000000000000E-002   0.0000000000000000     
  0.78125000000000000        6.2500000000000000E-002   0.0000000000000000     
  0.81250000000000000        6.2500000000000000E-002   0.0000000000000000     
  0.84375000000000000        6.2500000000000000E-002   0.0000000000000000     
  0.87500000000000000        6.2500000000000000E-002   0.0000000000000000     
  0.75000000000000000        9.3750000000000000E-002   0.0000000000000000     
  0.78125000000000000        9.3750000000000000E-002   0.0000000000000000     
  0.81250000000000000        9.3750000000000000E-002   0.0000000000000000     
  0.84375000000000000        9.3750000000000000E-002   0.0000000000000000     
  0.87500000000000000        9.3750000000000000E-002   0.0000000000000000     
  0.75000000000000000       0.12500000000000000        0.0000000000000000     
  0.78125000000000000       0.12500000000000000        0.0000000000000000     
  0.81250000000000000       0.12500000000000000        0.0000000000000000     
  0.84375000000000000       0.12500000000000000        0.0000000000000000     
  0.87500000000000000       0.12500000000000000        0.0000000000000000     
  0.87500000000000000        0.0000000000000000        0.0000000000000000     
  0.90625000000000000        0.0000000000000000        0.0000000000000000     
  0.93750000000000000        0.0000000000000000        0.0000000000000000     
  0.96875000000000000        0.0000000000000000        0.0000000000000000     
   1.0000000000000000        0.0000000000000000        0.0000000000000000     
  0.87500000000000000        3.1250000000000000E-002   0.0000000000000000     
  0.90625000000000000        3.1250000000000000E-002   0.0000000000000000     
  0.93750000000000000        3.1250000000000000E-002   0.0000000000000000     
  0.96875000000000000        3.1250000000000000E-002   0.0000000000000000     
   1.0000000000000000        3.1250000000000000E-002   0.0000000000000000     
  0.87500000000000000        6.2500000000000000E-002   0.0000000000000000     
  0.90625000000000000        6.2500000000000000E-002   0.0000000000000000     
  0.93750000000000000        6.2500000000000000E-002   0.0000000000000000     
  0.96875000000000000        6.2500000000000000E-002   0.0000000000000000     
   1.0000000000000000        6.2500000000000000E-002   0.0000000000000000     
  0.87500000000000000        9.3750000000000000E-002   0.0000000000000000     
  0.90625000000000000        9.3750000000000000E-002   0.0000000000000000     
  0.93750000000000000        9.3750000000000000E-002   0.0000000000000000     
  0.96875000000000000        9.3750000000000000E-002   0.0000000000000000     
   1.0000000000000000        9.3750000000000000E-002   0.0000000000000000     
  0.87500000000000000       0.12500000000000000        0.0000000000000000     
  0.90625000000000000       0.12500000000000000        0.0000000000000000     
  0.93750000000000000       0.12500000000000000        0.0000000000000000     
  0.96875000000000000       0.12500000000000000        0.0000000000000000     
   1.0000000000000000       0.12500000000000000        0.0000000000000000     
   0.0000000000000000       0.12500000000000000        0.0000000000000000     
   3.1250000000000000E-002  0.12500000000000000        0.0000000000000000     
   6.2500000000000000E-002  0.12500000000000000        0.0000000000000000     
   9.3750000000000000E-002  0.12500000000000000        0.0000000000000000     
  0.12500000000000000       0.12500000000000000        0.0000000000000000     
   0.0000000000000000       0.15625000000000000        0.0000000000000000     
   3.1250000000000000E-002  0.15625000000000000        0.0000000000000000     
   6.2500000000000000E-002  0.15625000000000000        0.0000000000000000     
   9.3750000000000000E-002  0.15625000000000000        0.0000000000000000     
  0.12500000000000000       0.15625000000000000        0.0000000000000000     
   0.0000000000000000       0.18750000000000000        0.0000000000000000     
   3.1250000000000000E-002  0.18750000000000000        0.0000000000000000     
   6.2500000000000000E-002  0.18750000000000000        0.0000000000000000     
   9.3750000000000000E-002  0.18750000000000000        0.0000000000000000     
  0.12500000000000000       0.18750000000000000        0.0000000000000000     
   0.0000000000000000       0.21875000000000000        0.0000000000000000     
   3.1250000000000000E-002  0.21875000000000000        0.0000000000000000     
   6.2500000000000000E-002  0.21875000000000000        0.0000000000000000     
   9.3750000000000000E-002  0.21875000000000000        0.0000000000000000     
  0.12500000000000000       0.21875000000000000        0.0000000000000000     
   0.0000000000000000       0.25000000000000000        0.0000000000000000     
   3.1250000000000000E-002  0.25000000000000000        0.0000000000000000     
   6.2500000000000000E-002  0.25000000000000000        0.0000000000000000     
   9.3750000000000000E-002  0.25000000000000000        0.0000000000000000     
  0.12500000000000000       0.25000000000000000        0.0000000000000000     
  0.12500000000000000       0.12500000000000000        0.0000000000000000     
  0.15625000000000000       0.12500000000000000        0.0000000000000000     
  0.18750000000000000       0.12500000000000000        0.0000000000000000     
  0.21875000000000000       0.12500000000000000        0.0000000000000000     
  0.25000000000000000       0.12500000000000000        0.0000000000000000     
  0.12500000000000000       0.15625000000000000        0.0000000000000000     
  0.15625000000000000       0.15625000000000000        0.0000000000000000     
  0.18750000000000000       0.15625000000000000        0.0000000000000000     
  0.21875000000000000       0.15625000000000000        0.0000000000000000     
  0.25000000000000000       0.15625000000000000        0.0000000000000000     
  0.12500000000000000       0.18750000000000000        0.0000000000000000     
  0.15625000000000000       0.18750000000000000        0.0000000000000000     
  0.18750000000000000       0.18750000000000000        0.0000000000000000     
  0.21875000000000000       0.18750000000000000        0.0000000000000000     
  0.25000000000000000       0.18750000000000000        0.0000000000000000     
  0.12500000000000000       0.21875000000000000        0.0000000000000000     
  0.15625000000000000       0.21875000000000000        0.0000000000000000     
  0.18750000000000000       0.21875000000000000        0.0000000000000000     
  0.21875000000000000       0.21875000000000000        0.0000000000000000     
  0.25000000000000000       0.21875000000000000        0.0000000000000000     
  0.12500000000000000       0.25000000000000000        0.0000000000000000     
  0.15625000000000000       0.25000000000000000        0.0000000000000000     
  0.18750000000000000       0.25000000000000000        0.0000000000000000     
  0.21875000000000000       0.25000000000000000        0.0000000000000000     
  0.25000000000000000       0.25000000000000000        0.0000000000000000     
  0.25000000000000000       0.12500000000000000        0.0000000000000000     
  0.28125000000000000       0.12500000000000000        0.0000000000000000     
  0.31250000000000000       0.12500000000000000        0.0000000000000000     
  0.34375000000000000       0.12500000000000000        0.0000000000000000     
  0.37500000000000000       0.12500000000000000        0.0000000000000000     
  0.25000000000000000       0.15625000000000000        0.0000000000000000     
  0.28125000000000000       0.15625000000000000        0.0000000000000000     
  0.31250000000000000       0.15625000000000000        0.0000000000000000     
  0.34375000000000000       0.15625000000000000        0.0000000000000000     
  0.37500000000000000       0.15625000000000000        0.0000000000000000     
  0.25000000000000000       0.18750000000000000        0.0000000000000000     
  0.28125000000000000       0.18750000000000000        0.0000000000000000     
  0.31250000000000000       0.18750000000000000        0.0000000000000000     
  0.34375000000000000       0.18750000000000000        0.0000000000000000     
  0.37500000000000000       0.18750000000000000        0.0000000000000000     
  0.25000000000000000       0.21875000000000000        0.0000000000000000     
  0.28125000000000000       0.21875000000000000        0.0000000000000000     
  0.31250000000000000       0.21875000000000000        0.0000000000000000     
  0.34375000000000000       0.21875000000000000        0.0000000000000000     
  0.37500000000000000       0.21875000000000000        0.0000000000000000     
  0.25000000000000000       0.25000000000000000        0.0000000000000000     
  0.28125000000000000       0.25000000000000000        0.0000000000000000     
  0.31250000000000000       0.25000000000000000        0.0000000000000000     
  0.34375000000000000       0.25000000000000000        0.0000000000000000     
  0.37500000000000000       0.25000000000000000        0.0000000000000000     
  0.37500000000000000       0.12500000000000000        0.0000000000000000     
  0.40625000000000000       0.12500000000000000        0.0000000000000000     
  0.43750000000000000       0.12500000000000000        0.0000000000000000     
  0.46875000000000000       0.12500000000000000        0.0000000000000000     
  0.50000000000000000       0.12500000000000000        0.0000000000000000     
  0.37500000000000000       0.15625000000000000        0.0000000000000000     
  0.40625000000000000       0.15625000000000000        0.0000000000000000     
  0.43750000000000000       0.15625000000000000        0.0000000000000000     
  0.46875000000000000       0.15625000000000000        0.0000000000000000     
  0.50000000000000000       0.15625000000000000        0.0000000000000000     
  0.37500000000000000       0.18750000000000000        0.0000000000000000     
  0.40625000000000000       0.18750000000000000        0.0000000000000000     
  0.43750000000000000       0.18750000000000000        0.0000000000000000     
  0.46875000000000000       0.18750000000000000        0.0000000000000000     
  0.50000000000000000       0.18750000000000000        0.0000000000000000     
  0.37500000000000000       0.21875000000000000        0.0000000000000000     
  0.40625000000000000       0.21875000000000000        0.0000000000000000     
  0.43750000000000000       0.21875000000000000        0.0000000000000000     
  0.46875000000000000       0.21875000000000000        0.0000000000000000     
  0.50000000000000000       0.21875000000000000        0.0000000000000000     
  0.37500000000000000       0.25000000000000000        0.0000000000000000     
  0.40625000000000000       0.25000000000000000        0.0000000000000000     
  0.43750000000000000       0.25000000000000000        0.0000000000000000     
  0.46875000000000000       0.25000000000000000        0.0000000000000000     
  0.50000000000000000       0.25000000000000000        0.0000000000000000     
  0.50000000000000000       0.12500000000000000        0.0000000000000000     
  0.53125000000000000       0.12500000000000000        0.0000000000000000     
  0.56250000000000000       0.12500000000000000        0.0000000000000000     
  0.59375000000000000       0.12500000000000000        0.0000000000000000     
  0.62500000000000000       0.12500000000000000        0.0000000000000000     
  0.50000000000000000       0.15625000000000000        0.0000000000000000     
  0.53125000000000000       0.15625000000000000        0.0000000000000000     
  0.56250000000000000       0.15625000000000000        0.0000000000000000     
  0.59375000000000000       0.15625000000000000        0.0000000000000000     
  0.62500000000000000       0.15625000000000000        0.0000000000000000     
  0.50000000000000000       0.18750000000000000        0.0000000000000000     
  0.53125000000000000       0.18750000000000000        0.0000000000000000     
  0.56250000000000000       0.18750000000000000        0.0000000000000000     
  0.59375000000000000       0.18750000000000000        0.0000000000000000     
  0.62500000000000000       0.18750000000000000        0.0000000000000000     
  0.50000000000000000       0.21875000000000000        0.0000000000000000     
  0.53125000000000000       0.21875000000000000        0.0000000000000000     
  0.56250000000000000       0.21875000000000000        0.0000000000000000     
  0.59375000000000000       0.21875000000000000        0.0000000000000000     
  0.62500000000000000       0.21875000000000000        0.0000000000000000     
  0.50000000000000000       0.25000000000000000        0.0000000000000000     
  0.53125000000000000       0.25000000000000000        0.0000000000000000     
  0.56250000000000000       0.25000000000000000        0.0000000000000000     
  0.59375000000000000       0.25000000000000000        0.0000000000000000     
  0.62500000000000000       0.25000000000000000        0.0000000000000000     
  0.62500000000000000       0.12500000000000000        0.0000000000000000     
  0.65625000000000000       0.12500000000000000        0.0000000000000000     
  0.68750000000000000       0.12500000000000000        0.0000000000000000     
  0.71875000000000000       0.12500000000000000        0.0000000000000000     
  0.75000000000000000       0.12500000000000000        0.0000000000000000     
  0.62500000000000000       0.15625000000000000        0.0000000000000000     
  0.65625000000000000       0.15625000000000000        0.0000000000000000     
  0.68750000000000000       0.15625000000000000        0.0000000000000000     
  0.71875000000000000       0.15625000000000000        0.0000000000000000     
  0.75000000000000000       0.15625000000000000        0.0000000000000000     
  0.62500000000000000       0.18750000000000000        0.0000000000000000     
  0.65625000000000000       0.18750000000000000        0.0000000000000000     
  0.68750000000000000       0.18750000000000000        0.0000000000000000     
  0.71875000000000000       0.18750000000000000        0.0000000000000000     
  0.75000000000000000       0.18750000000000000        0.0000000000000000     
  0.62500000000000000       0.21875000000000000        0.0000000000000000     
  0.65625000000000000       0.21875000000000000        0.0000000000000000     
  0.68750000000000000       0.21875000000000000        0.0000000000000000     
  0.71875000000000000       0.21875000000000000        0.0000000000000000     
  0.75000000000000000       0.21875000000000000        0.0000000000000000     
  0.62500000000000000       0.25000000000000000        0.0000000000000000     
  0.65625000000000000       0.25000000000000000        0.0000000000000000     
  0.68750000000000000       0.25000000000000000        0.0000000000000000     
  0.71875000000000000       0.25000000000000000        0.0000000000000000     
  0.75000000000000000       0.25000000000000000        0.0000000000000000     
  0.75000000000000000       0.12500000000000000        0.0000000000000000     
  0.78125000000000000       0.12500000000000000        0.0000000000000000     
  0.81250000000000000       0.12500000000000000        0.0000000000000000     
  0.84375000000000000       0.12500000000000000        0.0000000000000000     
  0.87500000000000000       0.12500000000000000        0.0000000000000000     
  0.75000000000000000       0.15625000000000000        0.0000000000000000     
  0.78125000000000000       0.15625000000000000        0.0000000000000000     
  0.81250000000000000       0.15625000000000000        0.0000000000000000     
  0.84375000000000000       0.15625000000000000        0.0000000000000000     
  0.87500000000000000       0.15625000000000000        0.0000000000000000     
  0.75000000000000000       0.18750000000000000        0.0000000000000000     
  0.78125000000000000       0.18750000000000000        0.0000000000000000     
  0.81250000000000000       0.18750000000000000        0.0000000000000000     
  0.84375000000000000       0.18750000000000000        0.0000000000000000     
  0.87500000000000000       0.18750000000000000        0.0000000000000000     
  0.75000000000000000       0.21875000000000000        0.0000000000000000     
  0.78125000000000000       0.21875000000000000        0.0000000000000000     
  0.81250000000000000       0.21875000000000000        0.0000000000000000     
  0.84375000000000000       0.21875000000000000        0.0000000000000000     
  0.87500000000000000       0.21875000000000000        0.0000000000000000     
  0.75000000000000000       0.25000000000000000        0.0000000000000000     
  0.78125000000000000       0.25000000000000000        0.0000000000000000     
  0.81250000000000000       0.25000000000000000        0.0000000000000000     
  0.84375000000000000       0.25000000000000000        0.0000000000000000     
  0.87500000000000000       0.25000000000000000        0.0000000000000000     
  0.87500000000000000       0.12500000000000000        0.0000000000000000     
  0.90625000000000000       0.12500000000000000        0.0000000000000000     
  0.93750000000000000       0.12500000000000000        0.0000000000000000     
  0.96875000000000000       0.12500000000000000        0.0000000000000000     
   1.0000000000000000       0.12500000000000000        0.0000000000000000     
  0.87500000000000000       0.15625000000000000        0.0000000000000000     
  0.90625000000000000       0.15625000000000000        0.0000000000000000     
  0.93750000000000000       0.15625000000000000        0.0000000000000000     
  0.96875000000000000       0.15625000000000000        0.0000000000000000     
   1.0000000000000000       0.15625000000000000        0.0000000000000000     
  0.87500000000000000       0.18750000000000000        0.0000000000000000     
  0.90625000000000000       0.18750000000000000        0.0000000000000000     
  0.93750000000000000       0.18750000000000000        0.0000000000000000     
  0.96875000000000000       0.18750000000000000        0.0000000000000000     
   1.0000000000000000       0.18750000000000000        0.0000000000000000     
  0.87500000000000000       0.21875000000000000        0.0000000000000000     
  0.90625000000000000       0.21875000000000000        0.0000000000000000     
  0.93750000000000000       0.21875000000000000        0.0000000000000000     
  0.96875000000000000       0.21875000000000000        0.0000000000000000     
   1.0000000000000000       0.21875000000000000        0.0000000000000000     
  0.87500000000000000       0.25000000000000000        0.0000000000000000     
  0.90625000000000000       0.25000000000000000        0.0000000000000000     
  0.93750000000000000       0.25000000000000000        0.0000000000000000     
  0.96875000000000000       0.25000000000000000        0.0000000000000000     
   1.0000000000000000       0.25000000000000000        0.0000000000000000     
   0.0000000000000000       0.25000000000000000        0.0000000000000000     
   3.1250000000000000E-002  0.25000000000000000        0.0000000000000000     
   6.2500000000000000E-002  0.25000000000000000        0.0000000000000000     
   9.3750000000000000E-002  0.25000000000000000        0.0000000000000000     
  0.12500000000000000       0.25000000000000000        0.0000000000000000     
   0.0000000000000000       0.28125000000000000        0.0000000000000000     
   3.1250000000000000E-002  0.28125000000000000        0.0000000000000000     
   6.2500000000000000E-002  0.28125000000000000        0.0000000000000000     
   9.3750000000000000E-002  0.28125000000000000        0.0000000000000000     
  0.12500000000000000       0.28125000000000000        0.0000000000000000     
   0.0000000000000000       0.31250000000000000        0.0000000000000000     
   3.1250000000000000E-002  0.31250000000000000        0.0000000000000000     
   6.2500000000000000E-002  0.31250000000000000        0.0000000000000000     
   9.3750000000000000E-002  0.31250000000000000        0.0000000000000000     
  0.12500000000000000       0.31250000000000000        0.0000000000000000     
   0.0000000000000000       0.34375000000000000        0.0000000000000000     
   3.1250000000000000E-002  0.34375000000000000        0.0000000000000000     
   6.2500000000000000E-002  0.34375000000000000        0.0000000000000000     
   9.3750000000000000E-002  0.34375000000000000        0.0000000000000000     
  0.12500000000000000       0.34375000000000000        0.0000000000000000     
   0.0000000000000000       0.37500000000000000        0.0000000000000000     
   3.1250000000000000E-002  0.37500000000000000        0.0000000000000000     
   6.2500000000000000E-002  0.37500000000000000        0.0000000000000000     
   9.3750000000000000E-002  0.37500000000000000        0.0000000000000000     
  0.12500000000000000       0.37500000000000000        0.0000000000000000     
  0.12500000000000000       0.25000000000000000        0.0000000000000000     
  0.15625000000000000       0.25000000000000000        0.0000000000000000     
  0.18750000000000000       0.25000000000000000        0.0000000000000000     
  0.21875000000000000       0.25000000000000000        0.0000000000000000     
  0.25000000000000000       0.25000000000000000        0.0000000000000000     
  0.12500000000000000       0.28125000000000000        0.0000000000000000     
  0.15625000000000000       0.28125000000000000        0.0000000000000000     
  0.18750000000000000       0.28125000000000000        0.0000000000000000     
  0.21875000000000000       0.28125000000000000        0.0000000000000000     
  0.25000000000000000       0.28125000000000000        0.0000000000000000     
  0.12500000000000000       0.31250000000000000        0.0000000000000000     
  0.15625000000000000       0.31250000000000000        0.0000000000000000     
  0.18750000000000000       0.31250000000000000        0.0000000000000000     
  0.21875000000000000       0.31250000000000000        0.0000000000000000     
  0.25000000000000000       0.31250000000000000        0.0000000000000000     
  0.12500000000000000       0.34375000000000000        0.0000000000000000     
  0.15625000000000000       0.34375000000000000        0.0000000000000000     
  0.18750000000000000       0.34375000000000000        0.0000000000000000     
  0.21875000000000000       0.34375000000000000        0.0000000000000000     
  0.25000000000000000       0.34375000000000000        0.0000000000000000     
  0.12500000000000000       0.37500000000000000        0.0000000000000000     
  0.15625000000000000       0.37500000000000000        0.0000000000000000     
  0.18750000000000000       0.37500000000000000        0.0000000000000000     
  0.21875000000000000       0.37500000000000000        0.0000000000000000     
  0.25000000000000000       0.37500000000000000        0.0000000000000000     
  0.25000000000000000       0.25000000000000000        0.0000000000000000     
  0.28125000000000000       0.25000000000000000        0.0000000000000000     
  0.31250000000000000       0.25000000000000000        0.0000000000000000     
  0.34375000000000000       0.25000000000000000        0.0000000000000000     
  0.37500000000000000       0.25000000000000000        0.0000000000000000     
  0.25000000000000000       0.28125000000000000        0.0000000000000000     
  0.28125000000000000       0.28125000000000000        0.0000000000000000     
  0.31250000000000000       0.28125000000000000        0.0000000000000000     
  0.34375000000000000       0.28125000000000000        0.0000000000000000     
  0.37500000000000000       0.28125000000000000        0.0000000000000000     
  0.25000000000000000       0.31250000000000000        0.0000000000000000     
  0.28125000000000000       0.31250000000000000        0.0000000000000000     
  0.31250000000000000       0.31250000000000000        0.0000000000000000     
  0.34375000000000000       0.31250000000000000        0.0000000000000000     
  0.37500000000000000       0.31250000000000000        0.0000000000000000     
  0.25000000000000000       0.34375000000000000        0.0000000000000000     
  0.28125000000000000       0.34375000000000000        0.0000000000000000     
  0.31250000000000000       0.34375000000000000        0.0000000000000000     
  0.34375000000000000       0.34375000000000000        0.0000000000000000     
  0.37500000000000000       0.34375000000000000        0.0000000000000000     
  0.25000000000000000       0.37500000000000000        0.0000000000000000     
  0.28125000000000000       0.37500000000000000        0.0000000000000000     
  0.31250000000000000       0.37500000000000000        0.0000000000000000     
  0.34375000000000000       0.37500000000000000        0.0000000000000000     
  0.37500000000000000       0.37500000000000000        0.0000000000000000     
  0.37500000000000000       0.25000000000000000        0.0000000000000000     
  0.40625000000000000       0.25000000000000000        0.0000000000000000     
  0.43750000000000000       0.25000000000000000        0.0000000000000000     
  0.46875000000000000       0.25000000000000000        0.0000000000000000     
  0.50000000000000000       0.25000000000000000        0.0000000000000000     
  0.37500000000000000       0.28125000000000000        0.0000000000000000     
  0.40625000000000000       0.28125000000000000        0.0000000000000000     
  0.43750000000000000       0.28125000000000000        0.0000000000000000     
  0.46875000000000000       0.28125000000000000        0.0000000000000000     
  0.50000000000000000       0.28125000000000000        0.0000000000000000     
  0.37500000000000000       0.31250000000000000        0.0000000000000000     
  0.40625000000000000       0.31250000000000000        0.0000000000000000     
  0.43750000000000000       0.31250000000000000        0.0000000000000000     
  0.46875000000000000       0.31250000000000000        0.0000000000000000     
  0.50000000000000000       0.31250000000000000        0.0000000000000000     
  0.37500000000000000       0.34375000000000000        0.0000000000000000     
  0.40625000000000000       0.34375000000000000        0.0000000000000000     
  0.43750000000000000       0.34375000000000000        0.0000000000000000     
  0.46875000000000000       0.34375000000000000        0.0000000000000000     
  0.50000000000000000       0.34375000000000000        0.0000000000000000     
  0.37500000000000000       0.37500000000000000        0.0000000000000000     
  0.40625000000000000       0.37500000000000000        0.0000000000000000     
  0.43750000000000000       0.37500000000000000        0.0000000000000000     
  0.46875000000000000       0.37500000000000000        0.0000000000000000     
  0.50000000000000000       0.37500000000000000        0.0000000000000000     
  0.50000000000000000       0.25000000000000000        0.0000000000000000     
  0.53125000000000000       0.25000000000000000        0.0000000000000000     
  0.56250000000000000       0.25000000000000000        0.0000000000000000     
  0.59375000000000000       0.25000000000000000        0.0000000000000000     
  0.62500000000000000       0.25000000000000000        0.0000000000000000     
  0.50000000000000000       0.28125000000000000        0.0000000000000000     
  0.53125000000000000       0.28125000000000000        0.0000000000000000     
  0.56250000000000000       0.28125000000000000        0.0000000000000000     
  0.59375000000000000       0.28125000000000000        0.0000000000000000     
  0.62500000000000000       0.28125000000000000        0.0000000000000000     
  0.50000000000000000       0.31250000000000000        0.0000000000000000     
  0.53125000000000000       0.31250000000000000        0.0000000000000000     
  0.56250000000000000       0.31250000000000000        0.0000000000000000     
  0.59375000000000000       0.31250000000000000        0.0000000000000000     
  0.62500000000000000       0.31250000000000000        0.0000000000000000     
  0.50000000000000000       0.34375000000000000        0.0000000000000000     
  0.53125000000000000       0.34375000000000000        0.0000000000000000     
  0.56250000000000000       0.34375000000000000        0.0000000000000000     
  0.59375000000000000       0.34375000000000000        0.0000000000000000     
  0.62500000000000000       0.34375000000000000        0.0000000000000000     
  0.50000000000000000       0.37500000000000000        0.0000000000000000     
  0.53125000000000000       0.37500000000000000        0.0000000000000000     
  0.56250000000000000       0.37500000000000000        0.0000000000000000     
  0.59375000000000000       0.37500000000000000        0.0000000000000000     
  0.62500000000000000       0.37500000000000000        0.0000000000000000     
  0.62500000000000000       0.25000000000000000        0.0000000000000000     
  0.65625000000000000       0.25000000000000000        0.0000000000000000     
  0.68750000000000000       0.25000000000000000        0.0000000000000000     
  0.71875000000000000       0.25000000000000000        0.0000000000000000     
  0.75000000000000000       0.25000000000000000        0.0000000000000000     
  0.62500000000000000       0.28125000000000000        0.0000000000000000     
  0.65625000000000000       0.28125000000000000        0.0000000000000000     
  0.68750000000000000       0.28125000000000000        0.0000000000000000     
  0.71875000000000000       0.28125000000000000        0.0000000000000000     
  0.75000000000000000       0.28125000000000000        0.0000000000000000     
  0.62500000000000000       0.31250000000000000        0.0000000000000000     
  0.65625000000000000       0.31250000000000000        0.0000000000000000     
  0.68750000000000000       0.31250000000000000        0.0000000000000000     
  0.71875000000000000       0.31250000000000000        0.0000000000000000     
  0.75000000000000000       0.31250000000000000        0.0000000000000000     
  0.62500000000000000       0.34375000000000000        0.0000000000000000     
  0.65625000000000000       0.34375000000000000        0.0000000000000000     
  0.68750000000000000       0.34375000000000000        0.0000000000000000     
  0.71875000000000000       0.34375000000000000        0.0000000000000000     
  0.75000000000000000       0.34375000000000000        0.0000000000000000     
  0.62500000000000000       0.37500000000000000        0.0000000000000000     
  0.65625000000000000       0.37500000000000000        0.0000000000000000     
  0.68750000000000000       0.37500000000000000        0.0000000000000000     
  0.71875000000000000       0.37500000000000000        0.0000000000000000     
  0.75000000000000000       0.37500000000000000        0.0000000000000000     
  0.75000000000000000       0.25000000000000000        0.0000000000000000     
  0.78125000000000000       0.25000000000000000        0.0000000000000000     
  0.81250000000000000       0.25000000000000000        0.0000000000000000     
  0.84375000000000000       0.25000000000000000        0.0000000000000000     
  0.87500000000000000       0.25000000000000000        0.0000000000000000     
  0.75000000000000000       0.28125000000000000        0.0000000000000000     
  0.78125000000000000       0.28125000000000000        0.0000000000000000     
  0.81250000000000000       0.28125000000000000        0.0000000000000000     
  0.84375000000000000       0.28125000000000000        0.0000000000000000     
  0.87500000000000000       0.28125000000000000        0.0000000000000000     
  0.75000000000000000       0.31250000000000000        0.0000000000000000     
  0.78125000000000000       0.31250000000000000        0.0000000000000000     
  0.81250000000000000       0.31250000000000000        0.0000000000000000     
  0.84375000000000000       0.31250000000000000        0.0000000000000000     
  0.87500000000000000       0.31250000000000000        0.0000000000000000     
  0.75000000000000000       0.34375000000000000        0.0000000000000000     
  0.78125000000000000       0.34375000000000000        0.0000000000000000     
  0.81250000000000000       0.34375000000000000        0.0000000000000000     
  0.84375000000000000       0.34375000000000000        0.0000000000000000     
  0.87500000000000000       0.34375000000000000        0.0000000000000000     
  0.75000000000000000       0.37500000000000000        0.0000000000000000     
  0.78125000000000000       0.37500000000000000        0.0000000000000000     
  0.81250000000000000       0.37500000000000000        0.0000000000000000     
  0.84375000000000000       0.37500000000000000        0.0000000000000000     
  0.87500000000000000       0.37500000000000000        0.0000000000000000     
  0.87500000000000000       0.25000000000000000        0.0000000000000000     
  0.90625000000000000       0.25000000000000000        0.0000000000000000     
  0.93750000000000000       0.25000000000000000        0.0000000000000000     
  0.96875000000000000       0.25000000000000000        0.0000000000000000     
   1.0000000000000000       0.25000000000000000        0.0000000000000000     
  0.87500000000000000       0.28125000000000000        0.0000000000000000     
  0.90625000000000000       0.28125000000000000        0.0000000000000000     
  0.93750000000000000       0.28125000000000000        0.0000000000000000     
  0.96875000000000000       0.28125000000000000        0.0000000000000000     
   1.0000000000000000       0.28125000000000000        0.0000000000000000     
  0.87500000000000000       0.31250000000000000        0.0000000000000000     
  0.90625000000000000       0.31250000000000000        0.0000000000000000     
  0.93750000000000000       0.31250000000000000        0.0000000000000000     
  0.96875000000000000       0.31250000000000000        0.0000000000000000     
   1.0000000000000000       0.31250000000000000        0.0000000000000000     
  0.87500000000000000       0.34375000000000000        0.0000000000000000     
  0.90625000000000000       0.34375000000000000        0.0000000000000000     
  0.93750000000000000       0.34375000000000000        0.0000000000000000     
  0.96875000000000000       0.34375000000000000        0.0000000000000000     
   1.0000000000000000       0.34375000000000000        0.0000000000000000     
  0.87500000000000000       0.37500000000000000        0.0000000000000000     
  0.90625000000000000       0.37500000000000000        0.0000000000000000     
  0.93750000000000000       0.37500000000000000        0.0000000000000000     
  0.96875000000000000       0.37500000000000000        0.0000000000000000     
   1.0000000000000000       0.37500000000000000        0.0000000000000000     
   0.0000000000000000       0.37500000000000000        0.0000000000000000     
   3.1250000000000000E-002  0.37500000000000000        0.0000000000000000     
   6.2500000000000000E-002  0.37500000000000000        0.0000000000000000     
   9.3750000000000000E-002  0.37500000000000000        0.0000000000000000     
  0.12500000000000000       0.37500000000000000        0.0000000000000000     
   0.0000000000000000       0.40625000000000000        0.0000000000000000     
   3.1250000000000000E-002  0.40625000000000000        0.0000000000000000     
   6.2500000000000000E-002  0.40625000000000000        0.0000000000000000     
   9.3750000000000000E-002  0.40625000000000000        0.0000000000000000     
  0.12500000000000000       0.40625000000000000        0.0000000000000000     
   0.0000000000000000       0.43750000000000000        0.0000000000000000     
   3.1250000000000000E-002  0.43750000000000000        0.0000000000000000     
   6.2500000000000000E-002  0.43750000000000000        0.0000000000000000     
   9.3750000000000000E-002  0.43750000000000000        0.0000000000000000     
  0.12500000000000000       0.43750000000000000        0.0000000000000000     
   0.0000000000000000       0.46875000000000000        0.0000000000000000     
   3.1250000000000000E-002  0.46875000000000000        0.0000000000000000     
   6.2500000000000000E-002  0.46875000000000000        0.0000000000000000     
   9.3750000000000000E-002  0.46875000000000000        0.0000000000000000     
  0.12500000000000000       0.46875000000000000        0.0000000000000000     
   0.0000000000000000       0.50000000000000000        0.0000000000000000     
   3.1250000000000000E-002  0.50000000000000000        0.0000000000000000     
   6.2500000000000000E-002  0.50000000000000000        0.0000000000000000     
   9.3750000000000000E-002  0.50000000000000000        0.0000000000000000     
  0.12500000000000000       0.50000000000000000        0.0000000000000000     
  0.12500000000000000       0.37500000000000000        0.0000000000000000     
  0.15625000000000000       0.37500000000000000        0.0000000000000000     
  0.18750000000000000       0.37500000000000000        0.0000000000000000     
  0.21875000000000000       0.37500000000000000        0.0000000000000000     
  0.25000000000000000       0.37500000000000000        0.0000000000000000     
  0.12500000000000000       0.40625000000000000        0.0000000000000000     
  0.15625000000000000       0.40625000000000000        0.0000000000000000     
  0.18750000000000000       0.40625000000000000        0.0000000000000000     
  0.21875000000000000       0.40625000000000000        0.0000000000000000     
  0.25000000000000000       0.40625000000000000        0.0000000000000000     
  0.12500000000000000       0.43750000000000000        0.0000000000000000     
  0.15625000000000000       0.43750000000000000        0.0000000000000000     
  0.18750000000000000       0.43750000000000000        0.0000000000000000     
  0.21875000000000000       0.43750000000000000        0.0000000000000000     
  0.25000000000000000       0.43750000000000000        0.0000000000000000     
  0.12500000000000000       0.46875000000000000        0.0000000000000000     
  0.15625000000000000       0.46875000000000000        0.0000000000000000     
  0.18750000000000000       0.46875000000000000        0.0000000000000000     
  0.21875000000000000       0.46875000000000000        0.0000000000000000     
  0.25000000000000000       0.46875000000000000        0.0000000000000000     
  0.12500000000000000       0.50000000000000000        0.0000000000000000     
  0.15625000000000000       0.50000000000000000        0.0000000000000000     
  0.18750000000000000       0.50000000000000000        0.0000000000000000     
  0.21875000000000000       0.50000000000000000        0.0000000000000000     
  0.25000000000000000       0.50000000000000000        0.0000000000000000     
  0.25000000000000000       0.37500000000000000        0.0000000000000000     
  0.28125000000000000       0.37500000000000000        0.0000000000000000     
  0.31250000000000000       0.37500000000000000        0.0000000000000000     
  0.34375000000000000       0.37500000000000000        0.0000000000000000     
  0.37500000000000000       0.37500000000000000        0.0000000000000000     
  0.25000000000000000       0.40625000000000000        0.0000000000000000     
  0.28125000000000000       0.40625000000000000        0.0000000000000000     
  0.31250000000000000       0.40625000000000000        0.0000000000000000     
  0.34375000000000000       0.40625000000000000        0.0000000000000000     
  0.37500000000000000       0.40625000000000000        0.0000000000000000     
  0.25000000000000000       0.43750000000000000        0.0000000000000000     
  0.28125000000000000       0.43750000000000000        0.0000000000000000     
  0.31250000000000000       0.43750000000000000        0.0000000000000000     
  0.34375000000000000       0.43750000000000000        0.0000000000000000     
  0.37500000000000000       0.43750000000000000        0.0000000000000000     
  0.25000000000000000       0.46875000000000000        0.0000000000000000     
  0.28125000000000000       0.46875000000000000        0.0000000000000000     
  0.31250000000000000       0.46875000000000000        0.0000000000000000     
  0.34375000000000000       0.46875000000000000        0.0000000000000000     
  0.37500000000000000       0.46875000000000000        0.0000000000000000     
  0.25000000000000000       0.50000000000000000        0.0000000000000000     
  0.28125000000000000       0.50000000000000000        0.0000000000000000     
  0.31250000000000000       0.50000000000000000        0.0000000000000000     
  0.34375000000000000       0.50000000000000000        0.0000000000000000     
  0.37500000000000000       0.50000000000000000        0.0000000000000000     
  0.37500000000000000       0.37500000000000000        0.0000000000000000     
  0.40625000000000000       0.37500000000000000        0.0000000000000000     
  0.43750000000000000       0.37500000000000000        0.0000000000000000     
  0.46875000000000000       0.37500000000000000        0.0000000000000000     
  0.50000000000000000       0.37500000000000000        0.0000000000000000     
  0.37500000000000000       0.40625000000000000        0.0000000000000000     
  0.40625000000000000       0.40625000000000000        0.0000000000000000     
  0.43750000000000000       0.40625000000000000        0.0000000000000000     
  0.46875000000000000       0.40625000000000000        0.0000000000000000     
  0.50000000000000000       0.40625000000000000        0.0000000000000000     
  0.37500000000000000       0.43750000000000000        0.0000000000000000     
  0.40625000000000000       0.43750000000000000        0.0000000000000000     
  0.43750000000000000       0.43750000000000000        0.0000000000000000     
  0.46875000000000000       0.43750000000000000        0.0000000000000000     
  0.50000000000000000       0.43750000000000000        0.0000000000000000     
  0.37500000000000000       0.46875000000000000        0.0000000000000000     
  0.40625000000000000       0.46875000000000000        0.0000000000000000     
  0.43750000000000000       0.46875000000000000        0.0000000000000000     
  0.46875000000000000       0.46875000000000000        0.0000000000000000     
  0.50000000000000000       0.46875000000000000        0.0000000000000000     
  0.37500000000000000       0.50000000000000000        0.0000000000000000     
  0.40625000000000000       0.50000000000000000        0.0000000000000000     
  0.43750000000000000       0.50000000000000000        0.0000000000000000     
  0.46875000000000000       0.50000000000000000        0.0000000000000000     
  0.50000000000000000       0.50000000000000000        0.0000000000000000     
  0.50000000000000000       0.37500000000000000        0.0000000000000000     
  0.53125000000000000       0.37500000000000000        0.0000000000000000     
  0.56250000000000000       0.37500000000000000        0.0000000000000000     
  0.59375000000000000       0.37500000000000000        0.0000000000000000     
  0.62500000000000000       0.37500000000000000        0.0000000000000000     
  0.50000000000000000       0.40625000000000000        0.0000000000000000     
  0.53125000000000000       0.40625000000000000        0.0000000000000000     
  0.56250000000000000       0.40625000000000000        0.0000000000000000     
  0.59375000000000000       0.40625000000000000        0.0000000000000000     
  0.62500000000000000       0.40625000000000000        0.0000000000000000     
  0.50000000000000000       0.43750000000000000        0.0000000000000000     
  0.53125000000000000       0.43750000000000000        0.0000000000000000     
  0.56250000000000000       0.43750000000000000        0.0000000000000000     
  0.59375000000000000       0.43750000000000000        0.0000000000000000     
  0.62500000000000000       0.43750000000000000        0.0000000000000000     
  0.50000000000000000       0.46875000000000000        0.0000000000000000     
  0.53125000000000000       0.46875000000000000        0.0000000000000000     
  0.56250000000000000       0.46875000000000000        0.0000000000000000     
  0.59375000000000000       0.46875000000000000        0.0000000000000000     
  0.62500000000000000       0.46875000000000000        0.0000000000000000     
  0.50000000000000000       0.50000000000000000        0.0000000000000000     
  0.53125000000000000       0.50000000000000000        0.0000000000000000     
  0.56250000000000000       0.50000000000000000        0.0000000000000000     
  0.59375000000000000       0.50000000000000000        0.0000000000000000     
  0.62500000000000000       0.50000000000000000        0.0000000000000000     
  0.62500000000000000       0.37500000000000000        0.0000000000000000     
  0.65625000000000000       0.37500000000000000        0.0000000000000000     
  0.68750000000000000       0.37500000000000000        0.0000000000000000     
  0.71875000000000000       0.37500000000000000        0.0000000000000000     
  0.75000000000000000       0.37500000000000000        0.0000000000000000     
  0.62500000000000000       0.40625000000000000        0.0000000000000000     
  0.65625000000000000       0.40625000000000000        0.0000000000000000     
  0.68750000000000000       0.40625000000000000        0.0000000000000000     
  0.71875000000000000       0.40625000000000000        0.0000000000000000     
  0.75000000000000000       0.40625000000000000        0.0000000000000000     
  0.62500000000000000       0.43750000000000000        0.0000000000000000     
  0.65625000000000000       0.43750000000000000        0.0000000000000000     
  0.68750000000000000       0.43750000000000000        0.0000000000000000     
  0.71875000000000000       0.43750000000000000        0.0000000000000000     
  0.75000000000000000       0.43750000000000000        0.0000000000000000     
  0.62500000000000000       0.46875000000000000        0.0000000000000000     
  0.65625000000000000       0.46875000000000000        0.0000000000000000     
  0.68750000000000000       0.46875000000000000        0.0000000000000000     
  0.71875000000000000       0.46875000000000000        0.0000000000000000     
  0.75000000000000000       0.46875000000000000        0.0000000000000000     
  0.62500000000000000       0.50000000000000000        0.0000000000000000     
  0.65625000000000000       0.50000000000000000        0.0000000000000000     
  0.68750000000000000       0.50000000000000000        0.0000000000000000     
  0.71875000000000000       0.50000000000000000        0.0000000000000000     
  0.75000000000000000       0.50000000000000000        0.0000000000000000     
  0.75000000000000000       0.37500000000000000        0.0000000000000000     
  0.78125000000000000       0.37500000000000000        0.0000000000000000     
  0.81250000000000000       0.37500000000000000        0.0000000000000000     
  0.84375000000000000       0.37500000000000000        0.0000000000000000     
  0.87500000000000000       0.37500000000000000        0.0000000000000000     
  0.75000000000000000       0.40625000000000000        0.0000000000000000     
  0.78125000000000000       0.40625000000000000        0.0000000000000000     
  0.81250000000000000       0.40625000000000000        0.0000000000000000     
  0.84375000000000000       0.40625000000000000        0.0000000000000000     
  0.87500000000000000       0.40625000000000000        0.0000000000000000     
  0.75000000000000000       0.43750000000000000        0.0000000000000000     
  0.78125000000000000       0.43750000000000000        0.0000000000000000     
  0.81250000000000000       0.43750000000000000        0.0000000000000000     
  0.84375000000000000       0.43750000000000000        0.0000000000000000     
  0.87500000000000000       0.43750000000000000        0.0000000000000000     
  0.75000000000000000       0.46875000000000000        0.0000000000000000     
  0.78125000000000000       0.46875000000000000        0.0000000000000000     
  0.81250000000000000       0.46875000000000000        0.0000000000000000     
  0.84375000000000000       0.46875000000000000        0.0000000000000000     
  0.87500000000000000       0.46875000000000000        0.0000000000000000     
  0.75000000000000000       0.50000000000000000        0.0000000000000000     
  0.78125000000000000       0.50000000000000000        0.0000000000000000     
  0.81250000000000000       0.50000000000000000        0.0000000000000000     
  0.84375000000000000       0.50000000000000000        0.0000000000000000     
  0.87500000000000000       0.50000000000000000        0.0000000000000000     
  0.87500000000000000       0.37500000000000000        0.0000000000000000     
  0.90625000000000000       0.37500000000000000        0.0000000000000000     
  0.93750000000000000       0.37500000000000000        0.0000000000000000     
  0.96875000000000000       0.37500000000000000        0.0000000000000000     
   1.0000000000000000       0.37500000000000000        0.0000000000000000     
  0.87500000000000000       0.40625000000000000        0.0000000000000000     
  0.90625000000000000       0.40625000000000000        0.0000000000000000     
  0.93750000000000000       0.40625000000000000        0.0000000000000000     
  0.96875000000000000       0.40625000000000000        0.0000000000000000     
   1.0000000000000000       0.40625000000000000        0.0000000000000000     
  0.87500000000000000       0.43750000000000000        0.0000000000000000     
  0.90625000000000000       0.43750000000000000        0.0000000000000000     
  0.93750000000000000       0.43750000000000000        0.0000000000000000     
  0.96875000000000000       0.43750000000000000        0.0000000000000000     
   1.0000000000000000       0.43750000000000000        0.0000000000000000     
  0.87500000000000000       0.46875000000000000        0.0000000000000000     
  0.90625000000000000       0.46875000000000000        0.0000000000000000     
  0.93750000000000000       0.46875000000000000        0.0000000000000000     
  0.96875000000000000       0.46875000000000000        0.0000000000000000     
   1.0000000000000000       0.46875000000000000        0.0000000000000000     
  0.87500000000000000       0.50000000000000000        0.0000000000000000     
  0.90625000000000000       0.50000000000000000        0.0000000000000000     
  0.93750000000000000       0.50000000000000000        0.0000000000000000     
  0.96875000000000000       0.50000000000000000        0.0000000000000000     
   1.0000000000000000       0.50000000000000000        0.0000000000000000     
   0.0000000000000000       0.50000000000000000        0.0000000000000000     
   3.1250000000000000E-002  0.50000000000000000        0.0000000000000000     
   6.2500000000000000E-002  0.50000000000000000        0.0000000000000000     
   9.3750000000000000E-002  0.50000000000000000        0.0000000000000000     
  0.12500000000000000       0.50000000000000000        0.0000000000000000     
   0.0000000000000000       0.53125000000000000        0.0000000000000000     
   3.1250000000000000E-002  0.53125000000000000        0.0000000000000000     
   6.2500000000000000E-002  0.53125000000000000        0.0000000000000000     
   9.3750000000000000E-002  0.53125000000000000        0.0000000000000000     
  0.12500000000000000       0.53125000000000000        0.0000000000000000     
   0.0000000000000000       0.56250000000000000        0.0000000000000000     
   3.1250000000000000E-002  0.56250000000000000        0.0000000000000000     
   6.2500000000000000E-002  0.56250000000000000        0.0000000000000000     
   9.3750000000000000E-002  0.56250000000000000        0.0000000000000000     
  0.12500000000000000       0.56250000000000000        0.0000000000000000     
   0.0000000000000000       0.59375000000000000        0.0000000000000000     
   3.1250000000000000E-002  0.59375000000000000        0.0000000000000000     
   6.2500000000000000E-002  0.59375000000000000        0.0000000000000000     
   9.3750000000000000E-002  0.59375000000000000        0.0000000000000000     
  0.12500000000000000       0.59375000000000000        0.0000000000000000     
   0.0000000000000000       0.62500000000000000        0.0000000000000000     
   3.1250000000000000E-002  0.62500000000000000        0.0000000000000000     
   6.2500000000000000E-002  0.62500000000000000        0.0000000000000000     
   9.3750000000000000E-002  0.62500000000000000        0.0000000000000000     
  0.12500000000000000       0.62500000000000000        0.0000000000000000     
  0.12500000000000000       0.50000000000000000        0.0000000000000000     
  0.15625000000000000       0.50000000000000000        0.0000000000000000     
  0.18750000000000000       0.50000000000000000        0.0000000000000000     
  0.21875000000000000       0.50000000000000000        0.0000000000000000     
  0.25000000000000000       0.50000000000000000        0.0000000000000000     
  0.12500000000000000       0.53125000000000000        0.0000000000000000     
  0.15625000000000000       0.53125000000000000        0.0000000000000000     
  0.18750000000000000       0.53125000000000000        0.0000000000000000     
  0.21875000000000000       0.53125000000000000        0.0000000000000000     
  0.25000000000000000       0.53125000000000000        0.0000000000000000     
  0.12500000000000000       0.56250000000000000        0.0000000000000000     
  0.15625000000000000       0.56250000000000000        0.0000000000000000     
  0.18750000000000000       0.56250000000000000        0.0000000000000000     
  0.21875000000000000       0.56250000000000000        0.0000000000000000     
  0.25000000000000000       0.56250000000000000        0.0000000000000000     
  0.12500000000000000       0.59375000000000000        0.0000000000000000     
  0.15625000000000000       0.59375000000000000        0.0000000000000000     
  0.18750000000000000       0.59375000000000000        0.0000000000000000     
  0.21875000000000000       0.59375000000000000        0.0000000000000000     
  0.25000000000000000       0.59375000000000000        0.0000000000000000     
  0.12500000000000000       0.62500000000000000        0.0000000000000000     
  0.15625000000000000       0.62500000000000000        0.0000000000000000     
  0.18750000000000000       0.62500000000000000        0.0000000000000000     
  0.21875000000000000       0.62500000000000000        0.0000000000000000     
  0.25000000000000000       0.62500000000000000        0.0000000000000000     
  0.25000000000000000       0.50000000000000000        0.0000000000000000     
  0.28125000000000000       0.50000000000000000        0.0000000000000000     
  0.31250000000000000       0.50000000000000000        0.0000000000000000     
  0.34375000000000000       0.50000000000000000        0.0000000000000000     
  0.37500000000000000       0.50000000000000000        0.0000000000000000     
  0.25000000000000000       0.53125000000000000        0.0000000000000000     
  0.28125000000000000       0.53125000000000000        0.0000000000000000     
  0.31250000000000000       0.53125000000000000        0.0000000000000000     
  0.34375000000000000       0.53125000000000000        0.0000000000000000     
  0.37500000000000000       0.53125000000000000        0.0000000000000000     
  0.25000000000000000       0.56250000000000000        0.0000000000000000     
  0.28125000000000000       0.56250000000000000        0.0000000000000000     
  0.31250000000000000       0.56250000000000000        0.0000000000000000     
  0.34375000000000000       0.56250000000000000        0.0000000000000000     
  0.37500000000000000       0.56250000000000000        0.0000000000000000     
  0.25000000000000000       0.59375000000000000        0.0000000000000000     
  0.28125000000000000       0.59375000000000000        0.0000000000000000     
  0.31250000000000000       0.59375000000000000        0.0000000000000000     
  0.34375000000000000       0.59375000000000000        0.0000000000000000     
  0.37500000000000000       0.59375000000000000        0.0000000000000000     
  0.25000000000000000       0.62500000000000000        0.0000000000000000     
  0.28125000000000000       0.62500000000000000        0.0000000000000000     
  0.31250000000000000       0.62500000000000000        0.0000000000000000     
  0.34375000000000000       0.62500000000000000        0.0000000000000000     
  0.37500000000000000       0.62500000000000000        0.0000000000000000     
  0.37500000000000000       0.50000000000000000        0.0000000000000000     
  0.40625000000000000       0.50000000000000000        0.0000000000000000     
  0.43750000000000000       0.50000000000000000        0.0000000000000000     
  0.46875000000000000       0.50000000000000000        0.0000000000000000     
  0.50000000000000000       0.50000000000000000        0.0000000000000000     
  0.37500000000000000       0.53125000000000000        0.0000000000000000     
  0.40625000000000000       0.53125000000000000        0.0000000000000000     
  0.43750000000000000       0.53125000000000000        0.0000000000000000     
  0.46875000000000000       0.53125000000000000        0.0000000000000000     
  0.50000000000000000       0.53125000000000000        0.0000000000000000     
  0.37500000000000000       0.56250000000000000        0.0000000000000000     
  0.40625000000000000       0.56250000000000000        0.0000000000000000     
  0.43750000000000000       0.56250000000000000        0.0000000000000000     
  0.46875000000000000       0.56250000000000000        0.0000000000000000     
  0.50000000000000000       0.56250000000000000        0.0000000000000000     
  0.37500000000000000       0.59375000000000000        0.0000000000000000     
  0.40625000000000000       0.59375000000000000        0.0000000000000000     
  0.43750000000000000       0.59375000000000000        0.0000000000000000     
  0.46875000000000000       0.59375000000000000        0.0000000000000000     
  0.50000000000000000       0.59375000000000000        0.0000000000000000     
  0.37500000000000000       0.62500000000000000        0.0000000000000000     
  0.40625000000000000       0.62500000000000000        0.0000000000000000     
  0.43750000000000000       0.62500000000000000        0.0000000000000000     
  0.46875000000000000       0.62500000000000000        0.0000000000000000     
  0.50000000000000000       0.62500000000000000        0.0000000000000000     
  0.50000000000000000       0.50000000000000000        0.0000000000000000     
  0.53125000000000000       0.50000000000000000        0.0000000000000000     
  0.56250000000000000       0.50000000000000000        0.0000000000000000     
  0.59375000000000000       0.50000000000000000        0.0000000000000000     
  0.62500000000000000       0.50000000000000000        0.0000000000000000     
  0.50000000000000000       0.53125000000000000        0.0000000000000000     
  0.53125000000000000       0.53125000000000000        0.0000000000000000     
  0.56250000000000000       0.53125000000000000        0.0000000000000000     
  0.59375000000000000       0.53125000000000000        0.0000000000000000     
  0.62500000000000000       0.53125000000000000        0.0000000000000000     
  0.50000000000000000       0.56250000000000000        0.0000000000000000     
  0.53125000000000000       0.56250000000000000        0.0000000000000000     
  0.56250000000000000       0.56250000000000000        0.0000000000000000     
  0.59375000000000000       0.56250000000000000        0.0000000000000000     
  0.62500000000000000       0.56250000000000000        0.0000000000000000     
  0.50000000000000000       0.59375000000000000        0.0000000000000000     
  0.53125000000000000       0.59375000000000000        0.0000000000000000     
  0.56250000000000000       0.59375000000000000        0.0000000000000000     
  0.59375000000000000       0.59375000000000000        0.0000000000000000     
  0.62500000000000000       0.59375000000000000        0.0000000000000000     
  0.50000000000000000       0.62500000000000000        0.0000000000000000     
  0.53125000000000000       0.62500000000000000        0.0000000000000000     
  0.56250000000000000       0.62500000000000000        0.0000000000000000     
  0.59375000000000000       0.62500000000000000        0.0000000000000000     
  0.62500000000000000       0.62500000000000000        0.0000000000000000     
  0.62500000000000000       0.50000000000000000        0.0000000000000000     
  0.65625000000000000       0.50000000000000000        0.0000000000000000     
  0.68750000000000000       0.50000000000000000        0.0000000000000000     
  0.71875000000000000       0.50000000000000000        0.0000000000000000     
  0.75000000000000000       0.50000000000000000        0.0000000000000000     
  0.62500000000000000       0.53125000000000000        0.0000000000000000     
  0.65625000000000000       0.53125000000000000        0.0000000000000000     
  0.68750000000000000       0.53125000000000000        0.0000000000000000     
  0.71875000000000000       0.53125000000000000        0.0000000000000000     
  0.75000000000000000       0.53125000000000000        0.0000000000000000     
  0.62500000000000000       0.56250000000000000        0.0000000000000000     
  0.65625000000000000       0.56250000000000000        0.0000000000000000     
  0.68750000000000000       0.56250000000000000        0.0000000000000000     
  0.71875000000000000       0.56250000000000000        0.0000000000000000     
  0.75000000000000000       0.56250000000000000        0.0000000000000000     
  0.62500000000000000       0.59375000000000000        0.0000000000000000     
  0.65625000000000000       0.59375000000000000        0.0000000000000000     
  0.68750000000000000       0.59375000000000000        0.0000000000000000     
  0.71875000000000000       0.59375000000000000        0.0000000000000000     
  0.75000000000000000       0.59375000000000000        0.0000000000000000     
  0.62500000000000000       0.62500000000000000        0.0000000000000000     
  0.65625000000000000       0.62500000000000000        0.0000000000000000     
  0.68750000000000000       0.62500000000000000        0.0000000000000000     
  0.71875000000000000       0.62500000000000000        0.0000000000000000     
  0.75000000000000000       0.62500000000000000        0.0000000000000000     
  0.75000000000000000       0.50000000000000000        0.0000000000000000     
  0.78125000000000000       0.50000000000000000        0.0000000000000000     
  0.81250000000000000       0.50000000000000000        0.0000000000000000     
  0.84375000000000000       0.50000000000000000        0.0000000000000000     
  0.87500000000000000       0.50000000000000000        0.0000000000000000     
  0.75000000000000000       0.53125000000000000        0.0000000000000000     
  0.78125000000000000       0.53125000000000000        0.0000000000000000     
  0.81250000000000000       0.53125000000000000        0.0000000000000000     
  0.84375000000000000       0.53125000000000000        0.0000000000000000     
  0.87500000000000000       0.53125000000000000        0.0000000000000000     
  0.75000000000000000       0.56250000000000000        0.0000000000000000     
  0.78125000000000000       0.56250000000000000        0.0000000000000000     
  0.81250000000000000       0.56250000000000000        0.0000000000000000     
  0.84375000000000000       0.56250000000000000        0.0000000000000000     
  0.87500000000000000       0.56250000000000000        0.0000000000000000     
  0.75000000000000000       0.59375000000000000        0.0000000000000000     
  0.78125000000000000       0.59375000000000000        0.0000000000000000     
  0.81250000000000000       0.59375000000000000        0.0000000000000000     
  0.84375000000000000       0.59375000000000000        0.0000000000000000     
  0.87500000000000000       0.59375000000000000        0.0000000000000000     
  0.75000000000000000       0.62500000000000000        0.0000000000000000     
  0.78125000000000000       0.62500000000000000        0.0000000000000000     
  0.81250000000000000       0.62500000000000000        0.0000000000000000     
  0.84375000000000000       0.62500000000000000        0.0000000000000000     
  0.87500000000000000       0.62500000000000000        0.0000000000000000     
  0.87500000000000000       0.50000000000000000        0.0000000000000000     
  0.90625000000000000       0.50000000000000000        0.0000000000000000     
  0.93750000000000000       0.50000000000000000        0.0000000000000000     
  0.96875000000000000       0.50000000000000000        0.0000000000000000     
   1.0000000000000000       0.50000000000000000        0.0000000000000000     
  0.87500000000000000       0.53125000000000000        0.0000000000000000     
  0.90625000000000000       0.53125000000000000        0.0000000000000000     
  0.93750000000000000       0.53125000000000000        0.0000000000000000     
  0.96875000000000000       0.53125000000000000        0.0000000000000000     
   1.0000000000000000       0.53125000000000000        0.0000000000000000     
  0.87500000000000000       0.56250000000000000        0.0000000000000000     
  0.90625000000000000       0.56250000000000000        0.0000000000000000     
  0.93750000000000000       0.56250000000000000        0.0000000000000000     
  0.96875000000000000       0.56250000000000000        0.0000000000000000     
   1.0000000000000000       0.56250000000000000        0.0000000000000000     
  0.87500000000000000       0.59375000000000000        0.0000000000000000     
  0.90625000000000000       0.59375000000000000        0.0000000000000000     
  0.93750000000000000       0.59375000000000000        0.0000000000000000     
  0.96875000000000000       0.59375000000000000        0.0000000000000000     
   1.0000000000000000       0.59375000000000000        0.0000000000000000     
  0.87500000000000000       0.62500000000000000        0.0000000000000000     
  0.90625000000000000       0.62500000000000000        0.0000000000000000     
  0.93750000000000000       0.62500000000000000        0.0000000000000000     
  0.96875000000000000       0.62500000000000000        0.0000000000000000     
   1.0000000000000000       0.62500000000000000        0.0000000000000000     
   0.0000000000000000       0.62500000000000000        0.0000000000000000     
   3.1250000000000000E-002  0.62500000000000000        0.0000000000000000     
   6.2500000000000000E-002  0.62500000000000000        0.0000000000000000     
   9.3750000000000000E-002  0.62500000000000000        0.0000000000000000     
  0.12500000000000000       0.62500000000000000        0.0000000000000000     
   0.0000000000000000       0.65625000000000000        0.0000000000000000     
   3.1250000000000000E-002  0.65625000000000000        0.0000000000000000     
   6.2500000000000000E-002  0.65625000000000000        0.0000000000000000     
   9.3750000000000000E-002  0.65625000000000000        0.0000000000000000     
  0.12500000000000000       0.65625000000000000        0.0000000000000000     
   0.0000000000000000       0.68750000000000000        0.0000000000000000     
   3.1250000000000000E-002  0.68750000000000000        0.0000000000000000     
   6.2500000000000000E-002  0.68750000000000000        0.0000000000000000     
   9.3750000000000000E-002  0.68750000000000000        0.0000000000000000     
  0.12500000000000000       0.68750000000000000        0.0000000000000000     
   0.0000000000000000       0.71875000000000000        0.0000000000000000     
   3.1250000000000000E-002  0.71875000000000000        0.0000000000000000     
   6.2500000000000000E-002  0.71875000000000000        0.0000000000000000     
   9.3750000000000000E-002  0.71875000000000000        0.0000000000000000     
  0.12500000000000000       0.71875000000000000        0.0000000000000000     
   0.0000000000000000       0.75000000000000000        0.0000000000000000     
   3.1250000000000000E-002  0.75000000000000000        0.0000000000000000     
   6.2500000000000000E-002  0.75000000000000000        0.0000000000000000     
   9.3750000000000000E-002  0.75000000000000000        0.0000000000000000     
  0.12500000000000000       0.75000000000000000        0.0000000000000000     
  0.12500000000000000       0.62500000000000000        0.0000000000000000     
  0.15625000000000000       0.62500000000000000        0.0000000000000000     
  0.18750000000000000       0.62500000000000000        0.0000000000000000     
  0.21875000000000000       0.62500000000000000        0.0000000000000000     
  0.25000000000000000       0.62500000000000000        0.0000000000000000     
  0.12500000000000000       0.65625000000000000        0.0000000000000000     
  0.15625000000000000       0.65625000000000000        0.0000000000000000     
  0.18750000000000000       0.65625000000000000        0.0000000000000000     
  0.21875000000000000       0.65625000000000000        0.0000000000000000     
  0.25000000000000000       0.65625000000000000        0.0000000000000000     
  0.12500000000000000       0.68750000000000000        0.0000000000000000     
  0.15625000000000000       0.68750000000000000        0.0000000000000000     
  0.18750000000000000       0.68750000000000000        0.0000000000000000     
  0.21875000000000000       0.68750000000000000        0.0000000000000000     
  0.25000000000000000       0.68750000000000000        0.0000000000000000     
  0.12500000000000000       0.71875000000000000        0.0000000000000000     
  0.15625000000000000       0.71875000000000000        0.0000000000000000     
  0.18750000000000000       0.71875000000000000        0.0000000000000000     
  0.21875000000000000       0.71875000000000000        0.0000000000000000     
  0.25000000000000000       0.71875000000000000        0.0000000000000000     
  0.12500000000000000       0.75000000000000000        0.0000000000000000     
  0.15625000000000000       0.75000000000000000        0.0000000000000000     
  0.18750000000000000       0.75000000000000000        0.0000000000000000     
  0.21875000000000000       0.75000000000000000        0.0000000000000000     
  0.25000000000000000       0.75000000000000000        0.0000000000000000     
  0.25000000000000000       0.62500000000000000        0.0000000000000000     
  0.28125000000000000       0.62500000000000000        0.0000000000000000     
  0.31250000000000000       0.62500000000000000        0.0000000000000000     
  0.34375000000000000       0.62500000000000000        0.0000000000000000     
  0.37500000000000000       0.62500000000000000        0.0000000000000000     
  0.25000000000000000       0.65625000000000000        0.0000000000000000     
  0.28125000000000000       0.65625000000000000        0.0000000000000000     
  0.31250000000000000       0.65625000000000000        0.0000000000000000     
  0.34375000000000000       0.65625000000000000        0.0000000000000000     
  0.37500000000000000       0.65625000000000000        0.0000000000000000     
  0.25000000000000000       0.68750000000000000        0.0000000000000000     
  0.28125000000000000       0.68750000000000000        0.0000000000000000     
  0.31250000000000000       0.68750000000000000        0.0000000000000000     
  0.34375000000000000       0.68750000000000000        0.0000000000000000     
  0.37500000000000000       0.68750000000000000        0.0000000000000000     
  0.25000000000000000       0.71875000000000000        0.0000000000000000     
  0.28125000000000000       0.71875000000000000        0.0000000000000000     
  0.31250000000000000       0.71875000000000000        0.0000000000000000     
  0.34375000000000000       0.71875000000000000        0.0000000000000000     
  0.37500000000000000       0.71875000000000000        0.0000000000000000     
  0.25000000000000000       0.75000000000000000        0.0000000000000000     
  0.28125000000000000       0.75000000000000000        0.0000000000000000     
  0.31250000000000000       0.75000000000000000        0.0000000000000000     
  0.34375000000000000       0.75000000000000000        0.0000000000000000     
  0.37500000000000000       0.75000000000000000        0.0000000000000000     
  0.37500000000000000       0.62500000000000000        0.0000000000000000     
  0.40625000000000000       0.62500000000000000        0.0000000000000000     
  0.43750000000000000       0.62500000000000000        0.0000000000000000     
  0.46875000000000000       0.62500000000000000        0.0000000000000000     
  0.50000000000000000       0.62500000000000000        0.0000000000000000     
  0.37500000000000000       0.65625000000000000        0.0000000000000000     
  0.40625000000000000       0.65625000000000000        0.0000000000000000     
  0.43750000000000000       0.65625000000000000        0.0000000000000000     
  0.46875000000000000       0.65625000000000000        0.0000000000000000     
  0.50000000000000000       0.65625000000000000        0.0000000000000000     
  0.37500000000000000       0.68750000000000000        0.0000000000000000     
  0.40625000000000000       0.68750000000000000        0.0000000000000000     
  0.43750000000000000       0.68750000000000000        0.0000000000000000     
  0.46875000000000000       0.68750000000000000        0.0000000000000000     
  0.50000000000000000       0.68750000000000000        0.0000000000000000     
  0.37500000000000000       0.71875000000000000        0.0000000000000000     
  0.40625000000000000       0.71875000000000000        0.0000000000000000     
  0.43750000000000000       0.71875000000000000        0.0000000000000000     
  0.46875000000000000       0.71875000000000000        0.0000000000000000     
  0.50000000000000000       0.71875000000000000        0.0000000000000000     
  0.37500000000000000       0.75000000000000000        0.0000000000000000     
  0.40625000000000000       0.75000000000000000        0.0000000000000000     
  0.43750000000000000       0.75000000000000000        0.0000000000000000     
  0.46875000000000000       0.75000000000000000        0.0000000000000000     
  0.50000000000000000       0.75000000000000000        0.0000000000000000     
  0.50000000000000000       0.62500000000000000        0.0000000000000000     
  0.53125000000000000       0.62500000000000000        0.0000000000000000     
  0.56250000000000000       0.62500000000000000        0.0000000000000000     
  0.59375000000000000       0.62500000000000000        0.0000000000000000     
  0.62500000000000000       0.62500000000000000        0.0000000000000000     
  0.50000000000000000       0.65625000000000000        0.0000000000000000     
  0.53125000000000000       0.65625000000000000        0.0000000000000000     
  0.56250000000000000       0.65625000000000000        0.0000000000000000     
  0.59375000000000000       0.65625000000000000        0.0000000000000000     
  0.62500000000000000       0.65625000000000000        0.0000000000000000     
  0.50000000000000000       0.68750000000000000        0.0000000000000000     
  0.53125000000000000       0.68750000000000000        0.0000000000000000     
  0.56250000000000000       0.68750000000000000        0.0000000000000000     
  0.59375000000000000       0.68750000000000000        0.0000000000000000     
  0.62500000000000000       0.68750000000000000        0.0000000000000000     
  0.50000000000000000       0.71875000000000000        0.0000000000000000     
  0.53125000000000000       0.71875000000000000        0.0000000000000000     
  0.56250000000000000       0.71875000000000000        0.0000000000000000     
  0.59375000000000000       0.71875000000000000        0.0000000000000000     
  0.62500000000000000       0.71875000000000000        0.0000000000000000     
  0.50000000000000000       0.75000000000000000        0.0000000000000000     
  0.53125000000000000       0.75000000000000000        0.0000000000000000     
  0.56250000000000000       0.75000000000000000        0.0000000000000000     
  0.59375000000000000       0.75000000000000000        0.0000000000000000     
  0.62500000000000000       0.75000000000000000        0.0000000000000000     
  0.62500000000000000       0.62500000000000000        0.0000000000000000     
  0.65625000000000000       0.62500000000000000        0.0000000000000000     
  0.68750000000000000       0.62500000000000000        0.0000000000000000     
  0.71875000000000000       0.62500000000000000        0.0000000000000000     
  0.75000000000000000       0.62500000000000000        0.0000000000000000     
  0.62500000000000000       0.65625000000000000        0.0000000000000000     
  0.65625000000000000       0.65625000000000000        0.0000000000000000     
  0.68750000000000000       0.65625000000000000        0.0000000000000000     
  0.71875000000000000       0.65625000000000000        0.0000000000000000     
  0.75000000000000000       0.65625000000000000        0.0000000000000000     
  0.62500000000000000       0.68750000000000000        0.0000000000000000     
  0.65625000000000000       0.68750000000000000        0.0000000000000000     
  0.68750000000000000       0.68750000000000000        0.0000000000000000     
  0.71875000000000000       0.68750000000000000        0.0000000000000000     
  0.75000000000000000       0.68750000000000000        0.0000000000000000     
  0.62500000000000000       0.71875000000000000        0.0000000000000000     
  0.65625000000000000       0.71875000000000000        0.0000000000000000     
  0.68750000000000000       0.71875000000000000        0.0000000000000000     
  0.71875000000000000       0.71875000000000000        0.0000000000000000     
  0.75000000000000000       0.71875000000000000        0.0000000000000000     
  0.62500000000000000       0.75000000000000000        0.0000000000000000     
  0.65625000000000000       0.75000000000000000        0.0000000000000000     
  0.68750000000000000       0.75000000000000000        0.0000000000000000     
  0.71875000000000000       0.75000000000000000        0.0000000000000000     
  0.75000000000000000       0.75000000000000000        0.0000000000000000     
  0.75000000000000000       0.62500000000000000        0.0000000000000000     
  0.78125000000000000       0.62500000000000000        0.0000000000000000     
  0.81250000000000000       0.62500000000000000        0.0000000000000000     
  0.84375000000000000       0.62500000000000000        0.0000000000000000     
  0.87500000000000000       0.62500000000000000        0.0000000000000000     
  0.75000000000000000       0.65625000000000000        0.0000000000000000     
  0.78125000000000000       0.65625000000000000        0.0000000000000000     
  0.81250000000000000       0.65625000000000000        0.0000000000000000     
  0.84375000000000000       0.65625000000000000        0.0000000000000000     
  0.87500000000000000       0.65625000000000000        0.0000000000000000     
  0.75000000000000000       0.68750000000000000        0.0000000000000000     
  0.78125000000000000       0.68750000000000000        0.0000000000000000     
  0.81250000000000000       0.68750000000000000        0.0000000000000000     
  0.84375000000000000       0.68750000000000000        0.0000000000000000     
  0.87500000000000000       0.68750000000000000        0.0000000000000000     
  0.75000000000000000       0.71875000000000000        0.0000000000000000     
  0.78125000000000000       0.71875000000000000        0.0000000000000000     
  0.81250000000000000       0.71875000000000000        0.0000000000000000     
  0.84375000000000000       0.71875000000000000        0.0000000000000000     
  0.87500000000000000       0.71875000000000000        0.0000000000000000     
  0.75000000000000000       0.75000000000000000        0.0000000000000000     
  0.78125000000000000       0.75000000000000000        0.0000000000000000     
  0.81250000000000000       0.75000000000000000        0.0000000000000000     
  0.84375000000000000       0.75000000000000000        0.0000000000000000     
  0.87500000000000000       0.75000000000000000        0.0000000000000000     
  0.87500000000000000       0.62500000000000000        0.0000000000000000     
  0.90625000000000000       0.62500000000000000        0.0000000000000000     
  0.93750000000000000       0.62500000000000000        0.0000000000000000     
  0.96875000000000000       0.62500000000000000        0.0000000000000000     
   1.0000000000000000       0.62500000000000000        0.0000000000000000     
  0.87500000000000000       0.65625000000000000        0.0000000000000000     
  0.90625000000000000       0.65625000000000000        0.0000000000000000     
  0.93750000000000000       0.65625000000000000        0.0000000000000000     
  0.96875000000000000       0.65625000000000000        0.0000000000000000     
   1.0000000000000000       0.65625000000000000        0.0000000000000000     
  0.87500000000000000       0.68750000000000000        0.0000000000000000     
  0.90625000000000000       0.68750000000000000        0.0000000000000000     
  0.93750000000000000       0.68750000000000000        0.0000000000000000     
  0.96875000000000000       0.68750000000000000        0.0000000000000000     
   1.0000000000000000       0.68750000000000000        0.0000000000000000     
  0.87500000000000000       0.71875000000000000        0.0000000000000000     
  0.90625000000000000       0.71875000000000000        0.0000000000000000     
  0.93750000000000000       0.71875000000000000        0.0000000000000000     
  0.96875000000000000       0.71875000000000000        0.0000000000000000     
   1.0000000000000000       0.71875000000000000        0.0000000000000000     
  0.87500000000000000       0.75000000000000000        0.0000000000000000     
  0.90625000000000000       0.75000000000000000        0.0000000000000000     
  0.93750000000000000       0.75000000000000000        0.0000000000000000     
  0.96875000000000000       0.75000000000000000        0.0000000000000000     
   1.0000000000000000       0.75000000000000000        0.0000000000000000     
   0.0000000000000000       0.75000000000000000        0.0000000000000000     
   3.1250000000000000E-002  0.75000000000000000        0.0000000000000000     
   6.2500000000000000E-002  0.75000000000000000        0.0000000000000000     
   9.3750000000000000E-002  0.75000000000000000        0.0000000000000000     
  0.12500000000000000       0.75000000000000000        0.0000000000000000     
   0.0000000000000000       0.78125000000000000        0.0000000000000000     
   3.1250000000000000E-002  0.78125000000000000        0.0000000000000000     
   6.2500000000000000E-002  0.78125000000000000        0.0000000000000000     
   9.3750000000000000E-002  0.78125000000000000        0.0000000000000000     
  0.12500000000000000       0.78125000000000000        0.0000000000000000     
   0.0000000000000000       0.81250000000000000        0.0000000000000000     
   3.1250000000000000E-002  0.81250000000000000        0.0000000000000000     
   6.2500000000000000E-002  0.81250000000000000        0.0000000000000000     
   9.3750000000000000E-002  0.81250000000000000        0.0000000000000000     
  0.12500000000000000       0.81250000000000000        0.0000000000000000     
   0.0000000000000000       0.84375000000000000        0.0000000000000000     
   3.1250000000000000E-002  0.84375000000000000        0.0000000000000000     
   6.2500000000000000E-002  0.84375000000000000        0.0000000000000000     
   9.3750000000000000E-002  0.84375000000000000        0.0000000000000000     
  0.12500000000000000       0.84375000000000000        0.0000000000000000     
   0.0000000000000000       0.87500000000000000        0.0000000000000000     
   3.1250000000000000E-002  0.87500000000000000        0.0000000000000000     
   6.2500000000000000E-002  0.87500000000000000        0.0000000000000000     
   9.3750000000000000E-002  0.87500000000000000        0.0000000000000000     
  0.12500000000000000       0.87500000000000000        0.0000000000000000     
  0.12500000000000000       0.75000000000000000        0.0000000000000000     
  0.15625000000000000       0.75000000000000000        0.0000000000000000     
  0.18750000000000000       0.75000000000000000        0.0000000000000000     
  0.21875000000000000       0.75000000000000000        0.0000000000000000     
  0.25000000000000000       0.75000000000000000        0.0000000000000000     
  0.12500000000000000       0.78125000000000000        0.0000000000000000     
  0.15625000000000000       0.78125000000000000        0.0000000000000000     
  0.18750000000000000       0.78125000000000000        0.0000000000000000     
  0.21875000000000000       0.78125000000000000        0.0000000000000000     
  0.25000000000000000       0.78125000000000000        0.0000000000000000     
  0.12500000000000000       0.81250000000000000        0.0000000000000000     
  0.15625000000000000       0.81250000000000000        0.0000000000000000     
  0.18750000000000000       0.81250000000000000        0.0000000000000000     
  0.21875000000000000       0.81250000000000000        0.0000000000000000     
  0.25000000000000000       0.81250000000000000        0.0000000000000000     
  0.12500000000000000       0.84375000000000000        0.0000000000000000     
  0.15625000000000000       0.84375000000000000        0.0000000000000000     
  0.18750000000000000       0.84375000000000000        0.0000000000000000     
  0.21875000000000000       0.84375000000000000        0.0000000000000000     
  0.25000000000000000       0.84375000000000000        0.0000000000000000     
  0.12500000000000000       0.87500000000000000        0.0000000000000000     
  0.15625000000000000       0.87500000000000000        0.0000000000000000     
  0.18750000000000000       0.87500000000000000        0.0000000000000000     
  0.21875000000000000       0.87500000000000000        0.0000000000000000     
  0.25000000000000000       0.87500000000000000        0.0000000000000000     
  0.25000000000000000       0.75000000000000000        0.0000000000000000     
  0.28125000000000000       0.75000000000000000        0.0000000000000000     
  0.31250000000000000       0.75000000000000000        0.0000000000000000     
  0.34375000000000000       0.75000000000000000        0.0000000000000000     
  0.37500000000000000       0.75000000000000000        0.0000000000000000     
  0.25000000000000000       0.78125000000000000        0.0000000000000000     
  0.28125000000000000       0.78125000000000000        0.0000000000000000     
  0.31250000000000000       0.78125000000000000        0.0000000000000000     
  0.34375000000000000       0.78125000000000000        0.0000000000000000     
  0.37500000000000000       0.78125000000000000        0.0000000000000000     
  0.25000000000000000       0.81250000000000000        0.0000000000000000     
  0.28125000000000000       0.81250000000000000        0.0000000000000000     
  0.31250000000000000       0.81250000000000000        0.0000000000000000     
  0.34375000000000000       0.81250000000000000        0.0000000000000000     
  0.37500000000000000       0.81250000000000000        0.0000000000000000     
  0.25000000000000000       0.84375000000000000        0.0000000000000000     
  0.28125000000000000       0.84375000000000000        0.0000000000000000     
  0.31250000000000000       0.84375000000000000        0.0000000000000000     
  0.34375000000000000       0.84375000000000000        0.0000000000000000     
  0.37500000000000000       0.84375000000000000        0.0000000000000000     
  0.25000000000000000       0.87500000000000000        0.0000000000000000     
  0.28125000000000000       0.87500000000000000        0.0000000000000000     
  0.31250000000000000       0.87500000000000000        0.0000000000000000     
  0.34375000000000000       0.87500000000000000        0.0000000000000000     
  0.37500000000000000       0.87500000000000000        0.0000000000000000     
  0.37500000000000000       0.75000000000000000        0.0000000000000000     
  0.40625000000000000       0.75000000000000000        0.0000000000000000     
  0.43750000000000000       0.75000000000000000        0.0000000000000000     
  0.46875000000000000       0.75000000000000000        0.0000000000000000     
  0.50000000000000000       0.75000000000000000        0.0000000000000000     
  0.37500000000000000       0.78125000000000000        0.0000000000000000     
  0.40625000000000000       0.78125000000000000        0.0000000000000000     
  0.43750000000000000       0.78125000000000000        0.0000000000000000     
  0.46875000000000000       0.78125000000000000        0.0000000000000000     
  0.50000000000000000       0.78125000000000000        0.0000000000000000     
  0.37500000000000000       0.81250000000000000        0.0000000000000000     
  0.40625000000000000       0.81250000000000000        0.0000000000000000     
  0.43750000000000000       0.81250000000000000        0.0000000000000000     
  0.46875000000000000       0.81250000000000000        0.0000000000000000     
  0.50000000000000000       0.81250000000000000        0.0000000000000000     
  0.37500000000000000       0.84375000000000000        0.0000000000000000     
  0.40625000000000000       0.84375000000000000        0.0000000000000000     
  0.43750000000000000       0.84375000000000000        0.0000000000000000     
  0.46875000000000000       0.84375000000000000        0.0000000000000000     
  0.50000000000000000       0.84375000000000000        0.0000000000000000     
  0.37500000000000000       0.87500000000000000        0.0000000000000000     
  0.40625000000000000       0.87500000000000000        0.0000000000000000     
  0.43750000000000000       0.87500000000000000        0.0000000000000000     
  0.46875000000000000       0.87500000000000000        0.0000000000000000     
  0.50000000000000000       0.87500000000000000        0.0000000000000000     
  0.50000000000000000       0.75000000000000000        0.0000000000000000     
  0.53125000000000000       0.75000000000000000        0.0000000000000000     
  0.56250000000000000       0.75000000000000000        0.0000000000000000     
  0.59375000000000000       0.75000000000000000        0.0000000000000000     
  0.62500000000000000       0.75000000000000000        0.0000000000000000     
  0.50000000000000000       0.78125000000000000        0.0000000000000000     
  0.53125000000000000       0.78125000000000000        0.0000000000000000     
  0.56250000000000000       0.78125000000000000        0.0000000000000000     
  0.59375000000000000       0.78125000000000000        0.0000000000000000     
  0.62500000000000000       0.78125000000000000        0.0000000000000000     
  0.50000000000000000       0.81250000000000000        0.0000000000000000     
  0.53125000000000000       0.81250000000000000        0.0000000000000000     
  0.56250000000000000       0.81250000000000000        0.0000000000000000     
  0.59375000000000000       0.81250000000000000        0.0000000000000000     
  0.62500000000000000       0.81250000000000000        0.0000000000000000     
  0.50000000000000000       0.84375000000000000        0.0000000000000000     
  0.53125000000000000       0.84375000000000000        0.0000000000000000     
  0.56250000000000000       0.84375000000000000        0.0000000000000000     
  0.59375000000000000       0.84375000000000000        0.0000000000000000     
  0.62500000000000000       0.84375000000000000        0.0000000000000000     
  0.50000000000000000       0.87500000000000000        0.0000000000000000     
  0.53125000000000000       0.87500000000000000        0.0000000000000000     
  0.56250000000000000       0.87500000000000000        0.0000000000000000     
  0.59375000000000000       0.87500000000000000        0.0000000000000000     
  0.62500000000000000       0.87500000000000000        0.0000000000000000     
  0.62500000000000000       0.75000000000000000        0.0000000000000000     
  0.65625000000000000       0.75000000000000000        0.0000000000000000     
  0.68750000000000000       0.75000000000000000        0.0000000000000000     
  0.71875000000000000       0.75000000000000000        0.0000000000000000     
  0.75000000000000000       0.75000000000000000        0.0000000000000000     
  0.62500000000000000       0.78125000000000000        0.0000000000000000     
  0.65625000000000000       0.78125000000000000        0.0000000000000000     
  0.68750000000000000       0.78125000000000000        0.0000000000000000     
  0.71875000000000000       0.78125000000000000        0.0000000000000000     
  0.75000000000000000       0.78125000000000000        0.0000000000000000     
  0.62500000000000000       0.81250000000000000        0.0000000000000000     
  0.65625000000000000       0.81250000000000000        0.0000000000000000     
  0.68750000000000000       0.81250000000000000        0.0000000000000000     
  0.71875000000000000       0.81250000000000000        0.0000000000000000     
  0.75000000000000000       0.81250000000000000        0.0000000000000000     
  0.62500000000000000       0.84375000000000000        0.0000000000000000     
  0.65625000000000000       0.84375000000000000        0.0000000000000000     
  0.68750000000000000       0.84375000000000000        0.0000000000000000     
  0.71875000000000000       0.84375000000000000        0.0000000000000000     
  0.75000000000000000       0.84375000000000000        0.0000000000000000     
  0.62500000000000000       0.87500000000000000        0.0000000000000000     
  0.65625000000000000       0.87500000000000000        0.0000000000000000     
  0.68750000000000000       0.87500000000000000        0.0000000000000000     
  0.71875000000000000       0.87500000000000000        0.0000000000000000     
  0.75000000000000000       0.87500000000000000        0.0000000000000000     
  0.75000000000000000       0.75000000000000000        0.0000000000000000     
  0.78125000000000000       0.75000000000000000        0.0000000000000000     
  0.81250000000000000       0.75000000000000000        0.0000000000000000     
  0.84375000000000000       0.75000000000000000        0.0000000000000000     
  0.87500000000000000       0.75000000000000000        0.0000000000000000     
  0.75000000000000000       0.78125000000000000        0.0000000000000000     
  0.78125000000000000       0.78125000000000000        0.0000000000000000     
  0.81250000000000000       0.78125000000000000        0.0000000000000000     
  0.84375000000000000       0.78125000000000000        0.0000000000000000     
  0.87500000000000000       0.78125000000000000        0.0000000000000000     
  0.75000000000000000       0.81250000000000000        0.0000000000000000     
  0.78125000000000000       0.81250000000000000        0.0000000000000000     
  0.81250000000000000       0.81250000000000000        0.0000000000000000     
  0.84375000000000000       0.81250000000000000        0.0000000000000000     
  0.87500000000000000       0.81250000000000000        0.0000000000000000     
  0.75000000000000000       0.84375000000000000        0.0000000000000000     
  0.78125000000000000       0.84375000000000000        0.0000000000000000     
  0.81250000000000000       0.84375000000000000        0.0000000000000000     
  0.84375000000000000       0.84375000000000000        0.0000000000000000     
  0.87500000000000000       0.84375000000000000        0.0000000000000000     
  0.75000000000000000       0.87500000000000000        0.0000000000000000     
  0.78125000000000000       0.87500000000000000        0.0000000000000000     
  0.81250000000000000       0.87500000000000000        0.0000000000000000     
  0.84375000000000000       0.87500000000000000        0.0000000000000000     
  0.87500000000000000       0.87500000000000000        0.0000000000000000     
  0.87500000000000000       0.75000000000000000        0.0000000000000000     
  0.90625000000000000       0.75000000000000000        0.0000000000000000     
  0.93750000000000000       0.75000000000000000        0.0000000000000000     
  0.96875000000000000       0.75000000000000000        0.0000000000000000     
   1.0000000000000000       0.75000000000000000        0.0000000000000000     
  0.87500000000000000       0.78125000000000000        0.0000000000000000     
  0.90625000000000000       0.78125000000000000        0.0000000000000000     
  0.93750000000000000       0.78125000000000000        0.0000000000000000     
  0.96875000000000000       0.78125000000000000        0.0000000000000000     
   1.0000000000000000       0.78125000000000000        0.0000000000000000     
  0.87500000000000000       0.81250000000000000        0.0000000000000000     
  0.90625000000000000       0.81250000000000000        0.0000000000000000     
  0.93750000000000000       0.81250000000000000        0.0000000000000000     
  0.96875000000000000       0.81250000000000000        0.0000000000000000     
   1.0000000000000000       0.81250000000000000        0.0000000000000000     
  0.87500000000000000       0.84375000000000000        0.0000000000000000     
  0.90625000000000000       0.84375000000000000        0.0000000000000000     
  0.93750000000000000       0.84375000000000000        0.0000000000000000     
  0.96875000000000000       0.84375000000000000        0.0000000000000000     
   1.0000000000000000       0.84375000000000000        0.0000000000000000     
  0.87500000000000000       0.87500000000000000        0.0000000000000000     
  0.90625000000000000       0.87500000000000000        0.0000000000000000     
  0.93750000000000000       0.87500000000000000        0.0000000000000000     
  0.96875000000000000       0.87500000000000000        0.0000000000000000     
   1.0000000000000000       0.87500000000000000        0.0000000000000000     
   0.0000000000000000       0.87500000000000000        0.0000000000000000     
   3.1250000000000000E-002  0.87500000000000000        0.0000000000000000     
   6.2500000000000000E-002  0.87500000000000000        0.0000000000000000     
   9.3750000000000000E-002  0.87500000000000000        0.0000000000000000     
  0.12500000000000000       0.87500000000000000        0.0000000000000000     
   0.0000000000000000       0.90625000000000000        0.0000000000000000     
   3.1250000000000000E-002  0.90625000000000000        0.0000000000000000     
   6.2500000000000000E-002  0.90625000000000000        0.0000000000000000     
   9.3750000000000000E-002  0.90625000000000000        0.0000000000000000     
  0.12500000000000000       0.90625000000000000        0.0000000000000000     
   0.0000000000000000       0.93750000000000000        0.0000000000000000     
   3.1250000000000000E-002  0.93750000000000000        0.0000000000000000     
   6.2500000000000000E-002  0.93750000000000000        0.0000000000000000     
   9.3750000000000000E-002  0.93750000000000000        0.0000000000000000     
  0.12500000000000000       0.93750000000000000        0.0000000000000000     
   0.0000000000000000       0.96875000000000000        0.0000000000000000     
   3.1250000000000000E-002  0.96875000000000000        0.0000000000000000     
   6.2500000000000000E-002  0.96875000000000000        0.0000000000000000     
   9.3750000000000000E-002  0.96875000000000000        0.0000000000000000     
  0.12500000000000000       0.96875000000000000        0.0000000000000000     
   0.0000000000000000        1.0000000000000000        0.0000000000000000     
   3.1250000000000000E-002   1.0000000000000000        0.0000000000000000     
   6.2500000000000000E-002   1.0000000000000000        0.0000000000000000     
   9.3750000000000000E-002   1.0000000000000000        0.0000000000000000     
  0.12500000000000000        1.0000000000000000        0.0000000000000000     
  0.12500000000000000       0.87500000000000000        0.0000000000000000     
  0.15625000000000000       0.87500000000000000        0.0000000000000000     
  0.18750000000000000       0.87500000000000000        0.0000000000000000     
  0.21875000000000000       0.87500000000000000        0.0000000000000000     
  0.25000000000000000       0.87500000000000000        0.0000000000000000     
  0.12500000000000000       0.90625000000000000        0.0000000000000000     
  0.15625000000000000       0.90625000000000000        0.0000000000000000     
  0.18750000000000000       0.90625000000000000        0.0000000000000000     
  0.21875000000000000       0.90625000000000000        0.0000000000000000     
  0.25000000000000000       0.90625000000000000        0.0000000000000000     
  0.12500000000000000       0.93750000000000000        0.0000000000000000     
  0.15625000000000000       0.93750000000000000        0.0000000000000000     
  0.18750000000000000       0.93750000000000000        0.0000000000000000     
  0.21875000000000000       0.93750000000000000        0.0000000000000000     
  0.25000000000000000       0.93750000000000000        0.0000000000000000     
  0.12500000000000000       0.96875000000000000        0.0000000000000000     
  0.15625000000000000       0.96875000000000000        0.0000000000000000     
  0.18750000000000000       0.96875000000000000        0.0000000000000000     
  0.21875000000000000       0.96875000000000000        0.0000000000000000     
  0.25000000000000000       0.96875000000000000        0.0000000000000000     
  0.12500000000000000        1.0000000000000000        0.0000000000000000     
  0.15625000000000000        1.0000000000000000        0.0000000000000000     
  0.18750000000000000        1.0000000000000000        0.0000000000000000     
  0.21875000000000000        1.0000000000000000        0.0000000000000000     
  0.25000000000000000        1.0000000000000000        0.0000000000000000     
  0.25000000000000000       0.87500000000000000        0.0000000000000000     
  0.28125000000000000       0.87500000000000000        0.0000000000000000     
  0.31250000000000000       0.87500000000000000        0.0000000000000000     
  0.34375000000000000       0.87500000000000000        0.0000000000000000     
  0.37500000000000000       0.87500000000000000        0.0000000000000000     
  0.25000000000000000       0.90625000000000000        0.0000000000000000     
  0.28125000000000000       0.90625000000000000        0.0000000000000000     
  0.31250000000000000       0.90625000000000000        0.0000000000000000     
  0.34375000000000000       0.90625000000000000        0.0000000000000000     
  0.37500000000000000       0.90625000000000000        0.0000000000000000     
  0.25000000000000000       0.93750000000000000        0.0000000000000000     
  0.28125000000000000       0.93750000000000000        0.0000000000000000     
  0.31250000000000000       0.93750000000000000        0.0000000000000000     
  0.34375000000000000       0.93750000000000000        0.0000000000000000     
  0.37500000000000000       0.93750000000000000        0.0000000000000000     
  0.25000000000000000       0.96875000000000000        0.0000000000000000     
  0.28125000000000000       0.96875000000000000        0.0000000000000000     
  0.31250000000000000       0.96875000000000000        0.0000000000000000     
  0.34375000000000000       0.96875000000000000        0.0000000000000000     
  0.37500000000000000       0.96875000000000000        0.0000000000000000     
  0.25000000000000000        1.0000000000000000        0.0000000000000000     
  0.28125000000000000        1.0000000000000000        0.0000000000000000     
  0.31250000000000000        1.0000000000000000        0.0000000000000000     
  0.34375000000000000        1.0000000000000000        0.0000000000000000     
  0.37500000000000000        1.0000000000000000        0.0000000000000000     
  0.37500000000000000       0.87500000000000000        0.0000000000000000     
  0.40625000000000000       0.87500000000000000        0.0000000000000000     
  0.43750000000000000       0.87500000000000000        0.0000000000000000     
  0.46875000000000000       0.87500000000000000        0.0000000000000000     
  0.50000000000000000       0.87500000000000000        0.0000000000000000     
  0.37500000000000000       0.90625000000000000        0.0000000000000000     
  0.40625000000000000       0.90625000000000000        0.0000000000000000     
  0.43750000000000000       0.90625000000000000        0.0000000000000000     
  0.46875000000000000       0.90625000000000000        0.0000000000000000     
  0.50000000000000000       0.90625000000000000        0.0000000000000000     
  0.37500000000000000       0.93750000000000000        0.0000000000000000     
  0.40625000000000000       0.93750000000000000        0.0000000000000000     
  0.43750000000000000       0.93750000000000000        0.0000000000000000     
  0.46875000000000000       0.93750000000000000        0.0000000000000000     
  0.50000000000000000       0.93750000000000000        0.0000000000000000     
  0.37500000000000000       0.96875000000000000        0.0000000000000000     
  0.40625000000000000       0.96875000000000000        0.0000000000000000     
  0.43750000000000000       0.96875000000000000        0.0000000000000000     
  0.46875000000000000       0.96875000000000000        0.0000000000000000     
  0.50000000000000000       0.96875000000000000        0.0000000000000000     
  0.37500000000000000        1.0000000000000000        0.0000000000000000     
  0.40625000000000000        1.0000000000000000        0.0000000000000000     
  0.43750000000000000        1.0000000000000000        0.0000000000000000     
  0.46875000000000000        1.0000000000000000        0.0000000000000000     
  0.50000000000000000        1.0000000000000000        0.0000000000000000     
  0.50000000000000000       0.87500000000000000        0.0000000000000000     
  0.53125000000000000       0.87500000000000000        0.0000000000000000     
  0.56250000000000000       0.87500000000000000        0.0000000000000000     
  0.59375000000000000       0.87500000000000000        0.0000000000000000     
  0.62500000000000000       0.87500000000000000        0.0000000000000000     
  0.50000000000000000       0.90625000000000000        0.0000000000000000     
  0.53125000000000000       0.90625000000000000        0.0000000000000000     
  0.56250000000000000       0.90625000000000000        0.0000000000000000     
  0.59375000000000000       0.90625000000000000        0.0000000000000000     
  0.62500000000000000       0.90625000000000000        0.0000000000000000     
  0.50000000000000000       0.93750000000000000        0.0000000000000000     
  0.53125000000000000       0.93750000000000000        0.0000000000000000     
  0.56250000000000000       0.93750000000000000        0.0000000000000000     
  0.59375000000000000       0.93750000000000000        0.0000000000000000     
  0.62500000000000000       0.93750000000000000        0.0000000000000000     
  0.50000000000000000       0.96875000000000000        0.0000000000000000     
  0.53125000000000000       0.96875000000000000        0.0000000000000000     
  0.56250000000000000       0.96875000000000000        0.0000000000000000     
  0.59375000000000000       0.96875000000000000        0.0000000000000000     
  0.62500000000000000       0.96875000000000000        0.0000000000000000     
  0.50000000000000000        1.0000000000000000        0.0000000000000000     
  0.53125000000000000        1.0000000000000000        0.0000000000000000     
  0.56250000000000000        1.0000000000000000        0.0000000000000000     
  0.59375000000000000        1.0000000000000000        0.0000000000000000     
  0.62500000000000000        1.0000000000000000        0.0000000000000000     
  0.62500000000000000       0.87500000000000000        0.0000000000000000     
  0.65625000000000000       0.87500000000000000        0.0000000000000000     
  0.68750000000000000       0.87500000000000000        0.0000000000000000     
  0.71875000000000000       0.87500000000000000        0.0000000000000000     
  0.75000000000000000       0.87500000000000000        0.0000000000000000     
  0.62500000000000000       0.90625000000000000        0.0000000000000000     
  0.65625000000000000       0.90625000000000000        0.0000000000000000     
  0.68750000000000000       0.90625000000000000        0.0000000000000000     
  0.71875000000000000       0.90625000000000000        0.0000000000000000     
  0.75000000000000000       0.90625000000000000        0.0000000000000000     
  0.62500000000000000       0.93750000000000000        0.0000000000000000     
  0.65625000000000000       0.93750000000000000        0.0000000000000000     
  0.68750000000000000       0.93750000000000000        0.0000000000000000     
  0.71875000000000000       0.93750000000000000        0.0000000000000000     
  0.75000000000000000       0.93750000000000000        0.0000000000000000     
  0.62500000000000000       0.96875000000000000        0.0000000000000000     
  0.65625000000000000       0.96875000000000000        0.0000000000000000     
  0.68750000000000000       0.96875000000000000        0.0000000000000000     
  0.71875000000000000       0.96875000000000000        0.0000000000000000     
  0.75000000000000000       0.96875000000000000        0.0000000000000000     
  0.62500000000000000        1.0000000000000000        0.0000000000000000     
  0.65625000000000000        1.0000000000000000        0.0000000000000000     
  0.68750000000000000        1.0000000000000000        0.0000000000000000     
  0.71875000000000000        1.0000000000000000        0.0000000000000000     
  0.75000000000000000        1.0000000000000000        0.0000000000000000     
  0.75000000000000000       0.87500000000000000        0.0000000000000000     
  0.78125000000000000       0.87500000000000000        0.0000000000000000     
  0.81250000000000000       0.87500000000000000        0.0000000000000000     
  0.84375000000000000       0.87500000000000000        0.0000000000000000     
  0.87500000000000000       0.87500000000000000        0.0000000000000000     
  0.75000000000000000       0.90625000000000000        0.0000000000000000     
  0.78125000000000000       0.90625000000000000        0.0000000000000000     
  0.81250000000000000       0.90625000000000000        0.0000000000000000     
  0.84375000000000000       0.90625000000000000        0.0000000000000000     
  0.87500000000000000       0.90625000000000000        0.0000000000000000     
  0.75000000000000000       0.93750000000000000        0.0000000000000000     
  0.78125000000000000       0.93750000000000000        0.0000000000000000     
  0.81250000000000000       0.93750000000000000        0.0000000000000000     
  0.84375000000000000       0.93750000000000000        0.0000000000000000     
  0.87500000000000000       0.93750000000000000        0.0000000000000000     
  0.75000000000000000       0.96875000000000000        0.0000000000000000     
  0.78125000000000000       0.96875000000000000        0.0000000000000000     
  0.81250000000000000       0.96875000000000000        0.0000000000000000     
  0.84375000000000000       0.96875000000000000        0.0000000000000000     
  0.87500000000000000       0.96875000000000000        0.0000000000000000     
  0.75000000000000000        1.0000000000000000        0.0000000000000000     
  0.78125000000000000        1.0000000000000000        0.0000000000000000     
  0.81250000000000000        1.0000000000000000        0.0000000000000000     
  0.84375000000000000        1.0000000000000000        0.0000000000000000     
  0.87500000000000000        1.0000000000000000        0.0000000000000000     
  0.87500000000000000       0.87500000000000000        0.0000000000000000     
  0.90625000000000000       0.87500000000000000        0.0000000000000000     
  0.93750000000000000       0.87500000000000000        0.0000000000000000     
  0.96875000000000000       0.87500000000000000        0.0000000000000000     
   1.0000000000000000       0.87500000000000000        0.0000000000000000     
  0.87500000000000000       0.90625000000000000        0.0000000000000000     
  0.90625000000000000       0.90625000000000000        0.0000000000000000     
  0.93750000000000000       0.90625000000000000        0.0000000000000000     
  0.96875000000000000       0.90625000000000000        0.0000000000000000     
   1.0000000000000000       0.90625000000000000        0.0000000000000000     
  0.87500000000000000       0.93750000000000000        0.0000000000000000     
  0.90625000000000000       0.93750000000000000        0.0000000000000000     
  0.93750000000000000       0.93750000000000000        0.0000000000000000     
  0.96875000000000000       0.93750000000000000        0.0000000000000000     
   1.0000000000000000       0.93750000000000000        0.0000000000000000     
  0.87500000000000000       0.96875000000000000        0.0000000000000000     
  0.90625000000000000       0.96875000000000000        0.0000000000000000     
  0.93750000000000000       0.96875000000000000        0.0000000000000000     
  0.96875000000000000       0.96875000000000000        0.0000000000000000     
   1.0000000000000000       0.96875000000000000        0.0000000000000000     
  0.87500000000000000        1.0000000000000000        0.0000000000000000     
  0.90625000000000000        1.0000000000000000        0.0000000000000000     
  0.93750000000000000        1.0000000000000000        0.0000000000000000     
  0.96875000000000000        1.0000000000000000        0.0000000000000000     
   1.0000000000000000        1.0000000000000000        0.0000000000000000     
 </DataArray>
 </Points>
 <Cells>
 <DataArray  type="Int32"  Name="connectivity"  format="ascii">
           0           1           6           5
           1           2           7           6
           2           3           8           7
           3           4           9           8
           5           6          11          10
           6           7          12          11
           7           8          13          12
           8           9          14          13
          10          11          16          15
          11          12          17          16
          12          13          18          17
          13          14          19          18
          15          16          21          20
          16          17          22          21
          17          18          23          22
          18          19          24          23
          25          26          31          30
          26          27          32          31
          27          28          33          32
          28          29          34          33
          30          31          36          35
          31          32          37          36
          32          33          38          37
          33          34          39          38
          35          36          41          40
          36          37          42          41
          37          38          43          42
          38          39          44          43
          40          41          46          45
          41          42          47          46
          42          43          48          47
          43          44          49          48
          50          51          56          55
          51          52          57          56
          52          53          58          57
          53          54          59          58
          55          56          61          60
          56          57          62          61
          57          58          63          62
          58          59          64          63
          60          61          66          65
          61          62          67          66
          62          63          68          67
          63          64          69          68
          65          66          71          70
          66          67          72          71
          67          68          73          72
          68          69          74          73
          75          76          81          80
          76          77          82          81
          77          78          83          82
          78          79          84          83
          80          81          86          85
          81          82          87          86
          82          83          88          87
          83          84          89          88
          85          86          91          90
          86          87          92          91
          87          88          93          92
          88          89          94          93
          90          91          96          95
          91          92          97          96
          92          93          98          97
          93          94          99          98
         100         101         106         105
         101         102         107         106
         102         103         108         107
         103         104         109         108
         105         106         111         110
         106         107         112         111
         107         108         113         112
         108         109         114         113
         110         111         116         115
         111         112         117         116
         112         113         118         117
         113         114         119         118
         115         116         121         120
         116         117         122         121
         117         118         123         122
         118         119         124         123
         125         126         131         130
         126         127         132         131
         127         128         133         132
         128         129         134         133
         130         131         136         135
         131         132         137         136
         132         133         138         137
         133         134         139         138
         135         136         141         140
         136         137         142         141
         137         138         143         142
         138         139         144         143
         140         141         146         145
         141         142         147         146
         142         143         148         147
         143         144         149         148
         150         151         156         155
         151         152         157         156
         152         153         158         157
         153         154         159         158
         155         156         161         160
         156         157         162         161
         157         158         163         162
         158         159         164         163
         160         161         166         165
         161         162         167         166
         162         163         168         167
         163         164         169         168
         165         166         171         170
         166         167         172         171
         167         168         173         172
         168         169         174         173
         175         176         181         180
         176         177         182         181
         177         178         183         182
         178         179         184         183
         180         181         186         185
         181         182         187         186
         182         183         188         187
         183         184         189         188
         185         186         191         190
         186         187         192         191
         187         188         193         192
         188         189         194         193
         190         191         196         195
         191         192         197         196
         192         193         198         197
         193         194         199         198
         200         201         206         205
         201         202         207         206
         202         203         208         207
         203         204         209         208
         205         206         211         210
         206         207         212         211
         207         208         213         212
         208         209         214         213
         210         211         216         215
         211         212         217         216
         212         213         218         217
         213         214         219         218
         215         216         221         220
         216         217         222         221
         217         218         223         222
         218         219         224         223
         225         226         231         230
         226         227         232         231
         227         228         233         232
         228         229         234         233
         230         231         236         235
         231         232         237         236
         232         233         238         237
         233         234         239         238
         235         236         241         240
         236         237         242         241
         237         238         243         242
         238         239         244         243
         240         241         246         245
         241         242         247         246
         242         243         248         247
         243         244         249         248
         250         251         256         255
         251         252         257         256
         252         253         258         257
         253         254         259         258
         255         256         261         260
         256         257         262         261
         257         258         263         262
         258         259         264         263
         260         261         266         265
         261         262         267         266
         262         263         268         267
         263         264         269         268
         265         266         271         270
         266         267         272         271
         267         268         273         272
         268         269         274         273
         275         276         281         280
         276         277         282         281
         277         278         283         282
         278         279         284         283
         280         281         286         285
         281         282         287         286
         282         283         288         287
         283         284         289         288
         285         286         291         290
         286         287         292         291
         287         288         293         292
         288         289         294         293
         290         291         296         295
         291         292         297         296
         292         293         298         297
         293         294         299         298
         300         301         306         305
         301         302         307         306
         302         303         308         307
         303         304         309         308
         305         306         311         310
         306         307         312         311
         307         308         313         312
         308         309         314         313
         310         311         316         315
         311         312         317         316
         312         313         318         317
         313         314         319         318
         315         316         321         320
         316         317         322         321
         317         318         323         322
         318         319         324         323
         325         326         331         330
         326         327         332         331
         327         328         333         332
         328         329         334         333
         330         331         336         335
         331         332         337         336
         332         333         338         337
         333         334         339         338
         335         336         341         340
         336         337         342         341
         337         338         343         342
         338         339         344         343
         340         341         346         345
         341         342         347         346
         342         343         348         347
         343         344         349         348
         350         351         356         355
         351         352         357         356
         352         353         358         357
         353         354         359         358
         355         356         361         360
         356         357         362         361
         357         358         363         362
         358         359         364         363
         360         361         366         365
         361         362         367         366
         362         363         368         367
         363         364         369         368
         365         366         371         370
         366         367         372         371
         367         368         373         372
         368         369         374         373
         375         376         381         380
         376         377         382         381
         377         378         383         382
         378         379         384         383
         380         381         386         385
         381         382         387         386
         382         383         388         387
         383         384         389         388
         385         386         391         390
         386         387         392         391
         387         388         393         392
         388         389         394         393
         390         391         396         395
         391         392         397         396
         392         393         398         397
         393         394         399         398
         400         401         406         405
         401         402         407         406
         402         403         408         407
         403         404         409         408
         405         406         411         410
         406         407         412         411
         407         408         413         412
         408         409         414         413
         410         411         416         415
         411         412         417         416
         412         413         418         417
         413         414         419         418
         415         416         421         420
         416         417         422         421
         417         418         423         422
         418         419         424         423
         425         426         431         430
         426         427         432         431
         427         428         433         432
         428         429         434         433
         430         431         436         435
         431         432         437         436
         432         433         438         437
         433         434         439         438
         435         436         441         440
         436         437         442         441
         437         438         443         442
         438         439         444         443
         440         441         446         445
         441         442         447         446
         442         443         448         447
         443         444         449         448
         450         451         456         455
         451         452         457         456
         452         453         458         457
         453         454         459         458
         455         456         461         460
         456         457         462         461
         457         458         463         462
         458         459         464         463
         460         461         466         465
         461         462         467         466
         462         463         468         467
         463         464         469         468
         465         466         471         470
         466         467         472         471
         467         468         473         472
         468         469         474         473
         475         476         481         480
         476         477         482         481
         477         478         483         482
         478         479         484         483
         480         481         486         485
         481         482         487         486
         482         483         488         487
         483         484         489         488
         485         486         491         490
         486         487         492         491
         487         488         493         492
         488         489         494         493
         490         491         496         495
         491         492         497         496
         492         493         498         497
         493         494         499         498
         500         501         506         505
         501         502         507         506
         502         503         508         507
         503         504         509         508
         505         506         511         510
         506         507         512         511
         507         508         513         512
         508         509         514         513
         510         511         516         515
         511         512         517         516
         512         513         518         517
         513         514         519         518
         515         516         521         520
         516         517         522         521
         517         518         523         522
         518         519         524         523
         525         526         531         530
         526         527         532         531
         527         528         533         532
         528         529         534         533
         530         531         536         535
         531         532         537         536
         532         533         538         537
         533         534         539         538
         535         536         541         540
         536         537         542         541
         537         538         543         542
         538         539         544         543
         540         541         546         545
         541         542         547         546
         542         543         548         547
         543         544         549         548
         550         551         556         555
         551         552         557         556
         552         553         558         557
         553         554         559         558
         555         556         561         560
         556         557         562         561
         557         558         563         562
         558         559         564         563
         560         561         566         565
         561         562         567         566
         562         563         568         567
         563         564         569         568
         565         566         571         570
         566         567         572         571
         567         568         573         572
         568         569         574         573
         575         576         581         580
         576         577         582         581
         577         578         583         582
         578         579         584         583
         580         581         586         585
         581         582         587         586
         582         583         588         587
         583         584         589         588
         585         586         591         590
         586         587         592         591
         587         588         593         592
         588         589         594         593
         590         591         596         595
         591         592         597         596
         592         593         598         597
         593         594         599         598
         600         601         606         605
         601         602         607         606
         602         603         608         607
         603         604         609         608
         605         606         611         610
         606         607         612         611
         607         608         613         612
         608         609         614         613
         610         611         616         615
         611         612         617         616
         612         613         618         617
         613         614         619         618
         615         616         621         620
         616         617         622         621
         617         618         623         622
         618         619         624         623
         625         626         631         630
         626         627         632         631
         627         628         633         632
         628         629         634         633
         630         631         636         635
         631         632         637         636
         632         633         638         637
         633         634         639         638
         635         636         641         640
         636         637         642         641
         637         638         643         642
         638         639         644         643
         640         641         646         645
         641         642         647         646
         642         643         648         647
         643         644         649         648
         650         651         656         655
         651         652         657         656
         652         653         658         657
         653         654         659         658
         655         656         661         660
         656         657         662         661
         657         658         663         662
         658         659         664         663
         660         661         666         665
         661         662         667         666
         662         663         668         667
         663         664         669         668
         665         666         671         670
         666         667         672         671
         667         668         673         672
         668         669         674         673
         675         676         681         680
         676         677         682         681
         677         678         683         682
         678         679         684         683
         680         681         686         685
         681         682         687         686
         682         683         688         687
         683         684         689         688
         685         686         691         690
         686         687         692         691
         687         688         693         692
         688         689         694         693
         690         691         696         695
         691         692         697         696
         692         693         698         697
         693         694         699         698
         700         701         706         705
         701         702         707         706
         702         703         708         707
         703         704         709         708
         705         706         711         710
         706         707         712         711
         707         708         713         712
         708         709         714         713
         710         711         716         715
         711         712         717         716
         712         713         718         717
         713         714         719         718
         715         716         721         720
         716         717         722         721
         717         718         723         722
         718         719         724         723
         725         726         731         730
         726         727         732         731
         727         728         733         732
         728         729         734         733
         730         731         736         735
         731         732         737         736
         732         733         738         737
         733         734         739         738
         735         736         741         740
         736         737         742         741
         737         738         743         742
         738         739         744         743
         740         741         746         745
         741         742         747         746
         742         743         748         747
         743         744         749         748
         750         751         756         755
         751         752         757         756
         752         753         758         757
         753         754         759         758
         755         756         761         760
         756         757         762         761
         757         758         763         762
         758         759         764         763
         760         761         766         765
         761         762         767         766
         762         763         768         767
         763         764         769         768
         765         766         771         770
         766         767         772         771
         767         768         773         772
         768         769         774         773
         775         776         781         780
         776         777         782         781
         777         778         783         782
         778         779         784         783
         780         781         786         785
         781         782         787         786
         782         783         788         787
         783         784         789         788
         785         786         791         790
         786         787         792         791
         787         788         793         792
         788         789         794         793
         790         791         796         795
         791         792         797         796
         792         793         798         797
         793         794         799         798
         800         801         806         805
         801         802         807         806
         802         803         808         807
         803         804         809         808
         805         806         811         810
         806         807         812         811
         807         808         813         812
         808         809         814         813
         810         811         816         815
         811         812         817         816
         812         813         818         817
         813         814         819         818
         815         816         821         820
         816         817         822         821
         817         818         823         822
         818         819         824         823
         825         826         831         830
         826         827         832         831
         827         828         833         832
         828         829         834         833
         830         831         836         835
         831         832         837         836
         832         833         838         837
         833         834         839         838
         835         836         841         840
         836         837         842         841
         837         838         843         842
         838         839         844         843
         840         841         846         845
         841         842         847         846
         842         843         848         847
         843         844         849         848
         850         851         856         855
         851         852         857         856
         852         853         858         857
         853         854         859         858
         855         856         861         860
         856         857         862         861
         857         858         863         862
         858         859         864         863
         860         861         866         865
         861         862         867         866
         862         863         868         867
         863         864         869         868
         865         866         871         870
         866         867         872         871
         867         868         873         872
         868         869         874         873
         875         876         881         880
         876         877         882         881
         877         878         883         882
         878         879         884         883
         880         881         886         885
         881         882         887         886
         882         883         888         887
         883         884         889         888
         885         886         891         890
         886         887         892         891
         887         888         893         892
         888         889         894         893
         890         891         896         895
         891         892         897         896
         892         893         898         897
         893         894         899         898
         900         901         906         905
         901         902         907         906
         902         903         908         907
         903         904         909         908
         905         906         911         910
         906         907         912         911
         907         908         913         912
         908         909         914         913
         910         911         916         915
         911         912         917         916
         912         913         918         917
         913         914         919         918
         915         916         921         920
         916         917         922         921
         917         918         923         922
         918         919         924         923
         925         926         931         930
         926         927         932         931
         927         928         933         932
         928         929         934         933
         930         931         936         935
         931         932         937         936
         932         933         938         937
         933         934         939         938
         935         936         941         940
         936         937         942         941
         937         938         943         942
         938         939         944         943
         940         941         946         945
         941         942         947         946
         942         943         948         947
         943         944         949         948
         950         951         956         955
         951         952         957         956
         952         953         958         957
         953         954         959         958
         955         956         961         960
         956         957         962         961
         957         958         963         962
         958         959         964         963
         960         961         966         965
         961         962         967         966
         962         963         968         967
         963         964         969         968
         965         966         971         970
         966         967         972         971
         967         968         973         972
         968         969         974         973
         975         976         981         980
         976         977         982         981
         977         978         983         982
         978         979         984         983
         980         981         986         985
         981         982         987         986
         982         983         988         987
         983         984         989         988
         985         986         991         990
         986         987         992         991
         987         988         993         992
         988         989         994         993
         990         991         996         995
         991         992         997         996
         992         993         998         997
         993         994         999         998
        1000        1001        1006        1005
        1001        1002        1007        1006
        1002        1003        1008        1007
        1003        1004        1009        1008
        1005        1006        1011        1010
        1006        1007        1012        1011
        1007        1008        1013        1012
        1008        1009        1014        1013
        1010        1011        1016        1015
        1011        1012        1017        1016
        1012        1013        1018        1017
        1013        1014        1019        1018
        1015        1016        1021        1020
        1016        1017        1022        1021
        1017        1018        1023        1022
        1018        1019        1024        1023
        1025        1026        1031        1030
        1026        1027        1032        1031
        1027        1028        1033        1032
        1028        1029        1034        1033
        1030        1031        1036        1035
        1031        1032        1037        1036
        1032        1033        1038        1037
        1033        1034        1039        1038
        1035        1036        1041        1040
        1036        1037        1042        1041
        1037        1038        1043        1042
        1038        1039        1044        1043
        1040        1041        1046        1045
        1041        1042        1047        1046
        1042        1043        1048        1047
        1043        1044        1049        1048
        1050        1051        1056        1055
        1051        1052        1057        1056
        1052        1053        1058        1057
        1053        1054        1059        1058
        1055        1056        1061        1060
        1056        1057        1062        1061
        1057        1058        1063        1062
        1058        1059        1064        1063
        1060        1061        1066        1065
        1061        1062        1067        1066
        1062        1063        1068        1067
        1063        1064        1069        1068
        1065        1066        1071        1070
        1066        1067        1072        1071
        1067        1068        1073        1072
        1068        1069        1074        1073
        1075        1076        1081        1080
        1076        1077        1082        1081
        1077        1078        1083        1082
        1078        1079        1084        1083
        1080        1081        1086        1085
        1081        1082        1087        1086
        1082        1083        1088        1087
        1083        1084        1089        1088
        1085        1086        1091        1090
        1086        1087        1092        1091
        1087        1088        1093        1092
        1088        1089        1094        1093
        1090        1091        1096        1095
        1091        1092        1097        1096
        1092        1093        1098        1097
        1093        1094        1099        1098
        1100        1101        1106        1105
        1101        1102        1107        1106
        1102        1103        1108        1107
        1103        1104        1109        1108
        1105        1106        1111        1110
        1106        1107        1112        1111
        1107        1108        1113        1112
        1108        1109        1114        1113
        1110        1111        1116        1115
        1111        1112        1117        1116
        1112        1113        1118        1117
        1113        1114        1119        1118
        1115        1116        1121        1120
        1116        1117        1122        1121
        1117        1118        1123        1122
        1118        1119        1124        1123
        1125        1126        1131        1130
        1126        1127        1132        1131
        1127        1128        1133        1132
        1128        1129        1134        1133
        1130        1131        1136        1135
        1131        1132        1137        1136
        1132        1133        1138        1137
        1133        1134        1139        1138
        1135        1136        1141        1140
        1136        1137        1142        1141
        1137        1138        1143        1142
        1138        1139        1144        1143
        1140        1141        1146        1145
        1141        1142        1147        1146
        1142        1143        1148        1147
        1143        1144        1149        1148
        1150        1151        1156        1155
        1151        1152        1157        1156
        1152        1153        1158        1157
        1153        1154        1159        1158
        1155        1156        1161        1160
        1156        1157        1162        1161
        1157        1158        1163        1162
        1158        1159        1164        1163
        1160        1161        1166        1165
        1161        1162        1167        1166
        1162        1163        1168        1167
        1163        1164        1169        1168
        1165        1166        1171        1170
        1166        1167        1172        1171
        1167        1168        1173        1172
        1168        1169        1174        1173
        1175        1176        1181        1180
        1176        1177        1182        1181
        1177        1178        1183        1182
        1178        1179        1184        1183
        1180        1181        1186        1185
        1181        1182        1187        1186
        1182        1183        1188        1187
        1183        1184        1189        1188
        1185        1186        1191        1190
        1186        1187        1192        1191
        1187        1188        1193        1192
        1188        1189        1194        1193
        1190        1191        1196        1195
        1191        1192        1197        1196
        1192        1193        1198        1197
        1193        1194        1199        1198
        1200        1201        1206        1205
        1201        1202        1207        1206
        1202        1203        1208        1207
        1203        1204        1209        1208
        1205        1206        1211        1210
        1206        1207        1212        1211
        1207        1208        1213        1212
        1208        1209        1214        1213
        1210        1211        1216        1215
        1211        1212        1217        1216
        1212        1213        1218        1217
        1213        1214        1219        1218
        1215        1216        1221        1220
        1216        1217        1222        1221
        1217        1218        1223        1222
        1218        1219        1224        1223
        1225        1226        1231        1230
        1226        1227        1232        1231
        1227        1228        1233        1232
        1228        1229        1234        1233
        1230        1231        1236        1235
        1231        1232        1237        1236
        1232        1233        1238        1237
        1233        1234        1239        1238
        1235        1236        1241        1240
        1236        1237        1242        1241
        1237        1238        1243        1242
        1238        1239        1244        1243
        1240        1241        1246        1245
        1241        1242        1247        1246
        1242        1243        1248        1247
        1243        1244        1249        1248
        1250        1251        1256        1255
        1251        1252        1257        1256
        1252        1253        1258        1257
        1253        1254        1259        1258
        1255        1256        1261        1260
        1256        1257        1262        1261
        1257        1258        1263        1262
        1258        1259        1264        1263
        1260        1261        1266        1265
        1261        1262        1267        1266
        1262        1263        1268        1267
        1263        1264        1269        1268
        1265        1266        1271        1270
        1266        1267        1272        1271
        1267        1268        1273        1272
        1268        1269        1274        1273
        1275        1276        1281        1280
        1276        1277        1282        1281
        1277        1278        1283        1282
        1278        1279        1284        1283
        1280        1281        1286        1285
        1281        1282        1287        1286
        1282        1283        1288        1287
        1283        1284        1289        1288
        1285        1286        1291        1290
        1286        1287        1292        1291
        1287        1288        1293        1292
        1288        1289        1294        1293
        1290        1291        1296        1295
        1291        1292        1297        1296
        1292        1293        1298        1297
        1293        1294        1299        1298
        1300        1301        1306        1305
        1301        1302        1307        1306
        1302        1303        1308        1307
        1303        1304        1309        1308
        1305        1306        1311        1310
        1306        1307        1312        1311
        1307        1308        1313        1312
        1308        1309        1314        1313
        1310        1311        1316        1315
        1311        1312        1317        1316
        1312        1313        1318        1317
        1313        1314        1319        1318
        1315        1316        1321        1320
        1316        1317        1322        1321
        1317        1318        1323        1322
        1318        1319        1324        1323
        1325        1326        1331        1330
        1326        1327        1332        1331
        1327        1328        1333        1332
        1328        1329        1334        1333
        1330        1331        1336        1335
        1331        1332        1337        1336
        1332        1333        1338        1337
        1333        1334        1339        1338
        1335        1336        1341        1340
        1336        1337        1342        1341
        1337        1338        1343        1342
        1338        1339        1344        1343
        1340        1341        1346        1345
        1341        1342        1347        1346
        1342        1343        1348        1347
        1343        1344        1349        1348
        1350        1351        1356        1355
        1351        1352        1357        1356
        1352        1353        1358        1357
        1353        1354        1359        1358
        1355        1356        1361        1360
        1356        1357        1362        1361
        1357        1358        1363        1362
        1358        1359        1364        1363
        1360        1361        1366        1365
        1361        1362        1367        1366
        1362        1363        1368        1367
        1363        1364        1369        1368
        1365        1366        1371        1370
        1366        1367        1372        1371
        1367        1368        1373        1372
        1368        1369        1374        1373
        1375        1376        1381        1380
        1376        1377        1382        1381
        1377        1378        1383        1382
        1378        1379        1384        1383
        1380        1381        1386        1385
        1381        1382        1387        1386
        1382        1383        1388        1387
        1383        1384        1389        1388
        1385        1386        1391        1390
        1386        1387        1392        1391
        1387        1388        1393        1392
        1388        1389        1394        1393
        1390        1391        1396        1395
        1391        1392        1397        1396
        1392        1393        1398        1397
        1393        1394        1399        1398
        1400        1401        1406        1405
        1401        1402        1407        1406
        1402        1403        1408        1407
        1403        1404        1409        1408
        1405        1406        1411        1410
        1406        1407        1412        1411
        1407        1408        1413        1412
        1408        1409        1414        1413
        1410        1411        1416        1415
        1411        1412        1417        1416
        1412        1413        1418        1417
        1413        1414        1419        1418
        1415        1416        1421        1420
        1416        1417        1422        1421
        1417        1418        1423        1422
        1418        1419        1424        1423
        1425        1426        1431        1430
        1426        1427        1432        1431
        1427        1428        1433        1432
        1428        1429        1434        1433
        1430        1431        1436        1435
        1431        1432        1437        1436
        1432        1433        1438        1437
        1433        1434        1439        1438
        1435        1436        1441        1440
        1436        1437        1442        1441
        1437        1438        1443        1442
        1438        1439        1444        1443
        1440        1441        1446        1445
        1441        1442        1447        1446
        1442        1443        1448        1447
        1443        1444        1449        1448
        1450        1451        1456        1455
        1451        1452        1457        1456
        1452        1453        1458        1457
        1453        1454        1459        1458
        1455        1456        1461        1460
        1456        1457        1462        1461
        1457        1458        1463        1462
        1458        1459        1464        1463
        1460        1461        1466        1465
        1461        1462        1467        1466
        1462        1463        1468        1467
        1463        1464        1469        1468
        1465        1466        1471        1470
        1466        1467        1472        1471
        1467        1468        1473        1472
        1468        1469        1474        1473
        1475        1476        1481        1480
        1476        1477        1482        1481
        1477        1478        1483        1482
        1478        1479        1484        1483
        1480        1481        1486        1485
        1481        1482        1487        1486
        1482        1483        1488        1487
        1483        1484        1489        1488
        1485        1486        1491        1490
        1486        1487        1492        1491
        1487        1488        1493        1492
        1488        1489        1494        1493
        1490        1491        1496        1495
        1491        1492        1497        1496
        1492        1493        1498        1497
        1493        1494        1499        1498
        1500        1501        1506        1505
        1501        1502        1507        1506
        1502        1503        1508        1507
        1503        1504        1509        1508
        1505        1506        1511        1510
        1506        1507        1512        1511
        1507        1508        1513        1512
        1508        1509        1514        1513
        1510        1511        1516        1515
        1511        1512        1517        1516
        1512        1513        1518        1517
        1513        1514        1519        1518
        1515        1516        1521        1520
        1516        1517        1522        1521
        1517        1518        1523        1522
        1518        1519        1524        1523
        1525        1526        1531        1530
        1526        1527        1532        1531
        1527        1528        1533        1532
        1528        1529        1534        1533
        1530        1531        1536        1535
        1531        1532        1537        1536
        1532        1533        1538        1537
        1533        1534        1539        1538
        1535        1536        1541        1540
        1536        1537        1542        1541
        1537        1538        1543        1542
        1538        1539        1544        1543
        1540        1541        1546        1545
        1541        1542        1547        1546
        1542        1543        1548        1547
        1543        1544        1549        1548
        1550        1551        1556        1555
        1551        1552        1557        1556
        1552        1553        1558        1557
        1553        1554        1559        1558
        1555        1556        1561        1560
        1556        1557        1562        1561
        1557        1558        1563        1562
        1558        1559        1564        1563
        1560        1561        1566        1565
        1561        1562        1567        1566
        1562        1563        1568        1567
        1563        1564        1569        1568
        1565        1566        1571        1570
        1566        1567        1572        1571
        1567        1568        1573        1572
        1568        1569        1574        1573
        1575        1576        1581        1580
        1576        1577        1582        1581
        1577        1578        1583        1582
        1578        1579        1584        1583
        1580        1581        1586        1585
        1581        1582        1587        1586
        1582        1583        1588        1587
        1583        1584        1589        1588
        1585        1586        1591        1590
        1586        1587        1592        1591
        1587        1588        1593        1592
        1588        1589        1594        1593
        1590        1591        1596        1595
        1591        1592        1597        1596
        1592        1593        1598        1597
        1593        1594        1599        1598
 </DataArray>
 <DataArray  type="Int32"  Name="offsets"  format="ascii"> 
           4
           8
          12
          16
          20
          24
          28
          32
          36
          40
          44
          48
          52
          56
          60
          64
          68
          72
          76
          80
          84
          88
          92
          96
         100
         104
         108
         112
         116
         120
         124
         128
         132
         136
         140
         144
         148
         152
         156
         160
         164
         168
         172
         176
         180
         184
         188
         192
         196
         200
         204
         208
         212
         216
         220
         224
         228
         232
         236
         240
         244
         248
         252
         256
         260
         264
         268
         272
         276
         280
         284
         288
         292
         296
         300
         304
         308
         312
         316
         320
         324
         328
         332
         336
         340
         344
         348
         352
         356
         360
         364
         368
         372
         376
         380
         384
         388
         392
         396
         400
         404
         408
         412
         416
         420
         424
         428
         432
         436
         440
         444
         448
         452
         456
         460
         464
         468
         472
         476
         480
         484
         488
         492
         496
         500
         504
         508
         512
         516
         520
         524
         528
         532
         536
         540
         544
         548
         552
         556
         560
         564
         568
         572
         576
         580
         584
         588
         592
         596
         600
         604
         608
         612
         616
         620
         624
         628
         632
         636
         640
         644
         648
         652
         656
         660
         664
         668
         672
         676
         680
         684
         688
         692
         696
         700
         704
         708
         712
         716
         720
         724
         728
         732
         736
         740
         744
         748
         752
         756
         760
         764
         768
         772
         776
         780
         784
         788
         792
         796
         800
         804
         808
         812
         816
         820
         824
         828
         832
         836
         840
         844
         848
         852
         856
         860
         864
         868
         872
         876
         880
         884
         888
         892
         896
         900
         904
         908
         912
         916
         920
         924
         928
         932
         936
         940
         944
         948
         952
         956
         960
         964
         968
         972
         976
         980
         984
         988
         992
         996
        1000
        1004
        1008
        1012
        1016
        1020
        1024
        1028
        1032
        1036
        1040
        1044
        1048
        1052
        1056
        1060
        1064
        1068
        1072
        1076
        1080
        1084
        1088
        1092
        1096
        1100
        1104
        1108
        1112
        1116
        1120
        1124
        1128
        1132
        1136
        1140
        1144
        1148
        1152
        1156
        1160
        1164
        1168
        1172
        1176
        1180
        1184
        1188
        1192
        1196
        1200
        1204
        1208
        1212
        1216
        1220
        1224
        1228
        1232
        1236
        1240
        1244
        1248
        1252
        1256
        1260
        1264
        1268
        1272
        1276
        1280
        1284
        1288
        1292
        1296
        1300
        1304
        1308
        1312
        1316
        1320
        1324
        1328
        1332
        1336
        1340
        1344
        1348
        1352
        1356
        1360
        1364
        1368
        1372
        1376
        1380
        1384
        1388
        1392
        1396
        1400
        1404
        1408
        1412
        1416
        1420
        1424
        1428
        1432
        1436
        1440
        1444
        1448
        1452
        1456
        1460
        1464
        1468
        1472
        1476
        1480
        1484
        1488
        1492
        1496
        1500
        1504
        1508
        1512
        1516
        1520
        1524
        1528
        1532
        1536
        1540
        1544
        1548
        1552
        1556
        1560
        1564
        1568
        1572
        1576
        1580
        1584
        1588
        1592
        1596
        1600
        1604
        1608
        1612
        1616
        1620
        1624
        1628
        1632
        1636
        1640
        1644
        1648
        1652
        1656
        1660
        1664
        1668
        1672
        1676
        1680
        1684
        1688
        1692
        1696
        1700
        1704
        1708
        1712
        1716
        1720
        1724
        1728
        1732
        1736
        1740
        1744
        1748
        1752
        1756
        1760
        1764
        1768
        1772
        1776
        1780
        1784
        1788
        1792
        1796
        1800
        1804
        1808
        1812
        1816
        1820
        1824
        1828
        1832
        1836
        1840
        1844
        1848
        1852
        1856
        1860
        1864
        1868
        1872
        1876
        1880
        1884
        1888
        1892
        1896
        1900
        1904
        1908
        1912
        1916
        1920
        1924
        1928
        1932
        1936
        1940
        1944
        1948
        1952
        1956
        1960
        1964
        1968
        1972
        1976
        1980
        1984
        1988
        1992
        1996
        2000
        2004
        2008
        2012
        2016
        2020
        2024
        2028
        2032
        2036
        2040
        2044
        2048
        2052
        2056
        2060
        2064
        2068
        2072
        2076
        2080
        2084
        2088
        2092
        2096
        2100
        2104
        2108
        2112
        2116
        2120
        2124
        2128
        2132
        2136
        2140
        2144
        2148
        2152
        2156
        2160
        2164
        2168
        2172
        2176
        2180
        2184
        2188
        2192
        2196
        2200
        2204
        2208
        2212
        2216
        2220
        2224
        2228
        2232
        2236
        2240
        2244
        2248
        2252
        2256
        2260
        2264
        2268
        2272
        2276
        2280
        2284
        2288
        2292
        2296
        2300
        2304
        2308
        2312
        2316
        2320
        2324
        2328
        2332
        2336
        2340
        2344
        2348
        2352
        2356
        2360
        2364
        2368
        2372
        2376
        2380
        2384
        2388
        2392
        2396
        2400
        2404
        2408
        2412
        2416
        2420
        2424
        2428
        2432
        2436
        2440
        2444
        2448
        2452
        2456
        2460
        2464
        2468
        2472
        2476
        2480
        2484
        2488
        2492
        2496
        2500
        2504
        2508
        2512
        2516
        2520
        2524
        2528
        2532
        2536
        2540
        2544
        2548
        2552
        2556
        2560
        2564
        2568
        2572
        2576
        2580
        2584
        2588
        2592
        2596
        2600
        2604
        2608
        2612
        2616
        2620
        2624
        2628
        2632
        2636
        2640
        2644
        2648
        2652
        2656
        2660
        2664
        2668
        2672
        2676
        2680
        2684
        2688
        2692
        2696
        2700
        2704
        2708
        2712
        2716
        2720
        2724
        2728
        2732
        2736
        2740
        2744
        2748
        2752
        2756
        2760
        2764
        2768
        2772
        2776
        2780
        2784
        2788
        2792
        2796
        2800
        2804
        2808
        2812
        2816
        2820
        2824
        2828
        2832
        2836
        2840
        2844
        2848
        2852
        2856
        2860
        2864
        2868
        2872
        2876
        2880
        2884
        2888
        2892
        2896
        2900
        2904
        2908
        2912
        2916
        2920
        2924
        2928
        2932
        2936
        2940
        2944
        2948
        2952
        2956
        2960
        2964
        2968
        2972
        2976
        2980
        2984
        2988
        2992
        2996
        3000
        3004
        3008
        3012
        3016
        3020
        3024
        3028
        3032
        3036
        3040
        3044
        3048
        3052
        3056
        3060
        3064
        3068
        3072
        3076
        3080
        3084
        3088
        3092
        3096
        3100
        3104
        3108
        3112
        3116
        3120
        3124
        3128
        3132
        3136
        3140
        3144
        3148
        3152
        3156
        3160
        3164
        3168
        3172
        3176
        3180
        3184
        3188
        3192
        3196
        3200
        3204
        3208
        3212
        3216
        3220
        3224
        3228
        3232
        3236
        3240
        3244
        3248
        3252
        3256
        3260
        3264
        3268
        3272
        3276
        3280
        3284
        3288
        3292
        3296
        3300
        3304
        3308
        3312
        3316
        3320
        3324
        3328
        3332
        3336
        3340
        3344
        3348
        3352
        3356
        3360
        3364
        3368
        3372
        3376
        3380
        3384
        3388
        3392
        3396
        3400
        3404
        3408
        3412
        3416
        3420
        3424
        3428
        3432
        3436
        3440
        3444
        3448
        3452
        3456
        3460
        3464
        3468
        3472
        3476
        3480
        3484
        3488
        3492
        3496
        3500
        3504
        3508
        3512
        3516
        3520
        3524
        3528
        3532
        3536
        3540
        3544
        3548
        3552
        3556
        3560
        3564
        3568
        3572
        3576
        3580
        3584
        3588
        3592
        3596
        3600
        3604
        3608
        3612
        3616
        3620
        3624
        3628
        3632
        3636
        3640
        3644
        3648
        3652
        3656
        3660
        3664
        3668
        3672
        3676
        3680
        3684
        3688
        3692
        3696
        3700
        3704
        3708
        3712
        3716
        3720
        3724
        3728
        3732
        3736
        3740
        3744
        3748
        3752
        3756
        3760
        3764
        3768
        3772
        3776
        3780
        3784
        3788
        3792
        3796
        3800
        3804
        3808
        3812
        3816
        3820
        3824
        3828
        3832
        3836
        3840
        3844
        3848
        3852
        3856
        3860
        3864
        3868
        3872
        3876
        3880
        3884
        3888
        3892
        3896
        3900
        3904
        3908
        3912
        3916
        3920
        3924
        3928
        3932
        3936
        3940
        3944
        3948
        3952
        3956
        3960
        3964
        3968
        3972
        3976
        3980
        3984
        3988
        3992
        3996
        4000
        4004
        4008
        4012
        4016
        4020
        4024
        4028
        4032
        4036
        4040
        4044
        4048
        4052
        4056
        4060
        4064
        4068
        4072
        4076
        4080
        4084
        4088
        4092
        4096
 </DataArray>
 <DataArray  type="UInt8"  Name="types"  format="ascii">
 9
 9
 9
 9
 9
 9
 9
 9
 9
 9
 9
 9
 9
 9
 9
 9
 9
 9
 9
 9
 9
 9
 9
 9
 9
 9
 9
 9
 9
 9
 9
 9
 9
 9
 9
 9
 9
 9
 9
 9
 9
 9
 9
 9
 9
 9
 9
 9
 9
 9
 9
 9
 9
 9
 9
 9
 9
 9
 9
 9
 9
 9
 9
 9
 9
 9
 9
 9
 9
 9
 9
 9
 9
 9
 9
 9
 9
 9
 9
 9
 9
 9
 9
 9
 9
 9
 9
 9
 9
 9
 9
 9
 9
 9
 9
 9
 9
 9
 9
 9
 9
 9
 9
 9
 9
 9
 9
 9
 9
 9
 9
 9
 9
 9
 9
 9
 9
 9
 9
 9
 9
 9
 9
 9
 9
 9
 9
 9
 9
 9
 9
 9
 9
 9
 9
 9
 9
 9
 9
 9
 9
 9
 9
 9
 9
 9
 9
 9
 9
 9
 9
 9
 9
 9
 9
 9
 9
 9
 9
 9
 9
 9
 9
 9
 9
 9
 9
 9
 9
 9
 9
 9
 9
 9
 9
 9
 9
 9
 9
 9
 9
 9
 9
 9
 9
 9
 9
 9
 9
 9
 9
 9
 9
 9
 9
 9
 9
 9
 9
 9
 9
 9
 9
 9
 9
 9
 9
 9
 9
 9
 9
 9
 9
 9
 9
 9
 9
 9
 9
 9
 9
 9
 9
 9
 9
 9
 9
 9
 9
 9
 9
 9
 9
 9
 9
 9
 9
 9
 9
 9
 9
 9
 9
 9
 9
 9
 9
 9
 9
 9
 9
 9
 9
 9
 9
 9
 9
 9
 9
 9
 9
 9
 9
 9
 9
 9
 9
 9
 9
 9
 9
 9
 9
 9
 9
 9
 9
 9
 9
 9
 9
 9
 9
 9
 9
 9
 9
 9
 9
 9
 9
 9
 9
 9
 9
 9
 9
 9
 9
 9
 9
 9
 9
 9
 9
 9
 9
 9
 9
 9
 9
 9
 9
 9
 9
 9
 9
 9
 9
 9
 9
 9
 9
 9
 9
 9
 9
 9
 9
 9
 9
 9
 9
 9
 9
 9
 9
 9
 9
 9
 9
 9
 9
 9
 9
 9
 9
 9
 9
 9
 9
 9
 9
 9
 9
 9
 9
 9
 9
 9
 9
 9
 9
 9
 9
 9
 9
 9
 9
 9
 9
 9
 9
 9
 9
 9
 9
 9
 9
 9
 9
 9
 9
 9
 9
 9
 9
 9
 9
 9
 9
 9
 9
 9
 9
 9
 9
 9
 9
 9
 9
 9
 9
 9
 9
 9
 9
 9
 9
 9
 9
 9
 9
 9
 9
 9
 9
 9
 9
 9
 9
 9
 9
 9
 9
 9
 9
 9
 9
 9
 9
 9
 9
 9
 9
 9
 9
 9
 9
 9
 9
 9
 9
 9
 9
 9
 9
 9
 9
 9
 9
 9
 9
 9
 9
 9
 9
 9
 9
 9
 9
 9
 9
 9
 9
 9
 9
 9
 9
 9
 9
 9
 9
 9
 9
 9
 9
 9
 9
 9
 9
 9
 9
 9
 9
 9
 9
 9
 9
 9
 9
 9
 9
 9
 9
 9
 9
 9
 9
 9
 9
 9
 9
 9
 9
 9
 9
 9
 9
 9
 9
 9
 9
 9
 9
 9
 9
 9
 9
 9
 9
 9
 9
 9
 9
 9
 9
 9
 9
 9
 9
 9
 9
 9
 9
 9
 9
 9
 9
 9
 9
 9
 9
 9
 9
 9
 9
 9
 9
 9
 9
 9
 9
 9
 9
 9
 9
 9
 9
 9
 9
 9
 9
 9
 9
 9
 9
 9
 9
 9
 9
 9
 9
 9
 9
 9
 9
 9
 9
 9
 9
 9
 9
 9
 9
 9
 9
 9
 9
 9
 9
 9
 9
 9
 9
 9
 9
 9
 9
 9
 9
 9
 9
 9
 9
 9
 9
 9
 9
 9
 9
 9
 9
 9
 9
 9
 9
 9
 9
 9
 9
 9
 9
 9
 9
 9
 9
 9
 9
 9
 9
 9
 9
 9
 9
 9
 9
 9
 9
 9
 9
 9
 9
 9
 9
 9
 9
 9
 9
 9
 9
 9
 9
 9
 9
 9
 9
 9
 9
 9
 9
 9
 9
 9
 9
 9
 9
 9
 9
 9
 9
 9
 9
 9
 9
 9
 9
 9
 9
 9
 9
 9
 9
 9
 9
 9
 9
 9
 9
 9
 9
 9
 9
 9
 9
 9
 9
 9
 9
 9
 9
 9
 9
 9
 9
 9
 9
 9
 9
 9
 9
 9
 9
 9
 9
 9
 9
 9
 9
 9
 9
 9
 9
 9
 9
 9
 9
 9
 9
 9
 9
 9
 9
 9
 9
 9
 9
 9
 9
 9
 9
 9
 9
 9
 9
 9
 9
 9
 9
 9
 9
 9
 9
 9
 9
 9
 9
 9
 9
 9
 9
 9
 9
 9
 9
 9
 9
 9
 9
 9
 9
 9
 9
 9
 9
 9
 9
 9
 9
 9
 9
 9
 9
 9
 9
 9
 9
 9
 9
 9
 9
 9
 9
 9
 9
 9
 9
 9
 9
 9
 9
 9
 9
 9
 9
 9
 9
 9
 9
 9
 9
 9
 9
 9
 9
 9
 9
 9
 9
 9
 9
 9
 9
 9
 9
 9
 9
 9
 9
 9
 9
 9
 9
 9
 9
 9
 9
 9
 9
 9
 9
 9
 9
 9
 9
 9
 9
 9
 9
 9
 9
 9
 9
 9
 9
 9
 9
 9
 9
 9
 9
 9
 9
 9
 9
 9
 9
 9
 9
 9
 9
 9
 9
 9
 9
 9
 9
 9
 9
 9
 9
 9
 9
 9
 9
 9
 9
 9
 9
 9
 9
 9
 9
 9
 9
 9
 9
 9
 9
 9
 9
 9
 9
 9
 9
 9
 9
 9
 9
 9
 9
 9
 9
 9
 9
 9
 9
 9
 9
 9
 9
 9
 9
 9
 9
 9
 9
 9
 9
 9
 9
 9
 9
 9
 9
 9
 9
 9
 9
 9
 9
 9
 9
 9
 9
 9
 9
 9
 9
 9
 9
 9
 9
 9
 9
 9
 9
 9
 9
 9
 9
 9
 9
 9
 9
 9
 9
 9
 9
 9
 9
 9
 9
 9
 9
 9
 9
 9
 9
 9
 9
 9
 9
 9
 9
 9
 9
 9
 9
 9
 9
 9
 9
 9
 9
 9
 9
 9
 9
 9
 9
 9
 9
 9
 9
 9
 9
 9
 9
 9
 9
 9
 9
 9
 9
 9
 9
 9
 9
 9
 9
 9
 9
 9
 </DataArray>
 </Cells> 
 <PointData>
 <DataArray  type="Float64" Name="disp" NumberOfComponents="3" format="ascii">
   0.0000000000000000        0.0000000000000000        0.0000000000000000     
   6.0959922210571307E-003   3.7903849634488740E-003   0.0000000000000000     
   1.1666023432761578E-002   7.3238112459047943E-003   0.0000000000000000     
   1.6710093635113339E-002   1.0600278847367764E-002   0.0000000000000000     
   2.1228202828112417E-002   1.3619787767837781E-002   0.0000000000000000     
   0.0000000000000000        0.0000000000000000        0.0000000000000000     
   4.8911545254091441E-003   3.0221483327535384E-003   0.0000000000000000     
   9.5736270443266130E-003   6.0605581683855552E-003   0.0000000000000000     
   1.4047417556752411E-002   9.1152295068960502E-003   0.0000000000000000     
   1.8312526062686536E-002   1.2186162348285024E-002   0.0000000000000000     
   0.0000000000000000        0.0000000000000000        0.0000000000000000     
   3.9535561372820967E-003   2.4251510314962522E-003   0.0000000000000000     
   7.9106004713897088E-003   5.0629526483151124E-003   0.0000000000000000     
   1.1871133002322835E-002   7.9134048504565790E-003   0.0000000000000000     
   1.5835153730081479E-002   1.0976507637920654E-002   0.0000000000000000     
   0.0000000000000000        0.0000000000000000        0.0000000000000000     
   3.2831970566759884E-003   1.9993930596770158E-003   0.0000000000000000     
   6.6769437139508588E-003   4.3309946856934659E-003   0.0000000000000000     
   1.0181239971824612E-002   6.9948048780493505E-003   0.0000000000000000     
   1.3796085830297249E-002   9.9908236367446720E-003   0.0000000000000000     
   0.0000000000000000        0.0000000000000000        0.0000000000000000     
   2.8800772835908192E-003   1.7448744172958281E-003   0.0000000000000000     
   5.8726567720100674E-003   3.8646842805206165E-003   0.0000000000000000     
   8.9777384652577411E-003   6.3594295896743664E-003   0.0000000000000000     
   1.2195322363333845E-002   9.2291103447570740E-003   0.0000000000000000     
   2.1228202828112417E-002   1.3619787767837781E-002   0.0000000000000000     
   2.5433273141457980E-002   1.6612850677663896E-002   0.0000000000000000     
   2.9538226704849211E-002   1.9809980247195168E-002   0.0000000000000000     
   3.3543063518286100E-002   2.3211176476431596E-002   0.0000000000000000     
   3.7447783581768646E-002   2.6816439365373181E-002   0.0000000000000000     
   1.8312526062686536E-002   1.2186162348285024E-002   0.0000000000000000     
   2.2407186213288077E-002   1.5341674725570459E-002   0.0000000000000000     
   2.6369631659716133E-002   1.8650084671770338E-002   0.0000000000000000     
   3.0199862401970697E-002   2.2111392186884665E-002   0.0000000000000000     
   3.3897878440051779E-002   2.5725597270913437E-002   0.0000000000000000     
   1.5835153730081479E-002   1.0976507637920654E-002   0.0000000000000000     
   1.9730893558377538E-002   1.4211086665225562E-002   0.0000000000000000     
   2.3486583390922904E-002   1.7575967586889531E-002   0.0000000000000000     
   2.7102223227717572E-002   2.1071150402912558E-002   0.0000000000000000     
   3.0577813068761568E-002   2.4696635113294646E-002   0.0000000000000000     
   1.3796085830297249E-002   9.9908236367446720E-003   0.0000000000000000     
   1.7404395176726355E-002   1.3221086496629205E-002   0.0000000000000000     
   2.0889081898469518E-002   1.6587628992552741E-002   0.0000000000000000     
   2.4250145995526742E-002   2.0090451124515275E-002   0.0000000000000000     
   2.7487587467898016E-002   2.3729552892516804E-002   0.0000000000000000     
   1.2195322363333845E-002   9.2291103447570740E-003   0.0000000000000000     
   1.5427691068334540E-002   1.2371674219781394E-002   0.0000000000000000     
   1.8577127182355987E-002   1.5685068888759975E-002   0.0000000000000000     
   2.1643630705398181E-002   1.9169294351692810E-002   0.0000000000000000     
   2.4627201637461134E-002   2.2824350608579916E-002   0.0000000000000000     
   3.7447783581768646E-002   2.6816439365373181E-002   0.0000000000000000     
   4.1256541846299108E-002   3.0621339494271496E-002   0.0000000000000000     
   4.4973493262879735E-002   3.4621447443378132E-002   0.0000000000000000     
   4.8598637831510513E-002   3.8816763212693083E-002   0.0000000000000000     
   5.2131975552191456E-002   4.3207286802216360E-002   0.0000000000000000     
   3.3897878440051779E-002   2.5725597270913437E-002   0.0000000000000000     
   3.7486692339883783E-002   2.9521653136196407E-002   0.0000000000000000     
   4.0989316667391154E-002   3.3528512995073312E-002   0.0000000000000000     
   4.4405751422573879E-002   3.7746176847544187E-002   0.0000000000000000     
   4.7735996605431964E-002   4.2174644693608994E-002   0.0000000000000000     
   3.0577813068761568E-002   2.4696635113294646E-002   0.0000000000000000     
   3.3942645231328797E-002   2.8497025488557499E-002   0.0000000000000000     
   3.7226012032693226E-002   3.2516925299222836E-002   0.0000000000000000     
   4.0427913472854834E-002   3.6756334545290648E-002   0.0000000000000000     
   4.3548349551813637E-002   4.1215253226760944E-002   0.0000000000000000     
   2.7487587467898016E-002   2.3729552892516804E-002   0.0000000000000000     
   3.0624400520634153E-002   2.7547456551354786E-002   0.0000000000000000     
   3.3683579358785944E-002   3.1586684355826691E-002   0.0000000000000000     
   3.6665123982353394E-002   3.5847236305932506E-002   0.0000000000000000     
   3.9569034391336501E-002   4.0329112401672217E-002   0.0000000000000000     
   2.4627201637461134E-002   2.2824350608579916E-002   0.0000000000000000     
   2.7531958207799842E-002   2.6672946324588269E-002   0.0000000000000000     
   3.0362018645669307E-002   3.0737790164884867E-002   0.0000000000000000     
   3.3117382951069536E-002   3.5018882129469714E-002   0.0000000000000000     
   3.5798051124000529E-002   3.9516222218342820E-002   0.0000000000000000     
   5.2131975552191456E-002   4.3207286802216360E-002   0.0000000000000000     
   5.5571468296588857E-002   4.7797021533981597E-002   0.0000000000000000     
   5.8915077936368986E-002   5.2589970730022459E-002   0.0000000000000000     
   6.2162804471531864E-002   5.7586134390338946E-002   0.0000000000000000     
   6.5314647902077472E-002   6.2785512514931058E-002   0.0000000000000000     
   4.7735996605431964E-002   4.2174644693608994E-002   0.0000000000000000     
   5.0976506201689233E-002   4.6807089821538771E-002   0.0000000000000000     
   5.4123734197069513E-002   5.1636685519604576E-002   0.0000000000000000     
   5.7177680591572820E-002   5.6663431787806383E-002   0.0000000000000000     
   6.0138345385199160E-002   6.1887328626144197E-002   0.0000000000000000     
   4.3548349551813637E-002   4.1215253226760944E-002   0.0000000000000000     
   4.6583639717452004E-002   4.5881012788284180E-002   0.0000000000000000     
   4.9530103417652335E-002   5.0740944674510818E-002   0.0000000000000000     
   5.2387740652414583E-002   5.5795048885440866E-002   0.0000000000000000     
   5.5156551421738788E-002   6.1043325421074303E-002   0.0000000000000000     
   3.9569034391336501E-002   4.0329112401672217E-002   0.0000000000000000     
   4.2392868843877191E-002   4.5018790434217797E-002   0.0000000000000000     
   4.5134185598117396E-002   4.9902748194741185E-002   0.0000000000000000     
   4.7792984654057132E-002   5.4980985683242369E-002   0.0000000000000000     
   5.0369266011696383E-002   6.0253502899721353E-002   0.0000000000000000     
   3.5798051124000529E-002   3.9516222218342820E-002   0.0000000000000000     
   3.8404193580964779E-002   4.4220422759339649E-002   0.0000000000000000     
   4.0935980738464751E-002   4.9122096080295684E-002   0.0000000000000000     
   4.3393412596500480E-002   5.4221242181210917E-002   0.0000000000000000     
   4.5776489155071924E-002   5.9517861062085370E-002   0.0000000000000000     
   6.5314647902077472E-002   6.2785512514931058E-002   0.0000000000000000     
   6.8371657007921902E-002   6.8175636342200877E-002   0.0000000000000000     
   7.1334880568981240E-002   7.3744037110550484E-002   0.0000000000000000     
   7.4204318585255460E-002   7.9490714819979852E-002   0.0000000000000000     
   7.6979971056744589E-002   8.5415669470489008E-002   0.0000000000000000     
   6.0138345385199160E-002   6.1887328626144197E-002   0.0000000000000000     
   6.3008064994337087E-002   6.7300027245483132E-002   0.0000000000000000     
   6.5789175835375191E-002   7.2893178856688293E-002   0.0000000000000000     
   6.8481677908313512E-002   7.8666783459759651E-002   0.0000000000000000     
   7.1085571213151982E-002   8.4620841054697221E-002   0.0000000000000000     
   5.5156551421738788E-002   6.1043325421074303E-002   0.0000000000000000     
   5.7839174372188912E-002   6.6479485603011035E-002   0.0000000000000000     
   6.0438248150328944E-002   7.2097240752850913E-002   0.0000000000000000     
   6.2953772756158863E-002   7.7896590870593932E-002   0.0000000000000000     
   6.5385748189678669E-002   8.3877535956240146E-002   0.0000000000000000     
   5.0369266011696383E-002   6.0253502899721353E-002   0.0000000000000000     
   5.2864985141477402E-002   6.5714011414784543E-002   0.0000000000000000     
   5.5282097513842443E-002   7.1356222799038319E-002   0.0000000000000000     
   5.7620603128791525E-002   7.7180137052482722E-002   0.0000000000000000     
   5.9880501986324629E-002   8.3185754175117727E-002   0.0000000000000000     
   4.5776489155071924E-002   5.9517861062085370E-002   0.0000000000000000     
   4.8085497302202539E-002   6.5003604680803712E-002   0.0000000000000000     
   5.0320723925915731E-002   7.0670124995250577E-002   0.0000000000000000     
   5.2482169026211507E-002   7.6517422005426022E-002   0.0000000000000000     
   5.4569832603089868E-002   8.2545495711330005E-002   0.0000000000000000     
   7.6979971056744589E-002   8.5415669470489008E-002   0.0000000000000000     
   7.9660426685292413E-002   9.1508972928350557E-002   0.0000000000000000     
   8.2244274172742771E-002   9.7760697059837087E-002   0.0000000000000000     
   8.4731513519095636E-002  0.10417084186494860        0.0000000000000000     
   8.7122144724351036E-002  0.11073940734368509        0.0000000000000000     
   7.1085571213151982E-002   8.4620841054697221E-002   0.0000000000000000     
   7.3599803217551746E-002   9.0743930754691976E-002   0.0000000000000000     
   7.6023321389173892E-002   9.7024631672934875E-002   0.0000000000000000     
   7.8356125728018408E-002  0.10346294380942589        0.0000000000000000     
   8.0598216234085321E-002  0.11005886716416506        0.0000000000000000     
   6.5385748189678669E-002   8.3877535956240146E-002   0.0000000000000000     
   6.7733533630661313E-002   9.0027881477495950E-002   0.0000000000000000     
   6.9996488258879760E-002   9.6335432902067919E-002   0.0000000000000000     
   7.2174612074334010E-002  0.10280019022995600        0.0000000000000000     
   7.4267905077024035E-002  0.10942215346116022        0.0000000000000000     
   5.9880501986324629E-002   8.3185754175117727E-002   0.0000000000000000     
   6.2061617924621129E-002   8.9360825096762492E-002   0.0000000000000000     
   6.4163774781860403E-002   9.5693100747236221E-002   0.0000000000000000     
   6.6186972558042415E-002  0.10218258112653891        0.0000000000000000     
   6.8131211253167206E-002  0.10882926623467057        0.0000000000000000     
   5.4569832603089868E-002   8.2545495711330005E-002   0.0000000000000000     
   5.6584056099431158E-002   8.8742761612491589E-002   0.0000000000000000     
   5.8525180958115749E-002   9.5097635208439779E-002   0.0000000000000000     
   6.0393207179143635E-002  0.10161011649917466        0.0000000000000000     
   6.2188134762514814E-002  0.10828020548469615        0.0000000000000000     
   8.7122144724351036E-002  0.11073940734368509        0.0000000000000000     
   8.9416720991357182E-002  0.11745379990452662        0.0000000000000000     
   9.1615795522962298E-002  0.12430142595595323        0.0000000000000000     
   9.3719368319166399E-002  0.13128228549796492        0.0000000000000000     
   9.5727439379969470E-002  0.13839637853056169        0.0000000000000000     
   8.0598216234085321E-002  0.11005886716416506        0.0000000000000000     
   8.2750098427178440E-002  0.11680036722012851        0.0000000000000000     
   8.4812277827101670E-002  0.12367540946029239        0.0000000000000000     
   8.6784754433854999E-002  0.13068399388465668        0.0000000000000000     
   8.8667528247438440E-002  0.13782612049322140        0.0000000000000000     
   7.4267905077024035E-002  0.10942215346116022        0.0000000000000000     
   7.6276764186640353E-002  0.11618956548266914        0.0000000000000000     
   7.8201586322873481E-002  0.12309066918147132        0.0000000000000000     
   8.0042371485723393E-002  0.13012546455756677        0.0000000000000000     
   8.1799119675190088E-002  0.13729395161095548        0.0000000000000000     
   6.8131211253167206E-002  0.10882926623467057        0.0000000000000000     
   6.9996718269742908E-002  0.11562139469214852        0.0000000000000000     
   7.1783721010277676E-002  0.12254720511949005        0.0000000000000000     
   7.3492219474771525E-002  0.12960669751669515        0.0000000000000000     
   7.5122213663224441E-002  0.13679987188376386        0.0000000000000000     
   6.2188134762514814E-002  0.10828020548469615        0.0000000000000000     
   6.3909960676486105E-002  0.11509585484856663        0.0000000000000000     
   6.5558681889314296E-002  0.12204501727434856        0.0000000000000000     
   6.7134298400999423E-002  0.12912769276204189        0.0000000000000000     
   6.8636810211541444E-002  0.13634388131164657        0.0000000000000000     
   9.5727439379969470E-002  0.13839637853056169        0.0000000000000000     
   9.7641168043948748E-002  0.14563197249416276        0.0000000000000000     
   9.9461713649681399E-002  0.15297733482918735        0.0000000000000000     
  0.10118907619716745       0.16043246553563537        0.0000000000000000     
  0.10282325568640688       0.16799736461350692        0.0000000000000000     
   8.8667528247438440E-002  0.13782612049322140        0.0000000000000000     
   9.0461681372936587E-002  0.14508951894158292        0.0000000000000000     
   9.2168295915434129E-002  0.15246191888533753        0.0000000000000000     
   9.3787371874931039E-002  0.15994332032448522        0.0000000000000000     
   9.5318909251427289E-002  0.16753372325902599        0.0000000000000000     
   8.1799119675190088E-002  0.13729395161095548        0.0000000000000000     
   8.3472703217399052E-002  0.14458361229805516        0.0000000000000000     
   8.5063994438475732E-002  0.15198192857528348        0.0000000000000000     
   8.6572993338420098E-002  0.15948890044264044        0.0000000000000000     
   8.7999699917232208E-002  0.16710452790012603        0.0000000000000000     
   7.5122213663224441E-002  0.13679987188376386        0.0000000000000000     
   7.6674233577336076E-002  0.14411425256357946        0.0000000000000000     
   7.8148809218806167E-002  0.15153736389902517        0.0000000000000000     
   7.9545940587634686E-002  0.15906920589010101        0.0000000000000000     
   8.0865627683821620E-002  0.16670977853680702        0.0000000000000000     
   6.8636810211541444E-002  0.13634388131164657        0.0000000000000000     
   7.0066272452747699E-002  0.14368143973815578        0.0000000000000000     
   7.1422740256425463E-002  0.15112822485656258        0.0000000000000000     
   7.2706213622574747E-002  0.15868423666686696        0.0000000000000000     
   7.3916692551195540E-002  0.16634947516906892        0.0000000000000000     
   0.0000000000000000        0.0000000000000000        0.0000000000000000     
   2.8800772835908192E-003   1.7448744172958281E-003   0.0000000000000000     
   5.8726567720100674E-003   3.8646842805206165E-003   0.0000000000000000     
   8.9777384652577411E-003   6.3594295896743664E-003   0.0000000000000000     
   1.2195322363333845E-002   9.2291103447570740E-003   0.0000000000000000     
   0.0000000000000000        0.0000000000000000        0.0000000000000000     
   2.6103443435375176E-003   1.5889482815790133E-003   0.0000000000000000     
   5.2897498716754018E-003   3.5567244269642919E-003   0.0000000000000000     
   8.0382165844136554E-003   5.9033284361558382E-003   0.0000000000000000     
   1.0855744481752276E-002   8.6287603091536498E-003   0.0000000000000000     
   0.0000000000000000        0.0000000000000000        0.0000000000000000     
   2.3401457620270093E-003   1.4589678297528947E-003   0.0000000000000000     
   4.7202332390549372E-003   3.2998181191922220E-003   0.0000000000000000     
   7.1402624310837820E-003   5.5225508683179828E-003   0.0000000000000000     
   9.6002333381135473E-003   8.1271660771301754E-003   0.0000000000000000     
   0.0000000000000000        0.0000000000000000        0.0000000000000000     
   2.0694815390592943E-003   1.3549330618174722E-003   0.0000000000000000     
   4.1641068741486700E-003   3.0939653572044055E-003   0.0000000000000000     
   6.2838760052681243E-003   5.2170968861607993E-003   0.0000000000000000     
   8.4287889324176600E-003   7.7243276486866552E-003   0.0000000000000000     
   0.0000000000000000        0.0000000000000000        0.0000000000000000     
   1.7983516746343741E-003   1.2768439777727457E-003   0.0000000000000000     
   3.6213707769566007E-003   2.9391661410008421E-003   0.0000000000000000     
   5.4690573069666798E-003   4.9869664896842894E-003   0.0000000000000000     
   7.3414112646646114E-003   7.4202450238230874E-003   0.0000000000000000     
   1.2195322363333845E-002   9.2291103447570740E-003   0.0000000000000000     
   1.5427691068334540E-002   1.2371674219781394E-002   0.0000000000000000     
   1.8577127182355987E-002   1.5685068888759975E-002   0.0000000000000000     
   2.1643630705398181E-002   1.9169294351692810E-002   0.0000000000000000     
   2.4627201637461134E-002   2.2824350608579916E-002   0.0000000000000000     
   1.0855744481752276E-002   8.6287603091536498E-003   0.0000000000000000     
   1.3689029960053740E-002   1.1650768099028649E-002   0.0000000000000000     
   1.6484769415680525E-002   1.4887099858851763E-002   0.0000000000000000     
   1.9242962848632632E-002   1.8337755588622988E-002   0.0000000000000000     
   2.1963610258910051E-002   2.2002735288342332E-002   0.0000000000000000     
   9.6002333381135473E-003   8.1271660771301754E-003   0.0000000000000000     
   1.2076660578735613E-002   1.1046286398717497E-002   0.0000000000000000     
   1.4546058771541359E-002   1.4212534486168646E-002   0.0000000000000000     
   1.7008427916530792E-002   1.7625910339483616E-002   0.0000000000000000     
   1.9463768013703905E-002   2.1286413958662417E-002   0.0000000000000000     
   8.4287889324176600E-003   7.7243276486866552E-003   0.0000000000000000     
   1.0590582924380153E-002   1.0558229118847939E-002   0.0000000000000000     
   1.2760995249938494E-002   1.3661372770710620E-002   0.0000000000000000     
   1.4940025909092675E-002   1.7033758604274696E-002   0.0000000000000000     
   1.7127674901842700E-002   2.0675386619540170E-002   0.0000000000000000     
   7.3414112646646114E-003   7.4202450238230874E-003   0.0000000000000000     
   9.2307969969873688E-003   1.0186596259419976E-002   0.0000000000000000     
   1.1129578850871924E-002   1.3233614712477687E-002   0.0000000000000000     
   1.3037756826318277E-002   1.6561300382996230E-002   0.0000000000000000     
   1.4955330923326429E-002   2.0169653270975595E-002   0.0000000000000000     
   2.4627201637461134E-002   2.2824350608579916E-002   0.0000000000000000     
   2.7531958207799842E-002   2.6672946324588269E-002   0.0000000000000000     
   3.0362018645669307E-002   3.0737790164884867E-002   0.0000000000000000     
   3.3117382951069536E-002   3.5018882129469714E-002   0.0000000000000000     
   3.5798051124000529E-002   3.9516222218342820E-002   0.0000000000000000     
   2.1963610258910051E-002   2.2002735288342332E-002   0.0000000000000000     
   2.4630110085982895E-002   2.5880030712374307E-002   0.0000000000000000     
   2.7225860769321264E-002   2.9967633615083464E-002   0.0000000000000000     
   2.9750862308925163E-002   3.4265543996469784E-002   0.0000000000000000     
   3.2205114704794591E-002   3.8773761856533272E-002   0.0000000000000000     
   1.9463768013703905E-002   2.1286413958662417E-002   0.0000000000000000     
   2.1883647948340350E-002   2.5175245618829306E-002   0.0000000000000000     
   2.4239636605719764E-002   2.9273605595108561E-002   0.0000000000000000     
   2.6531733985842153E-002   3.3581493887500175E-002   0.0000000000000000     
   2.8759940088707525E-002   3.8098910496004154E-002   0.0000000000000000     
   1.7127674901842700E-002   2.0675386619540170E-002   0.0000000000000000     
   1.9292571794872190E-002   2.4558591043953248E-002   0.0000000000000000     
   2.1403346154864798E-002   2.8655706104960158E-002   0.0000000000000000     
   2.3459997981820514E-002   3.2966731802560878E-002   0.0000000000000000     
   2.5462527275739333E-002   3.7491668136755432E-002   0.0000000000000000     
   1.4955330923326429E-002   2.0169653270975595E-002   0.0000000000000000     
   1.6856881625578440E-002   2.4030066987746151E-002   0.0000000000000000     
   1.8716989416756376E-002   2.8113935144638259E-002   0.0000000000000000     
   2.0535654296860235E-002   3.2421257741651915E-002   0.0000000000000000     
   2.2312876265890014E-002   3.6952034778787127E-002   0.0000000000000000     
   3.5798051124000529E-002   3.9516222218342820E-002   0.0000000000000000     
   3.8404193580964779E-002   4.4220422759339649E-002   0.0000000000000000     
   4.0935980738464751E-002   4.9122096080295684E-002   0.0000000000000000     
   4.3393412596500480E-002   5.4221242181210917E-002   0.0000000000000000     
   4.5776489155071924E-002   5.9517861062085370E-002   0.0000000000000000     
   3.2205114704794591E-002   3.8773761856533272E-002   0.0000000000000000     
   3.4591093684603093E-002   4.3487920268165225E-002   0.0000000000000000     
   3.6911274976024221E-002   4.8403652304256937E-002   0.0000000000000000     
   3.9165658579057981E-002   5.3520957964808373E-002   0.0000000000000000     
   4.1354244493704374E-002   5.8839837249819574E-002   0.0000000000000000     
   2.8759940088707525E-002   3.8098910496004154E-002   0.0000000000000000     
   3.0927048910680488E-002   4.2823293465210084E-002   0.0000000000000000     
   3.3035854448125679E-002   4.7752080839707570E-002   0.0000000000000000     
   3.5086356701043063E-002   5.2885272619496618E-002   0.0000000000000000     
   3.7078555669432689E-002   5.8222868804577214E-002   0.0000000000000000     
   2.5462527275739333E-002   3.7491668136755432E-002   0.0000000000000000     
   2.7412059259196955E-002   4.2226542350474204E-002   0.0000000000000000     
   2.9309719154769091E-002   4.7167381686647601E-002   0.0000000000000000     
   3.1155506962455726E-002   5.2314186145275623E-002   0.0000000000000000     
   3.2949422682256882E-002   5.7666955726358271E-002   0.0000000000000000     
   2.2312876265890014E-002   3.6952034778787127E-002   0.0000000000000000     
   2.4046124730152496E-002   4.1697666923957599E-002   0.0000000000000000     
   2.5732869095954479E-002   4.6649554845077025E-002   0.0000000000000000     
   2.7373109363295959E-002   5.1807698542145411E-002   0.0000000000000000     
   2.8966845532176929E-002   5.7172098015162751E-002   0.0000000000000000     
   4.5776489155071924E-002   5.9517861062085370E-002   0.0000000000000000     
   4.8085497302202539E-002   6.5003604680803712E-002   0.0000000000000000     
   5.0320723925915731E-002   7.0670124995250577E-002   0.0000000000000000     
   5.2482169026211507E-002   7.6517422005426022E-002   0.0000000000000000     
   5.4569832603089868E-002   8.2545495711330005E-002   0.0000000000000000     
   4.1354244493704374E-002   5.8839837249819574E-002   0.0000000000000000     
   4.3475576419295822E-002   6.4349364741842316E-002   0.0000000000000000     
   4.5528198055164747E-002   7.0038615023428397E-002   0.0000000000000000     
   4.7512109401311155E-002   7.5907588094577802E-002   0.0000000000000000     
   4.9427310457735039E-002   8.1956283955290532E-002   0.0000000000000000     
   3.7078555669432689E-002   5.8222868804577214E-002   0.0000000000000000     
   3.9010088057688748E-002   6.3752390938674228E-002   0.0000000000000000     
   4.0878590570205452E-002   6.9461360565512512E-002   0.0000000000000000     
   4.2684063206982793E-002   7.5349777685092059E-002   0.0000000000000000     
   4.4426505968020787E-002   8.1417642297412884E-002   0.0000000000000000     
   3.2949422682256882E-002   5.7666955726358271E-002   0.0000000000000000     
   3.4689032217381316E-002   6.3212683271299405E-002   0.0000000000000000     
   3.6371901471037832E-002   6.8938361621502922E-002   0.0000000000000000     
   3.7998030443226430E-002   7.4843990776968780E-002   0.0000000000000000     
   3.9567419133947110E-002   8.0929570737697007E-002   0.0000000000000000     
   2.8966845532176929E-002   5.7172098015162751E-002   0.0000000000000000     
   3.0512408898373533E-002   6.2730241739717876E-002   0.0000000000000000     
   3.2008130757661915E-002   6.8469618191399628E-002   0.0000000000000000     
   3.3454011110042078E-002   7.4390227370207965E-002   0.0000000000000000     
   3.4850049955514002E-002   8.0492069276142941E-002   0.0000000000000000     
   5.4569832603089868E-002   8.2545495711330005E-002   0.0000000000000000     
   5.6584056099431158E-002   8.8742761612491589E-002   0.0000000000000000     
   5.8525180958115749E-002   9.5097635208439779E-002   0.0000000000000000     
   6.0393207179143635E-002  0.10161011649917466        0.0000000000000000     
   6.2188134762514814E-002  0.10828020548469615        0.0000000000000000     
   4.9427310457735039E-002   8.1956283955290532E-002   0.0000000000000000     
   5.1274521902544043E-002   8.8173897132735310E-002   0.0000000000000000     
   5.3054464413845787E-002   9.4549622154080748E-002   0.0000000000000000     
   5.4767137991640270E-002  0.10108345901932692        0.0000000000000000     
   5.6412542635927494E-002  0.10777540772847380        0.0000000000000000     
   4.4426505968020787E-002   8.1417642297412884E-002   0.0000000000000000     
   4.6106689081412348E-002   8.7654437765545698E-002   0.0000000000000000     
   4.7725382775250368E-002   9.4049647452561225E-002   0.0000000000000000     
   4.9282587049534900E-002  0.10060327135845948        0.0000000000000000     
   5.0778301904265889E-002  0.10731530948324046        0.0000000000000000     
   3.9567419133947110E-002   8.0929570737697007E-002   0.0000000000000000     
   4.1080557636036068E-002   8.7184383510922767E-002   0.0000000000000000     
   4.2537936042329548E-002   9.3597711103881209E-002   0.0000000000000000     
   4.3939554352827502E-002  0.10016955351657235        0.0000000000000000     
   4.5285412567529972E-002  0.10689991074899613        0.0000000000000000     
   3.4850049955514002E-002   8.0492069276142941E-002   0.0000000000000000     
   3.6196127566415229E-002   8.6763734368866516E-002   0.0000000000000000     
   3.7492124215083265E-002   9.3193813108040688E-002   0.0000000000000000     
   3.8738039901518105E-002   9.9782305493665471E-002   0.0000000000000000     
   3.9933874625719755E-002  0.10652921152574082        0.0000000000000000     
   6.2188134762514814E-002  0.10828020548469615        0.0000000000000000     
   6.3909960676486105E-002  0.11509585484856663        0.0000000000000000     
   6.5558681889314296E-002  0.12204501727434856        0.0000000000000000     
   6.7134298400999423E-002  0.12912769276204189        0.0000000000000000     
   6.8636810211541444E-002  0.13634388131164657        0.0000000000000000     
   5.6412542635927494E-002  0.10777540772847380        0.0000000000000000     
   5.7990458410132721E-002  0.11461309527612133        0.0000000000000000     
   5.9500665377681193E-002  0.12158414865686955        0.0000000000000000     
   6.0943163538572896E-002  0.12868856787071836        0.0000000000000000     
   6.2317952892807858E-002  0.13592635291766786        0.0000000000000000     
   5.0778301904265889E-002  0.10731530948324046        0.0000000000000000     
   5.2212178473945596E-002  0.11417326529901044        0.0000000000000000     
   5.3583867893076231E-002  0.12116464227787564        0.0000000000000000     
   5.4893370161657830E-002  0.12828944041983611        0.0000000000000000     
   5.6140685279690350E-002  0.13554765972489186        0.0000000000000000     
   4.5285412567529972E-002  0.10689991074899613        0.0000000000000000     
   4.6575120867924688E-002  0.11377636491723390        0.0000000000000000     
   4.7808289435499432E-002  0.12078649813736692        0.0000000000000000     
   4.8984918270254175E-002  0.12793031040939515        0.0000000000000000     
   5.0105007372188919E-002  0.13520780173331867        0.0000000000000000     
   3.9933874625719755E-002  0.10652921152574082        0.0000000000000000     
   4.1079285592070039E-002  0.11342239413079179        0.0000000000000000     
   4.2173930004950767E-002  0.12044971623534334        0.0000000000000000     
   4.3217807864361954E-002  0.12761117783939549        0.0000000000000000     
   4.4210919170303585E-002  0.13490677894294820        0.0000000000000000     
   6.8636810211541444E-002  0.13634388131164657        0.0000000000000000     
   7.0066272452747699E-002  0.14368143973815578        0.0000000000000000     
   7.1422740256425463E-002  0.15112822485656258        0.0000000000000000     
   7.2706213622574747E-002  0.15868423666686696        0.0000000000000000     
   7.3916692551195540E-002  0.16634947516906892        0.0000000000000000     
   6.2317952892807858E-002  0.13592635291766786        0.0000000000000000     
   6.3624611486050170E-002  0.14328575256908013        0.0000000000000000     
   6.4862717363963970E-002  0.15075501559631740        0.0000000000000000     
   6.6032270526549225E-002  0.15833414199937965        0.0000000000000000     
   6.7133270973805975E-002  0.16602313177826691        0.0000000000000000     
   5.6140685279690350E-002  0.13554765972489186        0.0000000000000000     
   5.7325042319659764E-002  0.14292776980364841        0.0000000000000000     
   5.8445670354052001E-002  0.15041824026671127        0.0000000000000000     
   5.9502569382867090E-002  0.15801907111408051        0.0000000000000000     
   6.0495739406104990E-002  0.16573026234575608        0.0000000000000000     
   5.0105007372188919E-002  0.13520780173331867        0.0000000000000000     
   5.1167564953576473E-002  0.14260749144186058        0.0000000000000000     
   5.2171599226689597E-002  0.15011789886774421        0.0000000000000000     
   5.3117110191528288E-002  0.15773902401096948        0.0000000000000000     
   5.4004097848092555E-002  0.16547086687153642        0.0000000000000000     
   4.4210919170303585E-002  0.13490677894294820        0.0000000000000000     
   4.5152179387800306E-002  0.14232491748371670        0.0000000000000000     
   4.6040503981876722E-002  0.14985399139941616        0.0000000000000000     
   4.6875892952532867E-002  0.15749400069004657        0.0000000000000000     
   4.7658346299768700E-002  0.16524494535560794        0.0000000000000000     
   0.0000000000000000        0.0000000000000000        0.0000000000000000     
   1.7983516746343741E-003   1.2768439777727457E-003   0.0000000000000000     
   3.6213707769566007E-003   2.9391661410008421E-003   0.0000000000000000     
   5.4690573069666798E-003   4.9869664896842894E-003   0.0000000000000000     
   7.3414112646646114E-003   7.4202450238230874E-003   0.0000000000000000     
   0.0000000000000000        0.0000000000000000        0.0000000000000000     
   1.5350373415440144E-003   1.2175793592629489E-003   0.0000000000000000     
   3.0993872517127586E-003   2.8208987775858326E-003   0.0000000000000000     
   4.6930497305062331E-003   4.8099582549686508E-003   0.0000000000000000     
   6.3160247779244375E-003   7.1847577914114051E-003   0.0000000000000000     
   0.0000000000000000        0.0000000000000000        0.0000000000000000     
   1.2878197125799822E-003   1.1700179879323154E-003   0.0000000000000000     
   2.6055186026511714E-003   2.7246415739636772E-003   0.0000000000000000     
   3.9530966702135666E-003   4.6638707580940837E-003   0.0000000000000000     
   5.3305539152671702E-003   6.9877055403235388E-003   0.0000000000000000     
   0.0000000000000000        0.0000000000000000        0.0000000000000000     
   1.0566987877422779E-003   1.1341598637808453E-003   0.0000000000000000     
   2.1397648297718382E-003   2.6503945301343751E-003   0.0000000000000000     
   3.2491981260886816E-003   4.5487039990605898E-003   0.0000000000000000     
   4.3849986766928079E-003   6.8290882705594885E-003   0.0000000000000000     
   0.0000000000000000        0.0000000000000000        0.0000000000000000     
   8.4167456703090112E-004   1.1100049868085385E-003   0.0000000000000000     
   1.7021259330747599E-003   2.5981576460979271E-003   0.0000000000000000     
   2.5813540981315768E-003   4.4644579778681656E-003   0.0000000000000000     
   3.4793590622013513E-003   6.7089059821192542E-003   0.0000000000000000     
   7.3414112646646114E-003   7.4202450238230874E-003   0.0000000000000000     
   9.2307969969873688E-003   1.0186596259419976E-002   0.0000000000000000     
   1.1129578850871924E-002   1.3233614712477687E-002   0.0000000000000000     
   1.3037756826318277E-002   1.6561300382996230E-002   0.0000000000000000     
   1.4955330923326429E-002   2.0169653270975595E-002   0.0000000000000000     
   6.3160247779244375E-003   7.1847577914114051E-003   0.0000000000000000     
   7.9556356476674188E-003   9.8957550066834966E-003   0.0000000000000000     
   9.5992055934352276E-003   1.2893407520554333E-002   0.0000000000000000     
   1.1246734615227860E-002   1.6177715333023909E-002   0.0000000000000000     
   1.2898222713045315E-002   1.9748678444092234E-002   0.0000000000000000     
   5.3305539152671702E-003   6.9877055403235388E-003   0.0000000000000000     
   6.7234317275304744E-003   9.6500725468884035E-003   0.0000000000000000     
   8.1172714967219749E-003   1.2604898404025039E-002   0.0000000000000000     
   9.5120732228416785E-003   1.5852183111733451E-002   0.0000000000000000     
   1.0907836905889576E-002   1.9391926670013639E-002   0.0000000000000000     
   4.3849986766928079E-003   6.8290882705594885E-003   0.0000000000000000     
   5.5341852365765332E-003   9.4495488800346913E-003   0.0000000000000000     
   6.6837765607321757E-003   1.2368087362889810E-002   0.0000000000000000     
   7.8337726491597322E-003   1.5584703719124850E-002   0.0000000000000000     
   8.9841735018592050E-003   1.9099397948739810E-002   0.0000000000000000     
   3.4793590622013513E-003   6.7089059821192542E-003   0.0000000000000000     
   4.3878961748055959E-003   9.2941840061223583E-003   0.0000000000000000     
   5.2987207854658198E-003   1.2182974397148641E-002   0.0000000000000000     
   6.2118328941820258E-003   1.5375277155198104E-002   0.0000000000000000     
   7.1272325009542128E-003   1.8871092280270743E-002   0.0000000000000000     
   1.4955330923326429E-002   2.0169653270975595E-002   0.0000000000000000     
   1.6856881625578440E-002   2.4030066987746151E-002   0.0000000000000000     
   1.8716989416756376E-002   2.8113935144638259E-002   0.0000000000000000     
   2.0535654296860235E-002   3.2421257741651915E-002   0.0000000000000000     
   2.2312876265890014E-002   3.6952034778787127E-002   0.0000000000000000     
   1.2898222713045315E-002   1.9748678444092234E-002   0.0000000000000000     
   1.4537223625781494E-002   2.3580125431856211E-002   0.0000000000000000     
   1.6147291092330280E-002   2.7645884874412746E-002   0.0000000000000000     
   1.7728425112691685E-002   3.1945956771761840E-002   0.0000000000000000     
   1.9280625686865706E-002   3.6480341123903505E-002   0.0000000000000000     
   1.0907836905889576E-002   1.9391926670013639E-002   0.0000000000000000     
   1.2294243980803761E-002   2.3199218357931647E-002   0.0000000000000000     
   1.3660975882522314E-002   2.7249147454553507E-002   0.0000000000000000     
   1.5008032611045245E-002   3.1541713959879231E-002   0.0000000000000000     
   1.6335414166372547E-002   3.6076917873908813E-002   0.0000000000000000     
   8.9841735018592050E-003   1.9099397948739810E-002   0.0000000000000000     
   1.0127942690645240E-002   2.2887345765972452E-002   0.0000000000000000     
   1.1258043787332476E-002   2.6923722885060543E-002   0.0000000000000000     
   1.2374476791920906E-002   3.1208529306004078E-002   0.0000000000000000     
   1.3477241704410541E-002   3.5741765028803066E-002   0.0000000000000000     
   7.1272325009542128E-003   1.8871092280270743E-002   0.0000000000000000     
   8.0383197553059362E-003   2.2644507655978637E-002   0.0000000000000000     
   8.9384948067607571E-003   2.6669611165933853E-002   0.0000000000000000     
   9.8277576553186703E-003   3.0946402810136397E-002   0.0000000000000000     
   1.0706108300979683E-002   3.5474882588586255E-002   0.0000000000000000     
   2.2312876265890014E-002   3.6952034778787127E-002   0.0000000000000000     
   2.4046124730152496E-002   4.1697666923957599E-002   0.0000000000000000     
   2.5732869095954479E-002   4.6649554845077025E-002   0.0000000000000000     
   2.7373109363295959E-002   5.1807698542145411E-002   0.0000000000000000     
   2.8966845532176929E-002   5.7172098015162751E-002   0.0000000000000000     
   1.9280625686865706E-002   3.6480341123903505E-002   0.0000000000000000     
   2.0797681134399188E-002   4.1235037730648079E-002   0.0000000000000000     
   2.2273379774838998E-002   4.6196046391805953E-002   0.0000000000000000     
   2.3707721608185121E-002   5.1363367107377100E-002   0.0000000000000000     
   2.5100706634437565E-002   5.6736999877361534E-002   0.0000000000000000     
   1.6335414166372547E-002   3.6076917873908813E-002   0.0000000000000000     
   1.7635164282789103E-002   4.0837025315533487E-002   0.0000000000000000     
   1.8899326694579784E-002   4.5804302403644498E-002   0.0000000000000000     
   2.0127901401744586E-002   5.0978749138241831E-002   0.0000000000000000     
   2.1320888404283526E-002   5.6360365519325502E-002   0.0000000000000000     
   1.3477241704410541E-002   3.5741765028803066E-002   0.0000000000000000     
   1.4558574175322232E-002   4.0503629678613817E-002   0.0000000000000000     
   1.5610709855176838E-002   4.5474322880592666E-002   0.0000000000000000     
   1.6633648743974359E-002   5.0653844634739605E-002   0.0000000000000000     
   1.7627390841714791E-002   5.6042194941054634E-002   0.0000000000000000     
   1.0706108300979683E-002   3.5474882588586255E-002   0.0000000000000000     
   1.1567910811998584E-002   4.0234850819889069E-002   0.0000000000000000     
   1.2407529256630164E-002   4.5206107822650457E-002   0.0000000000000000     
   1.3224963634874428E-002   5.0388653596870413E-002   0.0000000000000000     
   1.4020213946731374E-002   5.5782488142548943E-002   0.0000000000000000     
   2.8966845532176929E-002   5.7172098015162751E-002   0.0000000000000000     
   3.0512408898373533E-002   6.2730241739717876E-002   0.0000000000000000     
   3.2008130757661915E-002   6.8469618191399628E-002   0.0000000000000000     
   3.3454011110042078E-002   7.4390227370207965E-002   0.0000000000000000     
   3.4850049955514002E-002   8.0492069276142941E-002   0.0000000000000000     
   2.5100706634437565E-002   5.6736999877361534E-002   0.0000000000000000     
   2.6451587552823751E-002   6.2305144698834060E-002   0.0000000000000000     
   2.7759617062571077E-002   6.8056001568869484E-002   0.0000000000000000     
   2.9024795163679559E-002   7.3989570487467779E-002   0.0000000000000000     
   3.0247121856149188E-002   8.0105851454628979E-002   0.0000000000000000     
   2.1320888404283526E-002   5.6360365519325502E-002   0.0000000000000000     
   2.2477937632890323E-002   6.1937470503552354E-002   0.0000000000000000     
   2.3598699018258732E-002   6.7698383047579289E-002   0.0000000000000000     
   2.4683172560388739E-002   7.3643103151406306E-002   0.0000000000000000     
   2.5731358259280353E-002   7.9771630815033412E-002   0.0000000000000000     
   1.7627390841714791E-002   5.6042194941054634E-002   0.0000000000000000     
   1.8591459138573251E-002   6.1627219153872786E-002   0.0000000000000000     
   1.9525376624724863E-002   6.7396762627529097E-002   0.0000000000000000     
   2.0429143300169612E-002   7.3350825362023586E-002   0.0000000000000000     
   2.1302759164907509E-002   7.9489407357356198E-002   0.0000000000000000     
   1.4020213946731374E-002   5.5782488142548943E-002   0.0000000000000000     
   1.4792152069872545E-002   6.1374390649795343E-002   0.0000000000000000     
   1.5539649881969479E-002   6.7151140308718882E-002   0.0000000000000000     
   1.6262707383022185E-002   7.3112737119319565E-002   0.0000000000000000     
   1.6961324573030657E-002   7.9259181081597394E-002   0.0000000000000000     
   3.4850049955514002E-002   8.0492069276142941E-002   0.0000000000000000     
   3.6196127566415229E-002   8.6763734368866516E-002   0.0000000000000000     
   3.7492124215083265E-002   9.3193813108040688E-002   0.0000000000000000     
   3.8738039901518105E-002   9.9782305493665471E-002   0.0000000000000000     
   3.9933874625719755E-002  0.10652921152574082        0.0000000000000000     
   3.0247121856149188E-002   8.0105851454628979E-002   0.0000000000000000     
   3.1425869950254350E-002   8.6392638159708199E-002   0.0000000000000000     
   3.2560312256269451E-002   9.2837724292060525E-002   0.0000000000000000     
   3.3650448774194493E-002   9.9441109851686013E-002   0.0000000000000000     
   3.4696279504029461E-002  0.10620279483858462        0.0000000000000000     
   2.5731358259280353E-002   7.9771630815033412E-002   0.0000000000000000     
   2.6742255865257972E-002   8.6071242703779000E-002   0.0000000000000000     
   2.7714865128646009E-002   9.2529215482961572E-002   0.0000000000000000     
   2.8649186049444449E-002   9.9145549152581100E-002   0.0000000000000000     
   2.9545218627653302E-002  0.10592024371263761        0.0000000000000000     
   2.1302759164907509E-002   7.9489407357356198E-002   0.0000000000000000     
   2.2145285311426097E-002   8.5799548001078960E-002   0.0000000000000000     
   2.2955782832212921E-002   9.2268286680743813E-002   0.0000000000000000     
   2.3734251727267983E-002   9.8895623396350760E-002   0.0000000000000000     
   2.4480691996591281E-002  0.10568155814789978        0.0000000000000000     
   1.6961324573030657E-002   7.9259181081597394E-002   0.0000000000000000     
   1.7634958288758718E-002   8.5577554051608065E-002   0.0000000000000000     
   1.8283065366970198E-002   9.2054937885407237E-002   0.0000000000000000     
   1.8905645807665090E-002   9.8691332582994964E-002   0.0000000000000000     
   1.9502699610843399E-002  0.10548673814437118        0.0000000000000000     
   3.9933874625719755E-002  0.10652921152574082        0.0000000000000000     
   4.1079285592070039E-002  0.11342239413079179        0.0000000000000000     
   4.2173930004950767E-002  0.12044971623534334        0.0000000000000000     
   4.3217807864361954E-002  0.12761117783939549        0.0000000000000000     
   4.4210919170303585E-002  0.13490677894294820        0.0000000000000000     
   3.4696279504029461E-002  0.10620279483858462        0.0000000000000000     
   3.5697524825410255E-002  0.11311095277475322        0.0000000000000000     
   3.6653905117972764E-002  0.12015375718218869        0.0000000000000000     
   3.7565420381716993E-002  0.12733120806089104        0.0000000000000000     
   3.8432070616642944E-002  0.13464330541086028        0.0000000000000000     
   2.9545218627653302E-002  0.10592024371263761        0.0000000000000000     
   3.0402690746973986E-002  0.11284164068418739        0.0000000000000000     
   3.1221330291107935E-002  0.11989808158828684        0.0000000000000000     
   3.2001137260055143E-002  0.12708956642493588        0.0000000000000000     
   3.2742111653815596E-002  0.13441609519413458        0.0000000000000000     
   2.4480691996591281E-002  0.10568155814789978        0.0000000000000000     
   2.5194783356761240E-002  0.11261445785909432        0.0000000000000000     
   2.5876205524356270E-002  0.11968268945363773        0.0000000000000000     
   2.6524958499376375E-002  0.12688625293152997        0.0000000000000000     
   2.7141042281821560E-002  0.13422514829277113        0.0000000000000000     
   1.9502699610843399E-002  0.10548673814437118        0.0000000000000000     
   2.0073802654771999E-002  0.11242940429947398        0.0000000000000000     
   2.0618530817717771E-002  0.11950758077824139        0.0000000000000000     
   2.1136884099680713E-002  0.12672126758067340        0.0000000000000000     
   2.1628862500660824E-002  0.13407046470676995        0.0000000000000000     
   4.4210919170303585E-002  0.13490677894294820        0.0000000000000000     
   4.5152179387800306E-002  0.14232491748371670        0.0000000000000000     
   4.6040503981876722E-002  0.14985399139941616        0.0000000000000000     
   4.6875892952532867E-002  0.15749400069004657        0.0000000000000000     
   4.7658346299768700E-002  0.16524494535560794        0.0000000000000000     
   3.8432070616642944E-002  0.13464330541086028        0.0000000000000000     
   3.9252771051437207E-002  0.14207827728739067        0.0000000000000000     
   4.0026436914786384E-002  0.14962435174577662        0.0000000000000000     
   4.0753068206690474E-002  0.15728152878601809        0.0000000000000000     
   4.1432664927149490E-002  0.16504980840811506        0.0000000000000000     
   3.2742111653815596E-002  0.13441609519413458        0.0000000000000000     
   3.3443225373593136E-002  0.14186580021105641        0.0000000000000000     
   3.4103450320591547E-002  0.14942681379087500        0.0000000000000000     
   3.4722786494810844E-002  0.15709913593359026        0.0000000000000000     
   3.5301233896251026E-002  0.16488276663920221        0.0000000000000000     
   2.7141042281821560E-002  0.13422514829277113        0.0000000000000000     
   2.7723542354268087E-002  0.14168748625471397        0.0000000000000000     
   2.8271544199292210E-002  0.14926137753471130        0.0000000000000000     
   2.8785047816893956E-002  0.15694682213276306        0.0000000000000000     
   2.9264053207073298E-002  0.16474382004886937        0.0000000000000000     
   2.1628862500660824E-002  0.13407046470676995        0.0000000000000000     
   2.2093721993462066E-002  0.14154333541836331        0.0000000000000000     
   2.2530718550888392E-002  0.14912804297728549        0.0000000000000000     
   2.2939852172939808E-002  0.15682458738353661        0.0000000000000000     
   2.3321122859616312E-002  0.16463296863711657        0.0000000000000000     
   0.0000000000000000        0.0000000000000000        0.0000000000000000     
   8.4167456703090112E-004   1.1100049868085385E-003   0.0000000000000000     
   1.7021259330747599E-003   2.5981576460979271E-003   0.0000000000000000     
   2.5813540981315768E-003   4.4644579778681656E-003   0.0000000000000000     
   3.4793590622013513E-003   6.7089059821192542E-003   0.0000000000000000     
   0.0000000000000000        0.0000000000000000        0.0000000000000000     
   6.3383800510598493E-004   1.0939896400982674E-003   0.0000000000000000     
   1.2780569683045820E-003   2.5620798174746987E-003   0.0000000000000000     
   1.9326568895957916E-003   4.4042705321292938E-003   0.0000000000000000     
   2.5976377689796138E-003   6.6205617840620528E-003   0.0000000000000000     
   0.0000000000000000        0.0000000000000000        0.0000000000000000     
   4.2428005662766195E-004   1.0825501067329042E-003   0.0000000000000000     
   8.5301299120595043E-004   2.5363099398850561E-003   0.0000000000000000     
   1.2861988037348655E-003   4.3612794994564545E-003   0.0000000000000000     
   1.7238374942144070E-003   6.5574587854471001E-003   0.0000000000000000     
   0.0000000000000000        0.0000000000000000        0.0000000000000000     
   2.1300072159593237E-004   1.0756863867124498E-003   0.0000000000000000     
   4.2699400177886513E-004   2.5208480133289989E-003   0.0000000000000000     
   6.4197984054879830E-004   4.3354848798496486E-003   0.0000000000000000     
   8.5795823790573182E-004   6.5195969862743963E-003   0.0000000000000000     
   0.0000000000000000        0.0000000000000000        0.0000000000000000     
   1.0796051552741659E-014   1.0733984800369032E-003   0.0000000000000000     
   2.3326067639939385E-014   2.5156940378065276E-003   0.0000000000000000     
   3.7589939841375930E-014   4.3268866733088733E-003   0.0000000000000000     
   5.3587641051996981E-014   6.5069763865439412E-003   0.0000000000000000     
   3.4793590622013513E-003   6.7089059821192542E-003   0.0000000000000000     
   4.3878961748055959E-003   9.2941840061223583E-003   0.0000000000000000     
   5.2987207854658198E-003   1.2182974397148641E-002   0.0000000000000000     
   6.2118328941820258E-003   1.5375277155198104E-002   0.0000000000000000     
   7.1272325009542128E-003   1.8871092280270743E-002   0.0000000000000000     
   2.5976377689796138E-003   6.6205617840620528E-003   0.0000000000000000     
   3.2700449035001152E-003   9.1779967133596135E-003   0.0000000000000000     
   3.9469235902013624E-003   1.2043618460108610E-002   0.0000000000000000     
   4.6282738290833571E-003   1.5217427024309043E-002   0.0000000000000000     
   5.3140956201460981E-003   1.8699422405960914E-002   0.0000000000000000     
   1.7238374942144070E-003   6.5574587854471001E-003   0.0000000000000000     
   2.1661117839425459E-003   9.0950057899546570E-003   0.0000000000000000     
   2.6132043942172526E-003   1.1944078505076791E-002   0.0000000000000000     
   3.0651153250385275E-003   1.5104676930813502E-002   0.0000000000000000     
   3.5218445764063698E-003   1.8576801067164788E-002   0.0000000000000000     
   8.5795823790573182E-004   6.5195969862743963E-003   0.0000000000000000     
   1.0760968161328884E-003   9.0452112359074924E-003   0.0000000000000000     
   1.2975631975134904E-003   1.1884354532053186E-002   0.0000000000000000     
   1.5223573820475379E-003   1.5037026874711479E-002   0.0000000000000000     
   1.7504793697350311E-003   1.8503228263882364E-002   0.0000000000000000     
   5.3587641051996981E-014   6.5069763865439412E-003   0.0000000000000000     
   7.1141917769128316E-014   9.0286130512181196E-003   0.0000000000000000     
   9.0075103138017448E-014   1.1864446541037797E-002   0.0000000000000000     
   1.1038772401315757E-013   1.5014476856002970E-002   0.0000000000000000     
   1.3207935179587738E-013   1.8478703996113649E-002   0.0000000000000000     
   7.1272325009542128E-003   1.8871092280270743E-002   0.0000000000000000     
   8.0383197553059362E-003   2.2644507655978637E-002   0.0000000000000000     
   8.9384948067607571E-003   2.6669611165933853E-002   0.0000000000000000     
   9.8277576553186703E-003   3.0946402810136397E-002   0.0000000000000000     
   1.0706108300979683E-002   3.5474882588586255E-002   0.0000000000000000     
   5.3140956201460981E-003   1.8699422405960914E-002   0.0000000000000000     
   5.9974619521617348E-003   2.2462226895592456E-002   0.0000000000000000     
   6.6714458139024236E-003   2.6478462783731900E-002   0.0000000000000000     
   7.3360472053681574E-003   3.0748130070379239E-002   0.0000000000000000     
   7.9912661265589408E-003   3.5271228755534491E-002   0.0000000000000000     
   3.5218445764063698E-003   1.8576801067164788E-002   0.0000000000000000     
   3.9774560585885219E-003   2.2332026352456159E-002   0.0000000000000000     
   4.4260136818527257E-003   2.6341928225013134E-002   0.0000000000000000     
   4.8675174461989780E-003   3.0606506684835694E-002   0.0000000000000000     
   5.3019673516272814E-003   3.5125761731923860E-002   0.0000000000000000     
   1.7504793697350311E-003   1.8503228263882364E-002   0.0000000000000000     
   1.9783020745862971E-003   2.2253906026569754E-002   0.0000000000000000     
   2.2021984106116647E-003   2.6260007489777554E-002   0.0000000000000000     
   2.4221683778111332E-003   3.0521532653505757E-002   0.0000000000000000     
   2.6382119761847031E-003   3.5038481517754370E-002   0.0000000000000000     
   1.3207935179587738E-013   1.8478703996113649E-002   0.0000000000000000     
   1.5506031788431462E-013   2.2227865917933236E-002   0.0000000000000000     
   1.7924201077372526E-013   2.6232700578025164E-002   0.0000000000000000     
   2.0462314975029303E-013   3.0493207976389422E-002   0.0000000000000000     
   2.3120567960166483E-013   3.5009388113026021E-002   0.0000000000000000     
   1.0706108300979683E-002   3.5474882588586255E-002   0.0000000000000000     
   1.1567910811998584E-002   4.0234850819889069E-002   0.0000000000000000     
   1.2407529256630164E-002   4.5206107822650457E-002   0.0000000000000000     
   1.3224963634874428E-002   5.0388653596870413E-002   0.0000000000000000     
   1.4020213946731374E-002   5.5782488142548943E-002   0.0000000000000000     
   7.9912661265589408E-003   3.5271228755534491E-002   0.0000000000000000     
   8.6341413928258132E-003   4.0027939158964548E-002   0.0000000000000000     
   9.2617118195198102E-003   4.4998441600436333E-002   0.0000000000000000     
   9.8739774066409353E-003   5.0182736079949844E-002   0.0000000000000000     
   1.0470938154189185E-002   5.5580822597505075E-002   0.0000000000000000     
   5.3019673516272814E-003   3.5125761731923860E-002   0.0000000000000000     
   5.7282331178115818E-003   3.9880145115445575E-002   0.0000000000000000     
   6.1451844644258256E-003   4.4850108584568761E-002   0.0000000000000000     
   6.5528213914700130E-003   5.0035652139293452E-002   0.0000000000000000     
   6.9511438989441421E-003   5.5436775779619633E-002   0.0000000000000000     
   2.6382119761847031E-003   3.5038481517754370E-002   0.0000000000000000     
   2.8501859869558893E-003   3.9791468689332116E-002   0.0000000000000000     
   3.0579471913482091E-003   4.4761108775047756E-002   0.0000000000000000     
   3.2614955893616611E-003   4.9947401774901243E-002   0.0000000000000000     
   3.4608311809962472E-003   5.5350347688892618E-002   0.0000000000000000     
   2.3120567960166483E-013   3.5009388113026021E-002   0.0000000000000000     
   2.5873519906433051E-013   3.9761909880624217E-002   0.0000000000000000     
   2.8696055948129739E-013   4.4731442171873283E-002   0.0000000000000000     
   3.1588219453343447E-013   4.9917984986773224E-002   0.0000000000000000     
   3.4549836949726576E-013   5.5321538325324049E-002   0.0000000000000000     
   1.4020213946731374E-002   5.5782488142548943E-002   0.0000000000000000     
   1.4792152069872545E-002   6.1374390649795343E-002   0.0000000000000000     
   1.5539649881969479E-002   6.7151140308718882E-002   0.0000000000000000     
   1.6262707383022185E-002   7.3112737119319565E-002   0.0000000000000000     
   1.6961324573030657E-002   7.9259181081597394E-002   0.0000000000000000     
   1.0470938154189185E-002   5.5580822597505075E-002   0.0000000000000000     
   1.1050851548609296E-002   6.1178288203680813E-002   0.0000000000000000     
   1.1611975076346004E-002   6.6960719949055822E-002   0.0000000000000000     
   1.2154308737399311E-002   7.2928117833630082E-002   0.0000000000000000     
   1.2677852531769215E-002   7.9080481857403656E-002   0.0000000000000000     
   6.9511438989441421E-003   5.5436775779619633E-002   0.0000000000000000     
   7.3383926966046221E-003   6.1038215027889954E-002   0.0000000000000000     
   7.7128084942078602E-003   6.6824705406447069E-002   0.0000000000000000     
   8.0743912917538574E-003   7.2796246915290963E-002   0.0000000000000000     
   8.4231410892426119E-003   7.8952839554421672E-002   0.0000000000000000     
   3.4608311809962472E-003   5.5350347688892618E-002   0.0000000000000000     
   3.6547755138585237E-003   6.0954171122422768E-002   0.0000000000000000     
   3.8421501355550489E-003   6.6743096680892636E-002   0.0000000000000000     
   4.0229550460858235E-003   7.2717124364302194E-002   0.0000000000000000     
   4.1971902454508471E-003   7.8876254172651455E-002   0.0000000000000000     
   3.4549836949726576E-013   5.5321538325324049E-002   0.0000000000000000     
   3.7099793723238683E-013   6.0926156487279295E-002   0.0000000000000000     
   3.8756866639622078E-013   6.6715893772392537E-002   0.0000000000000000     
   3.9521039435844174E-013   7.2690750180663760E-002   0.0000000000000000     
   3.9392274164828933E-013   7.8850725712092978E-002   0.0000000000000000     
   1.6961324573030657E-002   7.9259181081597394E-002   0.0000000000000000     
   1.7634958288758718E-002   8.5577554051608065E-002   0.0000000000000000     
   1.8283065366970198E-002   9.2054937885407237E-002   0.0000000000000000     
   1.8905645807665090E-002   9.8691332582994964E-002   0.0000000000000000     
   1.9502699610843399E-002  0.10548673814437118        0.0000000000000000     
   1.2677852531769215E-002   7.9080481857403656E-002   0.0000000000000000     
   1.3182519452921534E-002   8.5405053425366001E-002   0.0000000000000000     
   1.3668222494322091E-002   9.1889073942506658E-002   0.0000000000000000     
   1.4134961655970885E-002   9.8532543408825612E-002   0.0000000000000000     
   1.4582736937867918E-002  0.10533546182432288        0.0000000000000000     
   8.4231410892426119E-003   7.8952839554421672E-002   0.0000000000000000     
   8.7592134595802403E-003   8.5281838692352507E-002   0.0000000000000000     
   9.0827639756728678E-003   9.1770599697596836E-002   0.0000000000000000     
   9.3937926375204876E-003   9.8419122570154643E-002   0.0000000000000000     
   9.6922994451231047E-003  0.10522740731002594        0.0000000000000000     
   4.1971902454508471E-003   7.8876254172651455E-002   0.0000000000000000     
   4.3650403087348412E-003   8.5207909852567570E-002   0.0000000000000000     
   4.5266898110225239E-003   9.1699515150677785E-002   0.0000000000000000     
   4.6821387523138993E-003   9.8351070066982058E-002   0.0000000000000000     
   4.8313871326089624E-003  0.10516257460148039        0.0000000000000000     
   3.9392274164828933E-013   7.8850725712092978E-002   0.0000000000000000     
   3.8533174047394869E-013   8.5183266906011204E-002   0.0000000000000000     
   3.7106266410208422E-013   9.1675820301749505E-002   0.0000000000000000     
   3.5111445543557773E-013   9.8328385899307841E-002   0.0000000000000000     
   3.2548963524448027E-013  0.10514096369868622        0.0000000000000000     
   1.9502699610843399E-002  0.10548673814437118        0.0000000000000000     
   2.0073802654771999E-002  0.11242940429947398        0.0000000000000000     
   2.0618530817717771E-002  0.11950758077824139        0.0000000000000000     
   2.1136884099680713E-002  0.12672126758067340        0.0000000000000000     
   2.1628862500660824E-002  0.13407046470676995        0.0000000000000000     
   1.4582736937867918E-002  0.10533546182432288        0.0000000000000000     
   1.5011051970459367E-002  0.11228591398846144        0.0000000000000000     
   1.5419410384191404E-002  0.11937198470070437        0.0000000000000000     
   1.5807812179064032E-002  0.12659367396105162        0.0000000000000000     
   1.6176257355077255E-002  0.13395098176950324        0.0000000000000000     
   9.6922994451231047E-003  0.10522740731002594        0.0000000000000000     
   9.9778346332764171E-003  0.11218342090919180        0.0000000000000000     
   1.0249948436776124E-002  0.11927513035963326        0.0000000000000000     
   1.0508640855622225E-002  0.12650253566135033        0.0000000000000000     
   1.0753911889814720E-002  0.13386563681434305        0.0000000000000000     
   4.8313871326089624E-003  0.10516257460148039        0.0000000000000000     
   4.9741506432231615E-003  0.11212192506166499        0.0000000000000000     
   5.1101449754719364E-003  0.11921701775502803        0.0000000000000000     
   5.2393701293552888E-003  0.12644785268156955        0.0000000000000000     
   5.3618261048732170E-003  0.13381442984128947        0.0000000000000000     
   3.2548963524448027E-013  0.10514096369868622        0.0000000000000000     
   2.9959563475900897E-013  0.11210142644588106        0.0000000000000000     
   2.7884086099133620E-013  0.11919764688688869        0.0000000000000000     
   2.6322555788695079E-013  0.12642962502170921        0.0000000000000000     
   2.5274877676895180E-013  0.13379736085034249        0.0000000000000000     
   2.1628862500660824E-002  0.13407046470676995        0.0000000000000000     
   2.2093721993462066E-002  0.14154333541836331        0.0000000000000000     
   2.2530718550888392E-002  0.14912804297728549        0.0000000000000000     
   2.2939852172939808E-002  0.15682458738353661        0.0000000000000000     
   2.3321122859616312E-002  0.16463296863711657        0.0000000000000000     
   1.6176257355077255E-002  0.13395098176950324        0.0000000000000000     
   1.6524197595225894E-002  0.14143214980156929        0.0000000000000000     
   1.6851084582504776E-002  0.14902541973276012        0.0000000000000000     
   1.7156918316913902E-002  0.15673079156307554        0.0000000000000000     
   1.7441698798453271E-002  0.16454826529251576        0.0000000000000000     
   1.0753911889814720E-002  0.13386563681434305        0.0000000000000000     
   1.0985402463610404E-002  0.14135273150389693        0.0000000000000000     
   1.1202753501266075E-002  0.14895211741529754        0.0000000000000000     
   1.1405965002781729E-002  0.15666379454854490        0.0000000000000000     
   1.1595036968157370E-002  0.16448776290363898        0.0000000000000000     
   5.3618261048732170E-003  0.13381442984128947        0.0000000000000000     
   5.4773365986155922E-003  0.14130508052534613        0.0000000000000000     
   5.5857253071722821E-003  0.14890813602489780        0.0000000000000000     
   5.6869922305432894E-003  0.15662359633994449        0.0000000000000000     
   5.7811373687286106E-003  0.16445146147048617        0.0000000000000000     
   2.5274877676895180E-013  0.13379736085034249        0.0000000000000000     
   2.4145919638729474E-013  0.14128919686591696        0.0000000000000000     
   2.2340278498650390E-013  0.14889347556156093        0.0000000000000000     
   1.9858190070630444E-013  0.15661019693727443        0.0000000000000000     
   1.6699489013838331E-013  0.16443936099305737        0.0000000000000000     
   0.0000000000000000        0.0000000000000000        0.0000000000000000     
   1.0796051552741659E-014   1.0733984800369032E-003   0.0000000000000000     
   2.3326067639939385E-014   2.5156940378065276E-003   0.0000000000000000     
   3.7589939841375930E-014   4.3268866733088733E-003   0.0000000000000000     
   5.3587641051996981E-014   6.5069763865439412E-003   0.0000000000000000     
   0.0000000000000000        0.0000000000000000        0.0000000000000000     
  -2.1300072157471868E-004   1.0756863867064528E-003   0.0000000000000000     
  -4.2699400173300993E-004   2.5208480133179613E-003   0.0000000000000000     
  -6.4197984047487393E-004   4.3354848798345252E-003   0.0000000000000000     
  -8.5795823780031050E-004   6.5195969862561444E-003   0.0000000000000000     
   0.0000000000000000        0.0000000000000000        0.0000000000000000     
  -4.2428005660758372E-004   1.0825501067212877E-003   0.0000000000000000     
  -8.5301299116248618E-004   2.5363099398636184E-003   0.0000000000000000     
  -1.2861988036647069E-003   4.3612794994269937E-003   0.0000000000000000     
  -1.7238374941142469E-003   6.5574587854114116E-003   0.0000000000000000     
   0.0000000000000000        0.0000000000000000        0.0000000000000000     
  -6.3383800508779896E-004   1.0939896400814068E-003   0.0000000000000000     
  -1.2780569682651023E-003   2.5620798174435001E-003   0.0000000000000000     
  -1.9326568895319100E-003   4.4042705320862796E-003   0.0000000000000000     
  -2.5976377688882225E-003   6.6205617840097465E-003   0.0000000000000000     
   0.0000000000000000        0.0000000000000000        0.0000000000000000     
  -8.4167456701536450E-004   1.1100049867868111E-003   0.0000000000000000     
  -1.7021259330408584E-003   2.5981576460576057E-003   0.0000000000000000     
  -2.5813540980764828E-003   4.4644579778123829E-003   0.0000000000000000     
  -3.4793590621222362E-003   6.7089059820511446E-003   0.0000000000000000     
   5.3587641051996981E-014   6.5069763865439412E-003   0.0000000000000000     
   7.1141917769128316E-014   9.0286130512181196E-003   0.0000000000000000     
   9.0075103138017448E-014   1.1864446541037797E-002   0.0000000000000000     
   1.1038772401315757E-013   1.5014476856002970E-002   0.0000000000000000     
   1.3207935179587738E-013   1.8478703996113649E-002   0.0000000000000000     
  -8.5795823780031050E-004   6.5195969862561444E-003   0.0000000000000000     
  -1.0760968159928830E-003   9.0452112358869428E-003   0.0000000000000000     
  -1.2975631973361566E-003   1.1884354532031039E-002   0.0000000000000000     
  -1.5223573818301300E-003   1.5037026874688440E-002   0.0000000000000000     
  -1.7504793694748050E-003   1.8503228263859139E-002   0.0000000000000000     
  -1.7238374941142469E-003   6.5574587854114116E-003   0.0000000000000000     
  -2.1661117838093773E-003   9.0950057899143628E-003   0.0000000000000000     
  -2.6132043940483695E-003   1.1944078505033338E-002   0.0000000000000000     
  -3.0651153248312251E-003   1.5104676930768340E-002   0.0000000000000000     
  -3.5218445761579422E-003   1.8576801067119363E-002   0.0000000000000000     
  -2.5976377688882225E-003   6.6205617840097465E-003   0.0000000000000000     
  -3.2700449033783393E-003   9.1779967133003883E-003   0.0000000000000000     
  -3.9469235900465643E-003   1.2043618460044698E-002   0.0000000000000000     
  -4.6282738288928966E-003   1.5217427024242667E-002   0.0000000000000000     
  -5.3140956199173341E-003   1.8699422405894308E-002   0.0000000000000000     
  -3.4793590621222362E-003   6.7089059820511446E-003   0.0000000000000000     
  -4.3878961746997716E-003   9.2941840060450122E-003   0.0000000000000000     
  -5.2987207853307395E-003   1.2182974397065107E-002   0.0000000000000000     
  -6.2118328940151410E-003   1.5375277155111430E-002   0.0000000000000000     
  -7.1272325007529780E-003   1.8871092280183979E-002   0.0000000000000000     
   1.3207935179587738E-013   1.8478703996113649E-002   0.0000000000000000     
   1.5506031788431462E-013   2.2227865917933236E-002   0.0000000000000000     
   1.7924201077372526E-013   2.6232700578025164E-002   0.0000000000000000     
   2.0462314975029303E-013   3.0493207976389422E-002   0.0000000000000000     
   2.3120567960166483E-013   3.5009388113026021E-002   0.0000000000000000     
  -1.7504793694748050E-003   1.8503228263859139E-002   0.0000000000000000     
  -1.9783020742807048E-003   2.2253906026547175E-002   0.0000000000000000     
  -2.2021984102583553E-003   2.6260007489756553E-002   0.0000000000000000     
  -2.4221683774077549E-003   3.0521532653487282E-002   0.0000000000000000     
  -2.6382119757289062E-003   3.5038481517739362E-002   0.0000000000000000     
  -3.5218445761579422E-003   1.8576801067119363E-002   0.0000000000000000     
  -3.9774560582965159E-003   2.2332026352412118E-002   0.0000000000000000     
  -4.4260136815149377E-003   2.6341928224972298E-002   0.0000000000000000     
  -4.8675174458132084E-003   3.0606506684799910E-002   0.0000000000000000     
  -5.3019673511913272E-003   3.5125761731894946E-002   0.0000000000000000     
  -5.3140956199173341E-003   1.8699422405894308E-002   0.0000000000000000     
  -5.9974619518923730E-003   2.2462226895528074E-002   0.0000000000000000     
  -6.6714458135905064E-003   2.6478462783672406E-002   0.0000000000000000     
  -7.3360472050117359E-003   3.0748130070327305E-002   0.0000000000000000     
  -7.9912661261560599E-003   3.5271228755492781E-002   0.0000000000000000     
  -7.1272325007529780E-003   1.8871092280183979E-002   0.0000000000000000     
  -8.0383197550682756E-003   2.2644507655895034E-002   0.0000000000000000     
  -8.9384948064850610E-003   2.6669611165856869E-002   0.0000000000000000     
  -9.8277576550033358E-003   3.0946402810069478E-002   0.0000000000000000     
  -1.0706108300623102E-002   3.5474882588532868E-002   0.0000000000000000     
   2.3120567960166483E-013   3.5009388113026021E-002   0.0000000000000000     
   2.5873519906433051E-013   3.9761909880624217E-002   0.0000000000000000     
   2.8696055948129739E-013   4.4731442171873283E-002   0.0000000000000000     
   3.1588219453343447E-013   4.9917984986773224E-002   0.0000000000000000     
   3.4549836949726576E-013   5.5321538325324049E-002   0.0000000000000000     
  -2.6382119757289062E-003   3.5038481517739362E-002   0.0000000000000000     
  -2.8501859864458489E-003   3.9791468689322401E-002   0.0000000000000000     
  -3.0579471907826268E-003   4.4761108775046021E-002   0.0000000000000000     
  -3.2614955887392376E-003   4.9947401774910215E-002   0.0000000000000000     
  -3.4608311803156818E-003   5.5350347688914975E-002   0.0000000000000000     
  -5.3019673511913272E-003   3.5125761731894946E-002   0.0000000000000000     
  -5.7282331173238322E-003   3.9880145115427236E-002   0.0000000000000000     
  -6.1451844638852580E-003   4.4850108584566596E-002   0.0000000000000000     
  -6.5528213908756031E-003   5.0035652139313026E-002   0.0000000000000000     
  -6.9511438982948707E-003   5.5436775779666506E-002   0.0000000000000000     
  -7.9912661261560599E-003   3.5271228755492781E-002   0.0000000000000000     
  -8.6341413923752153E-003   4.0027939158938722E-002   0.0000000000000000     
  -9.2617118190209350E-003   4.4998441600435007E-002   0.0000000000000000     
  -9.8739774060932189E-003   5.0182736079981638E-002   0.0000000000000000     
  -1.0470938153592069E-002   5.5580822597578620E-002   0.0000000000000000     
  -1.0706108300623102E-002   3.5474882588532868E-002   0.0000000000000000     
  -1.1567910811599993E-002   4.0234850819856852E-002   0.0000000000000000     
  -1.2407529256189655E-002   4.5206107822651269E-002   0.0000000000000000     
  -1.3224963634392080E-002   5.0388653596916085E-002   0.0000000000000000     
  -1.4020213946207274E-002   5.5782488142651319E-002   0.0000000000000000     
   3.4549836949726576E-013   5.5321538325324049E-002   0.0000000000000000     
   3.7099793723238683E-013   6.0926156487279295E-002   0.0000000000000000     
   3.8756866639622078E-013   6.6715893772392537E-002   0.0000000000000000     
   3.9521039435844174E-013   7.2690750180663760E-002   0.0000000000000000     
   3.9392274164828933E-013   7.8850725712092978E-002   0.0000000000000000     
  -3.4608311803156818E-003   5.5350347688914975E-002   0.0000000000000000     
  -3.6547755131282706E-003   6.0954171122460939E-002   0.0000000000000000     
  -3.8421501347933084E-003   6.6743096680948702E-002   0.0000000000000000     
  -4.0229550453107993E-003   7.2717124364378272E-002   0.0000000000000000     
  -4.1971902446807409E-003   7.8876254172749641E-002   0.0000000000000000     
  -6.9511438982948707E-003   5.5436775779666506E-002   0.0000000000000000     
  -7.3383926959095947E-003   6.1038215027969175E-002   0.0000000000000000     
  -7.7128084934863098E-003   6.6824705406563101E-002   0.0000000000000000     
  -8.0743912910250185E-003   7.2796246915448337E-002   0.0000000000000000     
  -8.4231410885257218E-003   7.8952839554624843E-002   0.0000000000000000     
  -1.0470938153592069E-002   5.5580822597578620E-002   0.0000000000000000     
  -1.1050851547972975E-002   6.1178288203803978E-002   0.0000000000000000     
  -1.1611975075691438E-002   6.6960719949235761E-002   0.0000000000000000     
  -1.2154308736747456E-002   7.2928117833873929E-002   0.0000000000000000     
  -1.2677852531141022E-002   7.9080481857718529E-002   0.0000000000000000     
  -1.4020213946207274E-002   5.5782488142651319E-002   0.0000000000000000     
  -1.4792152069318417E-002   6.1374390649965367E-002   0.0000000000000000     
  -1.5539649881408692E-002   6.7151140308966628E-002   0.0000000000000000     
  -1.6262707382478099E-002   7.3112737119655088E-002   0.0000000000000000     
  -1.6961324572526637E-002   7.9259181082030755E-002   0.0000000000000000     
   3.9392274164828933E-013   7.8850725712092978E-002   0.0000000000000000     
   3.8533174047394869E-013   8.5183266906011204E-002   0.0000000000000000     
   3.7106266410208422E-013   9.1675820301749505E-002   0.0000000000000000     
   3.5111445543557773E-013   9.8328385899307841E-002   0.0000000000000000     
   3.2548963524448027E-013  0.10514096369868622        0.0000000000000000     
  -4.1971902446807409E-003   7.8876254172749641E-002   0.0000000000000000     
  -4.3650403079847624E-003   8.5207909852687225E-002   0.0000000000000000     
  -4.5266898103044897E-003   9.1699515150815480E-002   0.0000000000000000     
  -4.6821387516399237E-003   9.8351070067134339E-002   0.0000000000000000     
  -4.8313871319910651E-003  0.10516257460164387        0.0000000000000000     
  -8.4231410885257218E-003   7.8952839554624843E-002   0.0000000000000000     
  -8.7592134588919176E-003   8.5281838692599490E-002   0.0000000000000000     
  -9.0827639750271048E-003   9.1770599697879207E-002   0.0000000000000000     
  -9.3937926369312835E-003   9.8419122570463938E-002   0.0000000000000000     
  -9.6922994446044537E-003  0.10522740731035377        0.0000000000000000     
  -1.2677852531141022E-002   7.9080481857718529E-002   0.0000000000000000     
  -1.3182519452336134E-002   8.5405053425747973E-002   0.0000000000000000     
  -1.3668222493796778E-002   9.1889073942940672E-002   0.0000000000000000     
  -1.4134961655522964E-002   9.8532543409296666E-002   0.0000000000000000     
  -1.4582736937514681E-002  0.10533546182481590        0.0000000000000000     
  -1.6961324572526637E-002   7.9259181082030755E-002   0.0000000000000000     
  -1.7634958288317411E-002   8.5577554052132673E-002   0.0000000000000000     
  -1.8283065366613518E-002   9.2054937885999916E-002   0.0000000000000000     
  -1.8905645807414957E-002   9.8691332583632455E-002   0.0000000000000000     
  -1.9502699610721732E-002  0.10548673814503029        0.0000000000000000     
   3.2548963524448027E-013  0.10514096369868622        0.0000000000000000     
   2.9959563475900897E-013  0.11210142644588106        0.0000000000000000     
   2.7884086099133620E-013  0.11919764688688869        0.0000000000000000     
   2.6322555788695079E-013  0.12642962502170921        0.0000000000000000     
   2.5274877676895180E-013  0.13379736085034249        0.0000000000000000     
  -4.8313871319910651E-003  0.10516257460164387        0.0000000000000000     
  -4.9741506426621068E-003  0.11212192506183813        0.0000000000000000     
  -5.1101449749572448E-003  0.11921701775521121        0.0000000000000000     
  -5.2393701288764782E-003  0.12644785268176309        0.0000000000000000     
  -5.3618261044198080E-003  0.13381442984149380        0.0000000000000000     
  -9.6922994446044537E-003  0.10522740731035377        0.0000000000000000     
  -9.9778346328297744E-003  0.11218342090953436        0.0000000000000000     
  -1.0249948436390403E-002  0.11927513035999145        0.0000000000000000     
  -1.0508640855286338E-002  0.12650253566172501        0.0000000000000000     
  -1.0753911889517574E-002  0.13386563681473510        0.0000000000000000     
  -1.4582736937514681E-002  0.10533546182481590        0.0000000000000000     
  -1.5011051970203410E-002  0.11228591398896971        0.0000000000000000     
  -1.5419410384020633E-002  0.11937198470122942        0.0000000000000000     
  -1.5807812178966346E-002  0.12659367396159496        0.0000000000000000     
  -1.6176257355040555E-002  0.13395098177006637        0.0000000000000000     
  -1.9502699610721732E-002  0.10548673814503029        0.0000000000000000     
  -2.0073802654783007E-002  0.11242940430014424        0.0000000000000000     
  -2.0618530817847931E-002  0.11950758077892512        0.0000000000000000     
  -2.1136884099916511E-002  0.12672126758137289        0.0000000000000000     
  -2.1628862500988749E-002  0.13407046470748762        0.0000000000000000     
   2.5274877676895180E-013  0.13379736085034249        0.0000000000000000     
   2.4145919638729474E-013  0.14128919686591696        0.0000000000000000     
   2.2340278498650390E-013  0.14889347556156093        0.0000000000000000     
   1.9858190070630444E-013  0.15661019693727443        0.0000000000000000     
   1.6699489013838331E-013  0.16443936099305737        0.0000000000000000     
  -5.3618261044198080E-003  0.13381442984149380        0.0000000000000000     
  -5.4773365981888675E-003  0.14130508052559432        0.0000000000000000     
  -5.5857253067852974E-003  0.14890813602525566        0.0000000000000000     
  -5.6869922302090915E-003  0.15662359634047784        0.0000000000000000     
  -5.7811373684602506E-003  0.16445146147126080        0.0000000000000000     
  -1.0753911889517574E-002  0.13386563681473510        0.0000000000000000     
  -1.0985402463352270E-002  0.14135273150436317        0.0000000000000000     
  -1.1202753501058553E-002  0.14895211741595080        0.0000000000000000     
  -1.1405965002636430E-002  0.15666379454949800        0.0000000000000000     
  -1.1595036968085899E-002  0.16448776290500472        0.0000000000000000     
  -1.6176257355040555E-002  0.13395098177006637        0.0000000000000000     
  -1.6524197595248737E-002  0.14143214980222354        0.0000000000000000     
  -1.6851084582596362E-002  0.14902541973364633        0.0000000000000000     
  -1.7156918317083436E-002  0.15673079156433489        0.0000000000000000     
  -1.7441698798709951E-002  0.16454826529428904        0.0000000000000000     
  -2.1628862500988749E-002  0.13407046470748762        0.0000000000000000     
  -2.2093721993878275E-002  0.14154333541917538        0.0000000000000000     
  -2.2530718551398727E-002  0.14912804297834234        0.0000000000000000     
  -2.2939852173550102E-002  0.15682458738498850        0.0000000000000000     
  -2.3321122860332406E-002  0.16463296863911386        0.0000000000000000     
   0.0000000000000000        0.0000000000000000        0.0000000000000000     
  -8.4167456701536450E-004   1.1100049867868111E-003   0.0000000000000000     
  -1.7021259330408584E-003   2.5981576460576057E-003   0.0000000000000000     
  -2.5813540980764828E-003   4.4644579778123829E-003   0.0000000000000000     
  -3.4793590621222362E-003   6.7089059820511446E-003   0.0000000000000000     
   0.0000000000000000        0.0000000000000000        0.0000000000000000     
  -1.0566987877299666E-003   1.1341598637548132E-003   0.0000000000000000     
  -2.1397648297447457E-003   2.6503945300859534E-003   0.0000000000000000     
  -3.2491981260443382E-003   4.5487039989934213E-003   0.0000000000000000     
  -4.3849986766287437E-003   6.8290882704772158E-003   0.0000000000000000     
   0.0000000000000000        0.0000000000000000        0.0000000000000000     
  -1.2878197125712914E-003   1.1700179879027264E-003   0.0000000000000000     
  -2.6055186026317546E-003   2.7246415739085620E-003   0.0000000000000000     
  -3.9530966701813910E-003   4.6638707580175078E-003   0.0000000000000000     
  -5.3305539152202000E-003   6.9877055402295619E-003   0.0000000000000000     
   0.0000000000000000        0.0000000000000000        0.0000000000000000     
  -1.5350373415393393E-003   1.2175793592305508E-003   0.0000000000000000     
  -3.0993872517018867E-003   2.8208987775254317E-003   0.0000000000000000     
  -4.6930497304876421E-003   4.8099582548846442E-003   0.0000000000000000     
  -6.3160247778966056E-003   7.1847577913081856E-003   0.0000000000000000     
   0.0000000000000000        0.0000000000000000        0.0000000000000000     
  -1.7983516746341100E-003   1.2768439777382863E-003   0.0000000000000000     
  -3.6213707769551396E-003   2.9391661409365628E-003   0.0000000000000000     
  -5.4690573069630889E-003   4.9869664895948289E-003   0.0000000000000000     
  -7.3414112646579596E-003   7.4202450237130860E-003   0.0000000000000000     
  -3.4793590621222362E-003   6.7089059820511446E-003   0.0000000000000000     
  -4.3878961746997716E-003   9.2941840060450122E-003   0.0000000000000000     
  -5.2987207853307395E-003   1.2182974397065107E-002   0.0000000000000000     
  -6.2118328940151410E-003   1.5375277155111430E-002   0.0000000000000000     
  -7.1272325007529780E-003   1.8871092280183979E-002   0.0000000000000000     
  -4.3849986766287437E-003   6.8290882704772158E-003   0.0000000000000000     
  -5.5341852364903235E-003   9.4495488799410197E-003   0.0000000000000000     
  -6.6837765606214319E-003   1.2368087362788513E-002   0.0000000000000000     
  -7.8337726490220749E-003   1.5584703719019698E-002   0.0000000000000000     
  -8.9841735016922501E-003   1.9099397948634571E-002   0.0000000000000000     
  -5.3305539152202000E-003   6.9877055402295619E-003   0.0000000000000000     
  -6.7234317274666418E-003   9.6500725467811906E-003   0.0000000000000000     
  -8.1172714966391800E-003   1.2604898403908854E-002   0.0000000000000000     
  -9.5120732227378085E-003   1.5852183111612555E-002   0.0000000000000000     
  -1.0907836905762532E-002   1.9391926669892291E-002   0.0000000000000000     
  -6.3160247778966056E-003   7.1847577913081856E-003   0.0000000000000000     
  -7.9556356476287327E-003   9.8957550065655250E-003   0.0000000000000000     
  -9.5992055933839786E-003   1.2893407520426130E-002   0.0000000000000000     
  -1.1246734615162337E-002   1.6177715332889996E-002   0.0000000000000000     
  -1.2898222712963816E-002   1.9748678443957130E-002   0.0000000000000000     
  -7.3414112646579596E-003   7.4202450237130860E-003   0.0000000000000000     
  -9.2307969969765927E-003   1.0186596259294025E-002   0.0000000000000000     
  -1.1129578850855828E-002   1.3233614712340337E-002   0.0000000000000000     
  -1.3037756826295667E-002   1.6561300382852025E-002   0.0000000000000000     
  -1.4955330923296106E-002   2.0169653270829091E-002   0.0000000000000000     
  -7.1272325007529780E-003   1.8871092280183979E-002   0.0000000000000000     
  -8.0383197550682756E-003   2.2644507655895034E-002   0.0000000000000000     
  -8.9384948064850610E-003   2.6669611165856869E-002   0.0000000000000000     
  -9.8277576550033358E-003   3.0946402810069478E-002   0.0000000000000000     
  -1.0706108300623102E-002   3.5474882588532868E-002   0.0000000000000000     
  -8.9841735016922501E-003   1.9099397948634571E-002   0.0000000000000000     
  -1.0127942690447138E-002   2.2887345765871158E-002   0.0000000000000000     
  -1.1258043787101915E-002   2.6923722884967475E-002   0.0000000000000000     
  -1.2374476791656581E-002   3.1208529305923511E-002   0.0000000000000000     
  -1.3477241704111137E-002   3.5741765028739284E-002   0.0000000000000000     
  -1.0907836905762532E-002   1.9391926669892291E-002   0.0000000000000000     
  -1.2294243980651877E-002   2.3199218357814595E-002   0.0000000000000000     
  -1.3660975882344380E-002   2.7249147454446010E-002   0.0000000000000000     
  -1.5008032610840038E-002   3.1541713959786520E-002   0.0000000000000000     
  -1.6335414166138852E-002   3.6076917873836149E-002   0.0000000000000000     
  -1.2898222712963816E-002   1.9748678443957130E-002   0.0000000000000000     
  -1.4537223625682496E-002   2.3580125431725347E-002   0.0000000000000000     
  -1.6147291092212461E-002   2.7645884874292471E-002   0.0000000000000000     
  -1.7728425112553712E-002   3.1945956771658492E-002   0.0000000000000000     
  -1.9280625686706243E-002   3.6480341123823430E-002   0.0000000000000000     
  -1.4955330923296106E-002   2.0169653270829091E-002   0.0000000000000000     
  -1.6856881625538989E-002   2.4030066987603408E-002   0.0000000000000000     
  -1.8716989416706152E-002   2.8113935144506861E-002   0.0000000000000000     
  -2.0535654296797594E-002   3.2421257741539436E-002   0.0000000000000000     
  -2.2312876265813315E-002   3.6952034778701147E-002   0.0000000000000000     
  -1.0706108300623102E-002   3.5474882588532868E-002   0.0000000000000000     
  -1.1567910811599993E-002   4.0234850819856852E-002   0.0000000000000000     
  -1.2407529256189655E-002   4.5206107822651269E-002   0.0000000000000000     
  -1.3224963634392080E-002   5.0388653596916085E-002   0.0000000000000000     
  -1.4020213946207274E-002   5.5782488142651319E-002   0.0000000000000000     
  -1.3477241704111137E-002   3.5741765028739284E-002   0.0000000000000000     
  -1.4558574174987494E-002   4.0503629678576542E-002   0.0000000000000000     
  -1.5610709854807560E-002   4.5474322880597030E-002   0.0000000000000000     
  -1.6633648743571337E-002   5.0653844634800757E-002   0.0000000000000000     
  -1.7627390841278831E-002   5.6042194941187701E-002   0.0000000000000000     
  -1.6335414166138852E-002   3.6076917873836149E-002   0.0000000000000000     
  -1.7635164282527035E-002   4.0837025315492687E-002   0.0000000000000000     
  -1.8899326694290799E-002   4.5804302403653997E-002   0.0000000000000000     
  -2.0127901401430143E-002   5.0978749138320054E-002   0.0000000000000000     
  -2.1320888403945075E-002   5.6360365519490870E-002   0.0000000000000000     
  -1.9280625686706243E-002   3.6480341123823430E-002   0.0000000000000000     
  -2.0797681134218610E-002   4.1235037730605301E-002   0.0000000000000000     
  -2.2273379774639362E-002   4.6196046391822156E-002   0.0000000000000000     
  -2.3707721607968496E-002   5.1363367107474002E-002   0.0000000000000000     
  -2.5100706634206011E-002   5.6736999877560812E-002   0.0000000000000000     
  -2.2312876265813315E-002   3.6952034778701147E-002   0.0000000000000000     
  -2.4046124730062231E-002   4.1697666923914384E-002   0.0000000000000000     
  -2.5732869095853258E-002   4.6649554845101519E-002   0.0000000000000000     
  -2.7373109363186390E-002   5.1807698542262574E-002   0.0000000000000000     
  -2.8966845532061636E-002   5.7172098015397535E-002   0.0000000000000000     
  -1.4020213946207274E-002   5.5782488142651319E-002   0.0000000000000000     
  -1.4792152069318417E-002   6.1374390649965367E-002   0.0000000000000000     
  -1.5539649881408692E-002   6.7151140308966628E-002   0.0000000000000000     
  -1.6262707382478099E-002   7.3112737119655088E-002   0.0000000000000000     
  -1.6961324572526637E-002   7.9259181082030755E-002   0.0000000000000000     
  -1.7627390841278831E-002   5.6042194941187701E-002   0.0000000000000000     
  -1.8591459138117512E-002   6.1627219154092146E-002   0.0000000000000000     
  -1.9525376624274862E-002   6.7396762627848328E-002   0.0000000000000000     
  -2.0429143299750891E-002   7.3350825362456240E-002   0.0000000000000000     
  -2.1302759164545590E-002   7.9489407357915889E-002   0.0000000000000000     
  -2.1320888403945075E-002   5.6360365519490870E-002   0.0000000000000000     
  -2.2477937632541856E-002   6.1937470503823103E-002   0.0000000000000000     
  -2.3598699017926751E-002   6.7698383047973432E-002   0.0000000000000000     
  -2.4683172560099768E-002   7.3643103151941849E-002   0.0000000000000000     
  -2.5731358259060897E-002   7.9771630815728384E-002   0.0000000000000000     
  -2.5100706634206011E-002   5.6736999877560812E-002   0.0000000000000000     
  -2.6451587552591457E-002   6.2305144699158259E-002   0.0000000000000000     
  -2.7759617062364354E-002   6.8056001569341967E-002   0.0000000000000000     
  -2.9024795163524724E-002   7.3989570488111958E-002   0.0000000000000000     
  -3.0247121856072562E-002   8.0105851455468183E-002   0.0000000000000000     
  -2.8966845532061636E-002   5.7172098015397535E-002   0.0000000000000000     
  -3.0512408898266296E-002   6.2730241740097586E-002   0.0000000000000000     
  -3.2008130757587676E-002   6.8469618191953907E-002   0.0000000000000000     
  -3.3454011110025772E-002   7.4390227370966497E-002   0.0000000000000000     
  -3.4850049955580581E-002   8.0492069277135314E-002   0.0000000000000000     
  -1.6961324572526637E-002   7.9259181082030755E-002   0.0000000000000000     
  -1.7634958288317411E-002   8.5577554052132673E-002   0.0000000000000000     
  -1.8283065366613518E-002   9.2054937885999916E-002   0.0000000000000000     
  -1.8905645807414957E-002   9.8691332583632455E-002   0.0000000000000000     
  -1.9502699610721732E-002  0.10548673814503029        0.0000000000000000     
  -2.1302759164545590E-002   7.9489407357915889E-002   0.0000000000000000     
  -2.2145285311147588E-002   8.5799548001756348E-002   0.0000000000000000     
  -2.2955782832045513E-002   9.2268286681506606E-002   0.0000000000000000     
  -2.3734251727239371E-002   9.8895623397166718E-002   0.0000000000000000     
  -2.4480691996729149E-002  0.10568155814873666        0.0000000000000000     
  -2.5731358259060897E-002   7.9771630815728384E-002   0.0000000000000000     
  -2.6742255865138505E-002   8.6071242704621700E-002   0.0000000000000000     
  -2.7714865128660972E-002   9.2529215483910549E-002   0.0000000000000000     
  -2.8649186049628281E-002   9.9145549153594900E-002   0.0000000000000000     
  -2.9545218628040441E-002  0.10592024371367480        0.0000000000000000     
  -3.0247121856072562E-002   8.0105851455468183E-002   0.0000000000000000     
  -3.1425869950290182E-002   8.6392638160728757E-002   0.0000000000000000     
  -3.2560312256459889E-002   9.2837724293211688E-002   0.0000000000000000     
  -3.3650448774581704E-002   9.9441109852916987E-002   0.0000000000000000     
  -3.4696279504655606E-002  0.10620279483984466        0.0000000000000000     
  -3.4850049955580581E-002   8.0492069277135314E-002   0.0000000000000000     
  -3.6196127566602586E-002   8.6763734370077505E-002   0.0000000000000000     
  -3.7492124215442263E-002   9.3193813109410037E-002   0.0000000000000000     
  -3.8738039902099619E-002   9.9782305495132964E-002   0.0000000000000000     
  -3.9933874626574654E-002  0.10652921152724627        0.0000000000000000     
  -1.9502699610721732E-002  0.10548673814503029        0.0000000000000000     
  -2.0073802654783007E-002  0.11242940430014424        0.0000000000000000     
  -2.0618530817847931E-002  0.11950758077892512        0.0000000000000000     
  -2.1136884099916511E-002  0.12672126758137289        0.0000000000000000     
  -2.1628862500988749E-002  0.13407046470748762        0.0000000000000000     
  -2.4480691996729149E-002  0.10568155814873666        0.0000000000000000     
  -2.5194783357072856E-002  0.11261445785993367        0.0000000000000000     
  -2.5876205524828493E-002  0.11968268945447492        0.0000000000000000     
  -2.6524958499996056E-002  0.12688625293236047        0.0000000000000000     
  -2.7141042282575547E-002  0.13422514829359034        0.0000000000000000     
  -2.9545218628040441E-002  0.10592024371367480        0.0000000000000000     
  -3.0402690747577243E-002  0.11284164068521373        0.0000000000000000     
  -3.1221330291918495E-002  0.11989808158927523        0.0000000000000000     
  -3.2001137261064204E-002  0.12708956642585933        0.0000000000000000     
  -3.2742111655014346E-002  0.13441609519496603        0.0000000000000000     
  -3.4696279504655606E-002  0.10620279483984466        0.0000000000000000     
  -3.5697524826296172E-002  0.11311095277598443        0.0000000000000000     
  -3.6653905119117945E-002  0.12015375718332602        0.0000000000000000     
  -3.7565420383120947E-002  0.12733120806186946        0.0000000000000000     
  -3.8432070618305156E-002  0.13464330541161468        0.0000000000000000     
  -3.9933874626574654E-002  0.10652921152724627        0.0000000000000000     
  -4.1079285593229646E-002  0.11342239413224578        0.0000000000000000     
  -4.2173930006426850E-002  0.12044971623662730        0.0000000000000000     
  -4.3217807866166302E-002  0.12761117784039078        0.0000000000000000     
  -4.4210919172447974E-002  0.13490677894353628        0.0000000000000000     
  -2.1628862500988749E-002  0.13407046470748762        0.0000000000000000     
  -2.2093721993878275E-002  0.14154333541917538        0.0000000000000000     
  -2.2530718551398727E-002  0.14912804297834234        0.0000000000000000     
  -2.2939852173550102E-002  0.15682458738498850        0.0000000000000000     
  -2.3321122860332406E-002  0.16463296863911386        0.0000000000000000     
  -2.7141042282575547E-002  0.13422514829359034        0.0000000000000000     
  -2.7723542355144085E-002  0.14168748625559380        0.0000000000000000     
  -2.8271544200278789E-002  0.14926137753580021        0.0000000000000000     
  -2.8785047817979664E-002  0.15694682213420960        0.0000000000000000     
  -2.9264053208246710E-002  0.16474382005082194        0.0000000000000000     
  -3.2742111655014346E-002  0.13441609519496603        0.0000000000000000     
  -3.3443225374949384E-002  0.14186580021185388        0.0000000000000000     
  -3.4103450322049714E-002  0.14942681379178152        0.0000000000000000     
  -3.4722786496315362E-002  0.15709913593474892        0.0000000000000000     
  -3.5301233897746302E-002  0.16488276664075610        0.0000000000000000     
  -3.8432070618305156E-002  0.13464330541161468        0.0000000000000000     
  -3.9252771053294160E-002  0.14207827728795563        0.0000000000000000     
  -4.0026436916711490E-002  0.14962435174628624        0.0000000000000000     
  -4.0753068208557168E-002  0.15728152878660645        0.0000000000000000     
  -4.1432664928831187E-002  0.16504980840891631        0.0000000000000000     
  -4.4210919172447974E-002  0.13490677894353628        0.0000000000000000     
  -4.5152179390178404E-002  0.14232491748389908        0.0000000000000000     
  -4.6040503984264111E-002  0.14985399139931438        0.0000000000000000     
  -4.6875892954705102E-002  0.15749400068978225        0.0000000000000000     
  -4.7658346301501370E-002  0.16524494535530260        0.0000000000000000     
   0.0000000000000000        0.0000000000000000        0.0000000000000000     
  -1.7983516746341100E-003   1.2768439777382863E-003   0.0000000000000000     
  -3.6213707769551396E-003   2.9391661409365628E-003   0.0000000000000000     
  -5.4690573069630889E-003   4.9869664895948289E-003   0.0000000000000000     
  -7.3414112646579596E-003   7.4202450237130860E-003   0.0000000000000000     
   0.0000000000000000        0.0000000000000000        0.0000000000000000     
  -2.0694815390636368E-003   1.3549330617819589E-003   0.0000000000000000     
  -4.1641068741570045E-003   3.0939653571380394E-003   0.0000000000000000     
  -6.2838760052801052E-003   5.2170968860682414E-003   0.0000000000000000     
  -8.4287889324329360E-003   7.7243276485725642E-003   0.0000000000000000     
   0.0000000000000000        0.0000000000000000        0.0000000000000000     
  -2.3401457620359539E-003   1.4589678297175939E-003   0.0000000000000000     
  -4.7202332390729723E-003   3.2998181191259465E-003   0.0000000000000000     
  -7.1402624311110554E-003   5.5225508682250580E-003   0.0000000000000000     
  -9.6002333381502054E-003   8.1271660770149273E-003   0.0000000000000000     
   0.0000000000000000        0.0000000000000000        0.0000000000000000     
  -2.6103443435510610E-003   1.5889482815451912E-003   0.0000000000000000     
  -5.2897498717030429E-003   3.5567244269002845E-003   0.0000000000000000     
  -8.0382165844559445E-003   5.9033284360652787E-003   0.0000000000000000     
  -1.0855744481809770E-002   8.6287603090401763E-003   0.0000000000000000     
   0.0000000000000000        0.0000000000000000        0.0000000000000000     
  -2.8800772836089584E-003   1.7448744172647514E-003   0.0000000000000000     
  -5.8726567720472148E-003   3.8646842804610530E-003   0.0000000000000000     
  -8.9777384653147718E-003   6.3594295895889044E-003   0.0000000000000000     
  -1.2195322363411627E-002   9.2291103446483086E-003   0.0000000000000000     
  -7.3414112646579596E-003   7.4202450237130860E-003   0.0000000000000000     
  -9.2307969969765927E-003   1.0186596259294025E-002   0.0000000000000000     
  -1.1129578850855828E-002   1.3233614712340337E-002   0.0000000000000000     
  -1.3037756826295667E-002   1.6561300382852025E-002   0.0000000000000000     
  -1.4955330923296106E-002   2.0169653270829091E-002   0.0000000000000000     
  -8.4287889324329360E-003   7.7243276485725642E-003   0.0000000000000000     
  -1.0590582924398283E-002   1.0558229118716929E-002   0.0000000000000000     
  -1.2760995249958927E-002   1.3661372770567254E-002   0.0000000000000000     
  -1.4940025909114871E-002   1.7033758604123535E-002   0.0000000000000000     
  -1.7127674901866115E-002   2.0675386619385779E-002   0.0000000000000000     
  -9.6002333381502054E-003   8.1271660770149273E-003   0.0000000000000000     
  -1.2076660578781864E-002   1.1046286398584484E-002   0.0000000000000000     
  -1.4546058771597476E-002   1.4212534486022646E-002   0.0000000000000000     
  -1.7008427916597041E-002   1.7625910339329420E-002   0.0000000000000000     
  -1.9463768013780559E-002   2.1286413958504807E-002   0.0000000000000000     
  -1.0855744481809770E-002   8.6287603090401763E-003   0.0000000000000000     
  -1.3689029960127337E-002   1.1650768098896685E-002   0.0000000000000000     
  -1.6484769415771473E-002   1.4887099858706518E-002   0.0000000000000000     
  -1.9242962848742169E-002   1.8337755588469673E-002   0.0000000000000000     
  -2.1963610259039434E-002   2.2002735288186158E-002   0.0000000000000000     
  -1.2195322363411627E-002   9.2291103446483086E-003   0.0000000000000000     
  -1.5427691068434699E-002   1.2371674219653538E-002   0.0000000000000000     
  -1.8577127182480915E-002   1.5685068888618869E-002   0.0000000000000000     
  -2.1643630705550261E-002   1.9169294351544304E-002   0.0000000000000000     
  -2.4627201637642746E-002   2.2824350608429845E-002   0.0000000000000000     
  -1.4955330923296106E-002   2.0169653270829091E-002   0.0000000000000000     
  -1.6856881625538989E-002   2.4030066987603408E-002   0.0000000000000000     
  -1.8716989416706152E-002   2.8113935144506861E-002   0.0000000000000000     
  -2.0535654296797594E-002   3.2421257741539436E-002   0.0000000000000000     
  -2.2312876265813315E-002   3.6952034778701147E-002   0.0000000000000000     
  -1.7127674901866115E-002   2.0675386619385779E-002   0.0000000000000000     
  -1.9292571794895658E-002   2.4558591043802105E-002   0.0000000000000000     
  -2.1403346154886507E-002   2.8655706104820648E-002   0.0000000000000000     
  -2.3459997981838659E-002   3.2966731802441390E-002   0.0000000000000000     
  -2.5462527275752118E-002   3.7491668136664338E-002   0.0000000000000000     
  -1.9463768013780559E-002   2.1286413958504807E-002   0.0000000000000000     
  -2.1883647948426815E-002   2.5175245618674770E-002   0.0000000000000000     
  -2.4239636605814591E-002   2.9273605594965304E-002   0.0000000000000000     
  -2.6531733985943884E-002   3.3581493887376399E-002   0.0000000000000000     
  -2.8759940088814696E-002   3.8098910495908050E-002   0.0000000000000000     
  -2.1963610259039434E-002   2.2002735288186158E-002   0.0000000000000000     
  -2.4630110086132445E-002   2.5880030712221402E-002   0.0000000000000000     
  -2.7225860769490386E-002   2.9967633614940835E-002   0.0000000000000000     
  -2.9750862309113259E-002   3.4265543996344461E-002   0.0000000000000000     
  -3.2205114705001057E-002   3.8773761856432276E-002   0.0000000000000000     
  -2.4627201637642746E-002   2.2824350608429845E-002   0.0000000000000000     
  -2.7531958208012564E-002   2.6672946324441987E-002   0.0000000000000000     
  -3.0362018645913914E-002   3.0737790164747234E-002   0.0000000000000000     
  -3.3117382951346787E-002   3.5018882129345577E-002   0.0000000000000000     
  -3.5798051124311191E-002   3.9516222218237029E-002   0.0000000000000000     
  -2.2312876265813315E-002   3.6952034778701147E-002   0.0000000000000000     
  -2.4046124730062231E-002   4.1697666923914384E-002   0.0000000000000000     
  -2.5732869095853258E-002   4.6649554845101519E-002   0.0000000000000000     
  -2.7373109363186390E-002   5.1807698542262574E-002   0.0000000000000000     
  -2.8966845532061636E-002   5.7172098015397535E-002   0.0000000000000000     
  -2.5462527275752118E-002   3.7491668136664338E-002   0.0000000000000000     
  -2.7412059259204768E-002   4.2226542350429934E-002   0.0000000000000000     
  -2.9309719154774514E-002   4.7167381686678604E-002   0.0000000000000000     
  -3.1155506962461353E-002   5.2314186145410342E-002   0.0000000000000000     
  -3.2949422682265278E-002   5.7666955726625155E-002   0.0000000000000000     
  -2.8759940088814696E-002   3.8098910495908050E-002   0.0000000000000000     
  -3.0927048910793099E-002   4.2823293465161991E-002   0.0000000000000000     
  -3.3035854448245160E-002   4.7752080839739919E-002   0.0000000000000000     
  -3.5086356701170877E-002   5.2885272619641849E-002   0.0000000000000000     
  -3.7078555669570253E-002   5.8222868804867774E-002   0.0000000000000000     
  -3.2205114705001057E-002   3.8773761856432276E-002   0.0000000000000000     
  -3.4591093684827219E-002   4.3487920268110547E-002   0.0000000000000000     
  -3.6911274976265188E-002   4.8403652304285477E-002   0.0000000000000000     
  -3.9165658579314977E-002   5.3520957964957094E-002   0.0000000000000000     
  -4.1354244493976559E-002   5.8839837250125378E-002   0.0000000000000000     
  -3.5798051124311191E-002   3.9516222218237029E-002   0.0000000000000000     
  -3.8404193581307131E-002   4.4220422759275589E-002   0.0000000000000000     
  -4.0935980738834622E-002   4.9122096080315272E-002   0.0000000000000000     
  -4.3393412596893638E-002   5.4221242181356072E-002   0.0000000000000000     
  -4.5776489155484205E-002   5.9517861062397995E-002   0.0000000000000000     
  -2.8966845532061636E-002   5.7172098015397535E-002   0.0000000000000000     
  -3.0512408898266296E-002   6.2730241740097586E-002   0.0000000000000000     
  -3.2008130757587676E-002   6.8469618191953907E-002   0.0000000000000000     
  -3.3454011110025772E-002   7.4390227370966497E-002   0.0000000000000000     
  -3.4850049955580581E-002   8.0492069277135314E-002   0.0000000000000000     
  -3.2949422682265278E-002   5.7666955726625155E-002   0.0000000000000000     
  -3.4689032217404978E-002   6.3212683271730782E-002   0.0000000000000000     
  -3.6371901471099123E-002   6.8938361622134972E-002   0.0000000000000000     
  -3.7998030443347722E-002   7.4843990777837724E-002   0.0000000000000000     
  -3.9567419134150759E-002   8.0929570738839038E-002   0.0000000000000000     
  -3.7078555669570253E-002   5.8222868804867774E-002   0.0000000000000000     
  -3.9010088057846067E-002   6.3752390939147502E-002   0.0000000000000000     
  -4.0878590570401122E-002   6.9461360566210884E-002   0.0000000000000000     
  -4.2684063207235397E-002   7.5349777686057884E-002   0.0000000000000000     
  -4.4426505968348913E-002   8.1417642298688517E-002   0.0000000000000000     
  -4.1354244493976559E-002   5.8839837250125378E-002   0.0000000000000000     
  -4.3475576419589587E-002   6.4349364742347773E-002   0.0000000000000000     
  -4.5528198055493664E-002   7.0038615024181614E-002   0.0000000000000000     
  -4.7512109401688825E-002   7.5907588095626990E-002   0.0000000000000000     
  -4.9427310458175028E-002   8.1956283956683793E-002   0.0000000000000000     
  -4.5776489155484205E-002   5.9517861062397995E-002   0.0000000000000000     
  -4.8085497302635512E-002   6.5003604681331525E-002   0.0000000000000000     
  -5.0320723926376772E-002   7.0670124996047190E-002   0.0000000000000000     
  -5.2482169026707971E-002   7.6517422006544974E-002   0.0000000000000000     
  -5.4569832603629131E-002   8.2545495712824865E-002   0.0000000000000000     
  -3.4850049955580581E-002   8.0492069277135314E-002   0.0000000000000000     
  -3.6196127566602586E-002   8.6763734370077505E-002   0.0000000000000000     
  -3.7492124215442263E-002   9.3193813109410037E-002   0.0000000000000000     
  -3.8738039902099619E-002   9.9782305495132964E-002   0.0000000000000000     
  -3.9933874626574654E-002  0.10652921152724627        0.0000000000000000     
  -3.9567419134150759E-002   8.0929570738839038E-002   0.0000000000000000     
  -4.1080557636360773E-002   8.7184383512321884E-002   0.0000000000000000     
  -4.2537936042830279E-002   9.3597711105469314E-002   0.0000000000000000     
  -4.3939554353559271E-002  0.10016955351828129        0.0000000000000000     
  -4.5285412568547768E-002  0.10689991075075782        0.0000000000000000     
  -4.4426505968348913E-002   8.1417642298688517E-002   0.0000000000000000     
  -4.6106689081849769E-002   8.7654437767115914E-002   0.0000000000000000     
  -4.7725382775846086E-002   9.4049647454353208E-002   0.0000000000000000     
  -4.9282587050337875E-002  0.10060327136040038        0.0000000000000000     
  -5.0778301905325132E-002  0.10731530948525743        0.0000000000000000     
  -4.9427310458175028E-002   8.1956283956683793E-002   0.0000000000000000     
  -5.1274521903069567E-002   8.8173897134459570E-002   0.0000000000000000     
  -5.3054464414489709E-002   9.4549622156061719E-002   0.0000000000000000     
  -5.4767137992435433E-002  0.10108345902149024        0.0000000000000000     
  -5.6412542636906746E-002  0.10777540773074511        0.0000000000000000     
  -5.4569832603629131E-002   8.2545495712824865E-002   0.0000000000000000     
  -5.6584056100020194E-002   8.8742761614352850E-002   0.0000000000000000     
  -5.8525180958761122E-002   9.5097635210594833E-002   0.0000000000000000     
  -6.0393207179851936E-002  0.10161011650155086        0.0000000000000000     
  -6.2188134763292630E-002  0.10828020548722088        0.0000000000000000     
  -3.9933874626574654E-002  0.10652921152724627        0.0000000000000000     
  -4.1079285593229646E-002  0.11342239413224578        0.0000000000000000     
  -4.2173930006426850E-002  0.12044971623662730        0.0000000000000000     
  -4.3217807866166302E-002  0.12761117784039078        0.0000000000000000     
  -4.4210919172447974E-002  0.13490677894353628        0.0000000000000000     
  -4.5285412568547768E-002  0.10689991075075782        0.0000000000000000     
  -4.6575120869270507E-002  0.11377636491892568        0.0000000000000000     
  -4.7808289437202237E-002  0.12078649813881162        0.0000000000000000     
  -4.8984918272342956E-002  0.12793031041041567        0.0000000000000000     
  -5.0105007374692680E-002  0.13520780173373775        0.0000000000000000     
  -5.0778301905325132E-002  0.10731530948525743        0.0000000000000000     
  -5.2212178475311628E-002  0.11417326530095197        0.0000000000000000     
  -5.3583867894801129E-002  0.12116464227951157        0.0000000000000000     
  -5.4893370163793635E-002  0.12828944042093621        0.0000000000000000     
  -5.6140685282289139E-002  0.13554765972522592        0.0000000000000000     
  -5.6412542636906746E-002  0.10777540773074511        0.0000000000000000     
  -5.7990458411353016E-002  0.11461309527832465        0.0000000000000000     
  -5.9500665379223536E-002  0.12158414865872715        0.0000000000000000     
  -6.0943163540518312E-002  0.12868856787195254        0.0000000000000000     
  -6.2317952895237373E-002  0.13592635291800084        0.0000000000000000     
  -6.2188134763292630E-002  0.10828020548722088        0.0000000000000000     
  -6.3909960677394642E-002  0.11509585485104376        0.0000000000000000     
  -6.5558681890469442E-002  0.12204501727645833        0.0000000000000000     
  -6.7134298402517015E-002  0.12912769276346456        0.0000000000000000     
  -6.8636810213537389E-002  0.13634388131206249        0.0000000000000000     
  -4.4210919172447974E-002  0.13490677894353628        0.0000000000000000     
  -4.5152179390178404E-002  0.14232491748389908        0.0000000000000000     
  -4.6040503984264111E-002  0.14985399139931438        0.0000000000000000     
  -4.6875892954705102E-002  0.15749400068978225        0.0000000000000000     
  -4.7658346301501370E-002  0.16524494535530260        0.0000000000000000     
  -5.0105007374692680E-002  0.13520780173373775        0.0000000000000000     
  -5.1167564956359622E-002  0.14260749144160470        0.0000000000000000     
  -5.2171599229452033E-002  0.15011789886684329        0.0000000000000000     
  -5.3117110193969898E-002  0.15773902400945350        0.0000000000000000     
  -5.4004097849913238E-002  0.16547086686943532        0.0000000000000000     
  -5.6140685282289139E-002  0.13554765972522592        0.0000000000000000     
  -5.7325042322595283E-002  0.14292776980299318        0.0000000000000000     
  -5.8445670357019676E-002  0.15041824026485043        0.0000000000000000     
  -5.9502569385562316E-002  0.15801907111079760        0.0000000000000000     
  -6.0495739408223219E-002  0.16573026234083485        0.0000000000000000     
  -6.2317952895237373E-002  0.13592635291800084        0.0000000000000000     
  -6.3624611488885402E-002  0.14328575256806442        0.0000000000000000     
  -6.4862717366967040E-002  0.15075501559333573        0.0000000000000000     
  -6.6032270529482351E-002  0.15833414199381463        0.0000000000000000     
  -6.7133270976431306E-002  0.16602313176950112        0.0000000000000000     
  -6.8636810213537389E-002  0.13634388131206249        0.0000000000000000     
  -7.0066272455229950E-002  0.14368143973681854        0.0000000000000000     
  -7.1422740259294168E-002  0.15112822485229918        0.0000000000000000     
  -7.2706213625730001E-002  0.15868423665850437        0.0000000000000000     
  -7.3916692554537491E-002  0.16634947515543422        0.0000000000000000     
   0.0000000000000000        0.0000000000000000        0.0000000000000000     
  -2.8800772836089584E-003   1.7448744172647514E-003   0.0000000000000000     
  -5.8726567720472148E-003   3.8646842804610530E-003   0.0000000000000000     
  -8.9777384653147718E-003   6.3594295895889044E-003   0.0000000000000000     
  -1.2195322363411627E-002   9.2291103446483086E-003   0.0000000000000000     
   0.0000000000000000        0.0000000000000000        0.0000000000000000     
  -3.2831970566971251E-003   1.9993930596495070E-003   0.0000000000000000     
  -6.6769437139946944E-003   4.3309946856398352E-003   0.0000000000000000     
  -1.0181239971892710E-002   6.9948048779709844E-003   0.0000000000000000     
  -1.3796085830391172E-002   9.9908236366429547E-003   0.0000000000000000     
   0.0000000000000000        0.0000000000000000        0.0000000000000000     
  -3.9535561373030409E-003   2.4251510314726929E-003   0.0000000000000000     
  -7.9106004714346884E-003   5.0629526482682151E-003   0.0000000000000000     
  -1.1871133002394943E-002   7.9134048503865639E-003   0.0000000000000000     
  -1.5835153730183803E-002   1.0976507637827747E-002   0.0000000000000000     
   0.0000000000000000        0.0000000000000000        0.0000000000000000     
  -4.8911545254267073E-003   3.0221483327343077E-003   0.0000000000000000     
  -9.5736270443671934E-003   6.0605581683461900E-003   0.0000000000000000     
  -1.4047417556821463E-002   9.1152295068356488E-003   0.0000000000000000     
  -1.8312526062789516E-002   1.2186162348202679E-002   0.0000000000000000     
   0.0000000000000000        0.0000000000000000        0.0000000000000000     
  -6.0959922210681219E-003   3.7903849634343526E-003   0.0000000000000000     
  -1.1666023432792215E-002   7.3238112458737636E-003   0.0000000000000000     
  -1.6710093635172275E-002   1.0600278847318231E-002   0.0000000000000000     
  -2.1228202828208309E-002   1.3619787767767757E-002   0.0000000000000000     
  -1.2195322363411627E-002   9.2291103446483086E-003   0.0000000000000000     
  -1.5427691068434699E-002   1.2371674219653538E-002   0.0000000000000000     
  -1.8577127182480915E-002   1.5685068888618869E-002   0.0000000000000000     
  -2.1643630705550261E-002   1.9169294351544304E-002   0.0000000000000000     
  -2.4627201637642746E-002   2.2824350608429845E-002   0.0000000000000000     
  -1.3796085830391172E-002   9.9908236366429547E-003   0.0000000000000000     
  -1.7404395176848594E-002   1.3221086496508092E-002   0.0000000000000000     
  -2.0889081898623488E-002   1.6587628992418738E-002   0.0000000000000000     
  -2.4250145995715858E-002   2.0090451124374891E-002   0.0000000000000000     
  -2.7487587468125695E-002   2.3729552892376559E-002   0.0000000000000000     
  -1.5835153730183803E-002   1.0976507637827747E-002   0.0000000000000000     
  -1.9730893558513655E-002   1.4211086665113391E-002   0.0000000000000000     
  -2.3486583391096886E-002   1.7575967586765148E-002   0.0000000000000000     
  -2.7102223227933500E-002   2.1071150402783016E-002   0.0000000000000000     
  -3.0577813069023491E-002   2.4696635113166984E-002   0.0000000000000000     
  -1.8312526062789516E-002   1.2186162348202679E-002   0.0000000000000000     
  -2.2407186213429877E-002   1.5341674725469446E-002   0.0000000000000000     
  -2.6369631659901114E-002   1.8650084671658108E-002   0.0000000000000000     
  -3.0199862402203195E-002   2.2111392186768671E-002   0.0000000000000000     
  -3.3897878440336135E-002   2.5725597270801127E-002   0.0000000000000000     
  -2.1228202828208309E-002   1.3619787767767757E-002   0.0000000000000000     
  -2.5433273141597282E-002   1.6612850677576251E-002   0.0000000000000000     
  -2.9538226705036155E-002   1.9809980247097618E-002   0.0000000000000000     
  -3.3543063518524943E-002   2.3211176476331863E-002   0.0000000000000000     
  -3.7447783582063632E-002   2.6816439365278985E-002   0.0000000000000000     
  -2.4627201637642746E-002   2.2824350608429845E-002   0.0000000000000000     
  -2.7531958208012564E-002   2.6672946324441987E-002   0.0000000000000000     
  -3.0362018645913914E-002   3.0737790164747234E-002   0.0000000000000000     
  -3.3117382951346787E-002   3.5018882129345577E-002   0.0000000000000000     
  -3.5798051124311191E-002   3.9516222218237029E-002   0.0000000000000000     
  -2.7487587468125695E-002   2.3729552892376559E-002   0.0000000000000000     
  -3.0624400520903445E-002   2.7547456551219235E-002   0.0000000000000000     
  -3.3683579359099533E-002   3.1586684355698426E-002   0.0000000000000000     
  -3.6665123982713960E-002   3.5847236305814129E-002   0.0000000000000000     
  -3.9569034391746721E-002   4.0329112401566343E-002   0.0000000000000000     
  -3.0577813069023491E-002   2.4696635113166984E-002   0.0000000000000000     
  -3.3942645231641366E-002   2.8497025488435832E-002   0.0000000000000000     
  -3.7226012033061626E-002   3.2516925299108324E-002   0.0000000000000000     
  -4.0427913473284255E-002   3.6756334545184469E-002   0.0000000000000000     
  -4.3548349552309275E-002   4.1215253226664250E-002   0.0000000000000000     
  -3.3897878440336135E-002   2.5725597270801127E-002   0.0000000000000000     
  -3.7486692340226328E-002   2.9521653136091782E-002   0.0000000000000000     
  -4.0989316667800188E-002   3.3528512994976944E-002   0.0000000000000000     
  -4.4405751423057686E-002   3.7746176847456611E-002   0.0000000000000000     
  -4.7735996605998837E-002   4.2174644693530765E-002   0.0000000000000000     
  -3.7447783582063632E-002   2.6816439365278985E-002   0.0000000000000000     
  -4.1256541846658348E-002   3.0621339494187085E-002   0.0000000000000000     
  -4.4973493263315220E-002   3.4621447443304268E-002   0.0000000000000000     
  -4.8598637832034247E-002   3.8816763212630528E-002   0.0000000000000000     
  -5.2131975552815416E-002   4.3207286802165887E-002   0.0000000000000000     
  -3.5798051124311191E-002   3.9516222218237029E-002   0.0000000000000000     
  -3.8404193581307131E-002   4.4220422759275589E-002   0.0000000000000000     
  -4.0935980738834622E-002   4.9122096080315272E-002   0.0000000000000000     
  -4.3393412596893638E-002   5.4221242181356072E-002   0.0000000000000000     
  -4.5776489155484205E-002   5.9517861062397995E-002   0.0000000000000000     
  -3.9569034391746721E-002   4.0329112401566343E-002   0.0000000000000000     
  -4.2392868844335782E-002   4.5018790434148734E-002   0.0000000000000000     
  -4.5134185598619078E-002   4.9902748194754980E-002   0.0000000000000000     
  -4.7792984654596596E-002   5.4980985683385108E-002   0.0000000000000000     
  -5.0369266012268370E-002   6.0253502900039058E-002   0.0000000000000000     
  -4.3548349552309275E-002   4.1215253226664250E-002   0.0000000000000000     
  -4.6583639718016122E-002   4.5881012788221563E-002   0.0000000000000000     
  -4.9530103418284226E-002   5.0740944674530303E-002   0.0000000000000000     
  -5.2387740653113614E-002   5.5795048885590462E-002   0.0000000000000000     
  -5.5156551422504273E-002   6.1043325421402041E-002   0.0000000000000000     
  -4.7735996605998837E-002   4.2174644693530765E-002   0.0000000000000000     
  -5.0976506202348143E-002   4.6807089821494098E-002   0.0000000000000000     
  -5.4123734197830072E-002   5.1636685519641234E-002   0.0000000000000000     
  -5.7177680592444664E-002   5.6663431787972181E-002   0.0000000000000000     
  -6.0138345386191880E-002   6.1887328626486958E-002   0.0000000000000000     
  -5.2131975552815416E-002   4.3207286802165887E-002   0.0000000000000000     
  -5.5571468297331832E-002   4.7797021533966297E-002   0.0000000000000000     
  -5.8915077937256602E-002   5.2589970730087754E-002   0.0000000000000000     
  -6.2162804472589733E-002   5.7586134390530244E-002   0.0000000000000000     
  -6.5314647903331219E-002   6.2785512515293782E-002   0.0000000000000000     
  -4.5776489155484205E-002   5.9517861062397995E-002   0.0000000000000000     
  -4.8085497302635512E-002   6.5003604681331525E-002   0.0000000000000000     
  -5.0320723926376772E-002   7.0670124996047190E-002   0.0000000000000000     
  -5.2482169026707971E-002   7.6517422006544974E-002   0.0000000000000000     
  -5.4569832603629131E-002   8.2545495712824865E-002   0.0000000000000000     
  -5.0369266012268370E-002   6.0253502900039058E-002   0.0000000000000000     
  -5.2864985142077714E-002   6.5714011415329204E-002   0.0000000000000000     
  -5.5282097514467998E-002   7.1356222799867836E-002   0.0000000000000000     
  -5.7620603129439195E-002   7.7180137053654979E-002   0.0000000000000000     
  -5.9880501986991311E-002   8.3185754176690635E-002   0.0000000000000000     
  -5.5156551422504273E-002   6.1043325421402041E-002   0.0000000000000000     
  -5.7839174373010074E-002   6.6479485603571142E-002   0.0000000000000000     
  -6.0438248151184912E-002   7.2097240753703828E-002   0.0000000000000000     
  -6.2953772757028792E-002   7.7896590871800106E-002   0.0000000000000000     
  -6.5385748190541687E-002   8.3877535957859975E-002   0.0000000000000000     
  -6.0138345386191880E-002   6.1887328626486958E-002   0.0000000000000000     
  -6.3008064995432558E-002   6.7300027246057326E-002   0.0000000000000000     
  -6.5789175836527533E-002   7.2893178857555127E-002   0.0000000000000000     
  -6.8481677909476749E-002   7.8666783460980313E-002   0.0000000000000000     
  -7.1085571214280274E-002   8.4620841056332913E-002   0.0000000000000000     
  -6.5314647903331219E-002   6.2785512515293782E-002   0.0000000000000000     
  -6.8371657009345194E-002   6.8175636342787810E-002   0.0000000000000000     
  -7.1334880570495834E-002   7.3744037111421759E-002   0.0000000000000000     
  -7.4204318586783127E-002   7.9490714821195643E-002   0.0000000000000000     
  -7.6979971058207072E-002   8.5415669472109448E-002   0.0000000000000000     
  -5.4569832603629131E-002   8.2545495712824865E-002   0.0000000000000000     
  -5.6584056100020194E-002   8.8742761614352850E-002   0.0000000000000000     
  -5.8525180958761122E-002   9.5097635210594833E-002   0.0000000000000000     
  -6.0393207179851936E-002  0.10161011650155086        0.0000000000000000     
  -6.2188134763292630E-002  0.10828020548722088        0.0000000000000000     
  -5.9880501986991311E-002   8.3185754176690635E-002   0.0000000000000000     
  -6.2061617925292779E-002   8.9360825098729224E-002   0.0000000000000000     
  -6.4163774782512062E-002   9.5693100749525195E-002   0.0000000000000000     
  -6.6186972558649110E-002  0.10218258112907855        0.0000000000000000     
  -6.8131211253703972E-002  0.10882926623738927        0.0000000000000000     
  -6.5385748190541687E-002   8.3877535957859975E-002   0.0000000000000000     
  -6.7733533631478535E-002   9.0027881479522176E-002   0.0000000000000000     
  -6.9996488259594175E-002   9.6335432904425394E-002   0.0000000000000000     
  -7.2174612074888678E-002  0.10280019023256960        0.0000000000000000     
  -7.4267905077361987E-002  0.10942215346395484        0.0000000000000000     
  -7.1085571214280274E-002   8.4620841056332913E-002   0.0000000000000000     
  -7.3599803218577411E-002   9.0743930756731678E-002   0.0000000000000000     
  -7.6023321390007559E-002   9.7024631675295403E-002   0.0000000000000000     
  -7.8356125728570605E-002  0.10346294381202402        0.0000000000000000     
  -8.0598216234266676E-002  0.11005886716691760        0.0000000000000000     
  -7.6979971058207072E-002   8.5415669472109448E-002   0.0000000000000000     
  -7.9660426686589458E-002   9.1508972930357771E-002   0.0000000000000000     
  -8.2244274173752088E-002   9.7760697062135249E-002   0.0000000000000000     
  -8.4731513519694948E-002  0.10417084186744181        0.0000000000000000     
  -8.7122144724418066E-002  0.11073940734627752        0.0000000000000000     
  -6.2188134763292630E-002  0.10828020548722088        0.0000000000000000     
  -6.3909960677394642E-002  0.11509585485104376        0.0000000000000000     
  -6.5558681890469442E-002  0.12204501727645833        0.0000000000000000     
  -6.7134298402517015E-002  0.12912769276346456        0.0000000000000000     
  -6.8636810213537389E-002  0.13634388131206249        0.0000000000000000     
  -6.8131211253703972E-002  0.10882926623738927        0.0000000000000000     
  -6.9996718270251015E-002  0.11562139469483500        0.0000000000000000     
  -7.1783721010864623E-002  0.12254720512179336        0.0000000000000000     
  -7.3492219475544823E-002  0.12960669751826434        0.0000000000000000     
  -7.5122213664291601E-002  0.13679987188424797        0.0000000000000000     
  -7.4267905077361987E-002  0.10942215346395484        0.0000000000000000     
  -7.6276764186736554E-002  0.11618956548542413        0.0000000000000000     
  -7.8201586322734828E-002  0.12309066918382050        0.0000000000000000     
  -8.0042371485356797E-002  0.13012546455914392        0.0000000000000000     
  -8.1799119674602447E-002  0.13729395161139440        0.0000000000000000     
  -8.0598216234266676E-002  0.11005886716691760        0.0000000000000000     
  -8.2750098426851298E-002  0.11680036722281113        0.0000000000000000     
  -8.4812277826080043E-002  0.12367540946253967        0.0000000000000000     
  -8.6784754431952923E-002  0.13068399388610322        0.0000000000000000     
  -8.8667528244469940E-002  0.13782612049350179        0.0000000000000000     
  -8.7122144724418066E-002  0.11073940734627752        0.0000000000000000     
  -8.9416720990595236E-002  0.11745379990699602        0.0000000000000000     
  -9.1615795520900295E-002  0.12430142595795095        0.0000000000000000     
  -9.3719368315333257E-002  0.13128228549914234        0.0000000000000000     
  -9.5727439373894080E-002  0.13839637853057019        0.0000000000000000     
  -6.8636810213537389E-002  0.13634388131206249        0.0000000000000000     
  -7.0066272455229950E-002  0.14368143973681854        0.0000000000000000     
  -7.1422740259294168E-002  0.15112822485229918        0.0000000000000000     
  -7.2706213625730001E-002  0.15868423665850437        0.0000000000000000     
  -7.3916692554537491E-002  0.16634947515543422        0.0000000000000000     
  -7.5122213664291601E-002  0.13679987188424797        0.0000000000000000     
  -7.6674233578740411E-002  0.14411425256190299        0.0000000000000000     
  -7.8148809220526722E-002  0.15153736389338818        0.0000000000000000     
  -7.9545940589650532E-002  0.15906920587870360        0.0000000000000000     
  -8.0865627686111885E-002  0.16670977851784918        0.0000000000000000     
  -8.1799119674602447E-002  0.13729395161139440        0.0000000000000000     
  -8.3472703216528221E-002  0.14458361229596534        0.0000000000000000     
  -8.5063994437190468E-002  0.15198192856825013        0.0000000000000000     
  -8.6572993336589257E-002  0.15948890042824873        0.0000000000000000     
  -8.7999699914724547E-002  0.16710452787596120        0.0000000000000000     
  -8.8667528244469940E-002  0.13782612049350179        0.0000000000000000     
  -9.0461681368593339E-002  0.14508951893900562        0.0000000000000000     
  -9.2168295909285422E-002  0.15246191887688496        0.0000000000000000     
  -9.3787371866546135E-002  0.15994332030713990        0.0000000000000000     
  -9.5318909240375504E-002  0.16753372322977023        0.0000000000000000     
  -9.5727439373894080E-002  0.13839637853057019        0.0000000000000000     
  -9.7641168034935832E-002  0.14563197249102389        0.0000000000000000     
  -9.9461713636811527E-002  0.15297733481929279        0.0000000000000000     
 -0.10118907617952116       0.16043246551537690        0.0000000000000000     
 -0.10282325566306474       0.16799736457927628        0.0000000000000000     
 </DataArray>
 <DataArray  type="Float64" Name="stress" NumberOfComponents="3" format="ascii">
   13416733663.086010        4025020098.9258027        2893930562.9134893     
   11766550845.376312        1890561166.4173224        1715777186.6170638     
   10313623173.953434        413619388.19824457        810731553.80341160     
   9057950648.8173771       -405805235.73142958        178793664.47253263     
   7999533269.9681387       -567712705.37170315       -180036481.37557238     
   10539946609.909410        3161983982.9728231        2225736060.0474825     
   9667576472.6936188        1589648367.1335695        1446691231.2408075     
   8943829927.4546242        512724724.55029202        863135340.09992921     
   8368706974.1924181       -68786944.777011395        475068386.62484831     
   7942207612.9070101       -154886640.84833717        282490370.81556505     
   8337889136.9550867        2501366741.0865259        1712363622.5242701     
   8021563663.6132765        1424624036.9305210        1275690527.8456452     
   7805230227.9382296        681188124.99706292        956887565.01584184     
   7688888829.9299469        271059005.28615379        755954734.03485870     
   7672539469.5884275        194236677.79778910        672892034.90269697     
   6810561244.2230434        2043168373.2669129        1353813250.3438509     
   6828512418.1352768        1395488175.8081756        1202775076.4315777     
   6897824075.4042463        919009589.53855848        1091988228.5511484     
   7018496216.0299540        613732614.45806146        1021452706.7025642     
   7190528840.0123949        479657250.56668305        991168510.88582397     
   5957962931.7132778        1787388879.5139832        1150084943.5062261     
   6088422736.2596245        1502240783.7665346        1227944876.9986036     
   6221611469.8526793        1226189118.1747780        1268437330.7058501     
   6357529132.4924431        959233882.73871362        1271562304.6279640     
   6496175724.1789131        701375077.45834160        1237319798.7649472     
   7999533269.9681387       -567712705.37170315       -180036481.37557238     
   7917512374.1076031       -200368491.86572170       -78194086.243118644     
   7794060115.4215488        28871178.888530731       -9013317.3556795530     
   7629176493.9099789        120006306.89105368        27505825.286744177     
   7422861509.5728836        73036892.141847610        31363341.684151337     
   7942207612.9070101       -154886640.84833717        282490370.81556505     
   7739684986.3364534        16212043.960131645        281185011.84179574     
   7513817027.4365826        109492954.33756256        265135069.80476332     
   7264603736.2073984        124956090.28394175        234340544.70445943     
   6992045112.6489019        62601451.799280643        188801436.54088750     
   7672539469.5884275        194236677.79778910        672892034.90269697     
   7400706664.2556963        184447299.49310732        589539290.73495042     
   7123614557.0898590        157126915.07806492        509359006.68568039     
   6841263148.0909138        112275524.55265641        432351182.75488853     
   6553652437.2588596        49893127.916891575        358515818.94257635     
   7190528840.0123949        479657250.56668305        991168510.88582397     
   6900577407.8653402        304337274.73320222        846868750.43633497     
   6623452704.3813801        171773061.11004090        723658493.28707087     
   6359154729.5605173        81964609.697200537        621537739.43803048     
   6107683483.4027510        34911920.494683027        540506488.88921630     
   6496175724.1789131        701375077.45834160        1237319798.7649472     
   6239297217.1653776        375881969.68041348        1053173390.9459550     
   6013331469.3111448        153431392.43349123        908033529.60893476     
   5818278480.6162128        34023345.717570305        801900214.75388455     
   5654138251.0805826        17657829.532656670        734773446.38080704     
   7422861509.5728836        73036892.141847610        31363341.684151337     
   7219390157.1535883       -17637122.376843929        14587077.162082372     
   7027971471.2884951       -68135581.714852810        2288701.5337050287     
   6848605451.9776087       -78458485.872174740       -5531785.2009755718     
   6681292099.2209282       -48605834.848811626       -8874383.0419645533     
   6992045112.6489019        62601451.799280643        188801436.54088750     
   6808767323.7364521        3288751.6354961395        180560901.85461238     
   6633180595.4568815       -30387079.752022266        176138762.27493051     
   6465284927.8101912       -38426042.363280058        175535017.80184647     
   6305080320.7963791       -20828136.198279381        178749668.43535006     
   6553652437.2588596        49893127.916891575        358515818.94257635     
   6388683943.8901186        21376461.719086170        353722473.85054451     
   6227044905.2329302        3957977.8931112289        352088030.07800806     
   6068735321.2872906       -2362323.5610311031        353612487.62496704     
   5913755192.0532036        2415557.3566629887        358295846.49142134     
   6107683483.4027510        34911920.494683027        540506488.88921630     
   5959140017.6145792        36626007.873906374        534071793.14987880     
   5809564400.6166325        34899591.220536470        530136504.94293857     
   5658956632.4089031        29732670.534575939        528700624.26839620     
   5507316712.9914007        21125245.816015244        529764151.12624729     
   5654138251.0805826        17657829.532656670        734773446.38080704     
   5520135544.9098396        49037390.099969387        721608859.75261748     
   5380739081.6079884        62437760.230262280        710284186.86972296     
   5235948861.1750326        57858939.923532963        700799427.73212779     
   5085764883.6109715        35300929.179782867        693154582.33982480     
   6681292099.2209282       -48605834.848811626       -8874383.0419645533     
   6508997225.0957785       -9270212.3821661472       -3447091.4420471089     
   6331887548.9354277        14016069.967133760        3216892.7542706258     
   6149963070.7398710        21253012.199082613        11117569.546982244     
   5963223790.5091076        12440614.313683033        20254938.936095431     
   6305080320.7963791       -20828136.198279381        178749668.43535006     
   6132326999.1331911        329703.87044167519        175093752.68630525     
   5956711989.3416481        11948583.511312723        174043365.24957761     
   5778235291.4217596        14028502.724363327        175598506.12517333     
   5596896905.3735180        6569461.5095674992        179759175.31309104     
   5913755192.0532036        2415557.3566629887        358295846.49142134     
   5744454382.0403261        6568902.7839627266        347835356.28473949     
   5574244997.8059549        7693667.4729347229        341349230.10629970     
   5403127039.3500814        5789851.4235672951        338837467.95610738     
   5231100506.6727114        857454.63588166237        340300069.83415931     
   5507316712.9914007        21125245.816015244        529764151.12624729     
   5345379373.8171921        9447384.3584012985        514777719.35325307     
   5184486574.3283348        1251321.8519663811        505134487.32443005     
   5024638314.5248337       -3462941.7032887936        500834455.03977329     
   4865834594.4066868       -4695406.3073606491        501877622.49929070     
   5085764883.6109715        35300929.179782867        693154582.33982480     
   4935101974.4637814        8965148.5937602520        675920841.89185011     
   4787436718.9087982       -7378453.3515691757        665399136.90396941     
   4642769116.9460201       -13729876.656213999        661589467.37618279     
   4501099168.5754509       -10089121.320175886        664491833.30848563     
   5963223790.5091076        12440614.313683033        20254938.936095431     
   5779355048.0169716       -227707.36878705025        13528311.512538245     
   5597190941.5477390       -7213908.9749109745        10667801.356479352     
   5416731471.1014023       -8517990.5047104359        11673408.467936369     
   5237976636.6779776       -4139951.9581418037        16545132.846880792     
   5596896905.3735180        6569461.5095674992        179759175.31309104     
   5424511889.3212337       -951142.82588934898        174781881.16101843     
   5253176974.0658054       -4971411.1718416214        173584170.69202304     
   5082892159.6072168       -5491343.5283102989        176166043.90609828     
   4913657445.9454794       -2510939.8952844143        182527500.80324787     
   5231100506.6727114        857454.63588166237        340300069.83415931     
   5069951978.2476368       -1589603.9963488579        336308484.52317095     
   4909199015.3933563       -2718110.7259445190        336009949.31082958     
   4748841618.1098738       -2528065.5528776646        339404464.19713646     
   4588879786.3971834       -1019468.4771697521        346492029.18209749     
   4865834594.4066868       -4695406.3073606491        501877622.49929070     
   4715675314.7961750       -2143090.8801732063        498108121.59899205     
   4565257065.5304022       -454007.63718032837        497945137.21291268     
   4414579846.6093712        371843.42161059380        501388669.34106421     
   4263643658.0330820        334462.29620456696        508438717.98342699     
   4501099168.5754509       -10089121.320175886        664491833.30848563     
   4361681898.9668493       -2611603.4773557186        660180792.38848090     
   4221351124.4769392        1820898.0944240093        659389734.39827275     
   4080106845.1057153        3208383.3951554298        662118659.33785832     
   3937949060.8531747        1550852.4248411655        668367567.20724058     
   5237976636.6779776       -4139951.9581418037        16545132.846880792     
   5053798621.0436201        225432.28455471992        10865270.036857905     
   4868980343.0519371        2456608.6694777012        9542295.2069695443     
   4683521802.7029114        2553577.1965916157        12576208.357189449     
   4497422999.9965487        516337.86593365669        19967009.487537473     
   4913657445.9454794       -2510939.8952844143        182527500.80324787     
   4740314100.1482534        246437.22406125069        176085254.25472578     
   4566586299.5719500        1722298.4131801128        173991559.70618466     
   4392474044.2165880        1916643.6720871925        176246417.15762222     
   4217977334.0821633        829473.00078701973        182849826.60903496     
   4588879786.3971834       -1019468.4771697521        346492029.18209749     
   4426347293.3509502        122756.39297819138        339585841.06972319     
   4263686153.1039190        836157.26047039032        337019868.97718525     
   4100896365.6561041        1120734.1253414154        338794112.90447700     
   3937977931.0074906        976486.98755741119        344908572.85161245     
   4263643658.0330820        334462.29620456696        508438717.98342699     
   4111898200.6517181       -145610.20869183540        501367030.48185432     
   3960279903.6478457       -201814.78863930702        498627223.01997262     
   3808788767.0214434        165848.55632567406        500219295.59778488     
   3657424790.7725229        957379.82623124123        506143248.21528476     
   3937949060.8531747        1550852.4248411655        668367567.20724058     
   3796966822.0505738       -558662.58091783524        661428822.49112010     
   3656367551.2037220       -1391617.7341773510        658813621.83454406     
   3516151248.3126187       -948013.03493428230        660521965.23751640     
   3376317913.3772726        772151.51683020592        666553852.70004225     
   4497422999.9965487        516337.86593365669        19967009.487537473     
   4313461349.1594906       -1478058.3577253819        13102213.022789884     
   4129745475.5454402       -2653197.1713824272        10568865.262034787     
   3946275379.1543732       -3009078.5750832558        12366966.205278585     
   3763051059.9863005       -2545702.5688023567        18496515.852514874     
   4217977334.0821633        829473.00078701973        182849826.60903496     
   4045494083.2975435       -16819.993896961212        175970027.59772462     
   3873155841.0535340       -379751.18656134605        173323371.48531047     
   3700962607.3501377       -259320.57716917992        174909858.27176499     
   3528914382.1873493        344471.83423924446        180729487.95712340     
   3937977931.0074906        976486.98755741119        344908572.85161245     
   3776692206.5464025        1194035.1031270027        337896207.83097839     
   3615450721.9435549        1559049.4128313065        335018679.90411162     
   3454253477.1989336        2071529.9166209698        336275989.07101715     
   3293100472.3125405        2731476.6145000458        341668135.33169317     
   3657424790.7725229        957379.82623124123        506143248.21528476     
   3507055718.9060874        2154506.9334285259        498880753.72253352     
   3356630118.2155056        3163204.6267933846        495654790.51844460     
   3206147988.7007647        3983472.9063117504        496465358.60301858     
   3055609330.3618875        4615311.7720192671        501312457.97625953     
   3376317913.3772726        772151.51683020592        666553852.70004225     
   3236584620.3765979        2864595.4969780445        658923665.27240479     
   3096694029.8693891        4432714.4553457499        655231703.32831454     
   2956646141.8556490        5476508.3919427395        655477966.86777616     
   2816440956.3353763        5995977.3067743778        659662455.89078939     
   3763051059.9863005       -2545702.5688023567        18496515.852514874     
   3584532464.6488562       -1236114.2486305237        11621332.108348634     
   3405395231.7574582       -1988651.1083149910        9061408.8698674012     
   3225639361.3121109       -4803313.1478235722        10816746.137075659     
   3045264853.3127947       -9680100.3672306538        16887343.909993265     
   3528914382.1873493        344471.83423924446        180729487.95712340     
   3361328818.4580979        1972857.2741129398        172553931.90143856     
   3193391077.7915816        2427319.5897749662        168399571.08797589     
   3025101160.1877880        1707858.7811771631        168266405.51672131     
   2856459065.6467223       -185525.15163767338        172154435.18768376     
   3293100472.3125405        2731476.6145000458        341668135.33169317     
   3135607753.7243896        4426603.2339545488        332503077.68398577     
   2978029318.8156619        5836008.7848179340        327065150.01500791     
   2820365167.5863519        6959693.2670636177        325354352.32475555     
   2662615300.0364509        7797656.6806954145        327370684.61324590     
   3055609330.3618875        4615311.7720192671        501312457.97625953     
   2907369270.4477444        6125123.6309301853        491468769.45597386     
   2759309954.8297148        8237416.4768695831        485058145.65094596     
   2611431383.5077744        10952190.309798002        482080586.56116498     
   2463733556.4819546        14269445.129760981        482536092.18662977     
   2816440956.3353763        5995977.3067743778        659662455.89078939     
   2676613368.6281590        7068418.4650137424        649451007.21741211     
   2537232985.8337302        9631542.6659034491        642378557.99579811     
   2398299807.9520884        13685349.909402966        638445108.22595751     
   2259813834.9832439        19229840.195562243        637650657.90787756     
   5957962931.7132778        1787388879.5139832        1150084943.5062261     
   6088422736.2596245        1502240783.7665346        1227944876.9986036     
   6221611469.8526793        1226189118.1747780        1268437330.7058501     
   6357529132.4924431        959233882.73871362        1271562304.6279640     
   6496175724.1789131        701375077.45834160        1237319798.7649472     
   5434683958.6545935        1630405187.5963781        1033502288.9914193     
   5489910746.8088140        1372502900.0014279        1113892765.0709469     
   5547336150.3060598        1121929330.2165592        1167491675.6757023     
   5606960169.1463308        878684478.24177134        1194299020.8056846     
   5668782803.3296242        642768344.07706428        1194314800.4608941     
   4895314084.2757969        1468594225.2827389        936388873.77945447     
   4905524754.0674906        1247002815.2491674        1018691193.1251690     
   4917403725.4985218        1030972410.6800649        1084777861.3064694     
   4930950998.5688953        820503011.57543218        1134648878.3233559     
   4946166573.2786093        615594617.93526912        1168304244.1758285     
   4339853308.5768890        1301955992.5730667        858744697.87033224     
   4335264758.0356483        1125740529.5097516        942340161.16126883     
   4331814195.4300652        953318359.56529474        1020295887.5981507     
   4329501620.7601395        784689482.73969650        1092611877.1809776     
   4328327034.0258713        619853899.03295743        1159288129.9097493     
   3768301631.5578680        1130490489.4673603        800569761.26405168     
   3779130758.7132907        1008716042.7831810        884839669.17924714     
   3790567560.1006880        888967176.87224865        974045754.55074644     
   3802612035.7200599        771243891.73456383        1068188017.3785496     
   3815264185.5714049        655546187.37012661        1167266457.6626561     
   6496175724.1789131        701375077.45834160        1237319798.7649472     
   6239297217.1653776        375881969.68041348        1053173390.9459550     
   6013331469.3111448        153431392.43349123        908033529.60893476     
   5818278480.6162128        34023345.717570305        801900214.75388455     
   5654138251.0805826        17657829.532656670        734773446.38080704     
   5668782803.3296242        642768344.07706428        1194314800.4608941     
   5518848619.8952932        383282277.74724722        1073467960.6520066     
   5393061170.4279432        204285324.64070797        980647044.47251058     
   5291420454.9275780        105777484.75744677        915852051.92240226     
   5213926473.3941975        87758758.097464323        879082983.00168478     
   4946166573.2786093        615594617.93526912        1168304244.1758285     
   4871803505.2732487        412703630.60849333        1102863276.3193419     
   4814821146.0425520        267748339.19726872        1054467609.2396642     
   4775219495.5865211        180728743.70159626        1023117242.9367937     
   4752998553.9051571        151644844.12147498        1008812177.4107330     
   4328327034.0258713        619853899.03295743        1159288129.9097493     
   4298161873.2992468        464146028.26415229        1141359337.9479582     
   4278611396.1549697        343820436.10317183        1129495223.9103951     
   4269675602.5930414        258877122.55001688        1123695787.7970603     
   4271354492.6134610        209316087.60468960        1123961029.6079512     
   3815264185.5714049        655546187.37012661        1167266457.6626561     
   3797923723.9732871        537609470.71422315        1188956145.5378587     
   3784431920.7651978        432501615.35841823        1205729888.4847064     
   3774788775.9471393        340222621.30271363        1217587686.5032003     
   3768994289.5191107        260772488.54710734        1224529539.5933397     
   5654138251.0805826        17657829.532656670        734773446.38080704     
   5520135544.9098396        49037390.099969387        721608859.75261748     
   5380739081.6079884        62437760.230262280        710284186.86972296     
   5235948861.1750326        57858939.923532963        700799427.73212779     
   5085764883.6109715        35300929.179782867        693154582.33982480     
   5213926473.3941975        87758758.097464323        879082983.00168478     
   5077387567.8419647        85423592.823993206        855355594.07321990     
   4938721953.7681351        75999399.145186424        835617690.14618981     
   4797929631.1727047        59486177.061051369        819869271.22059155     
   4655010600.0556746        35883926.571582556        808110337.29642272     
   4752998553.9051571        151644844.12147498        1008812177.4107330     
   4620065081.1318264        117437442.65533304        978333542.89308846     
   4488271948.4464016        87031174.815549135        953993964.63300991     
   4357619155.8488865        60426040.602121830        935793442.63050044     
   4228106703.3392763        37622040.015053511        923731976.88555849     
   4271354492.6134610        209316087.60468960        1123961029.6079512     
   4148168084.7794180        145078939.59399533        1090542706.2122147     
   4029389065.6427870        95533087.241344929        1065413010.3301827     
   3915017435.2035723        60678530.546746731        1048571941.9618523     
   3805053193.4617701        40515269.510191441        1040019501.1072276     
   3768994289.5191107        260772488.54710734        1224529539.5933397     
   3661696578.7847419        168348083.63997579        1191983084.0306025     
   3562073305.3572931        101505136.42257917        1169874827.2377062     
   3470124469.2367668        60243646.894921303        1158204769.2146499     
   3385850070.4231606        44563615.056998253        1156972909.9614317     
   5085764883.6109715        35300929.179782867        693154582.33982480     
   4935101974.4637814        8965148.5937602520        675920841.89185011     
   4787436718.9087982       -7378453.3515691757        665399136.90396941     
   4642769116.9460201       -13729876.656213999        661589467.37618279     
   4501099168.5754509       -10089121.320175886        664491833.30848563     
   4655010600.0556746        35883926.571582556        808110337.29642272     
   4522572113.9243250        15527511.812920332        794859979.36222887     
   4392327372.9531012        2483580.9213497639        787536519.25073338     
   4264276377.1420069       -3247866.1031312943        786139956.96194100     
   4138419126.4910359       -1666829.2605252266        790670292.49584877     
   4228106703.3392763        37622040.015053511        923731976.88555849     
   4111649389.8312154        22572015.965982437        913527108.29438221     
   3996581913.0512023        12154781.010405064        908463999.88851488     
   3882904272.9992390        6370335.1483221054        908542651.66795850     
   3770616469.6753240        5218678.3797383308        913763063.63270819     
   3805053193.4617701        40515269.510191441        1040019501.1072276     
   3702333802.1844516        30098661.052947521        1031922228.6883126     
   3600200339.2031021        21635146.915601254        1028181578.8173138     
   3498652804.5177240        15124727.098158836        1028797551.4942355     
   3397691198.1283140        10567401.600610733        1033770146.7190708     
   3385850070.4231606        44563615.056998253        1156972909.9614317     
   3294625350.9840360        38107447.073816061        1150045340.5440183     
   3203182651.4088011        30924678.636937022        1146689256.0371335     
   3111521971.6974549        23015309.746359229        1146904656.4407728     
   3019643311.8500042        14379340.402092934        1150691541.7549329     
   4501099168.5754509       -10089121.320175886        664491833.30848563     
   4361681898.9668493       -2611603.4773557186        660180792.38848090     
   4221351124.4769392        1820898.0944240093        659389734.39827275     
   4080106845.1057153        3208383.3951554298        662118659.33785832     
   3937949060.8531747        1550852.4248411655        668367567.20724058     
   4138419126.4910359       -1666829.2605252266        790670292.49584877     
   4007303144.2512789        1025750.8310825825        784012995.35816181     
   3875766491.1759887        2316094.8042371273        781325537.36314774     
   3743809167.2651634        2204202.6589403152        782607918.51080394     
   3611431172.5188012        690074.39519429207        787860138.80112875     
   3770616469.6753240        5218678.3797383308        913763063.63270819     
   3649087078.2697630        3511911.7597317696        905334483.33075356     
   3527629850.0744457        2045689.1738712788        901325598.38433826     
   3406244785.0893703        820010.62215137482        901736408.79347098     
   3284931883.3145361       -165123.89542818069        906566914.55814457     
   3397691198.1283140        10567401.600610733        1033770146.7190708     
   3287033701.0222993        4846879.3085968494        1024145256.3062508     
   3176941201.1723080        1009681.2033257484        1019389917.4618481     
   3067413698.5783367       -944192.71520912647        1019504130.1858643     
   2958451193.2403831       -1014742.4470096827        1024487894.4782934     
   3019643311.8500042        14379340.402092934        1150691541.7549329     
   2921143012.5088916        5030653.4776828289        1140445314.2846582     
   2823700544.4695792       -791929.10739219189        1135518494.5956719     
   2727315907.7320647       -3088407.3531405926        1135911082.6879756     
   2631989102.2963457       -1858781.2595664263        1141623078.5615728     
   3937949060.8531747        1550852.4248411655        668367567.20724058     
   3796966822.0505738       -558662.58091783524        661428822.49112010     
   3656367551.2037220       -1391617.7341773510        658813621.83454406     
   3516151248.3126187       -948013.03493428230        660521965.23751640     
   3376317913.3772726        772151.51683020592        666553852.70004225     
   3611431172.5188012        690074.39519429207        787860138.80112875     
   3482011571.3691115       -187421.65732836723        781281666.74636018     
   3352847221.8014841       -214079.10298848152        778989675.22200274     
   3223938123.8159099        610102.05820882320        780984164.22804713     
   3095284277.4124002        2285121.8262714148        787265133.76449990     
   3284931883.3145361       -165123.89542818069        906566914.55814457     
   3166969024.0202160        157630.26603245735        900199712.72875690     
   3049133699.9342599        905501.78870749474        898081927.90063405     
   2931425911.0566645        2078490.6725913286        900213560.07377338     
   2813845657.3874307        3676596.9176785946        906594609.24817944     
   2958451193.2403831       -1014742.4470096827        1024487894.4782934     
   2851839180.0038776        476493.18915963173        1018182960.4383081     
   2745226985.6020474        1967124.9409103394        1016090379.8704451     
   2638614610.0348763        3457152.8081964254        1018210152.7747016     
   2532002053.3023815        4946576.7910643816        1024542279.1510789     
   2631989102.2963457       -1858781.2595664263        1141623078.5615728     
   2536622039.3201075        769167.11206078529        1135231409.8750107     
   2441127078.8048429        2970790.3536075354        1133015031.1314309     
   2345504220.7505493        4746088.4650554657        1134973942.3308313     
   2249753465.1572313        6095061.4464198351        1141108143.4732072     
   3376317913.3772726        772151.51683020592        666553852.70004225     
   3236584620.3765979        2864595.4969780445        658923665.27240479     
   3096694029.8693891        4432714.4553457499        655231703.32831454     
   2956646141.8556490        5476508.3919427395        655477966.86777616     
   2816440956.3353763        5995977.3067743778        659662455.89078939     
   3095284277.4124002        2285121.8262714148        787265133.76449990     
   2965815430.5619278        4058661.5946140289        779430914.16192770     
   2836317499.2509632        5735253.1613045931        775627790.16330886     
   2706790483.4795022        7314896.5263414383        775855761.76863027     
   2577234383.2475452        8797591.6897314787        780114828.97790694     
   2813845657.3874307        3676596.9176785946        906594609.24817944     
   2694906599.8883028        5210835.4345570803        898705939.35772038     
   2576066670.9747167        7075502.5699100494        894941235.19160748     
   2457325870.6466699        9270598.3237277269        895300496.74984038     
   2338684198.9041648        11796122.696027040        899783724.03241456     
   2532002053.3023815        4946576.7910643816        1024542279.1510789     
   2423858128.3557224        6321117.0168133974        1016748740.8597766     
   2315941545.0406537        8453462.6811774969        1013172038.4132137     
   2208252303.3571525        11343613.784111738        1013812171.8113918     
   2100790403.3052347        14991570.325656056        1018669141.0543165     
   2249753465.1572313        6095061.4464198351        1141108143.4732072     
   2152670015.9641876        7389506.3413869143        1133559318.6680989     
   2055942121.4487658        9869133.4950883389        1130320199.8281326     
   1959569781.6109512        13533942.907485127        1131390786.9533012     
   1863552996.4507585        18383934.578617930        1136771080.0436163     
   2816440956.3353763        5995977.3067743778        659662455.89078939     
   2676613368.6281590        7068418.4650137424        649451007.21741211     
   2537232985.8337302        9631542.6659034491        642378557.99579811     
   2398299807.9520884        13685349.909402966        638445108.22595751     
   2259813834.9832439        19229840.195562243        637650657.90787756     
   2577234383.2475452        8797591.6897314787        780114828.97790694     
   2446062583.7052040        10295637.984469891        770744324.51506042     
   2315249579.1229944        12989667.479650259        764794902.61885834     
   2184795369.5009136        16879680.175268769        762266563.28929484     
   2054699954.8389807        21965676.071358800        763159306.52637565     
   2338684198.9041648        11796122.696027040        899783724.03241456     
   2216974139.2834806        13961559.654287577        891151018.83533978     
   2095534464.6702700        17028279.970803857        886221479.31977713     
   1974365175.0645330        20996283.645569563        884995105.48572910     
   1853466270.4662845        25865570.678611994        887471897.33319318     
   2100790403.3052347        14991570.325656056        1018669141.0543165     
   1989348035.3629839        18066183.474473953        1010671090.1782482     
   1878087642.4755516        21747380.139354348        1006658288.0985560     
   1767009224.6429403        26035160.320311546        1006630734.8152597     
   1656112781.8651516        30929524.017340899        1010588430.3283433     
   1863552996.4507585        18383934.578617930        1136771080.0436163     
   1763184271.9437256        22609509.445034981        1129304538.5437799     
   1662909112.5388527        27146967.985321343        1126105328.9552050     
   1562727518.2361414        31996310.199479520        1127173451.2778883     
   1462639489.0355988        37157536.087543905        1132508905.5118248     
   3768301631.5578680        1130490489.4673603        800569761.26405168     
   3779130758.7132907        1008716042.7831810        884839669.17924714     
   3790567560.1006880        888967176.87224865        974045754.55074644     
   3802612035.7200599        771243891.73456383        1068188017.3785496     
   3815264185.5714049        655546187.37012661        1167266457.6626561     
   3207836955.9173260        962351086.77519774        756708428.11050928     
   3235874589.6375875        868209426.64446330        853058516.50391674     
   3263636063.8428864        773147234.79718733        951332943.28625453     
   3291121378.5332227        677164511.23336983        1051531708.4575235     
   3318330533.7085967        580261255.95301151        1153654812.0177233     
   2685637184.3538542        805691155.30615628        722005062.55960047     
   2722278070.1607456        736600705.38540435        829404192.05979347     
   2757758962.7057381        663643611.25832224        935715820.88154435     
   2792079861.9888310        586819872.92490995        1040939949.0248531     
   2825240768.0100260        506129490.38516748        1145076576.4897194     
   2201702316.8674526        660510695.06023586        696459664.61132538     
   2238341200.2827659        613889879.00600386        813876695.84687769     
   2272936256.6892438        560456306.25565314        927194387.33661497     
   2305487486.0868855        500209976.80918318        1036412739.0805378     
   2335994888.4756918        433150890.66659462        1141531751.0786448     
   1756032353.4581215        526809706.03743643        680072234.26568365     
   1784063980.0036483        500076947.50626189        806476027.86516953     
   1809167945.7934027        463585319.78917998        925768642.65146780     
   1831344250.8273847        417334822.88619041        1037950078.6245779     
   1850592895.1055946        361325456.79729295        1143020335.7845001     
   3815264185.5714049        655546187.37012661        1167266457.6626561     
   3797923723.9732871        537609470.71422315        1188956145.5378587     
   3784431920.7651978        432501615.35841823        1205729888.4847064     
   3774788775.9471393        340222621.30271363        1217587686.5032003     
   3768994289.5191107        260772488.54710734        1224529539.5933397     
   3318330533.7085967        580261255.95301151        1153654812.0177233     
   3293774454.5947967        473069572.34812939        1182012723.5763817     
   3272950232.9930320        378317413.78336775        1207256482.0395575     
   3255857868.9033036        296004780.25872660        1229386087.4072497     
   3242497362.3256121        226131671.77420557        1248401539.6794586     
   2825240768.0100260        506129490.38516748        1145076576.4897194     
   2798617048.0458889        411227232.83091086        1179966444.0408428     
   2775608384.7157931        328375164.05679512        1213543950.3293533     
   2756214778.0197411        257573284.06282270        1245809095.3552518     
   2740436227.9577322        198821592.84899163        1276761879.1185374     
   2335994888.4756918        433150890.66659462        1141531751.0786448     
   2312451504.3265624        352082452.16256571        1182817306.9312398     
   2292406375.9334817        282674866.17870021        1224592293.3540936     
   2275859503.2964520        224928132.71499979        1266856710.3472056     
   2262810886.4154687        178842251.77146149        1309610557.9105754     
   1850592895.1055946        361325456.79729295        1143020335.7845001     
   1835277823.4368191        295635230.34309679        1190565312.2475748     
   1823344206.6460981        241216520.14908415        1240401511.1137784     
   1814792044.7334344        198069326.21525896        1292528932.3831117     
   1809621337.6988251        166193648.54161727        1346947576.0555732     
   3768994289.5191107        260772488.54710734        1224529539.5933397     
   3661696578.7847419        168348083.63997579        1191983084.0306025     
   3562073305.3572931        101505136.42257917        1169874827.2377062     
   3470124469.2367668        60243646.894921303        1158204769.2146499     
   3385850070.4231606        44563615.056998253        1156972909.9614317     
   3242497362.3256121        226131671.77420557        1248401539.6794586     
   3164638723.8758135        151776932.54081738        1231225397.7399986     
   3092851178.7795362        97659171.152498722        1222086574.4018111     
   3027134727.0367813        63778387.609254956        1220985069.6648986     
   2967489368.6475477        50134581.911077023        1227920883.5292604     
   2740436227.9577322        198821592.84899163        1276761879.1185374     
   2685157004.1680322        140478622.00200391        1273085482.8567188     
   2634345529.7784534        97028149.155420780        1275045525.0276096     
   2588001804.7889977        68470174.309248209        1282642005.6312094     
   2546125829.1996632        54804697.463479161        1295874924.6675167     
   2262810886.4154687        178842251.77146149        1309610557.9105754     
   2223251419.6613946        134453152.02353239        1317563339.3807678     
   2186556358.3540444        99612070.431347966        1328751679.1151023     
   2152725702.4934154        74319006.994901419        1343175577.1135812     
   2121759452.0795093        58573961.714199543        1360835033.3762031     
   1809621337.6988251        166193648.54161727        1346947576.0555732     
   1778921970.3559055        133700522.60540706        1364658967.3121419     
   1749483664.5063074        105410934.98027134        1383205036.6642883     
   1721306420.1500347        81324885.666217268        1402585784.1120143     
   1694390237.2870829        61442374.663235962        1422801209.6553166     
   3385850070.4231606        44563615.056998253        1156972909.9614317     
   3294625350.9840360        38107447.073816061        1150045340.5440183     
   3203182651.4088011        30924678.636937022        1146689256.0371335     
   3111521971.6974549        23015309.746359229        1146904656.4407728     
   3019643311.8500042        14379340.402092934        1150691541.7549329     
   2967489368.6475477        50134581.911077023        1227920883.5292604     
   2884812243.1079297        39227728.845234752        1220213472.1990325     
   2802424342.5295901        29284958.983650565        1216536729.3615930     
   2720325666.9125261        20306272.326320529        1216890655.0169420     
   2638516216.2567425        12291668.873255610        1221275249.1650763     
   2546125829.1996632        54804697.463479161        1295874924.6675167     
   2473308250.6517315        39840745.242626190        1287979410.7047598     
   2401287102.1624632        27531559.883986115        1284573748.8170521     
   2330062383.7318611        17877141.387562513        1285657939.0043929     
   2259634095.3599219        10877489.753351331        1291231981.2667859     
   2121759452.0795093        58573961.714199543        1360835033.3762031     
   2060113373.6154408        39946496.265987992        1353343156.0611987     
   1999770930.3074248        25664481.337946534        1350800314.4035075     
   1940732122.1554604        15727916.930082083        1353206508.4031291     
   1882996949.1595464        10136803.042381167        1360561738.0600619     
   1694390237.2870829        61442374.663235962        1422801209.6553166     
   1645227611.9990594        39544981.915325463        1416304708.2683518     
   1597875826.9644728        23683723.345539927        1415216426.1209612     
   1552334882.1833239        13858598.953879237        1419536363.2131462     
   1508604777.6556134        10069608.740343690        1429264519.5449071     
   3019643311.8500042        14379340.402092934        1150691541.7549329     
   2921143012.5088916        5030653.4776828289        1140445314.2846582     
   2823700544.4695792       -791929.10739219189        1135518494.5956719     
   2727315907.7320647       -3088407.3531405926        1135911082.6879756     
   2631989102.2963457       -1858781.2595664263        1141623078.5615728     
   2638516216.2567425        12291668.873255610        1221275249.1650763     
   2554105379.1126380        5171227.0148906708        1212749695.7629788     
   2470509434.0673862        767092.15270388126        1209228572.0235844     
   2387728381.1209888       -920735.71330416203        1210711877.9468980     
   2305762220.2734451        107743.41687047482        1217199613.5329168     
   2259634095.3599219        10877489.753351331        1291231981.2667859     
   2188412782.9311562        5715311.7165290117        1284143672.8627598     
   2117763423.3982980        2459643.3327318430        1281744816.0028560     
   2047686016.7613482        1110484.6019662619        1284035410.6870723     
   1978180563.0203097        1667835.5242283344        1291015456.9154119     
   1882996949.1595464        10136803.042381167        1360561738.0600619     
   1824065223.9644492        6662907.5826010704        1354627245.5840061     
   1765462512.4623127        4285724.4326936007        1353067226.5334897     
   1707188814.6531401        3005253.5926645994        1355881680.9085090     
   1649244130.5369301        2821495.0625121593        1363070608.7090678     
   1508604777.6556134        10069608.740343690        1429264519.5449071     
   1461062702.2125134        8014014.6131019592        1424200413.9267187     
   1413606701.2594299        6245335.4525808692        1423195803.6154861     
   1366236774.7963686        4763571.2587978244        1426250688.6112030     
   1318952922.8233213        3568722.0317339897        1433365068.9138751     
   2631989102.2963457       -1858781.2595664263        1141623078.5615728     
   2536622039.3201075        769167.11206078529        1135231409.8750107     
   2441127078.8048429        2970790.3536075354        1133015031.1314309     
   2345504220.7505493        4746088.4650554657        1134973942.3308313     
   2249753465.1572313        6095061.4464198351        1141108143.4732072     
   2305762220.2734451        107743.41687047482        1217199613.5329168     
   2221126576.4508300        1545974.4512376785        1210338881.0858996     
   2136474236.2195005        2928550.7898963690        1207832346.6611328     
   2051805199.5794671        4255472.4328688383        1209680010.2586172     
   1967119466.5307186        5526739.3801324368        1215881871.8783574     
   1978180563.0203097        1667835.5242283344        1291015456.9154119     
   1904787504.2920976        2069699.0035645962        1283815395.3599737     
   1831488950.2854943        2786578.2215926647        1281148439.9060571     
   1758284901.0004952        3818473.1783055067        1283014590.5536718     
   1685175356.4371023        5165383.8737038374        1289413847.3028119     
   1649244130.5369301        2821495.0625121593        1363070608.7090678     
   1587604822.8439128        2340340.7690626979        1355660952.6972396     
   1526171221.0028150        2544872.6486820579        1352963310.8662097     
   1464943325.0136411        3435090.7013790011        1354977683.2159843     
   1403921134.8763916        5010994.9271585941        1361704069.7465606     
   1318952922.8233213        3568722.0317339897        1433365068.9138751     
   1269578532.1062765        2357899.7477235198        1425875553.0976944     
   1220521048.3714685        2203434.0711739063        1423276959.5415902     
   1171780471.6189022        3105325.0020935535        1425569288.2455626     
   1123356801.8485720        5063572.5404673815        1432752539.2096107     
   2249753465.1572313        6095061.4464198351        1141108143.4732072     
   2152670015.9641876        7389506.3413869143        1133559318.6680989     
   2055942121.4487658        9869133.4950883389        1130320199.8281326     
   1959569781.6109512        13533942.907485127        1131390786.9533012     
   1863552996.4507585        18383934.578617930        1136771080.0436163     
   1967119466.5307186        5526739.3801324368        1215881871.8783574     
   1881388567.8719935        6893261.6213965416        1208997230.2183535     
   1795943907.3650534        9213911.0352718830        1206518980.5396893     
   1710785485.0098960        12488687.621761799        1208447122.8423688     
   1625913300.8065274        16717591.380875528        1214781657.1263924     
   1685175356.4371023        5165383.8737038374        1289413847.3028119     
   1611073254.0732787        6686857.1894384623        1283112519.5077660     
   1537188073.3354082        8931402.5916883945        1281314269.7102699     
   1463519814.2234905        11899020.080439687        1284019097.9103236     
   1390068476.7375233        15589709.655702770        1291227004.1079218     
   1403921134.8763916        5010994.9271585941        1361704069.7465606     
   1341724074.5680482        6770293.0455330610        1355905186.5363448     
   1279674619.3598292        9021608.1643167734        1354706067.3398800     
   1217772769.2517302        11764940.283504605        1358106712.1571665     
   1156018524.2437544        15000289.403099895        1366107120.9882066     
   1123356801.8485720        5063572.5404673815        1432752539.2096107     
   1073341029.3562981        7143569.1896669269        1427375231.3040857     
   1023403545.4383146        9484527.7531677485        1426694373.4285131     
   973544350.09461784        12086448.230962217        1430709965.5828991     
   923763443.32521474        14949330.623065650        1439422007.7672429     
   1863552996.4507585        18383934.578617930        1136771080.0436163     
   1763184271.9437256        22609509.445034981        1129304538.5437799     
   1662909112.5388527        27146967.985321343        1126105328.9552050     
   1562727518.2361414        31996310.199479520        1127173451.2778883     
   1462639489.0355988        37157536.087543905        1132508905.5118248     
   1625913300.8065274        16717591.380875528        1214781657.1263924     
   1536665793.0676305        20247156.166423738        1208157164.5695448     
   1447536393.1684465        24170413.751014411        1205980739.9417403     
   1358525101.1089730        28487364.134621084        1208252383.2429931     
   1269631916.8891988        33198007.317257762        1214972094.4732845     
   1390068476.7375233        15589709.655702770        1291227004.1079218     
   1312458574.3890326        18578180.947079897        1285473193.6878607     
   1234991322.6177905        22042154.162618697        1284348187.2146428     
   1157666721.4238083        25981629.302357078        1287851984.6882586     
   1080484770.8070738        30396606.366260886        1295984586.1087184     
   1156018524.2437544        15000289.403099895        1366107120.9882066     
   1090562615.9079201        17602583.786969125        1361252625.8987327     
   1025273900.8868840        20762189.220171332        1361207670.7738922     
   960152379.18064678        24479105.702690661        1365972255.6136823     
   895198050.78920436        28753333.234540582        1375546380.4180999     
   923763443.32521474        14949330.623065650        1439422007.7672429     
   870977917.62429917        17320364.686112463        1435495461.2021613     
   818384127.97571969        20330518.923618317        1436559190.6195049     
   765982074.37949455        23979793.335631579        1442613196.0192642     
   713771756.83560145        28268187.922093540        1453657477.4014487     
   1756032353.4581215        526809706.03743643        680072234.26568365     
   1784063980.0036483        500076947.50626189        806476027.86516953     
   1809167945.7934027        463585319.78917998        925768642.65146780     
   1831344250.8273847        417334822.88619041        1037950078.6245779     
   1850592895.1055946        361325456.79729295        1143020335.7845001     
   1326377197.8402011        397913159.35206032        669739843.53909075     
   1339590861.6600177        375520573.62539661        791883805.68792355     
   1350608779.9130855        345808836.00956929        908738935.44451070     
   1359430952.5994039        308777946.50457859        1020305232.8088529     
   1366057379.7189734        264427905.11042410        1126582697.7809496     
   890486753.72803235        267146026.11840972        662359564.44796121     
   894089158.88197470        250655624.41420740        781097596.20000136     
   896227733.65819097        229285788.11758566        896369141.98073828     
   896902478.05668163        203036517.22854441        1008174201.7901726     
   896113392.07744634        171907811.74708372        1116512775.6283042     
   448361021.12161505        134508306.33648452        657931396.99229527     
   447558871.66951889        125482099.87269439        774117399.40140307     
   446024807.02871990        114016176.11322883        888659262.26015031     
   443758827.19921839        100110535.05808800        1001556985.5685372     
   440760932.18101430        83765176.707271457        1112810569.3265638     
   2.0949302274604880E-002   6.2847906823814640E-003   656455341.17209280     
   2.2650305395014045E-002   8.5760153557411668E-004   770943215.29212856     
   2.4671768176977381E-002  -3.5009984266038997E-003   885609296.28274667     
   2.7013843600229993E-002  -6.7909112685277783E-003   1000453584.1439469     
   2.9676656050163980E-002  -9.0120476328756048E-003   1115476078.8757291     
   1850592895.1055946        361325456.79729295        1143020335.7845001     
   1835277823.4368191        295635230.34309679        1190565312.2475748     
   1823344206.6460981        241216520.14908415        1240401511.1137784     
   1814792044.7334344        198069326.21525896        1292528932.3831117     
   1809621337.6988251        166193648.54161727        1346947576.0555732     
   1366057379.7189734        264427905.11042410        1126582697.7809496     
   1360385782.5456941        216904647.24271685        1182008228.3754485     
   1357250276.5310106        177835026.57032779        1238368216.5049341     
   1356650861.6749234        147219043.09326071        1295662662.1694050     
   1358587537.9774315        125056696.81151003        1353891565.3688631     
   896113392.07744634        171907811.74708372        1116512775.6283042     
   896208798.34782565        141388581.15031296        1178832602.6815257     
   897994932.05734122        116505108.68399665        1240730122.4015896     
   901471793.20599318        97257394.348135084        1302205334.7884965     
   906639381.79378164        83645438.142727643        1363258239.8422458     
   440760932.18101430        83765176.707271457        1112810569.3265638     
   442746870.84321433        69087032.065887496        1181038435.1658046     
   445578173.22509086        57226766.490090966        1247487228.8037441     
   449254839.32664448        48184379.979884699        1312156950.2403834     
   453776869.14787447        41959872.535267621        1375047599.4757221     
   2.9676656050163980E-002  -9.0120476328756048E-003   1115476078.8757291     
   3.1859393786141443E-002  -1.0562441489213604E-002   1188625725.8282857     
   3.4259291260112956E-002  -1.1389099656498793E-002   1258639535.7113984     
   3.6876600102297014E-002  -1.1491074947118943E-002   1325517508.5250673     
   3.9710702674884586E-002  -1.0870230997379774E-002   1389259644.2692926     
   1809621337.6988251        166193648.54161727        1346947576.0555732     
   1778921970.3559055        133700522.60540706        1364658967.3121419     
   1749483664.5063074        105410934.98027134        1383205036.6642883     
   1721306420.1500347        81324885.666217268        1402585784.1120143     
   1694390237.2870829        61442374.663235962        1422801209.6553166     
   1358587537.9774315        125056696.81151003        1353891565.3688631     
   1333034692.9578006        99928356.505762041        1372865236.0813177     
   1308427644.0582380        77952669.933576107        1393263526.1090786     
   1284766391.2787449        59129637.094954729        1415086435.4521461     
   1262050934.6193209        43459257.989895225        1438333964.1105196     
   906639381.79378164        83645438.142727643        1363258239.8422458     
   887918605.43951941        66387547.370064080        1383126380.4084575     
   869828359.83207285        51231425.753451347        1405009081.5097027     
   852368644.97144032        38177073.292886168        1428906343.1459832     
   835539460.85762346        27224489.988373548        1454818165.3172991     
   453776869.14787447        41959872.535267621        1375047599.4757221     
   443573707.80106211        33078095.198312476        1395442400.2935610     
   433685811.82781166        25247202.439897358        1418441702.8661613     
   424113181.22812122        18467194.260015726        1444045507.1935251     
   414855816.00199163        12738070.658670068        1472253813.2756512     
   3.9710702674884586E-002  -1.0870230997379774E-002   1389259644.2692926     
   4.2429132551691354E-002  -9.4901536263158510E-003   1409813295.7366271     
   4.5455363374401495E-002  -7.0838996298930833E-003   1433561390.1784532     
   4.8786404174736099E-002  -3.6620460555910929E-003   1460503927.5947700     
   5.2425691992725044E-002   7.8799146694909575E-004   1490640907.9855783     
   1694390237.2870829        61442374.663235962        1422801209.6553166     
   1645227611.9990594        39544981.915325463        1416304708.2683518     
   1597875826.9644728        23683723.345539927        1415216426.1209612     
   1552334882.1833239        13858598.953879237        1419536363.2131462     
   1508604777.6556134        10069608.740343690        1429264519.5449071     
   1262050934.6193209        43459257.989895225        1438333964.1105196     
   1227991892.7062697        27880091.546118915        1435397594.1100960     
   1195290980.9835043        16828025.736626983        1437213093.7037358     
   1163948199.4510255        10303060.561423957        1443780462.8914447     
   1133963548.1088314        8305196.0205022097        1455099701.6732149     
   835539460.85762346        27224489.988373548        1454818165.3172991     
   814708717.61809182        17400964.438298613        1454913764.9630687     
   794783394.50569320        10595505.978666276        1459104884.5573964     
   775763491.52042806        6808114.6094796658        1467391524.1002796     
   757649008.66229630        6038790.3307372332        1479773683.5917199     
   414855816.00199163        12738070.658670068        1472253813.2756512     
   405378086.73452389        8107600.5918599814        1474853220.8272736     
   396353067.53103667        4986164.0716519207        1480891798.6819415     
   387780758.39153057        3373761.0980466753        1490369546.8396578     
   379661159.31600404        3270391.6710405499        1503286465.3004215     
   5.2425691992725044E-002   7.8799146694909575E-004   1490640907.9855783     
   5.5566105745945144E-002   6.8043899269644038E-003   1495215961.7027073     
   5.9534245665161876E-002   1.5579181717578100E-002   1502573836.0773728     
   6.4333188501683181E-002   2.7122969621178522E-002   1512714531.1095769     
   6.9959102613545640E-002   4.1424716221363574E-002   1525638046.7993193     
   1508604777.6556134        10069608.740343690        1429264519.5449071     
   1461062702.2125134        8014014.6131019592        1424200413.9267187     
   1413606701.2594299        6245335.4525808692        1423195803.6154861     
   1366236774.7963686        4763571.2587978244        1426250688.6112030     
   1318952922.8233213        3568722.0317339897        1433365068.9138751     
   1133963548.1088314        8305196.0205022097        1455099701.6732149     
   1097337215.5624111        6472567.6395453811        1449650945.8275034     
   1060775438.8836602        4855125.4841548204        1448487966.3462179     
   1024278218.0725781        3452869.5543255210        1451610763.2293591     
   987845553.12916231        2265799.8500528336        1459019336.4769304     
   757649008.66229630        6038790.3307372332        1479773683.5917199     
   732584936.31962657        4623082.8881878555        1473915172.4590750     
   707563901.22227526        3350832.9300344288        1472568718.7483313     
   682585903.37024665        2222040.4562894106        1475734322.4594905     
   657650942.76353681        1236705.4669401050        1483411983.5925536     
   379661159.31600404        3270391.6710405499        1503286465.3004215     
   366805864.48415631        2465560.3590210825        1496993093.8214366     
   353972088.27527809        1732457.7902335823        1495438060.8218286     
   341159830.68937278        1071083.9646896571        1498621366.3015978     
   328369091.72644073        481438.88238701224        1506543010.2607462     
   6.9959102613545640E-002   4.1424716221363574E-002   1525638046.7993193     
   5.6003324688314524E-002   5.2052798884392328E-002   1518884709.9145885     
   4.2669210655608400E-002   6.4751706743723630E-002   1517095992.5667083     
   2.9959802953523611E-002   7.9532969038459342E-002   1520271894.7556803     
   1.7871281377833927E-002   9.6385239533292894E-002   1528412416.4815056     
   1318952922.8233213        3568722.0317339897        1433365068.9138751     
   1269578532.1062765        2357899.7477235198        1425875553.0976944     
   1220521048.3714685        2203434.0711739063        1423276959.5415902     
   1171780471.6189022        3105325.0020935535        1425569288.2455626     
   1123356801.8485720        5063572.5404673815        1432752539.2096107     
   987845553.12916231        2265799.8500528336        1459019336.4769304     
   951196857.78589773        1472312.4504504800        1452128217.5721321     
   914785842.67909968        1471092.5057405829        1450038864.7983804     
   878612507.80877411        2262140.0159355998        1452751278.1556728     
   842676853.17491782        3845454.9810308814        1460265457.6440101     
   657650942.76353681        1236705.4669401050        1483411983.5925536     
   633473210.99681294        784133.41255643964        1477026830.3957443     
   609453932.72079444        859739.66052344441        1475354287.2009492     
   585593107.93547559        1463524.2108232081        1478394354.0081666     
   561890736.64086330        2595487.0634776056        1486147030.8173974     
   328369091.72644073        481438.88238701224        1506543010.2607462     
   316407591.73902613        293362.63405294716        1500571391.5685282     
   304525318.49655098        369375.53551800549        1499223226.7492931     
   292722271.99900901        709477.58675873280        1502498515.8030396     
   280998452.24640751        1313668.7878022790        1510397258.7297690     
   1.7871281377833927E-002   9.6385239533292894E-002   1528412416.4815056     
   1.2536400489133421E-002  0.11494198450177708        1522761901.0904853     
   6.3766528687373425E-003  0.13074743897446672        1521645683.4434152     
  -6.2363118332412620E-004  0.14375214617569065        1525063763.5402954     
  -8.4499257408015907E-003  0.15400313808083271        1533016141.3811276     
   1123356801.8485720        5063572.5404673815        1432752539.2096107     
   1073341029.3562981        7143569.1896669269        1427375231.3040857     
   1023403545.4383146        9484527.7531677485        1426694373.4285131     
   973544350.09461784        12086448.230962217        1430709965.5828991     
   923763443.32521474        14949330.623065650        1439422007.7672429     
   842676853.17491782        3845454.9810308814        1460265457.6440101     
   804794826.44974840        5294393.2640102506        1454974100.2655690     
   766971516.15531743        6939052.9827859700        1454465572.3009944     
   729206922.29163134        8779434.1373786926        1458739873.7502871     
   691501044.85868347        10815536.727760196        1467797004.6134479     
   561890736.64086330        2595487.0634776056        1486147030.8173974     
   536389253.92254430        3487406.4521581233        1480918789.7985644     
   510926915.49141634        4509806.7981396914        1480559757.5775111     
   485503721.34748262        5662688.1014365256        1485069934.1542330     
   460119671.49074006        6946050.3620376885        1494449319.5287385     
   280998452.24640751        1313668.7878022790        1510397258.7297690     
   268124311.77468601        1722608.7541043758        1505209299.9030726     
   255269743.44660807        2196789.1992212534        1504976929.2580643     
   242434747.26217344        2736210.1231478602        1509700146.7947481     
   229619323.22138178        3340871.5258840621        1519378952.5131233     
  -8.4499257408015907E-003  0.15400313808083271        1533016141.3811276     
   6.1754173203658960E-003  0.16986323062414702        1527845630.5790913     
   2.0893451803836567E-002  0.18603090679635781        1527717087.3426588     
   3.5706899891065014E-002  0.20251697525912313        1532630511.6718264     
   5.0612353136364419E-002  0.21931042147151525        1542585903.5665951     
   923763443.32521474        14949330.623065650        1439422007.7672429     
   870977917.62429917        17320364.686112463        1435495461.2021613     
   818384127.97571969        20330518.923618317        1436559190.6195049     
   765982074.37949455        23979793.335631579        1442613196.0192642     
   713771756.83560145        28268187.922093540        1453657477.4014487     
   691501044.85868347        10815536.727760196        1467797004.6134479     
   651582649.41110873        12495036.935625821        1464412960.0265489     
   611808056.00874114        14653877.294177383        1466096016.6956131     
   572177264.65158486        17292057.803437799        1472846174.6206427     
   532690275.33963978        20409578.463395447        1484663433.8016276     
   460119671.49074006        6946050.3620376885        1494449319.5287385     
   433287907.07805216        7999866.9491726011        1491551853.9117036     
   406552010.70344228        9373243.6632345319        1493798314.8241696     
   379911982.36691207        11066180.504225329        1501188702.2661426     
   353367822.06845194        13078677.472122818        1513723016.2376156     
   229619323.22138178        3340871.5258840621        1519378952.5131233     
   216093690.62513196        3834854.7267636806        1516912142.8576245     
   202615992.05982932        4488618.0308003277        1519666085.0051708     
   189186227.52546629        5302161.4379691556        1527640778.9557602     
   175804397.02205059        6275484.9482927769        1540836224.7094028     
   5.0612353136364419E-002  0.21931042147151525        1542585903.5665951     
   5.2347183364555128E-002  0.26839535630615063        1540493826.8643117     
   7.7899179780730909E-002  0.39687015121134595        1543699327.2386172     
  0.12725887193848667       0.60470427886650302        1552202404.6895111     
  0.20042356053184218       0.89188839464032599        1566003059.2169831     
   2.0949302274604880E-002   6.2847906823814640E-003   656455341.17209280     
   2.2650305395014045E-002   8.5760153557411668E-004   770943215.29212856     
   2.4671768176977381E-002  -3.5009984266038997E-003   885609296.28274667     
   2.7013843600229993E-002  -6.7909112685277783E-003   1000453584.1439469     
   2.9676656050163980E-002  -9.0120476328756048E-003   1115476078.8757291     
  -448361021.08047277       -134508306.32414183        657931396.98751402     
  -447558871.62482065       -125482099.87043709        774117399.39676845     
  -446024806.97989756       -114016176.11916180        888659262.25560379     
  -443758827.14570308       -100110535.07031633        1001556985.5640191     
  -440760932.12223768       -83765176.723900259        1112810569.3220155     
  -890486753.68915915       -267146026.10674775        662359564.43871927     
  -894089158.83956039       -250655624.41191232        781097596.19096804     
  -896227733.61173987       -229285788.12300462        896369141.97179556     
  -896902478.00569785       -203036517.24002469        1008174201.7812024     
  -896113392.02143371       -171907811.76297235        1116512775.6191883     
  -1326377197.8051097       -397913159.34153289        669739843.52570856     
  -1339590861.6215687       -375520573.62356812        791883805.67472720     
  -1350608779.8708556       -345808836.01502943        908738935.43132329     
  -1359430952.5529697       -308777946.51591641        1020305232.7954968     
  -1366057379.6679120       -264427905.12622952        1126582697.7672474     
  -1756032353.4283245       -526809706.02849734        680072234.24848187     
  -1784063979.9708455       -500076947.50540459        806476027.84804595     
  -1809167945.7572441       -463585319.79523593        925768642.63418579     
  -1831344250.7875197       -417334822.89799148        1037950078.6069014     
  -1850592895.0616727       -361325456.81367129        1143020335.7661932     
   2.9676656050163980E-002  -9.0120476328756048E-003   1115476078.8757291     
   3.1859393786141443E-002  -1.0562441489213604E-002   1188625725.8282857     
   3.4259291260112956E-002  -1.1389099656498793E-002   1258639535.7113984     
   3.6876600102297014E-002  -1.1491074947118943E-002   1325517508.5250673     
   3.9710702674884586E-002  -1.0870230997379774E-002   1389259644.2692926     
  -440760932.12223768       -83765176.723900259        1112810569.3220155     
  -442746870.78010339       -69087032.085636228        1181038435.1610010     
  -445578173.15718764       -57226766.511433944        1247487228.7986667     
  -449254839.25349051       -48184380.001293913        1312156950.2350123     
  -453776869.06901187       -41959872.555214778        1375047599.4700377     
  -896113392.02143371       -171907811.76297235        1116512775.6191883     
  -896208798.28756630       -141388581.16936129        1178832602.6719279     
  -897994931.99235272       -116505108.70459637        1240730122.3914719     
  -901471793.13579369       -97257394.368678838        1302205334.7778192     
  -906639381.71788800       -83645438.161607087        1363258239.8309705     
  -1366057379.6679120       -264427905.12622952        1126582697.7672474     
  -1360385782.4905291       -216904647.26173547        1182008228.3610668     
  -1357250276.4712358       -177835026.59087434        1238368216.4898133     
  -1356650861.6100311       -147219043.11364257        1295662662.1534886     
  -1358587537.9069169       -125056696.83004385        1353891565.3520901     
  -1850592895.0616727       -361325456.81367129        1143020335.7661932     
  -1835277823.3889921       -295635230.36276019        1190565312.2284174     
  -1823344206.5938358       -241216520.17026615        1240401511.0936928     
  -1814792044.6762052       -198069326.23618919        1292528932.3620195     
  -1809621337.6360991       -166193648.56052810        1346947576.0333979     
   3.9710702674884586E-002  -1.0870230997379774E-002   1389259644.2692926     
   4.2429132551691354E-002  -9.4901536263158510E-003   1409813295.7366271     
   4.5455363374401495E-002  -7.0838996298930833E-003   1433561390.1784532     
   4.8786404174736099E-002  -3.6620460555910929E-003   1460503927.5947700     
   5.2425691992725044E-002   7.8799146694909575E-004   1490640907.9855783     
  -453776869.06901187       -41959872.555214778        1375047599.4700377     
  -443573707.71680385       -33078095.215319440        1395442400.2876911     
  -433685811.73757654       -25247202.452026486        1418441702.8600349     
  -424113181.13132977       -18467194.265334696        1444045507.1870682     
  -414855815.89806366       -12738070.655246750        1472253813.2687907     
  -906639381.71788800       -83645438.161607087        1363258239.8309705     
  -887918605.35848022       -66387547.385882616        1383126380.3967748     
  -869828359.74534035       -51231425.764385283        1405009081.4974678     
  -852368644.87846947       -38177073.297116071        1428906343.1330476     
  -835539460.75786591       -27224489.984072864        1454818165.3035166     
  -1358587537.9069169       -125056696.83004385        1353891565.3520901     
  -1333034692.8826001       -99928356.521179676        1372865236.0638764     
  -1308427643.9778378       -77952669.944164157        1393263526.0907497     
  -1284766391.1926324       -59129637.099004328        1415086435.4327102     
  -1262050934.5269811       -43459257.985691547        1438333964.0897560     
  -1809621337.6360991       -166193648.56052810        1346947576.0333979     
  -1778921970.2891622       -133700522.62120628        1364658967.2889974     
  -1749483664.4350688       -105410934.99136519        1383205036.6398821     
  -1721306420.0738182       -81324885.670998454        1402585784.0860524     
  -1694390237.2054107       -61442374.660108864        1422801209.6275074     
   5.2425691992725044E-002   7.8799146694909575E-004   1490640907.9855783     
   5.5566105745945144E-002   6.8043899269644038E-003   1495215961.7027073     
   5.9534245665161876E-002   1.5579181717578100E-002   1502573836.0773728     
   6.4333188501683181E-002   2.7122969621178522E-002   1512714531.1095769     
   6.9959102613545640E-002   4.1424716221363574E-002   1525638046.7993193     
  -414855815.89806366       -12738070.655246750        1472253813.2687907     
  -405378086.62450629       -8107600.5764511526        1474853220.8212037     
  -396353067.41316271       -4986164.0383683145        1480891798.6765273     
  -387780758.26403838       -3373761.0410174429        1490369546.8347611     
  -379661159.17712671       -3270391.5843729377        1503286465.2959061     
  -835539460.75786591       -27224489.984072864        1454818165.3035166     
  -814708717.51282632       -17400964.422181845        1454913764.9509957     
  -794783394.39304602       -10595505.944485217        1459104884.5467587     
  -775763491.39852488       -6808114.5509882271        1467391524.0908058     
  -757649008.52926302       -6038790.2416873574        1479773683.5831373     
  -1262050934.5269811       -43459257.985691547        1438333964.0897560     
  -1227991892.6093950       -27880091.530386686        1435397594.0920842     
  -1195290980.8801095       -16828025.702752829        1437213093.6880693     
  -1163948199.3391271       -10303060.502794921        1443780462.8777118     
  -1133963547.9864490       -8305195.9305158854        1455099701.6610126     
  -1694390237.2054107       -61442374.660108864        1422801209.6275074     
  -1645227611.9142106       -39544981.901067257        1416304708.2444675     
  -1597875826.8743541       -23683723.313172400        1415216426.1004581     
  -1552334882.0858469       -13858598.896441340        1419536363.1954782     
  -1508604777.5486844       -10069608.650857627        1429264519.5295289     
   6.9959102613545640E-002   4.1424716221363574E-002   1525638046.7993193     
   5.6003324688314524E-002   5.2052798884392328E-002   1518884709.9145885     
   4.2669210655608400E-002   6.4751706743723630E-002   1517095992.5667083     
   2.9959802953523611E-002   7.9532969038459342E-002   1520271894.7556803     
   1.7871281377833927E-002   9.6385239533292894E-002   1528412416.4815056     
  -379661159.17712671       -3270391.5843729377        1503286465.2959061     
  -366805864.37344724       -2465560.2497518957        1496993093.8165402     
  -353972088.19132078       -1732457.6536410153        1495438060.8160431     
  -341159830.63074559       -1071083.7960345447        1498621366.2944148     
  -328369091.69172359       -481438.67693704367        1506543010.2516541     
  -757649008.52926302       -6038790.2416873574        1479773683.5831373     
  -732584936.21646953       -4623082.7756231129        1473915172.4499321     
  -707563901.14740586       -3350832.7886551619        1472568718.7376118     
  -682585903.32207000       -2222040.2807826996        1475734322.4461770     
  -657650942.74046242       -1236705.2520042062        1483411983.5756280     
  -1133963547.9864490       -8305195.9305158854        1455099701.6610126     
  -1097337215.4730670       -6472567.5255693793        1449650945.8147609     
  -1060775438.8255873       -4855125.3402984738        1448487966.3314123     
  -1024278218.0440154       -3452869.3747179508        1451610763.2109649     
  -987845553.12834644       -2265799.6288173199        1459019336.4534225     
  -1508604777.5486844       -10069608.650857627        1429264519.5295289     
  -1461062702.1432369       -8014014.4995865226        1424200413.9110281     
  -1413606701.2258673       -6245335.3085758686        1423195803.5974467     
  -1366236774.7965813       -4763571.0778430700        1426250688.5887854     
  -1318952922.8553722       -3568721.8073664308        1433365068.8850417     
   1.7871281377833927E-002   9.6385239533292894E-002   1528412416.4815056     
   1.2536400489133421E-002  0.11494198450177708        1522761901.0904853     
   6.3766528687373425E-003  0.13074743897446672        1521645683.4434152     
  -6.2363118332412620E-004  0.14375214617569065        1525063763.5402954     
  -8.4499257408015907E-003  0.15400313808083271        1533016141.3811276     
  -328369091.69172359       -481438.67693704367        1506543010.2516541     
  -316407591.71579772       -293362.38999451697        1500571391.5527086     
  -304525318.48747307       -369375.26172497869        1499223226.7257662     
  -292722272.00675845       -709477.29215362668        1502498515.7708323     
  -280998452.27364349       -1313668.4812498242        1510397258.6879077     
  -657650942.74046242       -1236705.2520042062        1483411983.5756280     
  -633473210.98883128       -784133.15834915638        1477026830.3641853     
  -609453932.73157454       -859739.37927672267        1475354287.1528056     
  -585593107.96869731       -1463523.9148007333        1478394353.9414887     
  -561890736.70019448       -2595486.7649083436        1486147030.7302358     
  -987845553.12834644       -2265799.6288173199        1459019336.4534225     
  -951196857.80656171       -1472312.1901103854        1452128217.5249178     
  -914785842.72592425       -1471092.2218959928        1450038864.7245324     
  -878612507.88643909       -2262139.7241886854        1452751278.0522661     
  -842676853.28810239       -3845454.6969747543        1460265457.5081184     
  -1318952922.8553722       -3568721.8073664308        1433365068.8850417     
  -1269578532.1689887       -2357899.4852789640        1425875553.0349057     
  -1220521048.4705281       -2203433.7896032333        1423276959.4409463     
  -1171780471.7599869       -3105324.7203238010        1425569288.1031632     
  -1123356802.0373669       -5063572.2774481177        1432752539.0215573     
  -8.4499257408015907E-003  0.15400313808083271        1533016141.3811276     
   6.1754173203658960E-003  0.16986323062414702        1527845630.5790913     
   2.0893451803836567E-002  0.18603090679635781        1527717087.3426588     
   3.5706899891065014E-002  0.20251697525912313        1532630511.6718264     
   5.0612353136364419E-002  0.21931042147151525        1542585903.5665951     
  -280998452.27364349       -1313668.4812498242        1510397258.6879077     
  -268124311.77514681       -1722608.4253794104        1505209299.8540163     
  -255269743.42000949       -2196788.8473767340        1504976929.2021103     
  -242434747.20824832       -2736209.7472913712        1509700146.7321994     
  -229619323.13984126       -3340871.1250562966        1519378952.4442706     
  -561890736.70019448       -2595486.7649083436        1486147030.7302358     
  -536389253.95671594       -3487406.1406853497        1480918789.6971192     
  -510926915.50006014       -4509806.4725386798        1480559757.4623766     
  -485503721.33023399       -5662687.7604888380        1485069934.0260131     
  -460119671.44723064       -6946050.0045154095        1494449319.3880250     
  -842676853.28810239       -3845454.6969747543        1460265457.5081184     
  -804794826.53853703       -5294392.9760722518        1454974100.1084070     
  -766971516.21925414       -6939052.6894419789        1454465572.1234579     
  -729206922.33025813       -8779433.8371011913        1458739873.5532703     
  -691501044.87154388       -10815536.419035852        1467797004.3978510     
  -1123356802.0373669       -5063572.2774481177        1432752539.0215573     
  -1073341029.5206089       -7143568.9315328002        1427375231.0878778     
  -1023403545.5775903       -9484527.4980829358        1426694373.1853518     
  -973544350.20832169       -12086447.977134168        1430709965.3139751     
  -923763443.41279626       -14949330.368658006        1439422007.4737494     
   5.0612353136364419E-002  0.21931042147151525        1542585903.5665951     
   5.2347183364555128E-002  0.26839535630615063        1540493826.8643117     
   7.7899179780730909E-002  0.39687015121134595        1543699327.2386172     
  0.12725887193848667       0.60470427886650302        1552202404.6895111     
  0.20042356053184218       0.89188839464032599        1566003059.2169831     
  -229619323.13984126       -3340871.1250562966        1519378952.4442706     
  -216093690.54764345       -3834854.2559168339        1516912142.8313129     
  -202615991.95068955       -4488617.3709229678        1519666085.0221100     
  -189186227.34896979       -5302160.4700453430        1527640779.0166533     
  -175804396.74249503       -6275483.5533148944        1540836224.8149693     
  -460119671.44723064       -6946050.0045154095        1494449319.3880250     
  -433287907.04409158       -7999866.5491895825        1491551853.8421636     
  -406552010.65524268       -9373243.1414916664        1493798314.8272295     
  -379911982.28068531       -11066179.781435907        1501188702.3432212     
  -353367821.92041689       -13078676.469005838        1513723016.3901284     
  -691501044.87154388       -10815536.419035852        1467797004.3978510     
  -651582649.43698847       -12495036.611391962        1464412959.8968642     
  -611808056.03577042       -14653876.914869606        1466096016.6539698     
  -572177264.66788673       -17292057.329464793        1472846174.6691658     
  -532690275.33334899       -20409577.855209857        1484663433.9424651     
  -923763443.41279626       -14949330.368658006        1439422007.4737494     
  -870977917.72633243       -17320364.442518502        1435495460.9954140     
  -818384128.09226286       -20330518.691022009        1436559190.5023422     
  -765982074.51058090       -23979793.114156127        1442613195.9945257     
  -713771756.98128653       -28268187.711908817        1453657477.4719770     
  -1756032353.4283245       -526809706.02849734        680072234.24848187     
  -1784063979.9708455       -500076947.50540459        806476027.84804595     
  -1809167945.7572441       -463585319.79523593        925768642.63418579     
  -1831344250.7875197       -417334822.89799148        1037950078.6069014     
  -1850592895.0616727       -361325456.81367129        1143020335.7661932     
  -2201702316.8440828       -660510695.05322480        696459664.59075654     
  -2238341200.2566729       -613889879.00572312        813876695.82647133     
  -2272936256.6601334       -560456306.26112139        927194387.31607807     
  -2305487486.0544634       -500209976.81942010        1036412739.0595767     
  -2335994888.4396639       -433150890.68061787        1141531751.0569673     
  -2685637184.3376637       -805691155.30129921        722005062.53624964     
  -2722278070.1422768       -736600705.38597488        829404192.03662360     
  -2757758962.6847539       -663643611.26352668        935715820.85820568     
  -2792079861.9650941       -586819872.93395436        1040939949.0009956     
  -2825240767.9832954       -506129490.39725727        1145076576.4649937     
  -3207836955.9090672       -962351086.77272022        756708428.08496165     
  -3235874589.6276593       -868209426.64616013        853058516.47850358     
  -3263636063.8311062       -773147234.80245149        951332943.26056921     
  -3291121378.5194082       -677164511.24159384        1051531708.4311591     
  -3318330533.6925664       -580261255.96358860        1153654811.9902725     
  -3768301631.5582938       -1130490489.4674881        800569761.23689222     
  -3779130758.7128177       -1008716042.7862778        884839669.15211022     
  -3790567560.0991893       -888967176.87789512        974045754.52316833     
  -3802612035.7174091       -771243891.74233961        1068188017.3500664     
  -3815264185.5674777       -655546187.37961137        1167266457.6328044     
  -1850592895.0616727       -361325456.81367129        1143020335.7661932     
  -1835277823.3889921       -295635230.36276019        1190565312.2284174     
  -1823344206.5938358       -241216520.17026615        1240401511.0936928     
  -1814792044.6762052       -198069326.23618919        1292528932.3620195     
  -1809621337.6360991       -166193648.56052810        1346947576.0333979     
  -2335994888.4396639       -433150890.68061787        1141531751.0569673     
  -2312451504.2867713       -352082452.17930025        1182817306.9087112     
  -2292406375.8895435       -282674866.19686592        1224592293.3305504     
  -2275859503.2479806       -224928132.73331445        1266856710.3224840     
  -2262810886.3620825       -178842251.78864694        1309610557.8845124     
  -2825240767.9832954       -506129490.39725727        1145076576.4649937     
  -2798617048.0157819       -411227232.84520864        1179966444.0150948     
  -2775608384.6820722       -328375164.07251072        1213543950.3023336     
  -2756214777.9821677       -257573284.07916355        1245809095.3267105     
  -2740436227.9160690       -198821592.86516738        1276761879.0882251     
  -3318330533.6925664       -580261255.96358860        1153654811.9902725     
  -3293774454.5760198       -473069572.36048555        1182012723.5475669     
  -3272950232.9714217       -378317413.79720223        1207256482.0090423     
  -3255857868.8787670       -296004780.27373707        1229386087.3746986     
  -3242497362.2980580       -226131671.79008853        1248401539.6445365     
  -3815264185.5674777       -655546187.37961137        1167266457.6328044     
  -3797923723.9674931       -537609470.72513342        1188956145.5061283     
  -3784431920.7575917       -432501615.37093997        1205729888.4506762     
  -3774788775.9377780       -340222621.31703222        1217587686.4664490     
  -3768994289.5080490       -260772488.56341004        1224529539.5534465     
  -1809621337.6360991       -166193648.56052810        1346947576.0333979     
  -1778921970.2891622       -133700522.62120628        1364658967.2889974     
  -1749483664.4350688       -105410934.99136519        1383205036.6398821     
  -1721306420.0738182       -81324885.670998454        1402585784.0860524     
  -1694390237.2054107       -61442374.660108864        1422801209.6275074     
  -2262810886.3620825       -178842251.78864694        1309610557.8845124     
  -2223251419.6048822       -134453152.03868532        1317563339.3535860     
  -2186556358.2938380       -99612070.442576170        1328751679.0866601     
  -2152725702.4289513       -74319007.000323415        1343175577.0837345     
  -2121759452.0102181       -58573961.711921573        1360835033.3448093     
  -2740436227.9160690       -198821592.86516738        1276761879.0882251     
  -2685157004.1237040       -140478622.01709139        1273085482.8252413     
  -2634345529.7308083       -97028149.167246699        1275045524.9949715     
  -2588001804.7373824       -68470174.315634251        1282642005.5974183     
  -2546125829.1434250       -54804697.462252975        1295874924.6325812     
  -3242497362.2980580       -226131671.79008853        1248401539.6445365     
  -3164638723.8456268       -151776932.55642724        1231225397.7039607     
  -3092851178.7459793       -97659171.165377736        1222086574.3648181     
  -3027134726.9991145       -63778387.616934896        1220985069.6271040     
  -2967489368.6050315       -50134581.911105871        1227920883.4908216     
  -3768994289.5080490       -260772488.56341004        1224529539.5534465     
  -3661696578.7706528       -168348083.65669775        1191983083.9897482     
  -3562073305.3393507       -101505136.43696773        1169874827.1961963     
  -3470124469.2141466       -60243646.904230833        1158204769.1727920     
  -3385850070.3950377       -44563615.058477640        1156972909.9195323     
  -1694390237.2054107       -61442374.660108864        1422801209.6275074     
  -1645227611.9142106       -39544981.901067257        1416304708.2444675     
  -1597875826.8743541       -23683723.313172400        1415216426.1004581     
  -1552334882.0858469       -13858598.896441340        1419536363.1954782     
  -1508604777.5486844       -10069608.650857627        1429264519.5295289     
  -2121759452.0102181       -58573961.711921573        1360835033.3448093     
  -2060113373.5444455       -39946496.252926707        1353343156.0359514     
  -1999770930.2326410       -25664481.307163119        1350800314.3839002     
  -1940732122.0748043       -15727916.874625564        1353206508.3886552     
  -1882996949.0709355       -10136802.955314279        1360561738.0502162     
  -2546125829.1434250       -54804697.462252975        1295874924.6325812     
  -2473308250.5951486       -39840745.230933309        1287979410.6781793     
  -2401287102.1034613       -27531559.854913592        1284573748.7983613     
  -2330062383.6683636       -17877141.334190249        1285657938.9931247     
  -2259634095.2898560       -10877489.668770671        1291231981.2624724     
  -2967489368.6050315       -50134581.911105871        1227920883.4908216     
  -2884812243.0663166       -39227728.835075974        1220213472.1711509     
  -2802424342.4868159       -29284958.956424594        1216536729.3438396     
  -2720325666.8665242       -20306272.275137305        1216890655.0088878     
  -2638516216.2054453       -12291668.791229367        1221275249.1662943     
  -3385850070.3950377       -44563615.058477640        1156972909.9195323     
  -3294625350.9579515       -38107447.065358043        1150045340.5148661     
  -3203182651.3827028       -30924678.611690521        1146689256.0203376     
  -3111521971.6692863       -23015309.697466493        1146904656.4359424     
  -3019643311.8177023       -14379340.322686553        1150691541.7616844     
  -1508604777.5486844       -10069608.650857627        1429264519.5295289     
  -1461062702.1432369       -8014014.4995865226        1424200413.9110281     
  -1413606701.2258673       -6245335.3085758686        1423195803.5974467     
  -1366236774.7965813       -4763571.0778430700        1426250688.5887854     
  -1318952922.8553722       -3568721.8073664308        1433365068.8850417     
  -1882996949.0709355       -10136802.955314279        1360561738.0502162     
  -1824065223.9177642       -6662907.4719022512        1354627245.5768044     
  -1765462512.4550378       -4285724.2899742126        1353067226.5277662     
  -1707188814.6827548       -3005253.4095262289        1355881680.9031034     
  -1649244130.6009166       -2821494.8305598497        1363070608.7028165     
  -2259634095.2898560       -10877489.668770671        1291231981.2624724     
  -2188412782.9048018       -5715311.6079748869        1284143672.8647242     
  -2117763423.4125564       -2459643.1898720264        1281744816.0108039     
  -2047686016.8131199       -1110484.4144667387        1284035410.7007165     
  -1978180563.1064894       -1667835.2817518711        1291015456.9344575     
  -2638516216.2054453       -12291668.791229367        1221275249.1662943     
  -2554105379.1043491       -5171226.9077959061        1212749695.7747838     
  -2470509434.0984268       -767092.00827610493        1209228572.0465593     
  -2387728381.1876750        920735.90733718872        1210711877.9816196     
  -2305762220.3720970       -107743.16095590591        1217199613.5799677     
  -3019643311.8177023       -14379340.322686553        1150691541.7616844     
  -2921143012.5164051       -5030653.3713738918        1140445314.3069870     
  -2823700544.5126467        791929.25481402874        1135518494.6350298     
  -2727315907.8064241        3088407.5558788776        1135911082.7458165     
  -2631989102.3977361        1858781.5318272114        1141623078.6393425     
  -1318952922.8553722       -3568721.8073664308        1433365068.8850417     
  -1269578532.1689887       -2357899.4852789640        1425875553.0349057     
  -1220521048.4705281       -2203433.7896032333        1423276959.4409463     
  -1171780471.7599869       -3105324.7203238010        1425569288.1031632     
  -1123356802.0373669       -5063572.2774481177        1432752539.0215573     
  -1649244130.6009166       -2821494.8305598497        1363070608.7028165     
  -1587604822.9484499       -2340340.4950705767        1355660952.6533964     
  -1526171221.1536760       -2544872.3518915176        1352963310.7801564     
  -1464943325.2165923       -3435090.4010123014        1354977683.0830984     
  -1403921135.1372008       -5010994.6424400210        1361704069.5622141     
  -1978180563.1064894       -1667835.2817518711        1291015456.9344575     
  -1904787504.4307880       -2069698.7157211304        1283815395.3376906     
  -1831488950.4825506       -2786577.9079011679        1281148439.8371074     
  -1758284901.2617719       -3818472.8582763672        1283014590.4327052     
  -1685175356.7684536       -5165383.5668574572        1289413847.1244888     
  -2305762220.3720970       -107743.16095590591        1217199613.5799677     
  -2221126576.6160083       -1545974.1472384930        1210338881.0877881     
  -2136474236.4571514       -2928550.4576270580        1207832346.6117954     
  -2051805199.8955221       -4255472.0921099186        1209680010.1519890     
  -1967119466.9311244       -5526739.0506920815        1215881871.7083714     
  -2631989102.3977361        1858781.5318272114        1141623078.6393425     
  -2536622039.5041056       -769166.78961718082        1135231409.9036880     
  -2441127079.0774775       -2970790.0010687113        1133015031.1042218     
  -2345504221.1178465       -4746088.1025104523        1134973942.2409484     
  -2249753465.6252189       -6095061.0939670801        1141108143.3138616     
  -1123356802.0373669       -5063572.2774481177        1432752539.0215573     
  -1073341029.5206089       -7143568.9315328002        1427375231.0878778     
  -1023403545.5775903       -9484527.4980829358        1426694373.1853518     
  -973544350.20832169       -12086447.977134168        1430709965.3139751     
  -923763443.41279626       -14949330.368658006        1439422007.4737494     
  -1403921135.1372008       -5010994.6424400210        1361704069.5622141     
  -1341724074.8080888       -6770292.7757328153        1355905186.3177986     
  -1279674619.5883906       -9021607.9403998256        1354706067.0853944     
  -1217772769.4781117       -11764940.136464059        1358106711.8650064     
  -1156018524.4772398       -15000289.363890469        1366107120.6566293     
  -1685175356.7684536       -5165383.5668574572        1289413847.1244888     
  -1611073254.3959506       -6686856.9100450873        1283112519.2777116     
  -1537188073.6685305       -8931402.4035142660        1281314269.4238133     
  -1463519814.5861986       -11899020.047272861        1284019097.5627928     
  -1390068477.1489527       -15589709.841323614        1291227003.6946516     
  -1967119466.9311244       -5526739.0506920815        1215881871.7083714     
  -1881388568.2841921       -6893261.3344675303        1208997229.9676206     
  -1795943907.8180125       -9213910.8874286413        1206518980.2006104     
  -1710785485.5325921       -12488687.709578753        1208447122.4073441     
  -1625913301.4279294       -16717591.800922573        1214781656.5878227     
  -2249753465.6252189       -6095061.0939670801        1141108143.3138616     
  -2152670016.4728160       -7389506.0490130186        1133559318.3875208     
  -2055942122.0368388       -9869133.3921537399        1130320199.4157856     
  -1959569782.3172884       -13533943.123378158        1131390786.3986571     
  -1863552997.3141711       -18383935.242714405        1136771079.3361347     
  -923763443.41279626       -14949330.368658006        1439422007.4737494     
  -870977917.72633243       -17320364.442518502        1435495460.9954140     
  -818384128.09226286       -20330518.691022009        1436559190.5023422     
  -765982074.51058090       -23979793.114156127        1442613195.9945257     
  -713771756.98128653       -28268187.711908817        1453657477.4719770     
  -1156018524.4772398       -15000289.363890469        1366107120.6566293     
  -1090562616.1579158       -17602583.876002431        1361252625.6512437     
  -1025273901.1556838       -20762189.445088148        1361207670.6331646     
  -960152379.47054911       -24479106.071158409        1365972255.6023886     
  -895198051.10250700       -28753333.754217535        1375546380.5589221     
  -1390068477.1489527       -15589709.841323614        1291227003.6946516     
  -1312458574.7623475       -18578181.361335874        1285473193.3533893     
  -1234991322.9575422       -22042154.820686400        1284348187.0014770     
  -1157666721.7345386       -25981630.219377220        1287851984.6389201     
  -1080484771.0933373       -30396607.557402432        1295984586.2657044     
  -1625913301.4279294       -16717591.800922573        1214781656.5878227     
  -1536665793.5396309       -20247156.898523986        1208157164.1018596     
  -1447536393.4978414       -24170414.817823172        1205980739.6072938     
  -1358525101.3025537       -28487365.558798671        1208252383.1041157     
  -1269631916.9537768       -33198009.121473491        1214972094.5923498     
  -1863552997.3141711       -18383935.242714405        1136771079.3361347     
  -1763184272.4897637       -22609510.487570286        1129304537.8966489     
  -1662909112.7765725       -27146969.436477840        1126105328.4506030     
  -1562727518.1745903       -31996312.089426994        1127173450.9979966     
  -1462639488.6838284       -37157538.446428061        1132508905.5388341     
  -3768301631.5582938       -1130490489.4674881        800569761.23689222     
  -3779130758.7128177       -1008716042.7862778        884839669.15211022     
  -3790567560.0991893       -888967176.87789512        974045754.52316833     
  -3802612035.7174091       -771243891.74233961        1068188017.3500664     
  -3815264185.5674777       -655546187.37961137        1167266457.6328044     
  -4339853308.5864182       -1301955992.5759254        858744697.84238625     
  -4335264758.0447073       -1125740529.5132771        942340161.13336432     
  -4331814195.4387541       -953318359.56981802        1020295887.5698891     
  -4329501620.7685575       -784689482.74554753        1092611877.1519601     
  -4328327034.0341167       -619853899.04046535        1159288129.8795776     
  -4895314084.2945166       -1468594225.2883549        936388873.75178909     
  -4905524754.0859804       -1247002815.2530911        1018691193.0973004     
  -4917403725.5171127       -1030972410.6833785        1084777861.2780650     
  -4930950998.5879078       -820503011.57921565        1134648878.2940829     
  -4946166573.2983685       -615594617.94060349        1168304244.1453533     
  -5434683958.6825857       -1630405187.6047757        1033502288.9651008     
  -5489910746.8366375       -1372502900.0057201        1113892765.0439188     
  -5547336150.3342628       -1121929330.2185767        1167491675.6476967     
  -5606960169.1754618       -878684478.24334502        1194299020.7764347     
  -5668782803.3602333       -642768344.08002543        1194314800.4301317     
  -5957962931.7506285       -1787388879.5251887        1150084943.4823208     
  -6088422736.2966747       -1502240783.7711635        1227944876.9732192     
  -6221611469.8902044       -1226189118.1754127        1268437330.6787841     
  -6357529132.5312157       -959233882.73793483        1271562304.5990150     
  -6496175724.2197084       -701375077.45873046        1237319798.7339127     
  -3815264185.5674777       -655546187.37961137        1167266457.6328044     
  -3797923723.9674931       -537609470.72513342        1188956145.5061283     
  -3784431920.7575917       -432501615.37093997        1205729888.4506762     
  -3774788775.9377780       -340222621.31703222        1217587686.4664490     
  -3768994289.5080490       -260772488.56341004        1224529539.5534465     
  -4328327034.0341167       -619853899.04046535        1159288129.8795776     
  -4298161873.3069229       -464146028.27323687        1141359337.9160924     
  -4278611396.1620007       -343820436.11358428        1129495223.8762927     
  -4269675602.5993543       -258877122.56150818        1123695787.7601793     
  -4271354492.6189780       -209316087.61701059        1123961029.5677516     
  -4946166573.2983685       -615594617.94060349        1168304244.1453533     
  -4871803505.2940760       -412703630.61565614        1102863276.2875068     
  -4814821146.0642433       -267748339.20557785        1054467609.2058070     
  -4775219495.6088705       -180728743.71036649        1023117242.9002559     
  -4752998553.9279594       -151644844.13002539        1008812177.3708509     
  -5668782803.3602333       -642768344.08002543        1194314800.4301317     
  -5518848619.9289484       -383282277.75239134        1073467960.6203722     
  -5393061170.4643154       -204285324.64691997        980647044.43921983     
  -5291420454.9663315       -105777484.76360869        915852051.88667786     
  -5213926473.4349928       -87758758.102458000        879082982.96274388     
  -6496175724.2197084       -701375077.45873046        1237319798.7339127     
  -6239297217.2115450       -375881969.68344474        1053173390.9146864     
  -6013331469.3622217       -153431392.43761325        908033529.57653034     
  -5818278480.6717310       -34023345.721231461        801900214.71944606     
  -5654138251.1400766       -17657829.534302235        734773446.34343112     
  -3768994289.5080490       -260772488.56341004        1224529539.5534465     
  -3661696578.7706528       -168348083.65669775        1191983083.9897482     
  -3562073305.3393507       -101505136.43696773        1169874827.1961963     
  -3470124469.2141466       -60243646.904230833        1158204769.1727920     
  -3385850070.3950377       -44563615.058477640        1156972909.9195323     
  -4271354492.6189780       -209316087.61701059        1123961029.5677516     
  -4148168084.7813468       -145078939.60589457        1090542706.1712139     
  -4029389065.6409302       -95533087.252170324        1065413010.2883105     
  -3915017435.1977339       -60678530.555839777        1048571941.9190431     
  -3805053193.4517541       -40515269.516897917        1040019501.0634093     
  -4752998553.9279594       -151644844.13002539        1008812177.3708509     
  -4620065081.1515541       -117437442.66294813        978333542.85183203     
  -4488271948.4634838       -87031174.823664665        953993964.58993638     
  -4357619155.8637552       -60426040.612177372        935793442.58516443     
  -4228106703.3523622       -37622040.028483629        923731976.83751452     
  -5213926473.4349928       -87758758.102458000        879082982.96274388     
  -5077387567.8812704       -85423592.827852011        855355594.03160214     
  -4938721953.8070116       -75999399.151453018        835617690.10107303     
  -4797929631.2122116       -59486177.073246241        819869271.17115450     
  -4655010600.0968714       -35883926.593242884        808110337.24184835     
  -5654138251.1400766       -17657829.534302235        734773446.34343112     
  -5520135544.9705048       -49037390.100613594        721608859.71052504     
  -5380739081.6715136       -62437760.235529900        710284186.82172084     
  -5235948861.2431021       -57858939.939045429        700799427.67701530     
  -5085764883.6852732       -35300929.211166143        693154582.27641201     
  -3385850070.3950377       -44563615.058477640        1156972909.9195323     
  -3294625350.9579515       -38107447.065358043        1150045340.5148661     
  -3203182651.3827028       -30924678.611690521        1146689256.0203376     
  -3111521971.6692863       -23015309.697466493        1146904656.4359424     
  -3019643311.8177023       -14379340.322686553        1150691541.7616844     
  -3805053193.4517541       -40515269.516897917        1040019501.0634093     
  -3702333802.1782298       -30098661.055767775        1031922228.6584842     
  -3600200339.1983075       -21635146.906630278        1028181578.8019115     
  -3498652804.5119853       -15124727.069497108        1028797551.4936879     
  -3397691198.1192608       -10567401.544357300        1033770146.7338176     
  -4228106703.3523622       -37622040.028483629        923731976.83751452     
  -4111649389.8475051       -22572015.980869293        913527108.26193798     
  -3996581913.0680089       -12154781.017802000        908463999.87292826     
  -3882904273.0138764       -6370335.1392834187        908542651.67048466     
  -3770616469.6851172       -5218678.3453195095        913763063.65460730     
  -4655010600.0968714       -35883926.593242884        808110337.24184835     
  -4522572113.9657717       -15527511.840669632        794859979.32522774     
  -4392327372.9918022       -2483580.9452002048        787536519.23338783     
  -4264276377.1749678        3247866.0931656361        786139956.96632826     
  -4138419126.5152578        1666829.2744338512        790670292.52405179     
  -5085764883.6852732       -35300929.211166143        693154582.27641201     
  -4935101974.5330362       -8965148.6351728439        675920841.84835255     
  -4787436718.9696941        7378453.3111722469        665399136.88328791     
  -4642769116.9952497        13729876.627862215        661589467.38122356     
  -4501099168.6097002        10089121.314897299        664491833.34215355     
  -3019643311.8177023       -14379340.322686553        1150691541.7616844     
  -2921143012.5164051       -5030653.3713738918        1140445314.3069870     
  -2823700544.5126467        791929.25481402874        1135518494.6350298     
  -2727315907.8064241        3088407.5558788776        1135911082.7458165     
  -2631989102.3977361        1858781.5318272114        1141623078.6393425     
  -3397691198.1192608       -10567401.544357300        1033770146.7338176     
  -3287033701.0484781       -4846879.2266263962        1024145256.3434010     
  -3176941201.2296953       -1009681.0822179317        1019389917.5237496     
  -3067413698.6629095        944192.88886618614        1019504130.2748616     
  -2958451193.3481174        1014742.6866310835        1024487894.5967405     
  -3770616469.6851172       -5218678.3453195095        913763063.65460730     
  -3649087078.3076406       -3511911.7000026703        905334483.38160002     
  -3527629850.1366191       -2045689.0762119293        901325598.46738315     
  -3406244785.1720581       -820010.47394537926        901736408.91195214     
  -3284931883.4139519        165124.10679388046        906566914.71531153     
  -4138419126.5152578        1666829.2744338512        790670292.52405179     
  -4007303144.2938776       -1025750.7915046215        784012995.42158329     
  -3875766491.2334161       -2316094.7271707058        781325537.46593213     
  -3743809167.3338723       -2204202.5325582027        782607918.65708804     
  -3611431172.5952492       -690074.20768260956        787860138.99505723     
  -4501099168.6097002        10089121.314897299        664491833.34215355     
  -4361681899.0072060        2611603.4988653660        660180792.46335626     
  -4221351124.5200896       -1820898.0350902081        659389734.51939631     
  -4080106845.1483507       -3208383.2869691849        662118659.51026785     
  -3937949060.8919930       -1550852.2567903996        668367567.43597686     
  -2631989102.3977361        1858781.5318272114        1141623078.6393425     
  -2536622039.5041056       -769166.78961718082        1135231409.9036880     
  -2441127079.0774775       -2970790.0010687113        1133015031.1042218     
  -2345504221.1178465       -4746088.1025104523        1134973942.2409484     
  -2249753465.6252189       -6095061.0939670801        1141108143.3138616     
  -2958451193.3481174        1014742.6866310835        1024487894.5967405     
  -2851839180.2035894       -476492.90418612957        1018182960.5106841     
  -2745226985.8977280       -1967124.6238746643        1016090379.8974428     
  -2638614610.4305272       -3457152.4724425077        1018210152.7570175     
  -2532002053.8019915       -4946576.4498944283        1024542279.0894048     
  -3284931883.4139519        165124.10679388046        906566914.71531153     
  -3166969024.1996031       -157630.00771152973        900199712.84524918     
  -3049133700.1955767       -905501.48996996880        898081927.98462617     
  -2931425911.4018769       -2078490.3399784565        900213560.13344502     
  -2813845657.8185039       -3676596.5577452183        906594609.29169917     
  -3611431172.5952492       -690074.20768260956        787860138.99505723     
  -3482011571.4921412        187421.89980459213        781281666.90738010     
  -3352847221.9710283        214079.40065693855        778989675.36576724     
  -3223938124.0319033       -610101.70511949062        780984164.37022126     
  -3095284277.6747651       -2285121.4175183773        787265133.92073739     
  -3937949060.8919930       -1550852.2567903996        668367567.43597686     
  -3796966822.0812111        558662.81836104393        661428822.69708097     
  -3656367551.2240758        1391618.0480086803        658813622.04087138     
  -3516151248.3205967        948013.43214654922        660521965.46735275     
  -3376317913.3707681       -772151.02922034264        666553852.97652364     
  -2249753465.6252189       -6095061.0939670801        1141108143.3138616     
  -2152670016.4728160       -7389506.0490130186        1133559318.3875208     
  -2055942122.0368388       -9869133.3921537399        1130320199.4157856     
  -1959569782.3172884       -13533943.123378158        1131390786.3986571     
  -1863552997.3141711       -18383935.242714405        1136771079.3361347     
  -2532002053.8019915       -4946576.4498944283        1024542279.0894048     
  -2423858128.9240756       -6321116.7192937136        1016748740.6665121     
  -2315941545.7130580       -8453462.5450129509        1013172038.0734861     
  -2208252304.1689477       -11343613.927080035        1013812171.3103262     
  -2100790404.2917275       -14991570.865463853        1018669140.3770334     
  -2813845657.8185039       -3676596.5577452183        906594609.29169917     
  -2694906600.4286194       -5210835.1055574417        898705939.26337051     
  -2576066671.6561074       -7075502.3779376745        894941234.94016886     
  -2457325871.5009646       -9270598.3748826981        895300496.32209468     
  -2338684199.9631877       -11796123.096387744        899783723.40915346     
  -3095284277.6747651       -2285121.4175183773        787265133.92073739     
  -2965815430.9864478       -4058661.2078126669        779430914.17808807     
  -2836317499.8659716       -5735252.8909035921        775627790.01583171     
  -2706790484.3133349       -7314896.4667844772        775855761.43396592     
  -2577234384.3285332       -8797591.9354724884        780114828.43249047     
  -3376317913.3707681       -772151.02922034264        666553852.97652364     
  -3236584620.5975580       -2864595.0260440111        658923665.41067624     
  -3096694030.3426552       -4432714.0839062929        655231703.30047715     
  -2956646142.6060681       -5476508.2028156519        655477966.64593053     
  -2816440957.3877883       -5995977.3827431202        659662455.44704175     
  -1863552997.3141711       -18383935.242714405        1136771079.3361347     
  -1763184272.4897637       -22609510.487570286        1129304537.8966489     
  -1662909112.7765725       -27146969.436477840        1126105328.4506030     
  -1562727518.1745903       -31996312.089426994        1127173450.9979966     
  -1462639488.6838284       -37157538.446428061        1132508905.5388341     
  -2100790404.2917275       -14991570.865463853        1018669140.3770334     
  -1989348035.9009597       -18066184.439932585        1010671089.4850430     
  -1878087642.6719694       -21747381.886992216        1006658287.4190364     
  -1767009224.6047490       -26035163.206625819        1006630734.1790065     
  -1656112781.6993108       -30929528.398844063        1010588429.7649590     
  -2338684199.9631877       -11796123.096387744        899783723.40915346     
  -2216974139.9130859       -13961560.572582245        891151018.00567198     
  -2095534465.0753276       -17028282.089894176        886221478.26071107     
  -1974365175.4499054       -20996287.648330331        884995104.17427027     
  -1853466271.0368054       -25865577.247870326        887471895.74634075     
  -2577234384.3285332       -8797591.9354724884        780114828.43249047     
  -2446062584.5261378       -10295638.885499001        770744323.45852792     
  -2315249579.9866409       -12989670.045183063        764794900.97563076     
  -2184795370.7100286       -16879685.414518356        762266560.98378098     
  -2054699956.6963308       -21965684.993502617        763159303.48300052     
  -2816440957.3877883       -5995977.3827431202        659662455.44704175     
  -2676613369.7401223       -7068419.3787086010        649451005.84361362     
  -2537232987.4059052       -9631545.7528505325        642378555.56378710     
  -2398299810.3851585       -13685356.505213380        638445104.60755646     
  -2259813838.6778593       -19229851.635735750        637650652.97492099     
  -5957962931.7506285       -1787388879.5251887        1150084943.4823208     
  -6088422736.2966747       -1502240783.7711635        1227944876.9732192     
  -6221611469.8902044       -1226189118.1754127        1268437330.6787841     
  -6357529132.5312157       -959233882.73793483        1271562304.5990150     
  -6496175724.2197084       -701375077.45873046        1237319798.7339127     
  -6810561244.2659912       -2043168373.2797973        1353813250.3230255     
  -6828512418.1791420       -1395488175.8141189        1202775076.4107392     
  -6897824075.4497805       -919009589.54005885        1091988228.5294785     
  -7018496216.0779028       -613732614.45761800        1021452706.6792430     
  -7190528840.0635128       -479657250.56679487        991168510.86003208     
  -8337889136.9960194       -2501366741.0988059        1712363622.5067902     
  -8021563663.6581078       -1424624036.9360240        1275690527.8296492     
  -7805230227.9876871       -681188124.99820471        956887564.99989152     
  -7688888829.9847527       -271059005.28534985        755954734.01751840     
  -7672539469.6493092       -194236677.79745865        672892034.88252878     
  -10539946609.940712       -3161983982.9822140        2225736060.0336151     
  -9667576472.7335682       -1589648367.1368775        1446691231.2299480     
  -8943829927.5039234       -512724724.54985094        863135340.09002364     
  -8368706974.2517643        68786944.778870583        475068386.61384225     
  -7942207612.9770985        154886640.84928083        282490370.80140221     
  -13416733663.100069       -4025020098.9300208        2893930562.9035006     
  -11766550845.405531       -1890561166.4166811        1715777186.6116371     
  -10313623173.998487       -413619388.19499350        810731553.79987419     
  -9057950648.8789368        405805235.73504066        178793664.46821374     
  -7999533270.0468855        567712705.37342262       -180036481.38334566     
  -6496175724.2197084       -701375077.45873046        1237319798.7339127     
  -6239297217.2115450       -375881969.68344474        1053173390.9146864     
  -6013331469.3622217       -153431392.43761325        908033529.57653034     
  -5818278480.6717310       -34023345.721231461        801900214.71944606     
  -5654138251.1400766       -17657829.534302235        734773446.34343112     
  -7190528840.0635128       -479657250.56679487        991168510.86003208     
  -6900577407.9237185       -304337274.73565483        846868750.41113603     
  -6623452704.4466410       -171773061.11356568        723658493.26184320     
  -6359154729.6322784       -81964609.700527191        621537739.41215146     
  -6107683483.4806309       -34911920.496536970        540506488.86206567     
  -7672539469.6493092       -194236677.79745865        672892034.88252878     
  -7400706664.3249331       -184447299.49457884        589539290.71610415     
  -7123614557.1671562       -157126915.08034801        509359006.66781449     
  -6841263148.1759729       -112275524.55476451        432351182.73765904     
  -6553652437.3513813       -49893127.917827845        358515818.92563969     
  -7942207612.9770985        154886640.84928083        282490370.80140221     
  -7739684986.4151974       -16212043.960217476        281185011.82959050     
  -7513817027.5237684       -109492954.33795881        265135069.79444626     
  -7264603736.3028135       -124956090.28394318        234340544.69596684     
  -6992045112.7523317       -62601451.798182011        188801436.53415531     
  -7999533270.0468855        567712705.37342262       -180036481.38334566     
  -7917512374.1945047        200368491.86743450       -78194086.248404324     
  -7794060115.5164738       -28871178.886396885       -9013317.3582641035     
  -7629176494.0127993       -120006306.88807297        27505825.287072960     
  -7422861509.6834774       -73036892.137588978        31363341.687612027     
  -5654138251.1400766       -17657829.534302235        734773446.34343112     
  -5520135544.9705048       -49037390.100613594        721608859.71052504     
  -5380739081.6715136       -62437760.235529900        710284186.82172084     
  -5235948861.2431021       -57858939.939045429        700799427.67701530     
  -5085764883.6852732       -35300929.211166143        693154582.27641201     
  -6107683483.4806309       -34911920.496536970        540506488.86206567     
  -5959140017.6974220       -36626007.875135183        534071793.11743945     
  -5809564400.7056026       -34899591.225029707        530136504.90357375     
  -5658956632.5051765       -29732670.546223164        528700624.22047222     
  -5507316713.0961332       -21125245.838707924        529764151.06813222     
  -6553652437.3513813       -49893127.917827845        358515818.92563969     
  -6388683943.9926491       -21376461.720148325        353722473.82835078     
  -6227044905.3461123       -3957977.8964571953        352088030.04848564     
  -6068735321.4117737        2362323.5532426834        353612487.58604157     
  -5913755192.1896276       -2415557.3710367680        358295846.44102412     
  -6992045112.7523317       -62601451.798182011        188801436.53415531     
  -6808767323.8561821       -3288751.6356534958        180560901.84325814     
  -6633180595.5930386        30387079.750188351        176138762.25645024     
  -6465284927.9628963        38426042.359357834        175535017.77372679     
  -6305080320.9657631        20828136.191836596        178749668.39508909     
  -7422861509.6834774       -73036892.137588978        31363341.687612027     
  -7219390157.2880239        17637122.378349781        14587077.162171723     
  -7027971471.4463797        68135581.714917183        2288701.5274734749     
  -6848605452.1585503        78458485.872102737       -5531785.2164765541     
  -6681292099.4245310        48605834.849928379       -8874383.0696782824     
  -5085764883.6852732       -35300929.211166143        693154582.27641201     
  -4935101974.5330362       -8965148.6351728439        675920841.84835255     
  -4787436718.9696941        7378453.3111722469        665399136.88328791     
  -4642769116.9952497        13729876.627862215        661589467.38122356     
  -4501099168.6097002        10089121.314897299        664491833.34215355     
  -5507316713.0961332       -21125245.838707924        529764151.06813222     
  -5345379373.9131994       -9447384.3858199120        514777719.31556910     
  -5184486574.4136915       -1251321.8776707649        505134487.30587453     
  -5024638314.5976057        3462941.6857378483        500834455.03904974     
  -4865834594.4649401        4695406.3044121265        501877622.51509273     
  -5913755192.1896276       -2415557.3710367680        358295846.44102412     
  -5744454382.1763668       -6568902.8013718128        347835356.25367635     
  -5574244997.9410534       -7693667.4915251732        341349230.08907157     
  -5403127039.4836884       -5789851.4415049553        338837467.94720870     
  -5231100506.8042650       -857454.65130019188        340300069.82808691     
  -6305080320.9657631        20828136.191836596        178749668.39508909     
  -6132326999.3225336       -329703.88182234764        175093752.66267437     
  -5956711989.5517769       -11948583.530384779        174043365.23287866     
  -5778235291.6534948       -14028502.753864050        175598506.10570160     
  -5596896905.6276789       -6569461.5522351265        179759175.28113702     
  -6681292099.4245310        48605834.849928379       -8874383.0696782824     
  -6508997225.3516998        9270212.3728287220       -3447091.4574309569     
  -6331887549.2458630       -14016069.994259119        3216892.7373050302     
  -6149963071.1070251       -21253012.251338959        11117569.514526075     
  -5963223790.9351826       -12440614.398400068        20254938.874238502     
  -4501099168.6097002        10089121.314897299        664491833.34215355     
  -4361681899.0072060        2611603.4988653660        660180792.46335626     
  -4221351124.5200896       -1820898.0350902081        659389734.51939631     
  -4080106845.1483507       -3208383.2869691849        662118659.51026785     
  -3937949060.8919930       -1550852.2567903996        668367567.43597686     
  -4865834594.4649401        4695406.3044121265        501877622.51509273     
  -4715675314.8424473        2143090.8972871304        498108121.64463753     
  -4565257065.5625277        454007.68160438538        497945137.29882264     
  -4414579846.6251698       -371843.34262442589        501388669.47765589     
  -4263643658.0303822       -334462.17541241646        508438718.18113053     
  -5231100506.8042650       -857454.65130019188        340300069.82808691     
  -5069951978.3337526        1589603.9988901615        336308484.53425312     
  -4909199015.4329929        2718110.7499003410        336009949.35486776     
  -4748841618.1019897        2528065.6017260551        339404464.28994370     
  -4588879786.3407402        1019468.5543761253        346492029.33946681     
  -5596896905.6276789       -6569461.5522351265        179759175.28113702     
  -5424511889.4811201        951142.80367612839        174781881.13220093     
  -5253176974.1315022        4971411.1697704792        173584170.68753308     
  -5082892159.5788193        5491343.5460793972        176166043.94711977     
  -4913657445.8230886        2510939.9325637817        182527500.91097778     
  -5963223790.9351826       -12440614.398400068        20254938.874238502     
  -5779355048.2845478        227707.31163215637        13528311.438484661     
  -5597190941.6580391        7213908.9412410259        10667801.296806253     
  -5416731471.0556602        8517990.4904189110        11673408.449200476     
  -5237976636.4774122        4139951.9591584206        16545132.895664847     
  -3937949060.8919930       -1550852.2567903996        668367567.43597686     
  -3796966822.0812111        558662.81836104393        661428822.69708097     
  -3656367551.2240758        1391618.0480086803        658813622.04087138     
  -3516151248.3205967        948013.43214654922        660521965.46735275     
  -3376317913.3707681       -772151.02922034264        666553852.97652364     
  -4263643658.0303822       -334462.17541241646        508438718.18113053     
  -4111898200.5836821        145610.38744688034        501367030.66198814     
  -3960279903.5152550        201815.02273917198        498627223.20600390     
  -3808788766.8250957       -165848.26953482628        500219295.81317610     
  -3657424790.5132036       -957379.48936104774        506143248.48350358     
  -4588879786.3407402        1019468.5543761253        346492029.33946681     
  -4426347293.1710825       -122756.26895952225        339585841.21135604     
  -4263686152.8043098       -836157.10189676285        337019869.12687063     
  -4100896365.2404251       -1120733.9444651604        338794113.08601624     
  -3937977930.4794211       -976486.79664444923        344908573.08878332     
  -4913657445.8230886        2510939.9325637817        182527500.91097778     
  -4740314099.8434143       -246437.15083003044        176085254.34518132     
  -4566586299.0912457       -1722298.3259065151        173991559.80348086     
  -4392474043.5665751       -1916643.5926485062        176246417.28587735     
  -4217977333.2694082       -829472.95105290413        182849826.79236546     
  -5237976636.4774122        4139951.9591584206        16545132.895664847     
  -5053798620.6006765       -225432.25820279121        10865270.063469950     
  -4868980342.3760529       -2456608.6492531300        9542295.2358317133     
  -4683521801.8035545       -2553577.2140767574        12576208.412758939     
  -4497422998.8831730       -516337.95259785652        19967009.594246987     
  -3376317913.3707681       -772151.02922034264        666553852.97652364     
  -3236584620.5975580       -2864595.0260440111        658923665.41067624     
  -3096694030.3426552       -4432714.0839062929        655231703.30047715     
  -2956646142.6060681       -5476508.2028156519        655477966.64593053     
  -2816440957.3877883       -5995977.3827431202        659662455.44704175     
  -3657424790.5132036       -957379.48936104774        506143248.48350358     
  -3507055718.8710847       -2154506.6561796665        498880753.86911035     
  -3356630118.4195156       -3163204.4581825733        495654790.58361650     
  -3206147989.1585054       -3983472.8953789473        496465358.62701219     
  -3055609331.0880575       -4615311.9677696228        501312457.99930251     
  -3937977930.4794211       -976486.79664444923        344908573.08878332     
  -3776692206.0448356       -1194034.9563648701        337896207.97489631     
  -3615450721.4730558       -1559049.3254559040        335018680.06314927     
  -3454253476.7640834       -2071529.9038908482        336275989.35352957     
  -3293100471.9179149       -2731476.6916825771        341668135.84604901     
  -4217977333.2694082       -829472.95105290413        182849826.79236546     
  -4045494082.1188202        16820.073361158371        175970027.72802824     
  -3873155839.5032783        379751.31427264214        173323371.73906836     
  -3700962605.4227953        259320.77166008949        174909858.82547832     
  -3528914379.8773670       -344471.55446219444        180729488.98727438     
  -4497422998.8831730       -516337.95259785652        19967009.594246987     
  -4313461347.0930271        1478058.4330301285        13102213.128506603     
  -4129745472.5101929        2653197.4609704018        10568865.611379698     
  -3946275375.1346526        3009079.1312582493        12366967.042871401     
  -3763051054.9664116        2545703.4438736439        18496517.422974020     
  -2816440957.3877883       -5995977.3827431202        659662455.44704175     
  -2676613369.7401223       -7068419.3787086010        649451005.84361362     
  -2537232987.4059052       -9631545.7528505325        642378555.56378710     
  -2398299810.3851585       -13685356.505213380        638445104.60755646     
  -2259813838.6778593       -19229851.635735750        637650652.97492099     
  -3055609331.0880575       -4615311.9677696228        501312457.99930251     
  -2907369271.3752136       -6125124.6316096783        491468768.43396223     
  -2759309956.3514910       -8237419.5925183296        485058143.59543419     
  -2611431386.0168920       -10952196.850498199        482080583.48372716     
  -2463733560.3714027       -14269456.405515671        482536088.09883428     
  -3293100471.9179149       -2731476.6916825771        341668135.84604901     
  -3135607753.2735596       -4426603.9635038376        332503077.04718488     
  -2978029318.6939859       -5836011.4512654543        327065148.37835872     
  -2820365168.1791964       -6959699.1549543142        325354349.83957076     
  -2662615301.7291756       -7797667.0745646954        327370681.43080568     
  -3528914379.8773670       -344471.55446219444        180729488.98727438     
  -3361328815.4351621       -1972857.3743665218        172553931.68328261     
  -3193391074.4333963       -2427321.3290872574        168399569.91255188     
  -3025101156.8720684       -1707863.4185807705        168266403.67507210     
  -2856459062.7511759        185516.35711812973        172154432.97084710     
  -3763051054.9664116        2545703.4438736439        18496517.422974020     
  -3584532457.8600035        1236115.1358189583        11621332.342264086     
  -3405395223.5697098        1988650.7740416527        9061408.1980163660     
  -3225639352.0955234        4803310.3586053848        10816744.990254560     
  -3045264843.4374118        9680093.8895301819        16887342.718956251     
 </DataArray>
 <DataArray  type="Float64" Name="VM" NumberOfComponents="1" format="ascii">
   12935664213.173624     
   11340733234.328129     
   10210183466.631853     
   9272691797.2836628     
   8303824801.3460913     
   10130309862.653875     
   9322001726.4641399     
   8826339304.8538303     
   8443501392.4359808     
   8035682667.0125017     
   7982335484.2273254     
   7734952088.7691631     
   7669139942.9703903     
   7669598721.2565918     
   7666397608.6852818     
   6491655341.6564684     
   6586870608.1899014     
   6757418442.1661110     
   6961219269.6637716     
   7171612917.2219877     
   5657823852.4558220     
   5890915693.4584732     
   6116364650.6133404     
   6331710751.5703230     
   6536730921.5088034     
   8303824801.3460913     
   8020717716.3753786     
   7779680368.9858847     
   7570036717.5161123     
   7386813631.0630322     
   8035682667.0125017     
   7746915866.1694927     
   7473795208.5858440     
   7214365631.2219229     
   6968632546.7272701     
   7666397608.6852818     
   7381199719.8319445     
   7101380248.8628397     
   6827017173.1126003     
   6558312904.2859430     
   7171612917.2219877     
   6911009105.6035471     
   6658299017.7875385     
   6409623149.6835585     
   6161836350.3941088     
   6536730921.5088034     
   6328696569.2817516     
   6142852546.1851559     
   5965290992.8263683     
   5787005046.1705770     
   7386813631.0630322     
   7228269013.0791445     
   7062286888.6555681     
   6888176492.1424150     
   6705744752.5735636     
   6968632546.7272701     
   6814303901.1943521     
   6655422282.9999685     
   6491706917.1714869     
   6323104385.2297068     
   6558312904.2859430     
   6407380962.2804518     
   6254866533.6739769     
   6100738944.6738873     
   5945027252.4550228     
   6161836350.3941088     
   6012497795.8828716     
   5864523785.0355673     
   5717953423.7667885     
   5572844013.7251406     
   5787005046.1705770     
   5636112676.2250624     
   5489426301.5326710     
   5346860873.1569605     
   5208465052.7814999     
   6705744752.5735636     
   6513640015.1629467     
   6324893615.6166220     
   6139394353.1005793     
   5957116531.0902157     
   6323104385.2297068     
   6139656842.8329468     
   5958377253.9945107     
   5779242545.3906202     
   5602273610.9314623     
   5945027252.4550228     
   5772697189.4157715     
   5601690636.8828144     
   5432031343.0638180     
   5263776232.6439314     
   5572844013.7251406     
   5414578316.9738331     
   5257175828.7800293     
   5100677177.3348360     
   4945185422.3382816     
   5208465052.7814999     
   5067709038.9278030     
   4927798361.5212784     
   4788772295.7068005     
   4650812385.0469990     
   5957116531.0902157     
   5779516404.5323296     
   5600831858.6216841     
   5421033191.0822859     
   5240126199.0035152     
   5602273610.9314623     
   5433427624.0301695     
   5264257130.0635815     
   5094785392.2508450     
   4925070818.2802649     
   5263776232.6439314     
   5104094924.1555777     
   4944926103.1356325     
   4786344603.0211296     
   4628462717.8436441     
   4945185422.3382816     
   4795001511.0097876     
   4646234283.9221525     
   4499004959.0006924     
   4353476899.7132139     
   4650812385.0469990     
   4510341763.9662619     
   4372242725.0855598     
   4236672629.7036824     
   4103837673.1848564     
   5240126199.0035152     
   5053720948.5479317     
   4867780562.3121004     
   4682296204.3985262     
   4497297828.9315414     
   4925070818.2802649     
   4749992388.3355312     
   4575660341.6293507     
   4402113298.6033459     
   4229436955.1764979     
   4628462717.8436441     
   4465194580.7950754     
   4303045709.1985407     
   4142113059.3226371     
   3982550881.6964993     
   4353476899.7132139     
   4202667279.9357867     
   4053455750.5451736     
   3906007968.2767086     
   3760558261.1049495     
   4103837673.1848564     
   3966300901.9497180     
   3830955499.2151237     
   3698042949.5395255     
   3567884293.9562821     
   4497297828.9315414     
   4314260254.8879061     
   4131113271.7460423     
   3947838889.9406753     
   3764460882.0801392     
   4229436955.1764979     
   4056967682.3093338     
   3884962048.9952736     
   3713470667.6601686     
   3542599422.3608165     
   3982550881.6964993     
   3821180117.1155891     
   3660951001.4156375     
   3501993776.2703953     
   3344508110.1536231     
   3760558261.1049495     
   3610891095.1251364     
   3463145833.2773433     
   3317538657.9116464     
   3174367595.7190056     
   3567884293.9562821     
   3430562329.2697406     
   3296026783.6192942     
   3164577127.8377028     
   3036602042.3069496     
   3764460882.0801392     
   3585207187.2953434     
   3406426149.1486454     
   3228098065.8908906     
   3050256669.1580539     
   3542599422.3608165     
   3373607634.8912444     
   3205475991.7220054     
   3038258423.8749828     
   2872072391.4624085     
   3344508110.1536231     
   3185882982.5681958     
   3028568591.6817498     
   2872707016.5833540     
   2718516796.8743348     
   3174367595.7190056     
   3026491409.1589279     
   2880446824.8091083     
   2736475471.0331726     
   2594909205.4230323     
   3036602042.3069496     
   2900129220.6774502     
   2766072515.0615191     
   2634775921.0640006     
   2506684579.5209703     
   5657823852.4558220     
   5890915693.4584732     
   6116364650.6133404     
   6331710751.5703230     
   6536730921.5088034     
   5151471132.7069464     
   5311331007.7538319     
   5467819958.0097570     
   5618041503.3390398     
   5760529403.4354477     
   4643502057.2778864     
   4755542155.8707647     
   4868704649.4019098     
   4980354106.8157616     
   5088564768.4986429     
   4134180147.6150246     
   4224386814.1758876     
   4320514229.8612719     
   4420905973.1736927     
   4524107678.3984480     
   3625025876.4881215     
   3719689670.2267113     
   3825607183.5033793     
   3942716202.1845870     
   4070925284.0565858     
   6536730921.5088034     
   6328696569.2817516     
   6142852546.1851559     
   5965290992.8263683     
   5787005046.1705770     
   5760529403.4354477     
   5652107475.2536964     
   5559687392.9503555     
   5474208719.4061813     
   5390132079.1309481     
   5088564768.4986429     
   5054018688.6510601     
   5029983826.3103256     
   5011254470.4770861     
   4994630087.9277487     
   4524107678.3984480     
   4539025851.1349573     
   4558610788.1630487     
   4580382347.8259211     
   4602617125.4151554     
   4070925284.0565858     
   4112456557.9589052     
   4151332723.7412953     
   4186654096.7481942     
   4217687518.6555738     
   5787005046.1705770     
   5636112676.2250624     
   5489426301.5326710     
   5346860873.1569605     
   5208465052.7814999     
   5390132079.1309481     
   5248650549.7145853     
   5110399330.4365187     
   4975420959.5827503     
   4843810301.4043150     
   4994630087.9277487     
   4866994333.4927931     
   4742557683.5400009     
   4621288829.2742357     
   4503229286.6896286     
   4602617125.4151554     
   4493816275.0068893     
   4389245662.2618656     
   4288588957.8500261     
   4191757414.8026934     
   4217687518.6555738     
   4133085327.9704967     
   4054987314.7600646     
   3982543789.8503399     
   3915461638.0634212     
   5208465052.7814999     
   5067709038.9278030     
   4927798361.5212784     
   4788772295.7068005     
   4650812385.0469990     
   4843810301.4043150     
   4720072297.9336309     
   4598073349.3893042     
   4477941654.7987375     
   4359918831.4950752     
   4503229286.6896286     
   4395106064.4649372     
   4289540495.8767381     
   4186717093.6877651     
   4086904326.1031389     
   4191757414.8026934     
   4097723353.2976699     
   4006930468.0482950     
   3919586360.9482560     
   3835955491.0285954     
   3915461638.0634212     
   3833832478.8127494     
   3755924225.7609339     
   3681936571.3947468     
   3612105354.2160006     
   4650812385.0469990     
   4510341763.9662619     
   4372242725.0855598     
   4236672629.7036824     
   4103837673.1848564     
   4359918831.4950752     
   4230649852.9459715     
   4104144661.4115062     
   3980613682.2900095     
   3860325663.5672894     
   4086904326.1031389     
   3970129109.5656309     
   3856698537.9590387     
   3746878261.2051549     
   3641004069.9984803     
   3835955491.0285954     
   3733001835.8295817     
   3634173376.2736206     
   3539786707.3868666     
   3450240991.0452003     
   3612105354.2160006     
   3524237945.0557461     
   3441471824.2850246     
   3364159125.9410186     
   3292745380.7129445     
   4103837673.1848564     
   3966300901.9497180     
   3830955499.2151237     
   3698042949.5395255     
   3567884293.9562821     
   3860325663.5672894     
   3735807857.8851881     
   3614246402.1431823     
   3495943257.7572303     
   3381283195.8652983     
   3641004069.9984803     
   3529911072.8419065     
   3422588142.2768564     
   3319385878.7351675     
   3220735456.5759978     
   3450240991.0452003     
   3352867083.0329452     
   3260091079.6758728     
   3172291390.1353164     
   3089918246.3718834     
   3292745380.7129445     
   3209166860.3602695     
   3130978656.2672729     
   3058558182.1664739     
   2992340021.3635793     
   3567884293.9562821     
   3430562329.2697406     
   3296026783.6192942     
   3164577127.8377028     
   3036602042.3069496     
   3381283195.8652983     
   3256774178.4720559     
   3135802649.6262283     
   3018745571.6025481     
   2906076125.4987855     
   3220735456.5759978     
   3109907252.0630689     
   3003448356.9776049     
   2901800206.0595002     
   2805499558.9124694     
   3089918246.3718834     
   2993516443.6118903     
   2902349343.8800511     
   2816895935.3741641     
   2737720105.4049702     
   2992340021.3635793     
   2910842802.4404202     
   2835414661.3338537     
   2766534208.9831977     
   2704746525.7452950     
   3036602042.3069496     
   2900129220.6774502     
   2766072515.0615191     
   2634775921.0640006     
   2506684579.5209703     
   2906076125.4987855     
   2782136738.1980758     
   2661805543.6377382     
   2545562417.9415612     
   2434004499.4046764     
   2805499558.9124694     
   2695675658.8684559     
   2590759895.9783998     
   2491335659.3201227     
   2398100161.8681598     
   2737720105.4049702     
   2643153462.0132656     
   2554784801.5946293     
   2473239044.2331347     
   2399231195.2355614     
   2704746525.7452950     
   2625919164.3354068     
   2554447174.9673920     
   2490923425.8574152     
   2435995923.8406544     
   3625025876.4881215     
   3719689670.2267113     
   3825607183.5033793     
   3942716202.1845870     
   4070925284.0565858     
   3138008142.8769579     
   3255515572.6786938     
   3382441265.2241259     
   3518317482.1898885     
   3662687577.2881470     
   2694784801.9855900     
   2830526538.4970059     
   2973580420.0495133     
   3122865271.1255865     
   3277470958.8662057     
   2298844869.9401560     
   2449514836.0321174     
   2604906396.6179667     
   2763097686.4089618     
   2922659364.8073320     
   1955397130.0753143     
   2119434528.2317843     
   2284828011.7456570     
   2448617464.6154056     
   2608844627.4214873     
   4070925284.0565858     
   4112456557.9589052     
   4151332723.7412953     
   4186654096.7481942     
   4217687518.6555738     
   3662687577.2881470     
   3702164602.1572175     
   3740256390.3979726     
   3776062798.0912509     
   3808833488.2512169     
   3277470958.8662057     
   3320761976.0230789     
   3364291612.3796988     
   3407236051.9180207     
   3448916574.4119515     
   2922659364.8073320     
   2975632833.7953405     
   3030825838.2282782     
   3087556005.7897744     
   3145290273.5060992     
   2608844627.4214873     
   2676828232.2041469     
   2749315639.8023109     
   2825799021.3807216     
   2905925921.2866187     
   4217687518.6555738     
   4133085327.9704967     
   4054987314.7600646     
   3982543789.8503399     
   3915461638.0634212     
   3808833488.2512169     
   3755716079.7797441     
   3708599092.8071456     
   3667009706.4809480     
   3630854152.8321881     
   3448916574.4119515     
   3422694138.3140335     
   3401589104.1806893     
   3385373260.8832741     
   3374032616.6702394     
   3145290273.5060992     
   3141643013.4313164     
   3141637620.9100337     
   3145174831.5948939     
   3152242089.1738033     
   2905925921.2866187     
   2920869511.0267072     
   2937202473.2966361     
   2954871423.0305290     
   2973838584.7962241     
   3915461638.0634212     
   3833832478.8127494     
   3755924225.7609339     
   3681936571.3947468     
   3612105354.2160006     
   3630854152.8321881     
   3560516621.7083955     
   3494603806.4645786     
   3433338463.3258853     
   3376984874.6472349     
   3374032616.6702394     
   3316168788.0747046     
   3263620030.3649473     
   3216613818.5933433     
   3175425248.1071310     
   3152242089.1738033     
   3107729334.6910925     
   3069593429.7169991     
   3038036936.3932948     
   3013316681.8866038     
   2973838584.7962241     
   2942963520.7907381     
   2919663855.0371361     
   2904078669.7482901     
   2896409831.6399431     
   3612105354.2160006     
   3524237945.0557461     
   3441471824.2850246     
   3364159125.9410186     
   3292745380.7129445     
   3376984874.6472349     
   3304929446.1735792     
   3238552695.5788236     
   3178193809.5031576     
   3124262424.1415625     
   3175425248.1071310     
   3118292903.1324158     
   3067299845.9059920     
   3022744802.3807249     
   2984973127.4760032     
   3013316681.8866038     
   2969873680.9900775     
   2932862547.5934052     
   2902519171.8535137     
   2879104944.5536442     
   2896409831.6399431     
   2864978171.5516911     
   2840062208.5263009     
   2821823972.2696700     
   2810435701.8786354     
   3292745380.7129445     
   3209166860.3602695     
   3130978656.2672729     
   3058558182.1664739     
   2992340021.3635793     
   3124262424.1415625     
   3053642492.9774985     
   2989122094.8716984     
   2931069509.1144462     
   2879899991.8258324     
   2984973127.4760032     
   2927255248.7699981     
   2876330983.7421818     
   2832533447.0770617     
   2796230014.5681314     
   2879104944.5536442     
   2833765846.0825706     
   2795863072.9073005     
   2765670280.0942159     
   2743482921.7676601     
   2810435701.8786354     
   2776365420.6067233     
   2750297994.3385754     
   2732431837.0788651     
   2722977682.8329124     
   2992340021.3635793     
   2910842802.4404202     
   2835414661.3338537     
   2766534208.9831977     
   2704746525.7452950     
   2879899991.8258324     
   2812778779.9242792     
   2752456339.0504518     
   2699372301.7855325     
   2654011229.9856176     
   2796230014.5681314     
   2742984130.5465703     
   2697145986.1313152     
   2659084901.4353399     
   2629194586.4703894     
   2743482921.7676601     
   2703076411.9056673     
   2670541028.4278274     
   2646156350.6831608     
   2630210870.3870006     
   2722977682.8329124     
   2693816003.8863578     
   2672846568.5988684     
   2660255816.1384945     
   2656230390.2170095     
   2704746525.7452950     
   2625919164.3354068     
   2554447174.9673920     
   2490923425.8574152     
   2435995923.8406544     
   2654011229.9856176     
   2590283729.1561947     
   2534586139.8336339     
   2487432942.9864612     
   2449365149.0647254     
   2629194586.4703894     
   2579890222.5645676     
   2539117632.6399980     
   2507284869.8817825     
   2484805096.1103158     
   2630210870.3870006     
   2594121447.6001377     
   2566902740.3720150     
   2548848515.6243792     
   2540246033.4557443     
   2656230390.2170095     
   2631683592.3513360     
   2616225269.6168551     
   2610044822.7767015     
   2613322093.0387244     
   1955397130.0753143     
   2119434528.2317843     
   2284828011.7456570     
   2448617464.6154056     
   2608844627.4214873     
   1653929498.5343640     
   1820361319.6828353     
   1988490567.1722522     
   2155621103.4098463     
   2319995024.8490276     
   1393773381.1898901     
   1571131934.0041051     
   1749496143.7659700     
   1926862628.8607054     
   2101981196.2323992     
   1207241888.6043763     
   1399166651.3081217     
   1590669553.0982223     
   1780973966.2169642     
   1969621404.3340425     
   1137014003.8100262     
   1335312818.6364779     
   1533920296.8170364     
   1732836438.3517010     
   1932061243.2404714     
   2608844627.4214873     
   2676828232.2041469     
   2749315639.8023109     
   2825799021.3807216     
   2905925921.2866187     
   2319995024.8490276     
   2407084016.1724033     
   2496608597.6336241     
   2588179933.4445252     
   2681523059.4322877     
   2101981196.2323992     
   2205766571.0898843     
   2309454708.6048493     
   2412809938.4059911     
   2515665789.6285114     
   1969621404.3340425     
   2086807393.6985159     
   2201133565.0683770     
   2312525062.6618013     
   2420929854.5723629     
   1932061243.2404714     
   2058760148.3180251     
   2180027624.2670445     
   2295863671.0875292     
   2406268288.7794795     
   2905925921.2866187     
   2920869511.0267072     
   2937202473.2966361     
   2954871423.0305290     
   2973838584.7962241     
   2681523059.4322877     
   2703337950.0817947     
   2727565553.7079282     
   2754189914.1265235     
   2783204492.7486320     
   2515665789.6285114     
   2544204349.1821761     
   2576201670.0740099     
   2611660174.6920495     
   2650586333.2911725     
   2420929854.5723629     
   2454578924.9709172     
   2492729837.8313737     
   2535386189.0817971     
   2582552422.6879649     
   2406268288.7794795     
   2441868257.4019656     
   2483001163.5581522     
   2529667007.2480388     
   2581865788.4716253     
   2973838584.7962241     
   2942963520.7907381     
   2919663855.0371361     
   2904078669.7482901     
   2896409831.6399431     
   2783204492.7486320     
   2766876148.5114508     
   2757831349.8871427     
   2756155911.8369946     
   2761968490.1536798     
   2650586333.2911725     
   2645788835.3269029     
   2647703338.5820370     
   2656367352.8795686     
   2671831519.3439569     
   2582552422.6879649     
   2585862825.3891797     
   2595046414.3746462     
   2610111334.3393164     
   2631068649.9838643     
   2581865788.4716253     
   2589790013.9570498     
   2602534226.2096796     
   2620098425.2295184     
   2642482611.0165658     
   2896409831.6399431     
   2864978171.5516911     
   2840062208.5263009     
   2821823972.2696700     
   2810435701.8786354     
   2761968490.1536798     
   2738896103.1143041     
   2722952454.9770246     
   2714248057.0172138     
   2712898446.8683329     
   2671831519.3439569     
   2655295288.2400432     
   2646443437.5747004     
   2645333077.4982381     
   2652023059.9751410     
   2631068649.9838643     
   2618513549.3359880     
   2614132930.8682356     
   2617942658.8601627     
   2629958921.3203783     
   2642482611.0165658     
   2630785488.4115825     
   2627687339.0846744     
   2633188163.0358429     
   2647287960.2650909     
   2810435701.8786354     
   2776365420.6067233     
   2750297994.3385754     
   2732431837.0788651     
   2722977682.8329124     
   2712898446.8683329     
   2688755521.0165210     
   2672700450.0615244     
   2664852029.6991882     
   2665333789.7650199     
   2652023059.9751410     
   2635453845.0771275     
   2626960540.5926003     
   2626597418.3652816     
   2634419964.2350059     
   2629958921.3203783     
   2618236912.8077207     
   2614504575.0036082     
   2618775385.9318652     
   2631062970.4607272     
   2647287960.2650909     
   2637500980.5188937     
   2635567634.8418636     
   2641487923.2339997     
   2655261845.6953063     
   2722977682.8329124     
   2693816003.8863578     
   2672846568.5988684     
   2660255816.1384945     
   2656230390.2170095     
   2665333789.7650199     
   2644675923.4929061     
   2632371878.0008216     
   2628532641.5401497     
   2633267144.8571329     
   2634419964.2350059     
   2620155791.6119571     
   2614370680.8576379     
   2617115740.9100738     
   2628440345.7596993     
   2631062970.4607272     
   2620762646.6742482     
   2619059634.0640831     
   2625966934.4476714     
   2641496975.2736955     
   2655261845.6953063     
   2646306258.2850957     
   2646083614.8686252     
   2654593915.4458885     
   2671837160.0168872     
   2656230390.2170095     
   2631683592.3513360     
   2616225269.6168551     
   2610044822.7767015     
   2613322093.0387244     
   2633267144.8571329     
   2617267750.5696225     
   2610339262.2126412     
   2612588616.1807146     
   2624115094.9160295     
   2628440345.7596993     
   2618877042.0556769     
   2618370084.6443129     
   2626966684.1356850     
   2644709888.6960125     
   2641496975.2736955     
   2636086085.2359467     
   2639757366.1001034     
   2652522477.6176238     
   2674391916.6805830     
   2671837160.0168872     
   2668213576.8752012     
   2673765666.3871794     
   2688493428.5528207     
   2712396863.3721080     
   1137014003.8100262     
   1335312818.6364779     
   1533920296.8170364     
   1732836438.3517010     
   1932061243.2404714     
   1207241888.5844879     
   1399166651.2882941     
   1590669553.0782557     
   1780973966.1966755     
   1969621404.3132770     
   1393773381.1570935     
   1571131933.9701655     
   1749496143.7307942     
   1926862628.8241177     
   2101981196.1941969     
   1653929498.4958749     
   1820361319.6415803     
   1988490567.1282563     
   2155621103.3629723     
   2319995024.7990584     
   1955397130.0362265     
   2119434528.1886535     
   2284828011.6985183     
   2448617464.5641069     
   2608844627.3657694     
   1932061243.2404714     
   2058760148.3180251     
   2180027624.2670445     
   2295863671.0875292     
   2406268288.7794795     
   1969621404.3132770     
   2086807393.6765733     
   2201133565.0452757     
   2312525062.6375761     
   2420929854.5470552     
   2101981196.1941969     
   2205766571.0492954     
   2309454708.5619464     
   2412809938.3608809     
   2515665789.5813165     
   2319995024.7990584     
   2407084016.1188645     
   2496608597.5766354     
   2588179933.3842702     
   2681523059.3689694     
   2608844627.3657694     
   2676828232.1438665     
   2749315639.7375922     
   2825799021.3117766     
   2905925921.2137079     
   2406268288.7794795     
   2441868257.4019656     
   2483001163.5581522     
   2529667007.2480388     
   2581865788.4716253     
   2420929854.5470552     
   2454578924.9449396     
   2492729837.8047414     
   2535386189.0545197     
   2582552422.6600518     
   2515665789.5813165     
   2544204349.1335497     
   2576201670.0239415     
   2611660174.6405253     
   2650586333.2381778     
   2681523059.3689694     
   2703337950.0162992     
   2727565553.6401839     
   2754189914.0564623     
   2783204492.6761770     
   2905925921.2137079     
   2920869510.9510579     
   2937202473.2180963     
   2954871422.9489489     
   2973838584.7114449     
   2581865788.4716253     
   2589790013.9570498     
   2602534226.2096796     
   2620098425.2295184     
   2642482611.0165658     
   2582552422.6600518     
   2585862825.3628788     
   2595046414.3499646     
   2610111334.3162322     
   2631068649.9623165     
   2650586333.2381778     
   2645788835.2772937     
   2647703338.5358548     
   2656367352.8368149     
   2671831519.3045478     
   2783204492.6761770     
   2766876148.4442444     
   2757831349.8252864     
   2756155911.7805271     
   2761968490.1025343     
   2973838584.7114449     
   2942963520.7131853     
   2919663854.9669614     
   2904078669.6855860     
   2896409831.5846624     
   2642482611.0165658     
   2630785488.4115825     
   2627687339.0846744     
   2633188163.0358429     
   2647287960.2650909     
   2631068649.9623165     
   2618513549.3196845     
   2614132930.8561234     
   2617942658.8511190     
   2629958921.3132100     
   2671831519.3045478     
   2655295288.2117791     
   2646443437.5555573     
   2645333077.4860415     
   2652023059.9675722     
   2761968490.1025343     
   2738896103.0809441     
   2722952454.9585900     
   2714248057.0106020     
   2712898446.8702025     
   2896409831.5846624     
   2864978171.5216866     
   2840062208.5180345     
   2821823972.2792821     
   2810435701.9019036     
   2647287960.2650909     
   2637500980.5188937     
   2635567634.8418636     
   2641487923.2339997     
   2655261845.6953063     
   2629958921.3132100     
   2618236912.7924352     
   2614504574.9779854     
   2618775385.8936796     
   2631062970.4077530     
   2652023059.9675722     
   2635453845.0526247     
   2626960540.5465169     
   2626597418.2929230     
   2634419964.1316671     
   2712898446.8702025     
   2688755520.9932351     
   2672700450.0057616     
   2664852029.6034918     
   2665333789.6218624     
   2810435701.9019036     
   2776365420.5984159     
   2750297994.2884984     
   2732431836.9765067     
   2722977682.6675439     
   2655261845.6953063     
   2646306258.2850957     
   2646083614.8686252     
   2654593915.4458885     
   2671837160.0168872     
   2631062970.4077530     
   2620762646.6063700     
   2619059633.9818954     
   2625966934.3517995     
   2641496975.1647620     
   2634419964.1316671     
   2620155791.4783859     
   2614370680.6949668     
   2617115740.7195063     
   2628440345.5424728     
   2665333789.6218624     
   2644675923.3036819     
   2632371877.7670445     
   2628532641.2634377     
   2633267144.5392270     
   2722977682.6675439     
   2693816003.6586637     
   2672846568.3104992     
   2660255815.7912498     
   2656230389.8128920     
   2671837160.0168872     
   2668213576.8752012     
   2673765666.3871794     
   2688493428.5528207     
   2712396863.3721080     
   2641496975.1647620     
   2636086085.2028422     
   2639757366.1452765     
   2652522477.7430034     
   2674391916.8875761     
   2628440345.5424728     
   2618877041.9631596     
   2618370084.6807899     
   2626966684.3047571     
   2644709889.0005293     
   2633267144.5392270     
   2617267750.3971324     
   2610339262.1910553     
   2612588616.3150606     
   2624115095.2108245     
   2656230389.8128920     
   2631683592.0851545     
   2616225269.4944291     
   2610044822.8040137     
   2613322093.2218509     
   1955397130.0362265     
   2119434528.1886535     
   2284828011.6985183     
   2448617464.5641069     
   2608844627.3657694     
   2298844869.9037790     
   2449514835.9912610     
   2604906396.5725589     
   2763097686.3588390     
   2922659364.7522793     
   2694784801.9540739     
   2830526538.4611530     
   2973580420.0091100     
   3122865271.0803933     
   3277470958.8159676     
   3138008142.8518062     
   3255515572.6497817     
   3382441265.1910968     
   3518317482.1523933     
   3662687577.2458386     
   3625025876.4704776     
   3719689670.2061954     
   3825607183.4795184     
   3942716202.1569104     
   4070925284.0246263     
   2608844627.3657694     
   2676828232.1438665     
   2749315639.7375922     
   2825799021.3117766     
   2905925921.2137079     
   2922659364.7522793     
   2975632833.7353840     
   3030825838.1633806     
   3087556005.7199645     
   3145290273.4314489     
   3277470958.8159676     
   3320761975.9678688     
   3364291612.3193359     
   3407236051.8523660     
   3448916574.3408899     
   3662687577.2458386     
   3702164602.1101937     
   3740256390.3459525     
   3776062798.0339684     
   3808833488.1884217     
   4070925284.0246263     
   4112456557.9228005     
   4151332723.7007031     
   4186654096.7027783     
   4217687518.6050081     
   2905925921.2137079     
   2920869510.9510579     
   2937202473.2180963     
   2954871422.9489489     
   2973838584.7114449     
   3145290273.4314489     
   3141643013.3536215     
   3141637620.8294449     
   3145174831.5115666     
   3152242089.0878735     
   3448916574.3408899     
   3422694138.2397432     
   3401589104.1035261     
   3385373260.8036180     
   3374032616.5884471     
   3808833488.1884217     
   3755716079.7135305     
   3708599092.7380004     
   3667009706.4093924     
   3630854152.7587233     
   4217687518.6050081     
   4133085327.9162283     
   4054987314.7026410     
   3982543789.7903666     
   3915461638.0014973     
   2973838584.7114449     
   2942963520.7131853     
   2919663854.9669614     
   2904078669.6855860     
   2896409831.5846624     
   3152242089.0878735     
   3107729334.6156631     
   3069593429.6524768     
   3038036936.3400645     
   3013316681.8449554     
   3374032616.5884471     
   3316168788.0060921     
   3263620030.3101640     
   3216613818.5530457     
   3175425248.0819340     
   3630854152.7587233     
   3560516621.6502471     
   3494603806.4226036     
   3433338463.3009830     
   3376984874.6403160     
   3915461638.0014973     
   3833832478.7677784     
   3755924225.7339578     
   3681936571.3868690     
   3612105354.2283888     
   2896409831.5846624     
   2864978171.5216866     
   2840062208.5180345     
   2821823972.2792821     
   2810435701.9019036     
   3013316681.8449554     
   2969873680.9853482     
   2932862547.6238570     
   2902519171.9170108     
   2879104944.6475949     
   3175425248.0819340     
   3118292903.1542640     
   3067299845.9749975     
   3022744802.4966140     
   2984973127.6380143     
   3376984874.6403160     
   3304929446.2213902     
   3238552695.6832886     
   3178193809.6658916     
   3124262424.3637862     
   3612105354.2283888     
   3524237945.1275516     
   3441471824.4198380     
   3364159126.1422915     
   3292745380.9838748     
   2810435701.9019036     
   2776365420.5984159     
   2750297994.2884984     
   2732431836.9765067     
   2722977682.6675439     
   2879104944.6475949     
   2833765846.1546955     
   2795863072.9453883     
   2765670280.0854545     
   2743482921.6987185     
   2984973127.6380143     
   2927255248.9243255     
   2876330983.8749948     
   2832533447.1735916     
   2796230014.6127243     
   3124262424.3637862     
   3053642493.2102542     
   2989122095.1000538     
   2931069509.3222160     
   2879899991.9955239     
   3292745380.9838748     
   3209166860.6634755     
   3130978656.5872669     
   3058558182.4862442     
   2992340021.6644330     
   2722977682.6675439     
   2693816003.6586637     
   2672846568.3104992     
   2660255815.7912498     
   2656230389.8128920     
   2743482921.6987185     
   2703076411.7619214     
   2670541028.2025714     
   2646156350.3701773     
   2630210869.9806938     
   2796230014.6127243     
   2742984130.4942207     
   2697145985.9653659     
   2659084901.1396890     
   2629194586.0298409     
   2879899991.9955239     
   2812778779.9714260     
   2752456338.9470840     
   2699372301.5039201     
   2654011229.4987926     
   2992340021.6644330     
   2910842802.5954971     
   2835414661.3030601     
   2766534208.7258987     
   2704746525.2209439     
   2656230389.8128920     
   2631683592.0851545     
   2616225269.4944291     
   2610044822.8040137     
   2613322093.2218509     
   2630210869.9806938     
   2594121447.2966704     
   2566902740.2113132     
   2548848515.6481733     
   2540246033.7074604     
   2629194586.0298409     
   2579890222.1507821     
   2539117632.3259754     
   2507284869.7454143     
   2484805096.2342725     
   2654011229.4987926     
   2590283728.5685148     
   2534586139.2483253     
   2487432942.5161009     
   2449365148.8317890     
   2704746525.2209439     
   2625919163.5237479     
   2554447173.9966140     
   2490923424.8706617     
   2435995922.9976063     
   3625025876.4704776     
   3719689670.2061954     
   3825607183.4795184     
   3942716202.1569104     
   4070925284.0246263     
   4134180147.6055121     
   4224386814.1644340     
   4320514229.8477325     
   4420905973.1578484     
   4524107678.3800144     
   4643502057.2767401     
   4755542155.8685102     
   4868704649.3987608     
   4980354106.8117628     
   5088564768.4937162     
   5151471132.7144356     
   5311331007.7608824     
   5467819958.0169287     
   5618041503.3466415     
   5760529403.4436016     
   5657823852.4723167     
   5890915693.4749556     
   6116364650.6307163     
   6331710751.5891485     
   6536730921.5293818     
   4070925284.0246263     
   4112456557.9228005     
   4151332723.7007031     
   4186654096.7027783     
   4217687518.6050081     
   4524107678.3800144     
   4539025851.1144238     
   4558610788.1399326     
   4580382347.7997770     
   4602617125.3855429     
   5088564768.4937162     
   5054018688.6465788     
   5029983826.3056841     
   5011254470.4717388     
   4994630087.9211264     
   5760529403.4436016     
   5652107475.2652302     
   5559687392.9645681     
   5474208719.4224768     
   5390132079.1486912     
   6536730921.5293818     
   6328696569.3089714     
   6142852546.2182331     
   5965290992.8647060     
   5787005046.2135782     
   4217687518.6050081     
   4133085327.9162283     
   4054987314.7026410     
   3982543789.7903666     
   3915461638.0014973     
   4602617125.3855429     
   4493816274.9736814     
   4389245662.2249565     
   4288588957.8093152     
   4191757414.7580557     
   4994630087.9211264     
   4866994333.4829712     
   4742557683.5263252     
   4621288829.2560081     
   4503229286.6661024     
   5390132079.1486912     
   5248650549.7301378     
   5110399330.4487333     
   4975420959.5904388     
   4843810301.4061918     
   5787005046.2135782     
   5636112676.2677374     
   5489426301.5734215     
   5346860873.1941519     
   5208465052.8133726     
   3915461638.0014973     
   3833832478.7677784     
   3755924225.7339578     
   3681936571.3868690     
   3612105354.2283888     
   4191757414.7580557     
   4097723353.2682834     
   4006930468.0361247     
   3919586360.9553947     
   3835955491.0572701     
   4503229286.6661024     
   4395106064.4530172     
   4289540495.8790455     
   4186717093.7071514     
   4086904326.1426907     
   4843810301.4061918     
   4720072297.9413786     
   4598073349.4059725     
   4477941654.8276958     
   4359918831.5400209     
   5208465052.8133726     
   5067709038.9576883     
   4927798361.5524244     
   4788772295.7428627     
   4650812385.0920477     
   3612105354.2283888     
   3524237945.1275516     
   3441471824.4198380     
   3364159126.1422915     
   3292745380.9838748     
   3835955491.0572701     
   3733001835.9191751     
   3634173376.4287715     
   3539786707.6123495     
   3450240991.3459101     
   4086904326.1426907     
   3970129109.6626101     
   3856698538.1187258     
   3746878261.4331927     
   3641004070.3009310     
   4359918831.5400209     
   4230649853.0403099     
   4104144661.5607696     
   3980613682.5002542     
   3860325663.8452172     
   4650812385.0920477     
   4510341764.0485907     
   4372242725.2106323     
   4236672629.8775721     
   4103837673.4144220     
   3292745380.9838748     
   3209166860.6634755     
   3130978656.5872669     
   3058558182.4862442     
   2992340021.6644330     
   3450240991.3459101     
   3352867083.3898897     
   3260091080.0833025     
   3172291390.5864315     
   3089918246.8587728     
   3641004070.3009310     
   3529911073.2078376     
   3422588142.7087336     
   3319385879.2351336     
   3220735457.1459355     
   3860325663.8452172     
   3735807858.2139010     
   3614246402.5315146     
   3495943258.2144294     
   3381283196.4013267     
   4103837673.4144220     
   3966300902.1957755     
   3830955499.4908791     
   3698042949.8592072     
   3567884294.3356938     
   2992340021.6644330     
   2910842802.5954971     
   2835414661.3030601     
   2766534208.7258987     
   2704746525.2209439     
   3089918246.8587728     
   2993516443.9943833     
   2902349344.1137662     
   2816895935.4124517     
   2737720105.1990762     
   3220735457.1459355     
   3109907252.5910306     
   3003448357.4183440     
   2901800206.3641591     
   2805499559.0281844     
   3381283196.4013267     
   3256774179.0456276     
   3135802650.1942978     
   3018745572.1177211     
   2906076125.9083538     
   3567884294.3356938     
   3430562329.7795496     
   3296026784.2210069     
   3164577128.4883366     
   3036602042.9577446     
   2704746525.2209439     
   2625919163.5237479     
   2554447173.9966140     
   2490923424.8706617     
   2435995922.9976063     
   2737720105.1990762     
   2643153461.2644176     
   2554784800.3074441     
   2473239042.4284854     
   2399231192.9545183     
   2805499559.0281844     
   2695675658.1889410     
   2590759894.3747902     
   2491335656.6739531     
   2398100158.0764790     
   2906076125.9083538     
   2782136737.6474814     
   2661805541.8671927     
   2545562414.6905341     
   2434004494.4161787     
   3036602042.9577446     
   2900129220.3600082     
   2766072513.4014645     
   2634775917.6743507     
   2506684574.0040302     
   5657823852.4723167     
   5890915693.4749556     
   6116364650.6307163     
   6331710751.5891485     
   6536730921.5293818     
   6491655341.6790352     
   6586870608.2174931     
   6757418442.1984262     
   6961219269.6999197     
   7171612917.2607880     
   7982335484.2498531     
   7734952088.8017731     
   7669139943.0120792     
   7669598721.3058128     
   7666397608.7402868     
   10130309862.670462     
   9322001726.4959583     
   8826339304.8996449     
   8443501392.4941216     
   8035682667.0814409     
   12935664213.178438     
   11340733234.353773     
   10210183466.677116     
   9272691797.3468170     
   8303824801.4260960     
   6536730921.5293818     
   6328696569.3089714     
   6142852546.2182331     
   5965290992.8647060     
   5787005046.2135782     
   7171612917.2607880     
   6911009105.6501713     
   6658299017.8417282     
   6409623149.7451601     
   6161836350.4630299     
   7666397608.7402868     
   7381199719.8952827     
   7101380248.9345846     
   6827017173.1928434     
   6558312904.3748083     
   8035682667.0814409     
   7746915866.2467098     
   7473795208.6715651     
   7214365631.3163490     
   6968632546.8305759     
   8303824801.4260960     
   8020717716.4632912     
   7779680369.0818787     
   7570036717.6203804     
   7386813631.1757612     
   5787005046.2135782     
   5636112676.2677374     
   5489426301.5734215     
   5346860873.1941519     
   5208465052.8133726     
   6161836350.4630299     
   6012497795.9554806     
   5864523785.1105642     
   5717953423.8428221     
   5572844013.8007431     
   6558312904.3748083     
   6407380962.3783102     
   6254866533.7799711     
   6100738944.7870960     
   5945027252.5744457     
   6968632546.8305759     
   6814303901.3129759     
   6655422283.1335917     
   6491706917.3197651     
   6323104385.3922386     
   7386813631.1757612     
   7228269013.2143364     
   7062286888.8134747     
   6888176492.3233490     
   6705744752.7778358     
   5208465052.8133726     
   5067709038.9576883     
   4927798361.5524244     
   4788772295.7428627     
   4650812385.0920477     
   5572844013.8007431     
   5414578317.0442944     
   5257175828.8461790     
   5100677177.3976784     
   4945185422.3989859     
   5945027252.5744457     
   5772697189.5368128     
   5601690637.0047846     
   5432031343.1860752     
   5263776232.7658215     
   6323104385.3922386     
   6139656843.0143528     
   5958377254.1934118     
   5779242545.6055822     
   5602273611.1608906     
   6705744752.7778358     
   6513640015.4142141     
   6324893615.9135132     
   6139394353.4415598     
   5957116531.4734259     
   4650812385.0920477     
   4510341764.0485907     
   4372242725.2106323     
   4236672629.8775721     
   4103837673.4144220     
   4945185422.3989859     
   4795001511.0779533     
   4646234284.0031700     
   4499004959.1006060     
   4353476899.8389797     
   5263776232.7658215     
   5104094924.2445841     
   4944926103.1958761     
   4786344603.0573072     
   4628462717.8613100     
   5602273611.1608906     
   5433427624.1759338     
   5264257130.1276913     
   5094785392.2356367     
   4925070818.1887197     
   5957116531.4734259     
   5779516404.7708054     
   5600831858.7147751     
   5421033191.0292606     
   5240126198.8039246     
   4103837673.4144220     
   3966300902.1957755     
   3830955499.4908791     
   3698042949.8592072     
   3567884294.3356938     
   4353476899.8389797     
   4202667280.0211406     
   4053455750.5986509     
   3906007968.3078184     
   3760558261.1248059     
   4628462717.8613100     
   4465194580.7105551     
   4303045709.0154028     
   4142113059.0451856     
   3982550881.3303666     
   4925070818.1887197     
   4749992388.0779181     
   4575660341.2043076     
   4402113298.0099010     
   4229436954.4145918     
   5240126198.8039246     
   5053720948.1183386     
   4867780561.6464949     
   4682296203.4908905     
   4497297827.7762966     
   3567884294.3356938     
   3430562329.7795496     
   3296026784.2210069     
   3164577128.4883366     
   3036602042.9577446     
   3760558261.1248059     
   3610891095.2863760     
   3463145833.5845270     
   3317538658.3697853     
   3174367596.3344688     
   3982550881.3303666     
   3821180116.7305994     
   3660951001.0378551     
   3501993775.9292564     
   3344508109.8849258     
   4229436954.4145918     
   4056967681.1905174     
   3884962047.5472903     
   3713470665.9144244     
   3542599420.3568535     
   4497297827.7762966     
   4314260252.8601046     
   4131113268.8584390     
   3947838886.2072873     
   3764460877.5215454     
   3036602042.9577446     
   2900129220.3600082     
   2766072513.4014645     
   2634775917.6743507     
   2506684574.0040302     
   3174367596.3344688     
   3026491409.0724416     
   2880446823.7428851     
   2736475468.7014399     
   2594909201.5338631     
   3344508109.8849258     
   3185882981.5674043     
   3028568589.7261429     
   2872707013.4442434     
   2718516792.3198557     
   3542599420.3568535     
   3373607631.7968345     
   3205475987.3274398     
   3038258417.9625144     
   2872072383.8099494     
   3764460877.5215454     
   3585207180.9526896     
   3406426140.7883420     
   3228098055.2652407     
   3050256656.0092735     
 </DataArray>
 <DataArray  type="Float64" Name="strain" NumberOfComponents="3" format="ascii">
  0.20348712722347115        0.0000000000000000       0.12540365772625120     
  0.18665637492418524       -2.7323401453259517E-002   7.4350344753406100E-002
  0.16982562262489934       -4.4674459399796425E-002   3.5131700664814504E-002
  0.15299487032561343       -5.2053173839610709E-002   7.7477254604764144E-003
  0.13616411802632750       -4.9459544772702410E-002  -7.8015808596081371E-003
  0.15985585691695939        0.0000000000000000        9.6448562602057586E-002
  0.15317803270922581       -2.1843742911241942E-002   6.2689953353768327E-002
  0.14650020850149229       -3.6173737561434924E-002   3.7402531404330266E-002
  0.13982238429375871       -4.2989983950578951E-002   2.0586296753743426E-002
  0.13314456008602518       -4.2292482078674004E-002   1.2241249402007819E-002
  0.12645798524381882        0.0000000000000000        7.4202423642718368E-002
  0.12656960754223534       -1.6364084369224367E-002   5.5279922873311294E-002
  0.12668122984065183       -2.7673015723073426E-002   4.1465127817353148E-002
  0.12679285213906835       -3.3926794061547173E-002   3.2758038474843876E-002
  0.12690447443748484       -3.5125419384645647E-002   2.9158654845783536E-002
  0.10329351220404949        0.0000000000000000        5.8665240848233539E-002
  0.10683109942321374       -1.0884425827206791E-002   5.2120253312035035E-002
  0.11036868664237799       -1.9172293884711929E-002   4.7319489903883100E-002
  0.11390627386154226       -2.4863604172515413E-002   4.4262950623777782E-002
  0.11744386108070649       -2.7958356690617258E-002   4.2950635471719040E-002
   9.0362437797651379E-002   0.0000000000000000        4.9837014218603135E-002
   9.3962508352161078E-002  -5.4047672851892138E-003   5.3210944669939489E-002
   9.7562578906670763E-002  -1.0671572046350431E-002   5.4965617663920170E-002
  0.10116264946118048       -1.5800414283483652E-002   5.5101033200545109E-002
  0.10476272001569018       -2.0791293996588869E-002   5.3617191279814375E-002
  0.13616411802632750       -4.9459544772702410E-002  -7.8015808596081371E-003
  0.13296038202778868       -4.2927036734966721E-002  -3.3884104038684748E-003
  0.12975664602924983       -3.8489114262298896E-002  -3.9057708541278061E-004
  0.12655291003071104       -3.6145777354698996E-002   1.1919190957589143E-003
  0.12334917403217216       -3.5897026012166960E-002   1.3590781396465579E-003
  0.13314456008602518       -4.2292482078674004E-002   1.2241249402007819E-002
  0.12891368955247356       -3.8428224199013400E-002   1.2184683846477817E-002
  0.12468281901892189       -3.5744202564890207E-002   1.1489186358206411E-002
  0.12045194848537026       -3.4240417176304633E-002   1.0154756937193242E-002
  0.11622107795181863       -3.3916868033256498E-002   8.1813955834384583E-003
  0.12690447443748484       -3.5125419384645647E-002   2.9158654845783536E-002
  0.12242287457346274       -3.3929411663060030E-002   2.5546702598514517E-002
  0.11794127470944067       -3.2999290867481545E-002   2.2072223623046151E-002
  0.11345967484541861       -3.2335056997910290E-002   1.8735217919378502E-002
  0.10897807498139653       -3.1936710054346104E-002   1.5535685487511643E-002
  0.11744386108070649       -2.7958356690617258E-002   4.2950635471719040E-002
  0.11348793709075633       -2.9430599127106667E-002   3.6697645852241181E-002
  0.10953201310080614       -3.0254379170072884E-002   3.1358534709106406E-002
  0.10557608911085595       -3.0429696819515909E-002   2.6933302042314654E-002
  0.10162016512090577       -2.9956552075435704E-002   2.3421947851866042E-002
  0.10476272001569018       -2.0791293996588869E-002   5.3617191279814375E-002
  0.10210887710435423       -2.4931786591153332E-002   4.5637513607658053E-002
   9.9455034193018294E-002  -2.7509467472664202E-002   3.9348119616387171E-002
   9.6801191281682353E-002  -2.8524336641121556E-002   3.4749009306001666E-002
   9.4147348370346426E-002  -2.7976394096525303E-002   3.1840182676501641E-002
  0.12334917403217216       -3.5897026012166960E-002   1.3590781396465579E-003
  0.12041135489777735       -3.6390902825382002E-002   6.3210667702356949E-004
  0.11747353576338251       -3.6275450385023354E-002   9.9177066460551244E-005
  0.11453571662898768       -3.5550668691090949E-002  -2.3971069204227480E-004
  0.11159789749459287       -3.4216557743584841E-002  -3.8455659848513069E-004
  0.11622107795181863       -3.3916868033256498E-002   8.1813955834384583E-003
  0.11346301163743004       -3.3989024091423986E-002   7.8243057470332028E-003
  0.11070494532304148       -3.3672354306484784E-002   7.6326796985803219E-003
  0.10794687900865292       -3.2966858678438959E-002   7.6065174380800134E-003
  0.10518881269426439       -3.1872537207286555E-002   7.7458189655318366E-003
  0.10897807498139653       -3.1936710054346104E-002   1.5535685487511643E-002
  0.10637118342290655       -3.1587145357465825E-002   1.5327973866856928E-002
  0.10376429186441662       -3.1069258227946133E-002   1.5257147970047017E-002
  0.10115740030592665       -3.0383048665786967E-002   1.5323207797081904E-002
   9.8550508747436733E-002  -2.9528516670988297E-002   1.5526153347961591E-002
  0.10162016512090577       -2.9956552075435704E-002   2.3421947851866042E-002
   9.9135870254206795E-002  -2.9185266623507792E-002   2.3143111036494749E-002
   9.6651575387507849E-002  -2.8466162149407552E-002   2.2972581880860671E-002
   9.4167280520808846E-002  -2.7799238653134918E-002   2.2910360384963836E-002
   9.1682985654109928E-002  -2.7184496134690081E-002   2.2956446548804049E-002
   9.4147348370346426E-002  -2.7976394096525303E-002   3.1840182676501641E-002
   9.1757072131330816E-002  -2.6783387889549710E-002   3.1269717255946759E-002
   8.9366795892315165E-002  -2.5863066070868905E-002   3.0778981431021327E-002
   8.6976519653299555E-002  -2.5215428640482949E-002   3.0367975201725537E-002
   8.4586243414283946E-002  -2.4840475598391809E-002   3.0036698568059073E-002
  0.11159789749459287       -3.4216557743584841E-002  -3.8455659848513069E-004
  0.10852963814684047       -3.2699489665181658E-002  -1.4937396248870805E-004
  0.10546137879908812       -3.1425836578558242E-002   1.3939868601839378E-004
  0.10239311945133578       -3.0395598483714648E-002   4.8176134703589724E-004
   9.9324860103583379E-002  -2.9608775380650820E-002   8.7771402056413539E-004
  0.10518881269426439       -3.1872537207286555E-002   7.7458189655318366E-003
  0.10220380146620098       -3.0656139931158594E-002   7.5873959497398946E-003
   9.9218790238137566E-002  -2.9584416888186360E-002   7.5418791608150293E-003
   9.6233779010074183E-002  -2.8657368078369411E-002   7.6092685987575112E-003
   9.3248767782010800E-002  -2.7874993501708134E-002   7.7895642635672779E-003
   9.8550508747436733E-002  -2.9528516670988297E-002   1.5526153347961591E-002
   9.5708061853418958E-002  -2.8612790197135585E-002   1.5072865439005378E-002
   9.2865614959401252E-002  -2.7742997197814201E-002   1.4791799971272987E-002
   9.0023168065383519E-002  -2.6919137673024285E-002   1.4682956944764652E-002
   8.7180721171365785E-002  -2.6141211622765531E-002   1.4746336359480236E-002
   9.1682985654109928E-002  -2.7184496134690081E-002   2.2956446548804049E-002
   8.9042419308494519E-002  -2.6569440463112604E-002   2.2307034505307632E-002
   8.6401852962879083E-002  -2.5901577507442236E-002   2.1889161117391968E-002
   8.3761286617263661E-002  -2.5180907267678979E-002   2.1702826385056842E-002
   8.1120720271648239E-002  -2.4407429743822776E-002   2.1748030308302597E-002
   8.4586243414283946E-002  -2.4840475598391809E-002   3.0036698568059073E-002
   8.2206873831427552E-002  -2.4526090729089567E-002   2.9289903148646837E-002
   7.9827504248571157E-002  -2.4060157817070146E-002   2.8833962599172008E-002
   7.7448134665714749E-002  -2.3442676862333669E-002   2.8668876919634587E-002
   7.5068765082858396E-002  -2.2673647864880186E-002   2.8794646110034378E-002
   9.9324860103583379E-002  -2.9608775380650820E-002   8.7771402056413539E-004
   9.6323722670460132E-002  -2.8900570362897976E-002   5.8622683220999061E-004
   9.3322585237336858E-002  -2.8106186523987206E-002   4.6227139211410528E-004
   9.0321447804213598E-002  -2.7225623863918854E-002   5.0584770027724268E-004
   8.7320310371090337E-002  -2.6258882382692250E-002   7.1695575669816769E-004
   9.3248767782010800E-002  -2.7874993501708134E-002   7.7895642635672779E-003
   9.0413287202816689E-002  -2.7138411827037662E-002   7.5738815169774654E-003
   8.7577806623622634E-002  -2.6348741723193056E-002   7.5219807299876651E-003
   8.4742326044428509E-002  -2.5505983190174591E-002   7.6338619025975926E-003
   8.1906845465234412E-002  -2.4610136227982138E-002   7.9095250348074075E-003
   8.7180721171365785E-002  -2.6141211622765531E-002   1.4746336359480236E-002
   8.4507147657442369E-002  -2.5376253291177334E-002   1.4573367662670741E-002
   8.1833574143518995E-002  -2.4591296922399190E-002   1.4560431136802617E-002
   7.9160000629595620E-002  -2.3786342516430664E-002   1.4707526781875913E-002
   7.6486427115672245E-002  -2.2961390073272081E-002   1.5014654597890892E-002
   8.1120720271648239E-002  -2.4407429743822776E-002   2.1748030308302597E-002
   7.8605304034337117E-002  -2.3614094755317096E-002   2.1584685269289656E-002
   7.6089887797025940E-002  -2.2833852121605016E-002   2.1577622612559549E-002
   7.3574471559714805E-002  -2.2066701842686678E-002   2.1726842338112784E-002
   7.1059055322403669E-002  -2.1312643918561996E-002   2.2032344445948503E-002
   7.5068765082858396E-002  -2.2673647864880186E-002   2.8794646110034378E-002
   7.2707756333500934E-002  -2.1851936219456844E-002   2.8607834336834170E-002
   7.0346747584143540E-002  -2.1076407320810966E-002   2.8573555157258484E-002
   6.7985738834786147E-002  -2.0347061168942655E-002   2.8691808571307195E-002
   6.5624730085428712E-002  -1.9663897763851856E-002   2.8962594578980427E-002
   8.7320310371090337E-002  -2.6258882382692250E-002   7.1695575669816769E-004
   8.4228849855970900E-002  -2.5265235900475524E-002   4.7082836826384256E-004
   8.1137389340851573E-002  -2.4303958237435058E-002   4.1349945896868023E-004
   7.8045928825732219E-002  -2.3375049393571358E-002   5.4496902881154274E-004
   7.4954468310612810E-002  -2.2478509368883848E-002   8.6523707779329051E-004
   8.1906845465234412E-002  -2.4610136227982138E-002   7.9095250348074075E-003
   7.9004002816350588E-002  -2.3697463213673581E-002   7.6303610177047843E-003
   7.6101160167466597E-002  -2.2804226524306748E-002   7.5396342539346684E-003
   7.3198317518582690E-002  -2.1930426159881486E-002   7.6373447434969627E-003
   7.0295474869698782E-002  -2.1076062120397698E-002   7.9234924863915146E-003
   7.6486427115672245E-002  -2.2961390073272081E-002   1.5014654597890892E-002
   7.3771841107217601E-002  -2.2129690526871776E-002   1.4715386446354672E-002
   7.1057255098762970E-002  -2.1304494811178423E-002   1.4604194322344694E-002
   6.8342669090308367E-002  -2.0485802926191499E-002   1.4681078225860671E-002
   6.5628083081853722E-002  -1.9673614871911493E-002   1.4946038156903207E-002
   7.1059055322403669E-002  -2.1312643918561996E-002   2.2032344445948503E-002
   6.8532364728572104E-002  -2.0561917840070124E-002   2.1725904654213687E-002
   6.6005674134740622E-002  -1.9804763098049884E-002   2.1607179664198815E-002
   6.3478983540909098E-002  -1.9041179692501790E-002   2.1676169475904013E-002
   6.0952292947077560E-002  -1.8271167623425427E-002   2.1932874089329008E-002
   6.5624730085428712E-002  -1.9663897763851856E-002   2.8962594578980427E-002
   6.3285573680414153E-002  -1.8994145153268166E-002   2.8661915641281871E-002
   6.0946417275399581E-002  -1.8305031384921566E-002   2.8548590279496910E-002
   5.8607260870384988E-002  -1.7596556458812002E-002   2.8622618493625712E-002
   5.6268104465370394E-002  -1.6868720374939195E-002   2.8884000283668498E-002
   7.4954468310612810E-002  -2.2478509368883848E-002   8.6523707779329051E-004
   7.1898412777780141E-002  -2.1591941051759544E-002   5.6776256432089500E-004
   6.8842357244947583E-002  -2.0692947330583578E-002   4.5798416135484077E-004
   6.5786301712114970E-002  -1.9781528205356586E-002   5.3590186889540536E-004
   6.2730246179282356E-002  -1.8857683676078207E-002   8.0151568694231123E-004
   7.0295474869698782E-002  -2.1076062120397698E-002   7.9234924863915146E-003
   6.7424985488261868E-002  -2.0227750749719331E-002   7.6253678625680665E-003
   6.4554496106825038E-002  -1.9372108391710358E-002   7.5106794310301206E-003
   6.1684006725388138E-002  -1.8509135046370175E-002   7.5794271917764833E-003
   5.8813517343951294E-002  -1.7638830713699427E-002   7.8316111448086811E-003
   6.5628083081853722E-002  -1.9673614871911493E-002   1.4946038156903207E-002
   6.2938899933591072E-002  -1.8863560447679895E-002   1.4642169006009065E-002
   6.0249716785328422E-002  -1.8051269452837249E-002   1.4517476129178170E-002
   5.7560533637065786E-002  -1.7236741887384319E-002   1.4571959526410744E-002
   5.4871350488803178E-002  -1.6419977751321035E-002   1.4805619197706704E-002
   6.0952292947077560E-002  -1.8271167623425427E-002   2.1932874089329008E-002
   5.8440156113767641E-002  -1.7499370145639959E-002   2.1618165994643120E-002
   5.5928019280457798E-002  -1.6730430513964306E-002   2.1478374255799265E-002
   5.3415882447147858E-002  -1.5964348728398629E-002   2.1513498872797472E-002
   5.0903745613838029E-002  -1.5201124788942449E-002   2.1723539845637914E-002
   5.6268104465370394E-002  -1.6868720374939195E-002   2.8884000283668498E-002
   5.3928754028791742E-002  -1.6135179843600023E-002   2.8553358828470876E-002
   5.1589403592213090E-002  -1.5409591575091183E-002   2.8393373810893630E-002
   4.9250053155634438E-002  -1.4691955569412534E-002   2.8404045230936967E-002
   4.6910702719055730E-002  -1.3982271826563974E-002   2.8585373088600874E-002
   6.2730246179282356E-002  -1.8857683676078207E-002   8.0151568694231123E-004
   5.9748388315390755E-002  -1.7943264227388123E-002   5.0359105802844084E-004
   5.6766530451499209E-002  -1.7060120343925872E-002   3.9266105102758742E-004
   5.3784672587607635E-002  -1.6208252025690949E-002   4.6872566593994525E-004
   5.0802814723716061E-002  -1.5387659272684484E-002   7.3178490276637476E-004
   5.8813517343951294E-002  -1.7638830713699427E-002   7.8316111448086811E-003
   5.6012282687931070E-002  -1.6773763137721942E-002   7.4773370490623381E-003
   5.3211048031910818E-002  -1.5926500062461657E-002   7.2973147471456223E-003
   5.0409813375890580E-002  -1.5097041487919322E-002   7.2915442390579233E-003
   4.7608578719870231E-002  -1.4285387414094242E-002   7.4600255247996294E-003
   5.4871350488803178E-002  -1.6419977751321035E-002   1.4805619197706704E-002
   5.2237996212570054E-002  -1.5604262048056039E-002   1.4408466699639383E-002
   4.9604641936336943E-002  -1.4792879780998011E-002   1.4172823167317009E-002
   4.6971287660103882E-002  -1.3985830950147365E-002   1.4098688600739408E-002
   4.4337933383870709E-002  -1.3183115555503999E-002   1.4186062999907323E-002
   5.0903745613838029E-002  -1.5201124788942449E-002   2.1723539845637914E-002
   4.8425528889307755E-002  -1.4434760958389886E-002   2.1296980009758867E-002
   4.5947312164777571E-002  -1.3659259499534081E-002   2.1019186311540993E-002
   4.3469095440247255E-002  -1.2874620412375573E-002   2.0890158750983816E-002
   4.0990878715717105E-002  -1.2080843696913757E-002   2.0909897328087290E-002
   4.6910702719055730E-002  -1.3982271826563974E-002   2.8585373088600874E-002
   4.4574880718144250E-002  -1.3265259868723900E-002   2.8142876979421194E-002
   4.2239058717232658E-002  -1.2525639218070261E-002   2.7836404179817920E-002
   3.9903236716321122E-002  -1.1763409874603725E-002   2.7665954689791494E-002
   3.7567414715409586E-002  -1.0978571838323514E-002   2.7631528509341363E-002
   9.0362437797651379E-002   0.0000000000000000        4.9837014218603135E-002
   9.3962508352161078E-002  -5.4047672851892138E-003   5.3210944669939489E-002
   9.7562578906670763E-002  -1.0671572046350431E-002   5.4965617663920170E-002
  0.10116264946118048       -1.5800414283483652E-002   5.5101033200545109E-002
  0.10476272001569018       -2.0791293996588869E-002   5.3617191279814375E-002
   8.2426040039594667E-002   0.0000000000000000        4.4785099189628169E-002
   8.4635997946806429E-002  -4.5745054006869363E-003   4.8268686486407697E-002
   8.6845955854018206E-002  -9.0378585812543131E-003   5.0591305945947102E-002
   8.9055913761229982E-002  -1.3390059541702129E-002   5.1752957568246327E-002
   9.1265871668441759E-002  -1.7631108282030385E-002   5.1753641353305409E-002
   7.4245596944849584E-002   0.0000000000000000        4.0576851197109694E-002
   7.5523731824878995E-002  -3.7442435161846596E-003   4.4143285035423994E-002
   7.6801866704908378E-002  -7.4041451161581968E-003   4.7007040656613680E-002
   7.8080001584937761E-002  -1.0979704799920609E-002   4.9168118060678757E-002
   7.9358136464967144E-002  -1.4470922567471893E-002   5.0626517247619233E-002
   6.5821108513416146E-002   0.0000000000000000        3.7212270241047729E-002
   6.6625709986378720E-002  -2.9139816316823834E-003   4.0834740316988319E-002
   6.7430311459341280E-002  -5.7704316510620796E-003   4.4212821795919864E-002
   6.8234912932303840E-002  -8.5693500581390872E-003   4.7346514677842358E-002
   6.9039514405266400E-002  -1.1310736852913400E-002   5.0235818962755807E-002
   5.7152574745294331E-002   0.0000000000000000        3.4691356321442240E-002
   5.7941932431305611E-002  -2.0837197471801055E-003   3.8343052331100712E-002
   5.8731290117316891E-002  -4.1367181859659607E-003   4.2208649363865682E-002
   5.9520647803328178E-002  -6.1589953163575656E-003   4.6288147419737150E-002
   6.0310005489339444E-002  -8.1505511383549133E-003   5.0581546498715102E-002
  0.10476272001569018       -2.0791293996588869E-002   5.3617191279814375E-002
  0.10210887710435423       -2.4931786591153332E-002   4.5637513607658053E-002
   9.9455034193018294E-002  -2.7509467472664202E-002   3.9348119616387171E-002
   9.6801191281682353E-002  -2.8524336641121556E-002   3.4749009306001666E-002
   9.4147348370346426E-002  -2.7976394096525303E-002   3.1840182676501641E-002
   9.1265871668441759E-002  -1.7631108282030385E-002   5.1753641353305409E-002
   9.0064398942851981E-002  -2.1206205137022347E-002   4.6516944961586953E-002
   8.8862926217262189E-002  -2.3560550441461253E-002   4.2494705260475461E-002
   8.7661453491672411E-002  -2.4694144195347115E-002   3.9686922249970766E-002
   8.6459980766082634E-002  -2.4606986398679913E-002   3.8093595930073006E-002
   7.9358136464967144E-002  -1.4470922567471893E-002   5.0626517247619233E-002
   7.9133206934845018E-002  -1.7480623682891355E-002   4.7790741973838154E-002
   7.8908277404722851E-002  -1.9611633410258279E-002   4.5693596400385450E-002
   7.8683347874600712E-002  -2.0863951749572673E-002   4.4335080527261060E-002
   7.8458418344478573E-002  -2.1237578700834536E-002   4.3715194354465095E-002
   6.9039514405266400E-002  -1.1310736852913400E-002   5.0235818962755807E-002
   6.9315301080333361E-002  -1.3755042228760363E-002   4.9458904644411529E-002
   6.9591087755400308E-002  -1.5662716379055322E-002   4.8944793036117124E-002
   6.9866874430467268E-002  -1.7033759303798256E-002   4.8693484137872611E-002
   7.0142661105534243E-002  -1.7868171002989146E-002   4.8704977949677881E-002
   6.0310005489339444E-002  -8.1505511383549133E-003   5.0581546498715102E-002
   6.0610681379317001E-002  -1.0029460774629382E-002   5.1521432973307212E-002
   6.0911357269294537E-002  -1.1713799347852352E-002   5.2248295167670607E-002
   6.1212033159272081E-002  -1.3203566858023801E-002   5.2762133081805343E-002
   6.1512709049249638E-002  -1.4498763305143762E-002   5.3062946715711386E-002
   9.4147348370346426E-002  -2.7976394096525303E-002   3.1840182676501641E-002
   9.1757072131330816E-002  -2.6783387889549710E-002   3.1269717255946759E-002
   8.9366795892315165E-002  -2.5863066070868905E-002   3.0778981431021327E-002
   8.6976519653299555E-002  -2.5215428640482949E-002   3.0367975201725537E-002
   8.4586243414283946E-002  -2.4840475598391809E-002   3.0036698568059073E-002
   8.6459980766082634E-002  -2.4606986398679913E-002   3.8093595930073006E-002
   8.4196008166579461E-002  -2.3963211292143276E-002   3.7065409076506198E-002
   8.1932035567076317E-002  -2.3426953116420901E-002   3.6210099906334892E-002
   7.9668062967573144E-002  -2.2998211871512665E-002   3.5527668419558969E-002
   7.7404090368070000E-002  -2.2676987557418662E-002   3.5018114616178320E-002
   7.8458418344478573E-002  -2.1237578700834536E-002   4.3715194354465095E-002
   7.6413897472253772E-002  -2.1143034694736915E-002   4.2394453525367165E-002
   7.4369376600028958E-002  -2.0990840161972859E-002   4.1339738467430429E-002
   7.2324855727804158E-002  -2.0780995102542398E-002   4.0551049180655017E-002
   7.0280334855579329E-002  -2.0513499516445488E-002   4.0028385665040869E-002
   7.0142661105534243E-002  -1.7868171002989146E-002   4.8704977949677881E-002
   6.8410740048353652E-002  -1.8322858097330502E-002   4.7256850602529300E-002
   6.6678818991173061E-002  -1.8554727207524851E-002   4.6167897114307917E-002
   6.4946897933992470E-002  -1.8563778333572083E-002   4.5438117485013599E-002
   6.3214976876811879E-002  -1.8350011475472328E-002   4.5067511714646527E-002
   6.1512709049249638E-002  -1.4498763305143762E-002   5.3062946715711386E-002
   6.0186535894879149E-002  -1.5502681499924110E-002   5.1652600307992770E-002
   5.8860362740508654E-002  -1.6118614253076813E-002   5.0694575846967266E-002
   5.7534189586138179E-002  -1.6346561564601812E-002   5.0188873332634831E-002
   5.6208016431767691E-002  -1.6186523434499167E-002   5.0135492764995376E-002
   8.4586243414283946E-002  -2.4840475598391809E-002   3.0036698568059073E-002
   8.2206873831427552E-002  -2.4526090729089567E-002   2.9289903148646837E-002
   7.9827504248571157E-002  -2.4060157817070146E-002   2.8833962599172008E-002
   7.7448134665714749E-002  -2.3442676862333669E-002   2.8668876919634587E-002
   7.5068765082858396E-002  -2.2673647864880186E-002   2.8794646110034378E-002
   7.7404090368070000E-002  -2.2676987557418662E-002   3.5018114616178320E-002
   7.5298564339674148E-002  -2.2354068706072955E-002   3.4443932439029920E-002
   7.3193038311278269E-002  -2.1920243849409677E-002   3.4126582500865116E-002
   7.1087512282882445E-002  -2.1375512987428891E-002   3.4066064801684108E-002
   6.8981986254486552E-002  -2.0719876120130598E-002   3.4262379341486779E-002
   7.0280334855579329E-002  -2.0513499516445488E-002   4.0028385665040869E-002
   6.8414629750690348E-002  -2.0182046683056371E-002   3.9586174692756562E-002
   6.6548924645801352E-002  -1.9780329881749263E-002   3.9366773328502309E-002
   6.4683219540912371E-002  -1.9308349112524159E-002   3.9370181572278201E-002
   6.2817514436023375E-002  -1.8766104375380982E-002   3.9596399424084022E-002
   6.3214976876811879E-002  -1.8350011475472328E-002   4.5067511714646527E-002
   6.1555070064476122E-002  -1.8010024660039800E-002   4.4716629909826881E-002
   5.9895163252140365E-002  -1.7640415914088822E-002   4.4554535082083596E-002
   5.8235256439804609E-002  -1.7241185237619305E-002   4.4581227231416873E-002
   5.6575349627468852E-002  -1.6812332630631394E-002   4.4796706357826399E-002
   5.6208016431767691E-002  -1.6186523434499167E-002   5.0135492764995376E-002
   5.4719885281031513E-002  -1.5838002637023244E-002   4.9835298090240787E-002
   5.3231754130295329E-002  -1.5500501946428387E-002   4.9689867761609122E-002
   5.1743622979559117E-002  -1.5174021362714620E-002   4.9699201779100151E-002
   5.0255491828822940E-002  -1.4858560885881805E-002   4.9863300142713757E-002
   7.5068765082858396E-002  -2.2673647864880186E-002   2.8794646110034378E-002
   7.2707756333500934E-002  -2.1851936219456844E-002   2.8607834336834170E-002
   7.0346747584143540E-002  -2.1076407320810966E-002   2.8573555157258484E-002
   6.7985738834786147E-002  -2.0347061168942655E-002   2.8691808571307195E-002
   6.5624730085428712E-002  -1.9663897763851856E-002   2.8962594578980427E-002
   6.8981986254486552E-002  -2.0719876120130598E-002   3.4262379341486779E-002
   6.6783256983365902E-002  -2.0019419874071687E-002   3.3973896465520348E-002
   6.4584527712245293E-002  -1.9340230875809328E-002   3.3857439952403069E-002
   6.2385798441124685E-002  -1.8682309125343480E-002   3.3913009802134839E-002
   6.0187069170004048E-002  -1.8045654622674101E-002   3.4140606014715580E-002
   6.2817514436023375E-002  -1.8766104375380982E-002   3.9596399424084022E-002
   6.0800558412364057E-002  -1.8186903528686620E-002   3.9231160944332655E-002
   5.8783602388704739E-002  -1.7604054430807710E-002   3.9057442596654661E-002
   5.6766646365045415E-002  -1.7017557081744329E-002   3.9075244381050409E-002
   5.4749690341386083E-002  -1.6427411481496484E-002   3.9284566297519599E-002
   5.6575349627468852E-002  -1.6812332630631394E-002   4.4796706357826399E-002
   5.4759660620495337E-002  -1.6354387183301549E-002   4.4379627773270869E-002
   5.2943971613521837E-002  -1.5867877985806109E-002   4.4173563090013419E-002
   5.1128282606548323E-002  -1.5352805038145168E-002   4.4178512308054120E-002
   4.9312593599574767E-002  -1.4809168340318743E-002   4.4394475427392714E-002
   5.0255491828822940E-002  -1.4858560885881805E-002   4.9863300142713757E-002
   4.8660563607759777E-002  -1.4521870837916409E-002   4.9419296952335184E-002
   4.7065635386696614E-002  -1.4131701540804432E-002   4.9205801432479115E-002
   4.5470707165633450E-002  -1.3688052994546002E-002   4.9222813583145612E-002
   4.3875778944570260E-002  -1.3190925199141168E-002   4.9470333404334821E-002
   6.5624730085428712E-002  -1.9663897763851856E-002   2.8962594578980427E-002
   6.3285573680414153E-002  -1.8994145153268166E-002   2.8661915641281871E-002
   6.0946417275399581E-002  -1.8305031384921566E-002   2.8548590279496910E-002
   5.8607260870384988E-002  -1.7596556458812002E-002   2.8622618493625712E-002
   5.6268104465370394E-002  -1.6868720374939195E-002   2.8884000283668498E-002
   6.0187069170004048E-002  -1.8045654622674101E-002   3.4140606014715580E-002
   5.8034463297771829E-002  -1.7413181551134360E-002   3.3855538892342274E-002
   5.5881857425539680E-002  -1.6767804094057231E-002   3.3756219259620121E-002
   5.3729251553307454E-002  -1.6109522251442736E-002   3.3842647116548712E-002
   5.1576645681075312E-002  -1.5438336023290811E-002   3.4114822463128330E-002
   5.4749690341386083E-002  -1.6427411481496484E-002   3.9284566297519599E-002
   5.2782028915673442E-002  -1.5832217949000540E-002   3.9008654218246133E-002
   5.0814367489960793E-002  -1.5230576803192841E-002   3.8916883542360808E-002
   4.8846706064248124E-002  -1.4622488044073470E-002   3.9009254269863514E-002
   4.6879044638535455E-002  -1.4007951671642510E-002   3.9285766400754443E-002
   4.9312593599574767E-002  -1.4809168340318743E-002   4.4394475427392714E-002
   4.7528270534118830E-002  -1.4251254346866728E-002   4.4121261618993352E-002
   4.5743947468662900E-002  -1.3693349512328395E-002   4.4030583127719292E-002
   4.3959624403206957E-002  -1.3135453836704440E-002   4.4122439953570403E-002
   4.2175301337751041E-002  -1.2577567319994168E-002   4.4396832096546754E-002
   4.3875778944570260E-002  -1.3190925199141168E-002   4.9470333404334821E-002
   4.2273188153108154E-002  -1.2670290744732859E-002   4.9193361094583804E-002
   4.0670597361646008E-002  -1.2156122221464088E-002   4.9097318015695335E-002
   3.9068006570183875E-002  -1.1648419629335154E-002   4.9182204167669358E-002
   3.7465415778721756E-002  -1.1147182968345826E-002   4.9448019550505651E-002
   5.6268104465370394E-002  -1.6868720374939195E-002   2.8884000283668498E-002
   5.3928754028791742E-002  -1.6135179843600023E-002   2.8553358828470876E-002
   5.1589403592213090E-002  -1.5409591575091183E-002   2.8393373810893630E-002
   4.9250053155634438E-002  -1.4691955569412534E-002   2.8404045230936967E-002
   4.6910702719055730E-002  -1.3982271826563974E-002   2.8585373088600874E-002
   5.1576645681075312E-002  -1.5438336023290811E-002   3.4114822463128330E-002
   4.9409963868059056E-002  -1.4761432792899404E-002   3.3775339613683536E-002
   4.7243282055042871E-002  -1.4085999943566407E-002   3.3610537573743382E-002
   4.5076600242026664E-002  -1.3412037475291821E-002   3.3620416343307313E-002
   4.2909918429010430E-002  -1.2739545388075535E-002   3.3804975922375968E-002
   4.6879044638535455E-002  -1.4007951671642510E-002   3.9285766400754443E-002
   4.4889055820965591E-002  -1.3387685742198896E-002   3.8943924038834551E-002
   4.2899067003395727E-002  -1.2762408312041749E-002   3.8780786858302989E-002
   4.0909078185825863E-002  -1.2132119381171222E-002   3.8796354859159748E-002
   3.8919089368255944E-002  -1.1496818949587040E-002   3.8990628041404629E-002
   4.2175301337751041E-002  -1.2577567319994168E-002   4.4396832096546754E-002
   4.0366029887511305E-002  -1.2013938691498388E-002   4.4059112103923652E-002
   3.8556758437271674E-002  -1.1438816680516977E-002   4.3904121664572596E-002
   3.6747486987031980E-002  -1.0852201287050566E-002   4.3931860778493648E-002
   3.4938215536792300E-002  -1.0254092511098573E-002   4.4142329445687051E-002
   3.7465415778721756E-002  -1.1147182968345826E-002   4.9448019550505651E-002
   3.5840886067696198E-002  -1.0640191640797825E-002   4.9120903808950955E-002
   3.4216356356670655E-002  -1.0115225048992357E-002   4.8980541992552418E-002
   3.2591826645645090E-002  -9.5722831929300027E-003   4.9026934101309719E-002
   3.0967296934619554E-002  -9.0113660726101608E-003   4.9260080135223372E-002
   4.6910702719055730E-002  -1.3982271826563974E-002   2.8585373088600874E-002
   4.4574880718144250E-002  -1.3265259868723900E-002   2.8142876979421194E-002
   4.2239058717232658E-002  -1.2525639218070261E-002   2.7836404179817920E-002
   3.9903236716321122E-002  -1.1763409874603725E-002   2.7665954689791494E-002
   3.7567414715409586E-002  -1.0978571838323514E-002   2.7631528509341363E-002
   4.2909918429010430E-002  -1.2739545388075535E-002   3.3804975922375968E-002
   4.0716231538497710E-002  -1.2058718952118186E-002   3.3398920728985954E-002
   3.8522544647984991E-002  -1.1359753437620801E-002   3.3141112446817195E-002
   3.6328857757472216E-002  -1.0642648844583422E-002   3.3031551075869442E-002
   3.4135170866959552E-002  -9.9074051730055901E-003   3.3070236616142945E-002
   3.8919089368255944E-002  -1.1496818949587040E-002   3.8990628041404629E-002
   3.6879761189786572E-002  -1.0852178035512611E-002   3.8616544149531390E-002
   3.4840433011317146E-002  -1.0193867657171285E-002   3.8402930770523674E-002
   3.2801104832847705E-002  -9.5218878145631736E-003   3.8349787904381594E-002
   3.0761776654378348E-002  -8.8362385076878880E-003   3.8457115551105037E-002
   3.4938215536792300E-002  -1.0254092511098573E-002   4.4142329445687051E-002
   3.3065469672010697E-002  -9.6456371189070217E-003   4.3795747241057420E-002
   3.1192723807229088E-002  -9.0279818767218523E-003   4.3621859150937428E-002
   2.9319977942447447E-002  -8.4011267845428422E-003   4.3620665175327922E-002
   2.7447232077665820E-002  -7.7650718423700749E-003   4.3792165314228207E-002
   3.0967296934619554E-002  -9.0113660726101608E-003   4.9260080135223372E-002
   2.9273356985170251E-002  -8.4390962023013771E-003   4.8936530003563794E-002
   2.7579417035720935E-002  -7.8620960962722392E-003   4.8797897588058886E-002
   2.5885477086271626E-002  -7.2803657545227156E-003   4.8844182888708496E-002
   2.4191537136822261E-002  -6.6939051770522617E-003   4.9075385905512414E-002
   5.7152574745294331E-002   0.0000000000000000        3.4691356321442240E-002
   5.7941932431305611E-002  -2.0837197471801055E-003   3.8343052331100712E-002
   5.8731290117316891E-002  -4.1367181859659607E-003   4.2208649363865682E-002
   5.9520647803328178E-002  -6.1589953163575656E-003   4.6288147419737150E-002
   6.0310005489339444E-002  -8.1505511383549133E-003   5.0581546498715102E-002
   4.8652193831412775E-002   0.0000000000000000        3.2790698551455402E-002
   4.9590196027404138E-002  -1.7092158374468827E-003   3.6965869048503061E-002
   5.0528198223395500E-002  -3.4323930725946427E-003   4.1224427542404365E-002
   5.1466200419386862E-002  -5.1695317054432834E-003   4.5566374033159350E-002
   5.2404202615378218E-002  -6.9206317359927902E-003   4.9991708520768008E-002
   4.0732163962700123E-002   0.0000000000000000        3.1286886044249354E-002
   4.1688297642418742E-002  -1.3347119277136573E-003   3.5940848322591049E-002
   4.2644431322137362E-002  -2.7280679592233204E-003   4.0547685571533591E-002
   4.3600565001855975E-002  -4.1800680945289909E-003   4.5107397791076968E-002
   4.4556698681574594E-002  -5.6907123336306705E-003   4.9619984981221173E-002
   3.3392485139156367E-002   0.0000000000000000        3.0179918799824099E-002
   3.4236237276349411E-002  -9.6020801798043154E-004   3.5267990153364702E-002
   3.5079989413542463E-002  -2.0237428458519994E-003   4.0178423451253317E-002
   3.5923741550735508E-002  -3.1906044836147070E-003   4.4911218693489970E-002
   3.6767493687928553E-002  -4.4607929312685474E-003   4.9466375880074603E-002
   2.6633157360781510E-002   0.0000000000000000        2.9469796818179628E-002
   2.7234014929196158E-002  -5.8570410824720833E-004   3.4947294540824014E-002
   2.7834872497610810E-002  -1.3194177324806801E-003   4.0116641181563606E-002
   2.8435730066025459E-002  -2.2011408727004161E-003   4.4977836740398375E-002
   2.9036587634440114E-002  -3.2308735289064252E-003   4.9530881217328335E-002
   6.0310005489339444E-002  -8.1505511383549133E-003   5.0581546498715102E-002
   6.0610681379317001E-002  -1.0029460774629382E-002   5.1521432973307212E-002
   6.0911357269294537E-002  -1.1713799347852352E-002   5.2248295167670607E-002
   6.1212033159272081E-002  -1.3203566858023801E-002   5.2762133081805343E-002
   6.1512709049249638E-002  -1.4498763305143762E-002   5.3062946715711386E-002
   5.2404202615378218E-002  -6.9206317359927902E-003   4.9991708520768008E-002
   5.2530893048172628E-002  -8.5843794005051599E-003   5.1220551354976537E-002
   5.2657583480967024E-002  -1.0059460935242364E-002   5.2314447555047494E-002
   5.2784273913761427E-002  -1.1345876340204408E-002   5.3273397120980823E-002
   5.2910964346555837E-002  -1.2443625615391300E-002   5.4097400052776537E-002
   4.4556698681574594E-002  -5.6907123336306705E-003   4.9619984981221173E-002
   4.4587481303276923E-002  -7.1392980263809292E-003   5.1131879241769859E-002
   4.4618263924979244E-002  -8.4051225226323811E-003   5.2586904514271983E-002
   4.4649046546681573E-002  -9.4881858223849948E-003   5.3985060798727579E-002
   4.4679829168383908E-002  -1.0388487925638800E-002   5.5326348095136618E-002
   3.6767493687928553E-002  -4.4607929312685474E-003   4.9466375880074603E-002
   3.6780446144629879E-002  -5.6942166522567167E-003   5.1255416633687059E-002
   3.6793398601331191E-002  -6.7507841100224045E-003   5.3065666045344059E-002
   3.6806351058032531E-002  -7.6304953045655951E-003   5.4897124115045576E-002
   3.6819303514733837E-002  -8.3333502358863189E-003   5.6749790842791602E-002
   2.9036587634440114E-002  -3.2308735289064252E-003   4.9530881217328335E-002
   2.9109787572231500E-002  -4.2491352781324817E-003   5.1591163530728242E-002
   2.9182987510022886E-002  -5.0964456974124236E-003   5.3750732148263730E-002
   2.9256187447814278E-002  -5.7728047867461885E-003   5.6009587069934842E-002
   2.9329387385605664E-002  -6.2782125461338378E-003   5.8367728295741508E-002
   6.1512709049249638E-002  -1.4498763305143762E-002   5.3062946715711386E-002
   6.0186535894879149E-002  -1.5502681499924110E-002   5.1652600307992770E-002
   5.8860362740508654E-002  -1.6118614253076813E-002   5.0694575846967266E-002
   5.7534189586138179E-002  -1.6346561564601812E-002   5.0188873332634831E-002
   5.6208016431767691E-002  -1.6186523434499167E-002   5.0135492764995376E-002
   5.2910964346555837E-002  -1.2443625615391300E-002   5.4097400052776537E-002
   5.1985094068559473E-002  -1.3293578077032110E-002   5.3353100568733276E-002
   5.1059223790563116E-002  -1.3836603041356038E-002   5.2957084890745153E-002
   5.0133353512566751E-002  -1.4072700508362993E-002   5.2909353018812277E-002
   4.9207483234570415E-002  -1.4001870478053124E-002   5.3209904952934622E-002
   4.4679829168383908E-002  -1.0388487925638800E-002   5.5326348095136618E-002
   4.4050223626123847E-002  -1.1084474654140095E-002   5.5167037590457817E-002
   4.3420618083863785E-002  -1.1554591829635252E-002   5.5251972751196421E-002
   4.2791012541603723E-002  -1.1798839452124187E-002   5.5581153577352410E-002
   4.2161406999343662E-002  -1.1817217521606999E-002   5.6154580068925729E-002
   3.6819303514733837E-002  -8.3333502358863189E-003   5.6749790842791602E-002
   3.6381924567572249E-002  -8.8753712312481005E-003   5.7094411373166606E-002
   3.5944545620410669E-002  -9.2725806179144235E-003   5.7579239428321098E-002
   3.5507166673249081E-002  -9.5249783958853852E-003   5.8204275008255181E-002
   3.5069787726087487E-002  -9.6325645651608865E-003   5.8969518112968800E-002
   2.9329387385605664E-002  -6.2782125461338378E-003   5.8367728295741508E-002
   2.8980196892904722E-002  -6.6662678083560765E-003   5.9135221916859479E-002
   2.8631006400203766E-002  -6.9905694061936814E-003   5.9938884922119164E-002
   2.8281815907502825E-002  -7.2511173396465527E-003   6.0778717311520625E-002
   2.7932625414801869E-002  -7.4479116087148162E-003   6.1654719085063717E-002
   5.6208016431767691E-002  -1.6186523434499167E-002   5.0135492764995376E-002
   5.4719885281031513E-002  -1.5838002637023244E-002   4.9835298090240787E-002
   5.3231754130295329E-002  -1.5500501946428387E-002   4.9689867761609122E-002
   5.1743622979559117E-002  -1.5174021362714620E-002   4.9699201779100151E-002
   5.0255491828822940E-002  -1.4858560885881805E-002   4.9863300142713757E-002
   4.9207483234570415E-002  -1.4001870478053124E-002   5.3209904952934622E-002
   4.7884065407572653E-002  -1.3770265734785736E-002   5.2875917128624744E-002
   4.6560647580574918E-002  -1.3524039062920441E-002   5.2716591605669029E-002
   4.5237229753577170E-002  -1.3263190462457291E-002   5.2731928384067484E-002
   4.3913811926579435E-002  -1.2987719933396119E-002   5.2921927463819976E-002
   4.2161406999343662E-002  -1.1817217521606999E-002   5.6154580068925729E-002
   4.1022600451315727E-002  -1.1702528832548222E-002   5.5812441130539590E-002
   3.9883793903287793E-002  -1.1547576179412548E-002   5.5664862448738930E-002
   3.8744987355259879E-002  -1.1352359562199932E-002   5.5711844023523693E-002
   3.7606180807231937E-002  -1.1116878980910419E-002   5.5953385854894060E-002
   3.5069787726087487E-002  -9.6325645651608865E-003   5.8969518112968800E-002
   3.4135490412260744E-002  -9.6347919303107384E-003   5.8644870095985277E-002
   3.3201193098434015E-002  -9.5711132959046836E-003   5.8534680290818659E-002
   3.2266895784607265E-002  -9.4415286619426025E-003   5.8638948697468933E-002
   3.1332598470780536E-002  -9.2460380284247121E-003   5.8957675315936021E-002
   2.7932625414801869E-002  -7.4479116087148162E-003   6.1654719085063717E-002
   2.7222735290407696E-002  -7.5670550280732066E-003   6.1373204024961908E-002
   2.6512845166013512E-002  -7.5946504123966981E-003   6.1326045131908320E-002
   2.5802955041619335E-002  -7.5306977616852984E-003   6.1513242405903001E-002
   2.5093064917225169E-002  -7.3751970759390051E-003   6.1934795846945973E-002
   5.0255491828822940E-002  -1.4858560885881805E-002   4.9863300142713757E-002
   4.8660563607759777E-002  -1.4521870837916409E-002   4.9419296952335184E-002
   4.7065635386696614E-002  -1.4131701540804432E-002   4.9205801432479115E-002
   4.5470707165633450E-002  -1.3688052994546002E-002   4.9222813583145612E-002
   4.3875778944570260E-002  -1.3190925199141168E-002   4.9470333404334821E-002
   4.3913811926579435E-002  -1.2987719933396119E-002   5.2921927463819976E-002
   4.2542566850136174E-002  -1.2684339778648343E-002   5.2552486816395752E-002
   4.1171321773692912E-002  -1.2339762301125198E-002   5.2399904787688655E-002
   3.9800076697249671E-002  -1.1953987500826681E-002   5.2464181377698912E-002
   3.8428831620806403E-002  -1.1527015377752720E-002   5.2745316586426394E-002
   3.7606180807231937E-002  -1.1116878980910419E-002   5.5953385854894060E-002
   3.6444969823603290E-002  -1.0846808719380298E-002   5.5646225824052931E-002
   3.5283758839974644E-002  -1.0547823061445961E-002   5.5542275360123766E-002
   3.4122547856345976E-002  -1.0219922007107304E-002   5.5641534463106469E-002
   3.2961336872717351E-002  -9.8631055563644099E-003   5.5944003133001186E-002
   3.1332598470780536E-002  -9.2460380284247121E-003   5.8957675315936021E-002
   3.0367772528161148E-002  -9.0092776601122283E-003   5.8700513975306928E-002
   2.9402946585541743E-002  -8.7558838217666694E-003   5.8632913149784555E-002
   2.8438120642922345E-002  -8.4858565133879554E-003   5.8754872839368720E-002
   2.7473294700302943E-002  -8.1991957349761141E-003   5.9066393044059605E-002
   2.5093064917225169E-002  -7.3751970759390051E-003   6.1934795846945973E-002
   2.4310974963809712E-002  -7.1717466008442005E-003   6.1715351270157814E-002
   2.3528885010394261E-002  -6.9639445820874682E-003   6.1671818156671068E-002
   2.2746795056978821E-002  -6.7517910196685463E-003   6.1804196506485463E-002
   2.1964705103563353E-002  -6.5352859135877073E-003   6.2112486319601257E-002
   4.3875778944570260E-002  -1.3190925199141168E-002   4.9470333404334821E-002
   4.2273188153108154E-002  -1.2670290744732859E-002   4.9193361094583804E-002
   4.0670597361646008E-002  -1.2156122221464088E-002   4.9097318015695335E-002
   3.9068006570183875E-002  -1.1648419629335154E-002   4.9182204167669358E-002
   3.7465415778721756E-002  -1.1147182968345826E-002   4.9448019550505651E-002
   3.8428831620806403E-002  -1.1527015377752720E-002   5.2745316586426394E-002
   3.7011046401924319E-002  -1.1079866641400191E-002   5.2448018180388981E-002
   3.5593261183042194E-002  -1.0633562001265896E-002   5.2339401688649090E-002
   3.4175475964160103E-002  -1.0188101457349519E-002   5.2419467111206750E-002
   3.2757690745277984E-002  -9.7434850096513870E-003   5.2688214448062154E-002
   3.2961336872717351E-002  -9.8631055563644099E-003   5.5944003133001186E-002
   3.1736109909850471E-002  -9.4894425380677438E-003   5.5632000465598859E-002
   3.0510882946983606E-002  -9.1110017810675931E-003   5.5516432395929141E-002
   2.9285655984116726E-002  -8.7277832853640512E-003   5.5597298923992448E-002
   2.8060429021249854E-002  -8.3397870509571148E-003   5.5874600049788517E-002
   2.7473294700302943E-002  -8.1991957349761141E-003   5.9066393044059605E-002
   2.6448378676886569E-002  -7.8990184347351861E-003   5.8745307950213717E-002
   2.5423462653470171E-002  -7.5884415608693731E-003   5.8628410137535752E-002
   2.4398546630053791E-002  -7.2674651133785555E-003   5.8715699606025989E-002
   2.3373630606637399E-002  -6.9360890922626484E-003   5.9007176355684296E-002
   2.1964705103563353E-002  -6.5352859135877073E-003   6.2112486319601257E-002
   2.1147852703032655E-002  -6.3085943314026560E-003   6.1787940634233429E-002
   2.0331000302501942E-002  -6.0658813406711115E-003   6.1675334913468910E-002
   1.9514147901971236E-002  -5.8071469413929523E-003   6.1774669157307713E-002
   1.8697295501440531E-002  -5.5323911335684040E-003   6.2085943365749796E-002
   3.7465415778721756E-002  -1.1147182968345826E-002   4.9448019550505651E-002
   3.5840886067696198E-002  -1.0640191640797825E-002   4.9120903808950955E-002
   3.4216356356670655E-002  -1.0115225048992357E-002   4.8980541992552418E-002
   3.2591826645645090E-002  -9.5722831929300027E-003   4.9026934101309719E-002
   3.0967296934619554E-002  -9.0113660726101608E-003   4.9260080135223372E-002
   3.2757690745277984E-002  -9.7434850096513870E-003   5.2688214448062154E-002
   3.1322009823092911E-002  -9.2920551456700251E-003   5.2389879976128650E-002
   2.9886328900907866E-002  -8.8261543529040698E-003   5.2282489156719875E-002
   2.8450647978722793E-002  -8.3457826313534517E-003   5.2366041989835979E-002
   2.7014967056537748E-002  -7.8509399810180458E-003   5.2640538475477006E-002
   2.8060429021249854E-002  -8.3397870509571148E-003   5.5874600049788517E-002
   2.6817786615274120E-002  -7.9439186505424197E-003   5.5601542512003194E-002
   2.5575144209298361E-002  -7.5370836568155672E-003   5.5523618354111702E-002
   2.4332501803322644E-002  -7.1192820697767913E-003   5.5640827576114021E-002
   2.3089859397346875E-002  -6.6905138894259031E-003   5.5953170178009951E-002
   2.3373630606637399E-002  -6.9360890922626484E-003   5.9007176355684296E-002
   2.2328216444239803E-002  -6.5957821554146895E-003   5.8755891416574946E-002
   2.1282802281842237E-002  -6.2480129607271999E-003   5.8703929584728136E-002
   2.0237388119444647E-002  -5.8927815082002412E-003   5.8851290860143880E-002
   1.9191973957047075E-002  -5.5300877978337742E-003   5.9197975242822290E-002
   1.8697295501440531E-002  -5.5323911335684040E-003   6.2085943365749796E-002
   1.7853299309989967E-002  -5.2476456602870425E-003   6.1852926689843712E-002
   1.7009303118539404E-002  -4.9589422646387771E-003   6.1823422848568899E-002
   1.6165306927088820E-002  -4.6662809466237187E-003   6.1997431841925632E-002
   1.5321310735638249E-002  -4.3696617062416454E-003   6.2374953669913857E-002
   3.0967296934619554E-002  -9.0113660726101608E-003   4.9260080135223372E-002
   2.9273356985170251E-002  -8.4390962023013771E-003   4.8936530003563794E-002
   2.7579417035720935E-002  -7.8620960962722392E-003   4.8797897588058886E-002
   2.5885477086271626E-002  -7.2803657545227156E-003   4.8844182888708496E-002
   2.4191537136822261E-002  -6.6939051770522617E-003   4.9075385905512414E-002
   2.7014967056537748E-002  -7.8509399810180458E-003   5.2640538475477006E-002
   2.5509860770295059E-002  -7.3458763625644241E-003   5.2353477131346943E-002
   2.4004754484052371E-002  -6.8348417366586589E-003   5.2259165397475410E-002
   2.2499648197809780E-002  -6.3178361033011804E-003   5.2357603273863032E-002
   2.0994541911567022E-002  -5.7948594624916971E-003   5.2648790760508990E-002
   2.3089859397346875E-002  -6.6905138894259031E-003   5.5953170178009951E-002
   2.1781418668415146E-002  -6.2526565228271658E-003   5.5703838393140637E-002
   2.0472977939483415E-002  -5.8075873770453076E-003   5.5655088112634525E-002
   1.9164537210551690E-002  -5.3553064520797580E-003   5.5806919336491206E-002
   1.7856096481619926E-002  -4.8958137479310215E-003   5.6159332064711132E-002
   1.9191973957047075E-002  -5.5300877978337742E-003   5.9197975242822290E-002
   1.8088030679530489E-002  -5.1594366830901156E-003   5.8987613788945084E-002
   1.6984087402013875E-002  -4.7803330174315643E-003   5.8985665733535329E-002
   1.5880144124497328E-002  -4.3927768008583902E-003   5.9192131076592901E-002
   1.4776200846980704E-002  -3.9967680333703459E-003   5.9607009818117659E-002
   1.5321310735638249E-002  -4.3696617062416454E-003   6.2374953669913857E-002
   1.4429696803641090E-002  -4.0662168433529544E-003   6.2204803318760327E-002
   1.3538082871643903E-002  -3.7530786578182929E-003   6.2250898260178544E-002
   1.2646468939646750E-002  -3.4302471496369460E-003   6.2513238494168122E-002
   1.1754855007649556E-002  -3.0977223188097813E-003   6.2991824020729448E-002
   2.6633157360781510E-002   0.0000000000000000        2.9469796818179628E-002
   2.7234014929196158E-002  -5.8570410824720833E-004   3.4947294540824014E-002
   2.7834872497610810E-002  -1.3194177324806801E-003   4.0116641181563606E-002
   2.8435730066025459E-002  -2.2011408727004161E-003   4.4977836740398375E-002
   2.9036587634440114E-002  -3.2308735289064252E-003   4.9530881217328335E-002
   2.0116720833909717E-002   0.0000000000000000        2.9022059886693933E-002
   2.0448911492873312E-002  -4.3927808121014492E-004   3.4314964913143356E-002
   2.0781102151836910E-002  -9.8956329940593901E-004   3.9378687202595464E-002
   2.1113292810800505E-002  -1.6508556545873762E-003   4.4213226755050294E-002
   2.1445483469764100E-002  -2.4231551467544642E-003   4.8818583570507813E-002
   1.3505715764875158E-002   0.0000000000000000        2.8702247792744988E-002
   1.3648207859295207E-002  -2.9285205417308282E-004   3.3847562502000057E-002
   1.3790699953715256E-002  -6.5970886633119445E-004   3.8842662819165326E-002
   1.3933192048135305E-002  -1.1005704364743345E-003   4.3687548744240814E-002
   1.4075684142555354E-002  -1.6154367646025029E-003   4.8382220277226516E-002
   6.8001421536778286E-003   0.0000000000000000        2.8510360536332796E-002
   6.8319040284618420E-003  -1.4642602713602093E-004   3.3545087307394132E-002
   6.8636659032458545E-003  -3.2985443325645250E-004   3.8508568031273178E-002
   6.8954277780298671E-003  -5.5028521836129191E-004   4.3400802707969949E-002
   6.9271896528138805E-003  -8.0771838245054695E-004   4.8221791337484436E-002
   3.1773108449817400E-013   0.0000000000000000        2.8446398117457354E-002
   3.7321708223903016E-013  -9.8958168048834949E-014   3.3407539329325574E-002
   4.2870112841597585E-013  -1.8170881466161859E-013   3.8376402838919021E-002
   4.8418528301313879E-013  -2.4825107247661293E-013   4.3352988646237697E-002
   5.3967117233377770E-013  -2.9858407413207999E-013   4.8337296751281594E-002
   2.9036587634440114E-002  -3.2308735289064252E-003   4.9530881217328335E-002
   2.9109787572231500E-002  -4.2491352781324817E-003   5.1591163530728242E-002
   2.9182987510022886E-002  -5.0964456974124236E-003   5.3750732148263730E-002
   2.9256187447814278E-002  -5.7728047867461885E-003   5.6009587069934842E-002
   2.9329387385605664E-002  -6.2782125461338378E-003   5.8367728295741508E-002
   2.1445483469764100E-002  -2.4231551467544642E-003   4.8818583570507813E-002
   2.1588573139547984E-002  -3.1868514586831900E-003   5.1220356562936102E-002
   2.1731662809331871E-002  -3.8223342731495895E-003   5.3662622715213812E-002
   2.1874752479115755E-002  -4.3296035901536061E-003   5.6145382027340880E-002
   2.2017842148899642E-002  -4.7086594096953233E-003   5.8668634499317404E-002
   1.4075684142555354E-002  -1.6154367646025029E-003   4.8382220277226516E-002
   1.4229870400045530E-002  -2.1245676392339123E-003   5.1082746116199444E-002
   1.4384056657535704E-002  -2.5482228488867618E-003   5.3764971970735549E-002
   1.4538242915025878E-002  -2.8864023935610481E-003   5.6428897840834845E-002
   1.4692429172516057E-002  -3.1391062732567809E-003   5.9074523726497324E-002
   6.9271896528138805E-003  -8.0771838245054695E-004   4.8221791337484436E-002
   7.0336793537241352E-003  -1.0622838197846137E-003   5.1178332190518205E-002
   7.1401690546343925E-003  -1.2741114246239379E-003   5.4057779914828914E-002
   7.2466587555446516E-003  -1.4432011969684778E-003   5.6860134510416611E-002
   7.3531484564549037E-003  -1.5695531368182455E-003   5.9585395977281290E-002
   5.3967117233377770E-013  -2.9858407413207999E-013   4.8337296751281594E-002
   5.8380210388175868E-013  -3.3533766041760060E-013   5.1507114785892379E-002
   6.2793368595104315E-013  -3.6111478390887797E-013   5.4541046547493935E-002
   6.7206537644054487E-013  -3.7590091629680078E-013   5.7439092036086249E-002
   7.1619619956830860E-013  -3.7972402999741917E-013   6.0201251251669349E-002
   2.9329387385605664E-002  -6.2782125461338378E-003   5.8367728295741508E-002
   2.8980196892904722E-002  -6.6662678083560765E-003   5.9135221916859479E-002
   2.8631006400203766E-002  -6.9905694061936814E-003   5.9938884922119164E-002
   2.8281815907502825E-002  -7.2511173396465527E-003   6.0778717311520625E-002
   2.7932625414801869E-002  -7.4479116087148162E-003   6.1654719085063717E-002
   2.2017842148899642E-002  -4.7086594096953233E-003   5.8668634499317404E-002
   2.1717603100101200E-002  -4.9997008563596353E-003   5.9490826896857099E-002
   2.1417364051302755E-002  -5.2429270547315887E-003   6.0374752798060080E-002
   2.1117125002504306E-002  -5.4383380048111454E-003   6.1320412202926326E-002
   2.0816885953705871E-002  -5.5859337065983505E-003   6.2327805111455852E-002
   1.4692429172516057E-002  -3.1391062732567809E-003   5.9074523726497324E-002
   1.4466705687141670E-002  -3.3331339043631957E-003   5.9935476484366493E-002
   1.4240982201767290E-002  -3.4952847032695081E-003   6.0883726865420450E-002
   1.4015258716392909E-002  -3.6255586699757655E-003   6.1919274869659278E-002
   1.3789535231018524E-002  -3.7239558044818918E-003   6.3042120497082965E-002
   7.3531484564549037E-003  -1.5695531368182455E-003   5.9585395977281290E-002
   7.2275046540261388E-003  -1.6665669523667692E-003   6.0469170679387639E-002
   7.1018608515973740E-003  -1.7476423518074354E-003   6.1465807124200321E-002
   6.9762170491686083E-003  -1.8127793351403441E-003   6.2575305311719426E-002
   6.8505732467398443E-003  -1.8619779023654574E-003   6.3797665241944884E-002
   7.1619619956830860E-013  -3.7972402999741917E-013   6.0201251251669349E-002
   7.5460297732643511E-013  -3.7031488986372096E-013   6.1091909481920510E-002
   7.9300888772282363E-013  -3.4534181070355885E-013   6.2120993574399638E-002
   8.3141696652355712E-013  -3.0496612180019866E-013   6.3288503529106699E-002
   8.6982157587733866E-013  -2.4899526884780698E-013   6.4594439346041727E-002
   2.7932625414801869E-002  -7.4479116087148162E-003   6.1654719085063717E-002
   2.7222735290407696E-002  -7.5670550280732066E-003   6.1373204024961908E-002
   2.6512845166013512E-002  -7.5946504123966981E-003   6.1326045131908320E-002
   2.5802955041619335E-002  -7.5306977616852984E-003   6.1513242405903001E-002
   2.5093064917225169E-002  -7.3751970759390051E-003   6.1934795846945973E-002
   2.0816885953705871E-002  -5.5859337065983505E-003   6.2327805111455852E-002
   2.0327131087373902E-002  -5.6752912710960335E-003   6.2200562411437496E-002
   1.9837376221041939E-002  -5.6959878093070723E-003   6.2279234060495223E-002
   1.9347621354709976E-002  -5.6480233212313959E-003   6.2563820058629274E-002
   1.8857866488378013E-002  -5.5313978068691205E-003   6.3054320405839318E-002
   1.3789535231018524E-002  -3.7239558044818918E-003   6.3042120497082965E-002
   1.3491473804776704E-002  -3.7835275141188153E-003   6.3046263148399645E-002
   1.3193412378534889E-002  -3.7973252062173616E-003   6.3227878330820511E-002
   1.2895350952293069E-002  -3.7653488807774791E-003   6.3586966044345453E-002
   1.2597289526051252E-002  -3.6875985377991943E-003   6.4123526288974525E-002
   6.8505732467398443E-003  -1.8619779023654574E-003   6.3797665241944884E-002
   6.7157634426160979E-003  -1.8917637571416197E-003   6.3910306235848521E-002
   6.5809536384923524E-003  -1.8986626031276517E-003   6.4171977942884137E-002
   6.4461438343686095E-003  -1.8826744403235417E-003   6.4582680363051842E-002
   6.3113340302448648E-003  -1.8437992687293445E-003   6.5142413496351595E-002
   8.6982157587733866E-013  -2.4899526884780698E-013   6.4594439346041727E-002
   8.9207981279759707E-013  -1.6442402994698568E-013   6.4792691673783986E-002
   9.1434151916480744E-013  -3.8018199699507704E-014   6.5111532896686156E-002
   9.3660496025549378E-013   1.3038355117789280E-013   6.5550963014748331E-002
   9.5886146245227621E-013   3.4061642395499803E-013   6.6110982027970500E-002
   2.5093064917225169E-002  -7.3751970759390051E-003   6.1934795846945973E-002
   2.4310974963809712E-002  -7.1717466008442005E-003   6.1715351270157814E-002
   2.3528885010394261E-002  -6.9639445820874682E-003   6.1671818156671068E-002
   2.2746795056978821E-002  -6.7517910196685463E-003   6.1804196506485463E-002
   2.1964705103563353E-002  -6.5352859135877073E-003   6.2112486319601257E-002
   1.8857866488378013E-002  -5.5313978068691205E-003   6.3054320405839318E-002
   1.8256590754509125E-002  -5.3788099504862991E-003   6.2818207652525146E-002
   1.7655315020640230E-002  -5.2229584363490539E-003   6.2767811875002771E-002
   1.7054039286771339E-002  -5.0638432644574648E-003   6.2903133073272235E-002
   1.6452763552902441E-002  -4.9014644348115977E-003   6.3224171247333649E-002
   1.2597289526051252E-002  -3.6875985377991943E-003   6.4123526288974525E-002
   1.2186633524219503E-002  -3.5858733001283352E-003   6.3869657473226579E-002
   1.1775977522387749E-002  -3.4819722906108026E-003   6.3811311145761024E-002
   1.1365321520555999E-002  -3.3758955092464101E-003   6.3948487306577928E-002
   1.0954665518724246E-002  -3.2676429560353493E-003   6.4281185955677320E-002
   6.3113340302448648E-003  -1.8437992687293445E-003   6.5142413496351595E-002
   6.1011032729408332E-003  -1.7929366497704304E-003   6.4869700732262253E-002
   5.8908725156368007E-003  -1.7409861448724976E-003   6.4802315968945909E-002
   5.6806417583327648E-003  -1.6879477540353697E-003   6.4940259206402576E-002
   5.4704110010287445E-003  -1.6338214772590870E-003   6.5283530444632337E-002
   9.5886146245227621E-013   3.4061642395499803E-013   6.6110982027970500E-002
   6.7312475038328046E-013   5.8753002463163284E-013   6.5818337429632168E-002
   3.8739497720818861E-013   8.6584905911735177E-013   6.5740826344557357E-002
   1.0166520403309676E-013   1.1757504692067045E-012   6.5878448772746151E-002
  -1.8407150803589900E-013   1.5170642519990452E-012   6.6231204714198577E-002
   2.1964705103563353E-002  -6.5352859135877073E-003   6.2112486319601257E-002
   2.1147852703032655E-002  -6.3085943314026560E-003   6.1787940634233429E-002
   2.0331000302501942E-002  -6.0658813406711115E-003   6.1675334913468910E-002
   1.9514147901971236E-002  -5.8071469413929523E-003   6.1774669157307713E-002
   1.8697295501440531E-002  -5.5323911335684040E-003   6.2085943365749796E-002
   1.6452763552902441E-002  -4.9014644348115977E-003   6.3224171247333649E-002
   1.5845919400846044E-002  -4.7314457480886474E-003   6.2925556094792390E-002
   1.5239075248789626E-002  -4.5494110049664888E-003   6.2835017474596480E-002
   1.4632231096733225E-002  -4.3553602054449449E-003   6.2952555386745823E-002
   1.4025386944676810E-002  -4.1492933495240747E-003   6.3278169831240433E-002
   1.0954665518724246E-002  -3.2676429560353493E-003   6.4281185955677320E-002
   1.0553966182884102E-002  -3.1542971647747914E-003   6.4004495983815593E-002
   1.0153266847043957E-002  -3.0329406692619146E-003   6.3932019112041133E-002
   9.7525675112038104E-003  -2.9035734694969912E-003   6.4063755340353884E-002
   9.3518681753636673E-003  -2.7661955654796899E-003   6.4399704668753888E-002
   5.4704110010287445E-003  -1.6338214772590870E-003   6.5283530444632337E-002
   5.2719930491468368E-003  -1.5771485814609146E-003   6.5024760301302886E-002
   5.0735750972649265E-003  -1.5164703335574549E-003   6.4966339825802702E-002
   4.8751571453830231E-003  -1.4517867335490662E-003   6.5108269018131715E-002
   4.6767391935011136E-003  -1.3830977814353329E-003   6.5450547878289994E-002
  -1.8407150803589900E-013   1.5170642519990452E-012   6.6231204714198577E-002
  -3.6576991435666173E-013   1.8530177392506175E-012   6.5986349047254367E-002
  -5.4745964706004457E-013   2.1472407185640918E-012   6.5937979615881326E-002
  -7.2915458393385535E-013   2.3989872588447980E-012   6.6086096420079468E-002
  -9.1084778608419015E-013   2.6089685967178866E-012   6.6430699459848863E-002
   1.8697295501440531E-002  -5.5323911335684040E-003   6.2085943365749796E-002
   1.7853299309989967E-002  -5.2476456602870425E-003   6.1852926689843712E-002
   1.7009303118539404E-002  -4.9589422646387771E-003   6.1823422848568899E-002
   1.6165306927088820E-002  -4.6662809466237187E-003   6.1997431841925632E-002
   1.5321310735638249E-002  -4.3696617062416454E-003   6.2374953669913857E-002
   1.4025386944676810E-002  -4.1492933495240747E-003   6.3278169831240433E-002
   1.3386775141175755E-002  -3.9357342445152377E-003   6.3048877678174658E-002
   1.2748163337674694E-002  -3.7192066977301541E-003   6.3026841466376424E-002
   1.2109551534173629E-002  -3.4997107091685117E-003   6.3212061195845770E-002
   1.1470939730672591E-002  -3.2772462788307477E-003   6.3604536866582739E-002
   9.3518681753636673E-003  -2.7661955654796899E-003   6.4399704668753888E-002
   8.9223838664482802E-003  -2.6238228287434190E-003   6.4173147557937793E-002
   8.4928995575329069E-003  -2.4794711308214201E-003   6.4157589495025480E-002
   8.0634152486175285E-003  -2.3331404717134713E-003   6.4353030480016768E-002
   7.6339309397021465E-003  -2.1848308514197390E-003   6.4759470512912004E-002
   4.6767391935011136E-003  -1.3830977814353329E-003   6.5450547878289994E-002
   4.4601254858075787E-003  -1.3119114129716905E-003   6.5225736329133144E-002
   4.2435117781140282E-003  -1.2397355639126861E-003   6.5215666934516123E-002
   4.0268980704204847E-003  -1.1665702342584031E-003   6.5420339694439084E-002
   3.8102843627269428E-003  -1.0924154240088413E-003   6.5839754608902012E-002
  -9.1084778608419015E-013   2.6089685967178866E-012   6.6430699459848863E-002
  -7.4639253111463688E-013   2.8001767571339542E-012   6.6206643991760628E-002
  -5.8193033725117971E-013   2.9960478542534474E-012   6.6201073784848546E-002
  -4.1746987811119851E-013   3.1967484215300601E-012   6.6413988839112481E-002
  -2.5301288841816927E-013   3.4021119255100984E-012   6.6845389154552459E-002
   1.5321310735638249E-002  -4.3696617062416454E-003   6.2374953669913857E-002
   1.4429696803641090E-002  -4.0662168433529544E-003   6.2204803318760327E-002
   1.3538082871643903E-002  -3.7530786578182929E-003   6.2250898260178544E-002
   1.2646468939646750E-002  -3.4302471496369460E-003   6.2513238494168122E-002
   1.1754855007649556E-002  -3.0977223188097813E-003   6.2991824020729448E-002
   1.1470939730672591E-002  -3.2772462788307477E-003   6.3604536866582739E-002
   1.0797235638840351E-002  -3.0496626314617803E-003   6.3457894934483783E-002
   1.0123531547008131E-002  -2.8148089918074159E-003   6.3530827390143235E-002
   9.4498274551758910E-003  -2.5726853598672939E-003   6.3823334233561180E-002
   8.7761233633436853E-003  -2.3232917356416083E-003   6.4335415464737200E-002
   7.6339309397021465E-003  -2.1848308514197390E-003   6.4759470512912004E-002
   7.1814657832216730E-003  -2.0331084195707172E-003   6.4633913669507159E-002
   6.7290006267411995E-003  -1.8765393257966362E-003   6.4731260309047356E-002
   6.2765354702607416E-003  -1.7151235700974717E-003   6.5051510431532844E-002
   5.8240703137802524E-003  -1.5488611524735463E-003   6.5594664036963346E-002
   3.8102843627269428E-003  -1.0924154240088413E-003   6.5839754608902012E-002
   3.5823872367850475E-003  -1.0165542076795986E-003   6.5732859523830400E-002
   3.3544901108431540E-003  -9.3826965978580784E-004   6.5852197016890740E-002
   3.1265929849012592E-003  -8.5756178032784548E-004   6.6197767088082948E-002
   2.8986958589593791E-003  -7.7443056930537324E-004   6.6769569737407455E-002
  -2.5301288841816927E-013   3.4021119255100984E-012   6.6845389154552459E-002
  -4.6952372545483456E-013   4.2115200216130688E-012   6.6754732497453506E-002
  -6.8603109304454790E-013   6.2250066212854449E-012   6.6893637513673415E-002
  -9.0254019535773722E-013   9.4421102880826169E-012   6.7262104203212145E-002
  -1.1190492976709265E-012   1.3862688774679555E-011   6.7860132566069264E-002
   3.1773108449817400E-013   0.0000000000000000        2.8446398117457354E-002
   3.7321708223903016E-013  -9.8958168048834949E-014   3.3407539329325574E-002
   4.2870112841597585E-013  -1.8170881466161859E-013   3.8376402838919021E-002
   4.8418528301313879E-013  -2.4825107247661293E-013   4.3352988646237697E-002
   5.3967117233377770E-013  -2.9858407413207999E-013   4.8337296751281594E-002
  -6.8001421530538373E-003   0.0000000000000000        2.8510360536125608E-002
  -6.8319040277281589E-003   1.4642602695015203E-004   3.3545087307193300E-002
  -6.8636659024024840E-003   3.2985443291345777E-004   3.8508568031076162E-002
  -6.8954277770768039E-003   5.5028521788991029E-004   4.3400802707774161E-002
  -6.9271896517511264E-003   8.0771838187951740E-004   4.8221791337287337E-002
  -1.3505715764285581E-002   0.0000000000000000        2.8702247792344503E-002
  -1.3648207858599779E-002   2.9285205399926352E-004   3.3847562501608613E-002
  -1.3790699952913975E-002   6.5970886600862262E-004   3.8842662818777809E-002
  -1.3933192047228173E-002   1.1005704360280777E-003   4.3687548743852105E-002
  -1.4075684141542366E-002   1.6154367640576293E-003   4.8382220276831492E-002
  -2.0116720833377497E-002   0.0000000000000000        2.9022059886114039E-002
  -2.0448911492241637E-002   4.3927808104837394E-004   3.4314964912571515E-002
  -2.0781102151105780E-002   9.8956329910378747E-004   3.9378687202024011E-002
  -2.1113292809969916E-002   1.6508556541662421E-003   4.4213226754471528E-002
  -2.1445483468834053E-002   2.4231551462357342E-003   4.8818583569914059E-002
  -2.6633157360329587E-002   0.0000000000000000        2.9469796817434217E-002
  -2.7234014928653735E-002   5.8570410809748522E-004   3.4947294540081990E-002
  -2.7834872496977889E-002   1.3194177321989541E-003   4.0116641180814719E-002
  -2.8435730065302037E-002   2.2011408723044065E-003   4.4977836739632397E-002
  -2.9036587633626189E-002   3.2308735284138426E-003   4.9530881216535039E-002
   5.3967117233377770E-013  -2.9858407413207999E-013   4.8337296751281594E-002
   5.8380210388175868E-013  -3.3533766041760060E-013   5.1507114785892379E-002
   6.2793368595104315E-013  -3.6111478390887797E-013   5.4541046547493935E-002
   6.7206537644054487E-013  -3.7590091629680078E-013   5.7439092036086249E-002
   7.1619619956830860E-013  -3.7972402999741917E-013   6.0201251251669349E-002
  -6.9271896517511264E-003   8.0771838187951740E-004   4.8221791337287337E-002
  -7.0336793525735426E-003   1.0622838191399133E-003   5.1178332190310039E-002
  -7.1401690533959570E-003   1.2741114239287054E-003   5.4057779914608889E-002
  -7.2466587542183722E-003   1.4432011962458872E-003   5.6860134510183867E-002
  -7.3531484550407901E-003   1.5695531360914797E-003   5.9585395977034966E-002
  -1.4075684141542366E-002   1.6154367640576293E-003   4.8382220276831492E-002
  -1.4229870398945965E-002   2.1245676386151434E-003   5.1082746115783548E-002
  -1.4384056656349564E-002   2.5482228482184908E-003   5.3764971970297115E-002
  -1.4538242913753167E-002   2.8864023928676548E-003   5.6428897840372166E-002
  -1.4692429171156766E-002   3.1391062725626556E-003   5.9074523726008722E-002
  -2.1445483468834053E-002   2.4231551462357342E-003   4.8818583569914059E-002
  -2.1588573138533473E-002   3.1868514580903873E-003   5.1220356562312892E-002
  -2.1731662808232893E-002   3.8223342725082730E-003   5.3662622714558579E-002
  -2.1874752477932306E-002   4.3296035894894464E-003   5.6145382026651175E-002
  -2.2017842147631726E-002   4.7086594090338524E-003   5.8668634498590576E-002
  -2.9036587633626189E-002   3.2308735284138426E-003   4.9530881216535039E-002
  -2.9109787571336067E-002   4.2491352775656226E-003   5.1591163529898086E-002
  -2.9182987509045934E-002   5.0964456967980774E-003   5.3750732147393357E-002
  -2.9256187446755805E-002   5.7728047861112051E-003   5.6009587069020851E-002
  -2.9329387384465680E-002   6.2782125455050283E-003   5.8367728294780576E-002
   7.1619619956830860E-013  -3.7972402999741917E-013   6.0201251251669349E-002
   7.5460297732643511E-013  -3.7031488986372096E-013   6.1091909481920510E-002
   7.9300888772282363E-013  -3.4534181070355885E-013   6.2120993574399638E-002
   8.3141696652355712E-013  -3.0496612180019866E-013   6.3288503529106699E-002
   8.6982157587733866E-013  -2.4899526884780698E-013   6.4594439346041727E-002
  -7.3531484550407901E-003   1.5695531360914797E-003   5.9585395977034966E-002
  -7.2275046525367998E-003   1.6665669516620282E-003   6.0469170679133287E-002
  -7.1018608500328104E-003   1.7476423511541082E-003   6.1465807123934846E-002
  -6.9762170475288227E-003   1.8127793345677373E-003   6.2575305311439622E-002
  -6.8505732450248272E-003   1.8619779019028726E-003   6.3797665241647594E-002
  -1.4692429171156766E-002   3.1391062725626556E-003   5.9074523726008722E-002
  -1.4466705685711925E-002   3.3331339036943575E-003   5.9935476483860238E-002
  -1.4240982200267080E-002   3.4952847026536137E-003   6.0883726864890270E-002
  -1.4015258714822244E-002   3.6255586694404129E-003   6.1919274869098734E-002
  -1.3789535229377401E-002   3.7239558040547821E-003   6.3042120496485721E-002
  -2.2017842147631726E-002   4.7086594090338524E-003   5.8668634498590576E-002
  -2.1717603098770771E-002   4.9997008557266728E-003   5.9490826896101308E-002
  -2.1417364049909807E-002   5.2429270541531191E-003   6.0374752797265820E-002
  -2.1117125001048849E-002   5.4383380043130890E-003   6.1320412202084104E-002
  -2.0816885952187891E-002   5.5859337062067124E-003   6.2327805110556092E-002
  -2.9329387384465680E-002   6.2782125455050283E-003   5.8367728294780576E-002
  -2.8980196891713342E-002   6.6662678077590402E-003   5.9135221915856559E-002
  -2.8631006398960990E-002   6.9905694056525917E-003   5.9938884921061558E-002
  -2.8281815906208645E-002   7.2511173391857833E-003   6.0778717310395601E-002
  -2.7932625413456303E-002   7.4479116083585734E-003   6.1654719083858653E-002
   8.6982157587733866E-013  -2.4899526884780698E-013   6.4594439346041727E-002
   8.9207981279759707E-013  -1.6442402994698568E-013   6.4792691673783986E-002
   9.1434151916480744E-013  -3.8018199699507704E-014   6.5111532896686156E-002
   9.3660496025549378E-013   1.3038355117789280E-013   6.5550963014748331E-002
   9.5886146245227621E-013   3.4061642395499803E-013   6.6110982027970500E-002
  -6.8505732450248272E-003   1.8619779019028726E-003   6.3797665241647594E-002
  -6.7157634408595160E-003   1.8917637568483456E-003   6.3910306235585496E-002
  -6.5809536366942039E-003   1.8986626030930084E-003   6.4171977942649519E-002
  -6.4461438325288858E-003   1.8826744406365680E-003   6.4582680362839651E-002
  -6.3113340283635806E-003   1.8437992694794181E-003   6.5142413496155932E-002
  -1.3789535229377401E-002   3.7239558040547821E-003   6.3042120496485721E-002
  -1.3491473803102864E-002   3.7835275138611013E-003   6.3046263147876480E-002
  -1.3193412376828341E-002   3.7973252062238096E-003   6.3227878330359547E-002
  -1.2895350950553807E-002   3.7653488811428210E-003   6.3586966043934920E-002
  -1.2597289524279279E-002   3.6875985386181920E-003   6.4123526288602614E-002
  -2.0816885952187891E-002   5.5859337062067124E-003   6.2327805110556092E-002
  -2.0327131085837984E-002   5.6752912708738640E-003   6.2200562410656982E-002
  -1.9837376219488063E-002   5.6959878093546679E-003   6.2279234059816342E-002
  -1.9347621353138143E-002   5.6480233216490532E-003   6.2563820058034181E-002
  -1.8857866486788236E-002   5.5313978077569798E-003   6.3054320405310546E-002
  -2.7932625413456303E-002   7.4479116083585734E-003   6.1654719083858653E-002
  -2.7222735289064843E-002   7.5670550278865989E-003   6.1373204023926931E-002
  -2.6512845164673372E-002   7.5946504124855645E-003   6.1326045131019850E-002
  -2.5802955040281909E-002   7.5306977621552125E-003   6.1513242405137392E-002
  -2.5093064915890452E-002   7.3751970768957953E-003   6.1934795846279589E-002
   9.5886146245227621E-013   3.4061642395499803E-013   6.6110982027970500E-002
   6.7312475038328046E-013   5.8753002463163284E-013   6.5818337429632168E-002
   3.8739497720818861E-013   8.6584905911735177E-013   6.5740826344557357E-002
   1.0166520403309676E-013   1.1757504692067045E-012   6.5878448772746151E-002
  -1.8407150803589900E-013   1.5170642519990452E-012   6.6231204714198577E-002
  -6.3113340283635806E-003   1.8437992694794181E-003   6.5142413496155932E-002
  -6.1011032716420275E-003   1.7929366510380379E-003   6.4869700732050076E-002
  -5.8908725149204744E-003   1.7409861467292537E-003   6.4802315968695207E-002
  -5.6806417581989205E-003   1.6879477565531521E-003   6.4940259206091311E-002
  -5.4704110014773752E-003   1.6338214805096674E-003   6.5283530444238347E-002
  -1.2597289524279279E-002   3.6875985386181920E-003   6.4123526288602614E-002
  -1.2186633523063043E-002   3.5858733014886290E-003   6.3869657472830396E-002
  -1.1775977521846821E-002   3.4819722925927762E-003   6.3811311145296506E-002
  -1.1365321520630588E-002   3.3758955119306388E-003   6.3948487306001001E-002
  -1.0954665519414354E-002   3.2676429595022427E-003   6.4281185954943879E-002
  -1.8857866486788236E-002   5.5313978077569798E-003   6.3054320405310546E-002
  -1.8256590753589937E-002   5.3788099519391785E-003   6.2818207651972977E-002
  -1.7655315020391627E-002   5.2229584384562953E-003   6.2767811874361201E-002
  -1.7054039287193332E-002   5.0638432673081107E-003   6.2903133072475151E-002
  -1.6452763553995019E-002   4.9014644384947764E-003   6.3224171246314978E-002
  -2.5093064915890452E-002   7.3751970768957953E-003   6.1934795846279589E-002
  -2.4310974963222681E-002   7.1717466023897419E-003   6.1715351269477886E-002
  -2.3528885010554907E-002   6.9639445843197381E-003   6.1671818155889360E-002
  -2.2746795057887140E-002   6.7517910226855219E-003   6.1804196505514032E-002
  -2.1964705105219372E-002   6.5352859174874212E-003   6.2112486318351812E-002
  -1.8407150803589900E-013   1.5170642519990452E-012   6.6231204714198577E-002
  -3.6576991435666173E-013   1.8530177392506175E-012   6.5986349047254367E-002
  -5.4745964706004457E-013   2.1472407185640918E-012   6.5937979615881326E-002
  -7.2915458393385535E-013   2.3989872588447980E-012   6.6086096420079468E-002
  -9.1084778608419015E-013   2.6089685967178866E-012   6.6430699459848863E-002
  -5.4704110014773752E-003   1.6338214805096674E-003   6.5283530444238347E-002
  -5.2719930499799898E-003   1.5771485854124134E-003   6.5024760300617379E-002
  -5.0735750984825922E-003   1.5164703380752820E-003   6.4966339824783198E-002
  -4.8751571469852059E-003   1.4517867384978983E-003   6.5108269016736067E-002
  -4.6767391954878092E-003   1.3830977866807204E-003   6.5450547876476001E-002
  -1.0954665519414354E-002   3.2676429595022427E-003   6.4281185954943879E-002
  -1.0553966184022108E-002   3.1542971689716703E-003   6.4004495982448034E-002
  -1.0153266848629860E-002   3.0329406740032608E-003   6.3932019109954913E-002
  -9.7525675132376175E-003   2.9035734745968076E-003   6.4063755337464515E-002
  -9.3518681778453662E-003   2.7661955707524999E-003   6.4399704664976881E-002
  -1.6452763553995019E-002   4.9014644384947764E-003   6.3224171246314978E-002
  -1.5845919402492144E-002   4.7314457525309689E-003   6.2925556092746443E-002
  -1.5239075250989257E-002   4.5494110099313541E-003   6.2835017471396401E-002
  -1.4632231099486375E-002   4.3553602106957178E-003   6.2952555382264866E-002
  -1.4025386947983498E-002   4.1492933548242655E-003   6.3278169825351796E-002
  -2.1964705105219372E-002   6.5352859174874212E-003   6.2112486318351812E-002
  -2.1147852705390085E-002   6.3085943360902952E-003   6.1787940631512578E-002
  -2.0331000305560787E-002   6.0658813458592531E-003   6.1675334909107676E-002
  -1.9514147905731496E-002   5.8071469467945377E-003   6.1774669151137079E-002
  -1.8697295505902205E-002   5.5323911388960312E-003   6.2085943357600815E-002
  -9.1084778608419015E-013   2.6089685967178866E-012   6.6430699459848863E-002
  -7.4639253111463688E-013   2.8001767571339542E-012   6.6206643991760628E-002
  -5.8193033725117971E-013   2.9960478542534474E-012   6.6201073784848546E-002
  -4.1746987811119851E-013   3.1967484215300601E-012   6.6413988839112481E-002
  -2.5301288841816927E-013   3.4021119255100984E-012   6.6845389154552459E-002
  -4.6767391954878092E-003   1.3830977866807204E-003   6.5450547876476001E-002
  -4.4601254874588828E-003   1.3119114184527436E-003   6.5225736327007372E-002
  -4.2435117794299409E-003   1.2397355696437684E-003   6.5215666932091451E-002
  -4.0268980714010154E-003   1.1665702402530523E-003   6.5420339691728641E-002
  -3.8102843633720726E-003   1.0924154302816014E-003   6.5839754605918399E-002
  -9.3518681778453662E-003   2.7661955707524999E-003   6.4399704664976881E-002
  -8.9223838685751726E-003   2.6238228341054909E-003   6.4173147553541837E-002
  -8.4928995593049755E-003   2.4794711362913224E-003   6.4157589490036318E-002
  -8.0634152500347889E-003   2.3331404773096892E-003   6.4353030474460574E-002
  -7.6339309407646005E-003   2.1848308571608965E-003   6.4759470506814423E-002
  -1.4025386947983498E-002   4.1492933548242655E-003   6.3278169825351796E-002
  -1.3386775144095257E-002   3.9357342497581480E-003   6.3048877671364301E-002
  -1.2748163340207026E-002   3.7192067029389042E-003   6.3026841458683175E-002
  -1.2109551536318796E-002   3.4997107143662706E-003   6.3212061187308377E-002
  -1.1470939732430553E-002   3.2772462840404554E-003   6.3604536857240213E-002
  -1.8697295505902205E-002   5.5323911388960312E-003   6.2085943357600815E-002
  -1.7853299314019154E-002   5.2476456654108328E-003   6.1852926680474707E-002
  -1.7009303122136093E-002   4.9589422695865693E-003   6.1823422838031911E-002
  -1.6165306930253025E-002   4.6662809514227063E-003   6.1997431830272259E-002
  -1.5321310738369981E-002   4.3696617109196811E-003   6.2374953657195809E-002
  -2.5301288841816927E-013   3.4021119255100984E-012   6.6845389154552459E-002
  -4.6952372545483456E-013   4.2115200216130688E-012   6.6754732497453506E-002
  -6.8603109304454790E-013   6.2250066212854449E-012   6.6893637513673415E-002
  -9.0254019535773722E-013   9.4421102880826169E-012   6.7262104203212145E-002
  -1.1190492976709265E-012   1.3862688774679555E-011   6.7860132566069264E-002
  -3.8102843633720726E-003   1.0924154302816014E-003   6.5839754605918399E-002
  -3.5823872378478068E-003   1.0165542151396034E-003   6.5732859522690229E-002
  -3.3544901123235445E-003   9.3826967023806496E-004   6.5852197017624764E-002
  -3.1265929867992700E-003   8.5756179557742659E-004   6.6197767090721643E-002
  -2.8986958612750094E-003   7.7443059115722690E-004   6.6769569741982004E-002
  -7.6339309407646005E-003   2.1848308571608965E-003   6.4759470506814423E-002
  -7.1814657846555790E-003   2.0331084260672982E-003   6.4633913666493750E-002
  -6.7290006285465860E-003   1.8765393342513523E-003   6.4731260309179944E-002
  -6.2765354724375749E-003   1.7151235817128279E-003   6.5051510434872922E-002
  -5.8240703163285855E-003   1.5488611684519871E-003   6.5594664043572226E-002
  -1.1470939732430553E-002   3.2772462840404554E-003   6.3604536857240213E-002
  -1.0797235640892848E-002   3.0496626369950763E-003   6.3457894928864111E-002
  -1.0123531549355158E-002   2.8148089982643586E-003   6.3530827388338693E-002
  -9.4498274578174533E-003   2.5726853678483532E-003   6.3823334235663859E-002
  -8.7761233662797672E-003   2.3232917457465807E-003   6.4335415470840152E-002
  -1.5321310738369981E-002   4.3696617109196811E-003   6.2374953657195809E-002
  -1.4429696806559617E-002   4.0662168479230210E-003   6.2204803309801271E-002
  -1.3538082874749273E-002   3.7530786622776147E-003   6.2250898255101494E-002
  -1.2646468942938902E-002   3.4302471539836357E-003   6.2513238493096118E-002
  -1.1754855011128565E-002   3.0977223230412854E-003   6.2991824023785670E-002
  -2.6633157360329587E-002   0.0000000000000000        2.9469796817434217E-002
  -2.7234014928653735E-002   5.8570410809748522E-004   3.4947294540081990E-002
  -2.7834872496977889E-002   1.3194177321989541E-003   4.0116641180814719E-002
  -2.8435730065302037E-002   2.2011408723044065E-003   4.4977836739632397E-002
  -2.9036587633626189E-002   3.2308735284138426E-003   4.9530881216535039E-002
  -3.3392485138801921E-002   0.0000000000000000        3.0179918798932781E-002
  -3.4236237275915932E-002   9.6020801785464457E-004   3.5267990152480423E-002
  -3.5079989413029949E-002   2.0237428456153107E-003   4.0178423450363383E-002
  -3.5923741550143960E-002   3.1906044832819844E-003   4.4911218692581661E-002
  -3.6767493687257978E-002   4.4607929308546884E-003   4.9466375879135251E-002
  -4.0732163962454569E-002   0.0000000000000000        3.1286886043237483E-002
  -4.1688297642108074E-002   1.3347119276118031E-003   3.5940848321587025E-002
  -4.2644431321761600E-002   2.7280679590316586E-003   4.0547685570522247E-002
  -4.3600565001415126E-002   4.1800680942595640E-003   4.5107397790043142E-002
  -4.4556698681068638E-002   5.6907123332955237E-003   4.9619984980149724E-002
  -4.8652193831287521E-002   0.0000000000000000        3.2790698550348336E-002
  -4.9590196027230186E-002   1.7092158373689611E-003   3.6965869047401824E-002
  -5.0528198223172845E-002   3.4323930724480052E-003   4.1224427541291332E-002
  -5.1466200419115496E-002   5.1695317052371428E-003   4.5566374032016896E-002
  -5.2404202615058168E-002   6.9206317357363573E-003   4.9991708519578473E-002
  -5.7152574745300791E-002   0.0000000000000000        3.4691356320265328E-002
  -5.7941932431282234E-002   2.0837197471261209E-003   3.8343052329924777E-002
  -5.8731290117263676E-002   4.1367181858643614E-003   4.2208649362670631E-002
  -5.9520647803245126E-002   6.1589953162147198E-003   4.6288147418502880E-002
  -6.0310005489226576E-002   8.1505511381772013E-003   5.0581546497421526E-002
  -2.9036587633626189E-002   3.2308735284138426E-003   4.9530881216535039E-002
  -2.9109787571336067E-002   4.2491352775656226E-003   5.1591163529898086E-002
  -2.9182987509045934E-002   5.0964456967980774E-003   5.3750732147393357E-002
  -2.9256187446755805E-002   5.7728047861112051E-003   5.6009587069020851E-002
  -2.9329387384465680E-002   6.2782125455050283E-003   5.8367728294780576E-002
  -3.6767493687257978E-002   4.4607929308546884E-003   4.9466375879135251E-002
  -3.6780446143883018E-002   5.6942166517788507E-003   5.1255416632710819E-002
  -3.6793398600508065E-002   6.7507841094999535E-003   5.3065666044323855E-002
  -3.6806351057133105E-002   7.6304953040179958E-003   5.4897124113974308E-002
  -3.6819303513758145E-002   8.3333502353329647E-003   5.6749790841662207E-002
  -4.4556698681068638E-002   5.6907123332955237E-003   4.9619984980149724E-002
  -4.4587481302703652E-002   7.1392980259920987E-003   5.1131879240654106E-002
  -4.4618263924338653E-002   8.4051225222018487E-003   5.2586904513101128E-002
  -4.4649046545973646E-002   9.4881858219247796E-003   5.3985060797490783E-002
  -4.4679829167608653E-002   1.0388487925160891E-002   5.5326348093823093E-002
  -5.2404202615058168E-002   6.9206317357363573E-003   4.9991708519578473E-002
  -5.2530893047797907E-002   8.5843794002053407E-003   5.1220551353727904E-002
  -5.2657583480537680E-002   1.0059460934903735E-002   5.2314447553725163E-002
  -5.2784273913277432E-002   1.1345876339831551E-002   5.3273397119570277E-002
  -5.2910964346017192E-002   1.2443625614988815E-002   5.4097400051263247E-002
  -6.0310005489226576E-002   8.1505511381772013E-003   5.0581546497421526E-002
  -6.0610681379165879E-002   1.0029460774418571E-002   5.1521432971932228E-002
  -6.0911357269105168E-002   1.1713799347605629E-002   5.2248295166195974E-002
  -6.1212033159044471E-002   1.3203566857738351E-002   5.2762133080212791E-002
  -6.1512709048983767E-002   1.4498763304816746E-002   5.3062946713982685E-002
  -2.9329387384465680E-002   6.2782125455050283E-003   5.8367728294780576E-002
  -2.8980196891713342E-002   6.6662678077590402E-003   5.9135221915856559E-002
  -2.8631006398960990E-002   6.9905694056525917E-003   5.9938884921061558E-002
  -2.8281815906208645E-002   7.2511173391857833E-003   6.0778717310395601E-002
  -2.7932625413456303E-002   7.4479116083585734E-003   6.1654719083858653E-002
  -3.6819303513758145E-002   8.3333502353329647E-003   5.6749790841662207E-002
  -3.6381924566554612E-002   8.8753712307129903E-003   5.7094411371988722E-002
  -3.5944545619351086E-002   9.2725806174262550E-003   5.7579239427088612E-002
  -3.5507166672147573E-002   9.5249783954726996E-003   5.8204275006961834E-002
  -3.5069787724944027E-002   9.6325645648523972E-003   5.8969518111608402E-002
  -4.4679829167608653E-002   1.0388487925160891E-002   5.5326348093823093E-002
  -4.4050223625309609E-002   1.1084474653666998E-002   5.5167037589093790E-002
  -4.3420618083010572E-002   1.1554591829199930E-002   5.5251972749782101E-002
  -4.2791012540711534E-002   1.1798839451759673E-002   5.5581153575888123E-002
  -4.2161406998412483E-002   1.1817217521346242E-002   5.6154580067411849E-002
  -5.2910964346017192E-002   1.2443625614988815E-002   5.4097400051263247E-002
  -5.1985094067978306E-002   1.3293578076621012E-002   5.3353100567171630E-002
  -5.1059223789939434E-002   1.3836603040973601E-002   5.2957084889142116E-002
  -5.0133353511900569E-002   1.4072700508046659E-002   5.2909353017174504E-002
  -4.9207483233861669E-002   1.4001870477840062E-002   5.3209904951268934E-002
  -6.1512709048983767E-002   1.4498763304816746E-002   5.3062946713982685E-002
  -6.0186535894560723E-002   1.5502681499574966E-002   5.1652600306222429E-002
  -5.8860362740137673E-002   1.6118614252747292E-002   5.0694575845168510E-002
  -5.7534189585714629E-002   1.6346561564333555E-002   5.0188873330820984E-002
  -5.6208016431291578E-002   1.6186523434333897E-002   5.0135492763179731E-002
  -2.7932625413456303E-002   7.4479116083585734E-003   6.1654719083858653E-002
  -2.7222735289064843E-002   7.5670550278865989E-003   6.1373204023926931E-002
  -2.6512845164673372E-002   7.5946504124855645E-003   6.1326045131019850E-002
  -2.5802955040281909E-002   7.5306977621552125E-003   6.1513242405137392E-002
  -2.5093064915890452E-002   7.3751970768957953E-003   6.1934795846279589E-002
  -3.5069787724944027E-002   9.6325645648523972E-003   5.8969518111608402E-002
  -3.4135490411142791E-002   9.6347919301734489E-003   5.8644870094891229E-002
  -3.3201193097341535E-002   9.5711132960438206E-003   5.8534680289969013E-002
  -3.2266895783540278E-002   9.4415286624635955E-003   5.8638948696841726E-002
  -3.1332598469739022E-002   9.2460380294327738E-003   5.8957675315509370E-002
  -4.2161406998412483E-002   1.1817217521346242E-002   5.6154580067411849E-002
  -4.1022600450431143E-002   1.1702528832460188E-002   5.5812441129387769E-002
  -3.9883793902449782E-002   1.1547576179602078E-002   5.5664862447928988E-002
  -3.8744987354468442E-002   1.1352359562771979E-002   5.5711844023035410E-002
  -3.7606180806487075E-002   1.1116878981969766E-002   5.5953385854707140E-002
  -4.9207483233861669E-002   1.4001870477840062E-002   5.3209904951268934E-002
  -4.7884065406929896E-002   1.3770265734746982E-002   5.2875917127416544E-002
  -4.6560647579998143E-002   1.3524039063160336E-002   5.2716591604899721E-002
  -4.5237229753066384E-002   1.3263190463080334E-002   5.2731928383718471E-002
  -4.3913811926134610E-002   1.2987719934506738E-002   5.2921927463872760E-002
  -5.6208016431291578E-002   1.6186523434333897E-002   5.0135492763179731E-002
  -5.4719885280639070E-002   1.5838002637033791E-002   4.9835298088977534E-002
  -5.3231754129986597E-002   1.5500501946718672E-002   4.9689867760881294E-002
  -5.1743622979334103E-002   1.5174021363388655E-002   4.9699201778890839E-002
  -5.0255491828681609E-002   1.4858560887043737E-002   4.9863300143006328E-002
  -2.5093064915890452E-002   7.3751970768957953E-003   6.1934795846279589E-002
  -2.4310974963222681E-002   7.1717466023897419E-003   6.1715351269477886E-002
  -2.3528885010554907E-002   6.9639445843197381E-003   6.1671818155889360E-002
  -2.2746795057887140E-002   6.7517910226855219E-003   6.1804196505514032E-002
  -2.1964705105219372E-002   6.5352859174874212E-003   6.2112486318351812E-002
  -3.1332598469739022E-002   9.2460380294327738E-003   5.8957675315509370E-002
  -3.0367772527936557E-002   9.0092776617237830E-003   5.8700513974994858E-002
  -2.9402946586134095E-002   8.7558838241089537E-003   5.8632913149536538E-002
  -2.8438120644331617E-002   8.4858565165883380E-003   5.8754872839134484E-002
  -2.7473294702529145E-002   8.1991957391619186E-003   5.9066393043788717E-002
  -3.7606180806487075E-002   1.1116878981969766E-002   5.5953385854707140E-002
  -3.6444969823706826E-002   1.0846808721057762E-002   5.5646225824138043E-002
  -3.5283758840926584E-002   1.0547823063898249E-002   5.5542275360468171E-002
  -3.4122547858146328E-002   1.0219922010491152E-002   5.5641534463697719E-002
  -3.2961336875366065E-002   9.8631055608365825E-003   5.5944003133826498E-002
  -4.3913811926134610E-002   1.2987719934506738E-002   5.2921927463872760E-002
  -4.2542566850533502E-002   1.2684339780391813E-002   5.2552486816907301E-002
  -4.1171321774932400E-002   1.2339762303687532E-002   5.2399904788684240E-002
  -3.9800076699331270E-002   1.1953987504393996E-002   5.2464181379203514E-002
  -3.8428831623730168E-002   1.1527015382511219E-002   5.2745316588465270E-002
  -5.0255491828681609E-002   1.4858560887043737E-002   4.9863300143006328E-002
  -4.8660563608416550E-002   1.4521870839725795E-002   4.9419296953302772E-002
  -4.7065635388151519E-002   1.4131701543476802E-002   4.9205801434184626E-002
  -4.5470707167886461E-002   1.3688052998296767E-002   4.9222813585652045E-002
  -4.3875778947621402E-002   1.3190925204185799E-002   4.9470333407704847E-002
  -2.1964705105219372E-002   6.5352859174874212E-003   6.2112486318351812E-002
  -2.1147852705390085E-002   6.3085943360902952E-003   6.1787940631512578E-002
  -2.0331000305560787E-002   6.0658813458592531E-003   6.1675334909107676E-002
  -1.9514147905731496E-002   5.8071469467945377E-003   6.1774669151137079E-002
  -1.8697295505902205E-002   5.5323911388960312E-003   6.2085943357600815E-002
  -2.7473294702529145E-002   8.1991957391619186E-003   5.9066393043788717E-002
  -2.6448378679998812E-002   7.8990184398244068E-003   5.8745307948313841E-002
  -2.5423462657468476E-002   7.5884415665701879E-003   5.8628410133806777E-002
  -2.4398546634938144E-002   7.2674651193994234E-003   5.8715699600267603E-002
  -2.3373630612407811E-002   6.9360890983120038E-003   5.9007176347695950E-002
  -3.2961336875366065E-002   9.8631055608365825E-003   5.5944003133826498E-002
  -3.1736109913601193E-002   9.4894425435585877E-003   5.5632000464633256E-002
  -3.0510882951836339E-002   9.1110017872810672E-003   5.5516432392941323E-002
  -2.9285655990071484E-002   8.7277832920042535E-003   5.5597298918750558E-002
  -2.8060429028306605E-002   8.3397870577279765E-003   5.5874600042061184E-002
  -3.8428831623730168E-002   1.1527015382511219E-002   5.2745316588465270E-002
  -3.7011046406197283E-002   1.1079866647292734E-002   5.2448018180470818E-002
  -3.5593261188664391E-002   1.0633562007991974E-002   5.2339401686511133E-002
  -3.4175475971131485E-002   1.0188101464609111E-002   5.2419467106586189E-002
  -3.2757690753598613E-002   9.7434850171440879E-003   5.2688214440696095E-002
  -4.3875778947621402E-002   1.3190925204185799E-002   4.9470333407704847E-002
  -4.2273188157787009E-002   1.2670290751026908E-002   4.9193361095826477E-002
  -4.0670597367952616E-002   1.2156122228702909E-002   4.9097318014516278E-002
  -3.9068006578118222E-002   1.1648419637214059E-002   4.9182204163774432E-002
  -3.7465415788283815E-002   1.1147182976559977E-002   4.9448019543600674E-002
  -1.8697295505902205E-002   5.5323911388960312E-003   6.2085943357600815E-002
  -1.7853299314019154E-002   5.2476456654108328E-003   6.1852926680474707E-002
  -1.7009303122136093E-002   4.9589422695865693E-003   6.1823422838031911E-002
  -1.6165306930253025E-002   4.6662809514227063E-003   6.1997431830272259E-002
  -1.5321310738369981E-002   4.3696617109196811E-003   6.2374953657195809E-002
  -2.3373630612407811E-002   6.9360890983120038E-003   5.9007176347695950E-002
  -2.2328216449589482E-002   6.5957821611115630E-003   5.8755891407104605E-002
  -2.1282802286771180E-002   6.2480129656019567E-003   5.8703929573700422E-002
  -2.0237388123952874E-002   5.8927815117828242E-003   5.8851290847483619E-002
  -1.9191973961134548E-002   5.5300877996546927E-003   5.9197975228453936E-002
  -2.8060429028306605E-002   8.3397870577279765E-003   5.5874600042061184E-002
  -2.6817786622048950E-002   7.9439186568123349E-003   5.5601542502034168E-002
  -2.5575144215791268E-002   7.5370836616174136E-003   5.5523618341698583E-002
  -2.4332501809533613E-002   7.1192820721431120E-003   5.5640827561054353E-002
  -2.3089859403275931E-002   6.6905138883893711E-003   5.5953170160101567E-002
  -3.2757690753598613E-002   9.7434850171440879E-003   5.2688214440696095E-002
  -3.1322009831397532E-002   9.2920551525131692E-003   5.2389879965263564E-002
  -2.9886328909196399E-002   8.8261543576329191E-003   5.2282489142026448E-002
  -2.8450647986995307E-002   8.3457826325033149E-003   5.2366041970984913E-002
  -2.7014967064794213E-002   7.8509399771242716E-003   5.2640538452138987E-002
  -3.7465415788283815E-002   1.1147182976559977E-002   4.9448019543600674E-002
  -3.5840886077635206E-002   1.0640191648213865E-002   4.9120903796792570E-002
  -3.4216356366986549E-002   1.0115225053648300E-002   4.8980541974684044E-002
  -3.2591826656337919E-002   9.5722831928634726E-003   4.9026934077275139E-002
  -3.0967296945689282E-002   9.0113660658589501E-003   4.9260080104565840E-002
  -1.5321310738369981E-002   4.3696617109196811E-003   6.2374953657195809E-002
  -1.4429696806559617E-002   4.0662168479230210E-003   6.2204803309801271E-002
  -1.3538082874749273E-002   3.7530786622776147E-003   6.2250898255101494E-002
  -1.2646468942938902E-002   3.4302471539836357E-003   6.2513238493096118E-002
  -1.1754855011128565E-002   3.0977223230412854E-003   6.2991824023785670E-002
  -1.9191973961134548E-002   5.5300877996546927E-003   5.9197975228453936E-002
  -1.8088030683251918E-002   5.1594366828562055E-003   5.8987613778220566E-002
  -1.6984087405369289E-002   4.7803330150269496E-003   5.8985665727437131E-002
  -1.5880144127486694E-002   4.3927767961667724E-003   5.9192131076103507E-002
  -1.4776200849604029E-002   3.9967680262755767E-003   5.9607009824219959E-002
  -2.3089859403275931E-002   6.6905138883893711E-003   5.5953170160101567E-002
  -2.1781418672565778E-002   6.2526565177894733E-003   5.5703838378646869E-002
  -2.0472977941855604E-002   5.8075873677762707E-003   5.5655088103397338E-002
  -1.9164537211145423E-002   5.3553064383497391E-003   5.5806919334353201E-002
  -1.7856096480435277E-002   4.8958137295099791E-003   5.6159332071513857E-002
  -2.7014967064794213E-002   7.8509399771242716E-003   5.2640538452138987E-002
  -2.5509860774501229E-002   7.3458763527227550E-003   5.2353477111080585E-002
  -2.4004754484208243E-002   6.8348417205254877E-003   5.2259165382982739E-002
  -2.2499648193915235E-002   6.3178360805327908E-003   5.2357603267845020E-002
  -2.0994541903622248E-002   5.7948594327443259E-003   5.2648790765668488E-002
  -3.0967296945689282E-002   9.0113660658589501E-003   4.9260080104565840E-002
  -2.9273356989058211E-002   8.4390961876559811E-003   4.8936529975521448E-002
  -2.7579417032427153E-002   7.8620960732748990E-003   4.8797897566192794E-002
  -2.5885477075796040E-002   7.2803657227158355E-003   4.8844182876579850E-002
  -2.4191537119164996E-002   6.6939051359786728E-003   4.9075385906682811E-002
  -5.7152574745300791E-002   0.0000000000000000        3.4691356320265328E-002
  -5.7941932431282234E-002   2.0837197471261209E-003   3.8343052329924777E-002
  -5.8731290117263676E-002   4.1367181858643614E-003   4.2208649362670631E-002
  -5.9520647803245126E-002   6.1589953162147198E-003   4.6288147418502880E-002
  -6.0310005489226576E-002   8.1505511381772013E-003   5.0581546497421526E-002
  -6.5821108513560669E-002   0.0000000000000000        3.7212270239836739E-002
  -6.6625709986512072E-002   2.9139816316689215E-003   4.0834740315779119E-002
  -6.7430311459463488E-002   5.7704316510301416E-003   4.4212821794695191E-002
  -6.8234912932414890E-002   8.5693500580836645E-003   4.7346514676584940E-002
  -6.9039514405366292E-002   1.1310736852829495E-002   5.0235818961448367E-002
  -7.4245596945133496E-002   0.0000000000000000        4.0576851195910861E-002
  -7.5523731825167556E-002   3.7442435162117196E-003   4.4143285034216349E-002
  -7.6801866705201643E-002   7.4041451161959201E-003   4.7007040655382817E-002
  -7.8080001585235717E-002   1.0979704799952611E-002   4.9168118059410258E-002
  -7.9358136465269791E-002   1.4470922567481783E-002   5.0626517246298644E-002
  -8.2426040040019216E-002   0.0000000000000000        4.4785099188487699E-002
  -8.4635997947248687E-002   4.5745054007545194E-003   4.8268686485236488E-002
  -8.6845955854478157E-002   9.0378585813617011E-003   5.0591305944733531E-002
  -8.9055913761707628E-002   1.3390059541821556E-002   5.1752957566978834E-002
  -9.1265871668937085E-002   1.7631108282134073E-002   5.1753641351972378E-002
  -9.0362437798217871E-002   0.0000000000000000        4.9837014217567234E-002
  -9.3962508352755436E-002   5.4047672852973183E-003   5.3210944668839501E-002
  -9.7562578907293016E-002   1.0671572046527480E-002   5.4965617662747310E-002
 -0.10116264946183059        1.5800414283690500E-002   5.5101033199290654E-002
 -0.10476272001636816        2.0791293996786371E-002   5.3617191278469548E-002
  -6.0310005489226576E-002   8.1505511381772013E-003   5.0581546497421526E-002
  -6.0610681379165879E-002   1.0029460774418571E-002   5.1521432971932228E-002
  -6.0911357269105168E-002   1.1713799347605629E-002   5.2248295166195974E-002
  -6.1212033159044471E-002   1.3203566857738351E-002   5.2762133080212791E-002
  -6.1512709048983767E-002   1.4498763304816746E-002   5.3062946713982685E-002
  -6.9039514405366292E-002   1.1310736852829495E-002   5.0235818961448367E-002
  -6.9315301080415864E-002   1.3755042228647332E-002   4.9458904643030668E-002
  -6.9591087755465422E-002   1.5662716378916933E-002   4.8944793034639354E-002
  -6.9866874430515036E-002   1.7033759303638304E-002   4.8693484136274431E-002
  -7.0142661105564580E-002   1.7868171002811378E-002   4.8704977947935907E-002
  -7.9358136465269791E-002   1.4470922567481783E-002   5.0626517246298644E-002
  -7.9133206935156325E-002   1.7480623682876111E-002   4.7790741972458625E-002
  -7.8908277405042845E-002   1.9611633410228254E-002   4.5693596398918304E-002
  -7.8683347874929338E-002   2.0863951749538243E-002   4.4335080525677757E-002
  -7.8458418344815858E-002   2.1237578700806042E-002   4.3715194352736873E-002
  -9.1265871668937085E-002   1.7631108282134073E-002   5.1753641351972378E-002
  -9.0064398943387192E-002   2.1206205137104889E-002   4.6516944960216126E-002
  -8.8862926217837326E-002   2.3560550441539579E-002   4.2494705259032858E-002
  -8.7661453492287475E-002   2.4694144195438177E-002   3.9686922248422705E-002
  -8.6459980766737582E-002   2.4606986398800663E-002   3.8093595928385571E-002
 -0.10476272001636816        2.0791293996786371E-002   5.3617191278469548E-002
 -0.10210887710510853        2.4931786591333646E-002   4.5637513606303082E-002
  -9.9455034193848962E-002   2.7509467472850886E-002   3.9348119614982982E-002
  -9.6801191282589363E-002   2.8524336641338133E-002   3.4749009304509332E-002
  -9.4147348371329764E-002   2.7976394096795344E-002   3.1840182674882013E-002
  -6.1512709048983767E-002   1.4498763304816746E-002   5.3062946713982685E-002
  -6.0186535894560723E-002   1.5502681499574966E-002   5.1652600306222429E-002
  -5.8860362740137673E-002   1.6118614252747292E-002   5.0694575845168510E-002
  -5.7534189585714629E-002   1.6346561564333555E-002   5.0188873330820984E-002
  -5.6208016431291578E-002   1.6186523434333897E-002   5.0135492763179731E-002
  -7.0142661105564580E-002   1.7868171002811378E-002   4.8704977947935907E-002
  -6.8410740048326299E-002   1.8322858097141820E-002   4.7256850600752603E-002
  -6.6678818991087990E-002   1.8554727207335146E-002   4.6167897112493458E-002
  -6.4946897933849695E-002   1.8563778333391338E-002   4.5438117483158534E-002
  -6.3214976876611415E-002   1.8350011475310471E-002   4.5067511712747740E-002
  -7.8458418344815858E-002   2.1237578700806042E-002   4.3715194352736873E-002
  -7.6413897472544498E-002   2.1143034694708636E-002   4.2394453523579387E-002
  -7.4369376600273082E-002   2.0990840161923010E-002   4.1339738465563908E-002
  -7.2324855728001694E-002   2.0780995102449153E-002   4.0551049178690457E-002
  -7.0280334855730278E-002   2.0513499516287080E-002   4.0028385662958965E-002
  -8.6459980766737582E-002   2.4606986398800663E-002   3.8093595928385571E-002
  -8.4196008167215258E-002   2.3963211292275490E-002   3.7065409074702758E-002
  -8.1932035567692935E-002   2.3426953116510843E-002   3.6210099904379831E-002
  -7.9668062968170625E-002   2.2998211871506951E-002   3.5527668417416697E-002
  -7.7404090368648315E-002   2.2676987557263644E-002   3.5018114613813427E-002
  -9.4147348371329764E-002   2.7976394096795344E-002   3.1840182674882013E-002
  -9.1757072132338677E-002   2.6783387889842296E-002   3.1269717254122753E-002
  -8.9366795893347575E-002   2.5863066071098735E-002   3.0778981428941237E-002
  -8.6976519654356474E-002   2.5215428640564756E-002   3.0367975199337330E-002
  -8.4586243415365386E-002   2.4840475598240264E-002   3.0036698565311187E-002
  -5.6208016431291578E-002   1.6186523434333897E-002   5.0135492763179731E-002
  -5.4719885280639070E-002   1.5838002637033791E-002   4.9835298088977534E-002
  -5.3231754129986597E-002   1.5500501946718672E-002   4.9689867760881294E-002
  -5.1743622979334103E-002   1.5174021363388655E-002   4.9699201778890839E-002
  -5.0255491828681609E-002   1.4858560887043737E-002   4.9863300143006328E-002
  -6.3214976876611415E-002   1.8350011475310471E-002   4.5067511712747740E-002
  -6.1555070064358328E-002   1.8010024659961689E-002   4.4716629908534318E-002
  -5.9895163252105310E-002   1.7640415914214367E-002   4.4554535081416165E-002
  -5.8235256439852265E-002   1.7241185238068307E-002   4.4581227231393142E-002
  -5.6575349627599220E-002   1.6812332631523680E-002   4.4796706358465430E-002
  -7.0280334855730278E-002   2.0513499516287080E-002   4.0028385662958965E-002
  -6.8414629750887412E-002   2.0182046682889705E-002   3.9586174691350645E-002
  -6.6548924646044477E-002   1.9780329881710010E-002   3.9366773327826891E-002
  -6.4683219541201528E-002   1.9308349112747990E-002   3.9370181572387669E-002
  -6.2817514436358690E-002   1.8766104376003595E-002   3.9596399425032985E-002
  -7.7404090368648315E-002   2.2676987557263644E-002   3.5018114613813427E-002
  -7.5298564340226193E-002   2.2354068705817704E-002   3.4443932437426536E-002
  -7.3193038311804043E-002   2.1920243849205677E-002   3.4126582500113474E-002
  -7.1087512283381962E-002   2.1375512987427601E-002   3.4066064801874227E-002
  -6.8981986254959812E-002   2.0719876120483524E-002   3.4262379342708912E-002
  -8.4586243415365386E-002   2.4840475598240264E-002   3.0036698565311187E-002
  -8.2206873832374738E-002   2.4526090728745634E-002   2.9289903146761942E-002
  -7.9827504249384104E-002   2.4060157816701344E-002   2.8833962598275809E-002
  -7.7448134666393470E-002   2.3442676862107284E-002   2.8668876919853023E-002
  -7.5068765083402822E-002   2.2673647864963453E-002   2.8794646111493322E-002
  -5.0255491828681609E-002   1.4858560887043737E-002   4.9863300143006328E-002
  -4.8660563608416550E-002   1.4521870839725795E-002   4.9419296953302772E-002
  -4.7065635388151519E-002   1.4131701543476802E-002   4.9205801434184626E-002
  -4.5470707167886461E-002   1.3688052998296767E-002   4.9222813585652045E-002
  -4.3875778947621402E-002   1.3190925204185799E-002   4.9470333407704847E-002
  -5.6575349627599220E-002   1.6812332631523680E-002   4.4796706358465430E-002
  -5.4759660621341508E-002   1.6354387184798619E-002   4.4379627774880706E-002
  -5.2943971615083830E-002   1.5867877988111512E-002   4.4173563092695815E-002
  -5.1128282608826153E-002   1.5352805041462317E-002   4.4178512311910667E-002
  -4.9312593602568441E-002   1.4809168344851104E-002   4.4394475432525421E-002
  -6.2817514436358690E-002   1.8766104376003595E-002   3.9596399425032985E-002
  -6.0800558413293994E-002   1.8186903529871491E-002   3.9231160946536003E-002
  -5.8783602390229256E-002   1.7604054432746229E-002   3.9057442600253268E-002
  -5.6766646367164574E-002   1.7017557084627870E-002   3.9075244386184593E-002
  -5.4749690344099836E-002   1.6427411485516324E-002   3.9284566304330165E-002
  -6.8981986254959812E-002   2.0719876120483524E-002   3.4262379342708912E-002
  -6.6783256984273773E-002   2.0019419874944312E-002   3.3973896468268608E-002
  -6.4584527713587747E-002   1.9340230877380900E-002   3.3857439956857062E-002
  -6.2385798442901749E-002   1.8682309127793392E-002   3.3913009808473817E-002
  -6.0187069172215737E-002   1.8045654626181531E-002   3.4140606023119149E-002
  -7.5068765083402822E-002   2.2673647864963453E-002   2.8794646111493322E-002
  -7.2707756334281087E-002   2.1851936220017118E-002   2.8607834340078769E-002
  -7.0346747585159380E-002   2.1076407322015614E-002   2.8573555162507175E-002
  -6.7985738836037660E-002   2.0347061170958931E-002   2.8691808578778275E-002
  -6.5624730086915939E-002   1.9663897766846794E-002   2.8962594588892332E-002
  -4.3875778947621402E-002   1.3190925204185799E-002   4.9470333407704847E-002
  -4.2273188157787009E-002   1.2670290751026908E-002   4.9193361095826477E-002
  -4.0670597367952616E-002   1.2156122228702909E-002   4.9097318014516278E-002
  -3.9068006578118222E-002   1.1648419637214059E-002   4.9182204163774432E-002
  -3.7465415788283815E-002   1.1147182976559977E-002   4.9448019543600674E-002
  -4.9312593602568441E-002   1.4809168344851104E-002   4.4394475432525421E-002
  -4.7528270538872229E-002   1.4251254352614845E-002   4.4121261622129648E-002
  -4.5743947475176093E-002   1.3693349519090729E-002   4.4030583128889189E-002
  -4.3959624411479908E-002   1.3135453844278595E-002   4.4122439952804092E-002
  -4.2175301347783724E-002   1.2577567328178385E-002   4.4396832093874211E-002
  -5.4749690344099836E-002   1.6427411485516324E-002   3.9284566304330165E-002
  -5.2782028919954829E-002   1.5832217954202824E-002   3.9008654223294130E-002
  -5.0814367495809760E-002   1.5230576809478383E-002   3.8916883546000466E-002
  -4.8846706071664719E-002   1.4622488051343075E-002   3.9009254272449286E-002
  -4.6879044647519671E-002   1.4007951679796765E-002   3.9285766402640296E-002
  -6.0187069172215737E-002   1.8045654626181531E-002   3.4140606023119149E-002
  -5.8034463301034706E-002   1.7413181555790781E-002   3.3855538899319804E-002
  -5.5881857429853757E-002   1.6767804099866092E-002   3.3756219265849916E-002
  -5.3729251558672794E-002   1.6109522258407526E-002   3.3842647122709589E-002
  -5.1576645687491832E-002   1.5438336031415187E-002   3.4114822469898623E-002
  -6.5624730086915939E-002   1.9663897766846794E-002   2.8962594588892332E-002
  -6.3285573682111990E-002   1.8994145157378739E-002   2.8661915650206843E-002
  -6.0946417277307971E-002   1.8305031390253856E-002   2.8548590288437758E-002
  -5.8607260872504015E-002   1.7596556465472091E-002   2.8622618503585287E-002
  -5.6268104467700031E-002   1.6868720383033498E-002   2.8884000295649359E-002
  -3.7465415788283815E-002   1.1147182976559977E-002   4.9448019543600674E-002
  -3.5840886077635206E-002   1.0640191648213865E-002   4.9120903796792570E-002
  -3.4216356366986549E-002   1.0115225053648300E-002   4.8980541974684044E-002
  -3.2591826656337919E-002   9.5722831928634726E-003   4.9026934077275139E-002
  -3.0967296945689282E-002   9.0113660658589501E-003   4.9260080104565840E-002
  -4.2175301347783724E-002   1.2577567328178385E-002   4.4396832093874211E-002
  -4.0366029898471455E-002   1.2013938699298815E-002   4.4059112095548858E-002
  -3.8556758449159234E-002   1.1438816686148406E-002   4.3904121649851066E-002
  -3.6747486999847055E-002   1.0852201288726736E-002   4.3931860756780801E-002
  -3.4938215550534807E-002   1.0254092507034240E-002   4.4142329416338111E-002
  -4.6879044647519671E-002   1.4007951679796765E-002   3.9285766402640296E-002
  -4.4889055831615871E-002   1.3387685750383807E-002   3.8943924034746058E-002
  -4.2899067015712097E-002   1.2762408318648243E-002   3.8780786847407316E-002
  -4.0909078199808331E-002   1.2132119384590112E-002   3.8796354840624103E-002
  -3.8919089383904523E-002   1.1496818948209475E-002   3.8990628014396650E-002
  -5.1576645687491832E-002   1.5438336031415187E-002   3.4114822469898623E-002
  -4.9409963877068405E-002   1.4761432801468695E-002   3.3775339614383816E-002
  -4.7243282066645007E-002   1.4085999951148131E-002   3.3610537567352709E-002
  -4.5076600256221656E-002   1.3412037480453599E-002   3.3620416328805192E-002
  -4.2909918445798195E-002   1.2739545389384793E-002   3.3804975898741256E-002
  -5.6268104467700031E-002   1.6868720383033498E-002   2.8884000295649359E-002
  -5.3928754034829079E-002   1.6135179852553722E-002   2.8553358834462639E-002
  -5.1589403601958059E-002   1.5409591583648172E-002   2.8393373809687344E-002
  -4.9250053169087059E-002   1.4691955576316747E-002   2.8404045221323657E-002
  -4.6910702736216087E-002   1.3982271830559889E-002   2.8585373069371811E-002
  -3.0967296945689282E-002   9.0113660658589501E-003   4.9260080104565840E-002
  -2.9273356989058211E-002   8.4390961876559811E-003   4.8936529975521448E-002
  -2.7579417032427153E-002   7.8620960732748990E-003   4.8797897566192794E-002
  -2.5885477075796040E-002   7.2803657227158355E-003   4.8844182876579850E-002
  -2.4191537119164996E-002   6.6939051359786728E-003   4.9075385906682811E-002
  -3.4938215550534807E-002   1.0254092507034240E-002   4.4142329416338111E-002
  -3.3065469676149664E-002   9.6456371055059220E-003   4.3795747211018532E-002
  -3.1192723801764528E-002   9.0279818485766439E-003   4.3621859121491580E-002
  -2.9319977927379354E-002   8.4011267362466488E-003   4.3620665147756948E-002
  -2.7447232052994291E-002   7.7650717685158188E-003   4.3792165289814888E-002
  -3.8919089383904523E-002   1.1496818948209475E-002   3.8990628014396650E-002
  -3.6879761195688518E-002   1.0852178023355724E-002   3.8616544113579121E-002
  -3.4840433007472658E-002   1.0193867623878403E-002   3.8402930724630815E-002
  -3.2801104819256771E-002   9.5218877497773545E-003   3.8349787847551713E-002
  -3.0761776631040738E-002   8.8362384010528539E-003   3.8457115482341431E-002
  -4.2909918445798195E-002   1.2739545389384793E-002   3.3804975898741256E-002
  -4.0716231547674807E-002   1.2058718941205707E-002   3.3398920683202875E-002
  -3.8522544649551432E-002   1.1359753399180154E-002   3.3141112375610668E-002
  -3.6328857751427884E-002   1.0642648763308169E-002   3.3031550975963844E-002
  -3.4135170853304669E-002   9.9074050335899444E-003   3.3070236484263354E-002
  -4.6910702736216087E-002   1.3982271830559889E-002   2.8585373069371811E-002
  -4.4574880732108496E-002   1.3265259859055467E-002   2.8142876919889925E-002
  -4.2239058728000836E-002   1.2525639174482017E-002   2.7836404074430776E-002
  -3.9903236723893239E-002   1.1763409776838901E-002   2.7665954532994114E-002
  -3.7567414719785641E-002   1.0978571666127035E-002   2.7631528295579910E-002
  -9.0362437798217871E-002   0.0000000000000000        4.9837014217567234E-002
  -9.3962508352755436E-002   5.4047672852973183E-003   5.3210944668839501E-002
  -9.7562578907293016E-002   1.0671572046527480E-002   5.4965617662747310E-002
 -0.10116264946183059        1.5800414283690500E-002   5.5101033199290654E-002
 -0.10476272001636816        2.0791293996786371E-002   5.3617191278469548E-002
 -0.10329351220470087        0.0000000000000000        5.8665240847331102E-002
 -0.10683109942391511        1.0884425827327068E-002   5.2120253311132028E-002
 -0.11036868664312938        1.9172293884914586E-002   4.7319489902944066E-002
 -0.11390627386234363        2.4863604172762552E-002   4.4262950622767194E-002
 -0.11744386108155791        2.7958356690870982E-002   4.2950635470601392E-002
 -0.12645798524443963        0.0000000000000000        7.4202423641960905E-002
 -0.12656960754295501        1.6364084369356810E-002   5.5279922872618133E-002
 -0.12668122984147043        2.7673015723301688E-002   4.1465127816661965E-002
 -0.12679285213998578        3.3926794061834596E-002   3.2758038474092463E-002
 -0.12690447443850120        3.5125419384955572E-002   2.9158654844909579E-002
 -0.15985585691743415        0.0000000000000000        9.6448562601456664E-002
 -0.15317803270987509        2.1843742911386549E-002   6.2689953353297745E-002
 -0.14650020850231613        3.6173737561688769E-002   3.7402531403901026E-002
 -0.13982238429475710        4.2989983950906668E-002   2.0586296753266498E-002
 -0.13314456008719805        4.2292482079040176E-002   1.2241249401394096E-002
 -0.20348712722368439        0.0000000000000000       0.12540365772581835     
 -0.18665637492467543        2.7323401453416302E-002   7.4350344753170941E-002
 -0.16982562262566647        4.4674459400075875E-002   3.5131700664661217E-002
 -0.15299487032665748        5.2053173839978699E-002   7.7477254602892620E-003
 -0.13616411802764852        4.9459544773124801E-002  -7.8015808599449787E-003
 -0.10476272001636816        2.0791293996786371E-002   5.3617191278469548E-002
 -0.10210887710510853        2.4931786591333646E-002   4.5637513606303082E-002
  -9.9455034193848962E-002   2.7509467472850886E-002   3.9348119614982982E-002
  -9.6801191282589363E-002   2.8524336641338133E-002   3.4749009304509332E-002
  -9.4147348371329764E-002   2.7976394096795344E-002   3.1840182674882013E-002
 -0.11744386108155791        2.7958356690870982E-002   4.2950635470601392E-002
 -0.11348793709171705        2.9430599127357682E-002   3.6697645851149228E-002
 -0.10953201310187619        3.0254379170340441E-002   3.1358534708013204E-002
 -0.10557608911203535        3.0429696819819274E-002   2.6933302041193232E-002
 -0.10162016512219449        2.9956552075794202E-002   2.3421947850689510E-002
 -0.12690447443850120        3.5125419384955572E-002   2.9158654844909579E-002
 -0.12242287457460933        3.3929411663381689E-002   2.5546702597697847E-002
 -0.11794127471071754        3.2999290867829989E-002   2.2072223622271962E-002
 -0.11345967484682572        3.2335056998300450E-002   1.8735217918631891E-002
 -0.10897807498293388        3.1936710054793108E-002   1.5535685486777721E-002
 -0.13314456008719805        4.2292482079040176E-002   1.2241249401394096E-002
 -0.12891368955378554        3.8428224199405697E-002   1.2184683845948922E-002
 -0.12468281902037301        3.5744202565319530E-002   1.1489186357759338E-002
 -0.12045194848696050        3.4240417176781675E-002   1.0154756936825229E-002
 -0.11622107795354795        3.3916868033791965E-002   8.1813955831467298E-003
 -0.13616411802764852        4.9459544773124801E-002  -7.8015808599449787E-003
 -0.13296038202924557        4.2927036735429754E-002  -3.3884104040975208E-003
 -0.12975664603084258        3.8489114262809092E-002  -3.9057708552477782E-004
 -0.12655291003243962        3.6145777355262781E-002   1.1919190957731616E-003
 -0.12334917403403667        3.5897026012790906E-002   1.3590781397965213E-003
  -9.4147348371329764E-002   2.7976394096795344E-002   3.1840182674882013E-002
  -9.1757072132338677E-002   2.6783387889842296E-002   3.1269717254122753E-002
  -8.9366795893347575E-002   2.5863066071098735E-002   3.0778981428941237E-002
  -8.6976519654356474E-002   2.5215428640564756E-002   3.0367975199337330E-002
  -8.4586243415365386E-002   2.4840475598240264E-002   3.0036698565311187E-002
 -0.10162016512219449        2.9956552075794202E-002   2.3421947850689510E-002
  -9.9135870255581363E-002   2.9185266623901522E-002   2.3143111035089044E-002
  -9.6651575388968236E-002   2.8466162149777520E-002   2.2972581879154862E-002
  -9.4167280522355151E-002   2.7799238653422161E-002   2.2910360382887129E-002
  -9.1682985655742011E-002   2.7184496134835534E-002   2.2956446546285730E-002
 -0.10897807498293388        3.1936710054793108E-002   1.5535685486777721E-002
 -0.10637118342461006        3.1587145357960769E-002   1.5327973865895201E-002
 -0.10376429186628625        3.1069258228456274E-002   1.5257147968767711E-002
 -0.10115740030796244        3.0383048666279583E-002   1.5323207795395135E-002
  -9.8550508749638610E-002   2.9528516671430860E-002   1.5526153345777713E-002
 -0.11622107795354795        3.3916868033791965E-002   8.1813955831467298E-003
 -0.11346301163942477        3.3989024092020016E-002   7.8243057465411867E-003
 -0.11070494532530159        3.3672354307135000E-002   7.6326796977795102E-003
 -0.10794687901117839        3.2966858679137109E-002   7.6065174368614942E-003
 -0.10518881269705523        3.1872537208026089E-002   7.7458189637871940E-003
 -0.12334917403403667        3.5897026012790906E-002   1.3590781397965213E-003
 -0.12041135490002547        3.6390902826079277E-002   6.3210667702744139E-004
 -0.11747353576601424        3.6275450385813847E-002   9.9177066190517249E-005
 -0.11453571663200302        3.5550668691994462E-002  -2.3971069271398401E-004
 -0.11159789749799182        3.4216557744621456E-002  -3.8455659968605893E-004
  -8.4586243415365386E-002   2.4840475598240264E-002   3.0036698565311187E-002
  -8.2206873832374738E-002   2.4526090728745634E-002   2.9289903146761942E-002
  -7.9827504249384104E-002   2.4060157816701344E-002   2.8833962598275809E-002
  -7.7448134666393470E-002   2.3442676862107284E-002   2.8668876919853023E-002
  -7.5068765083402822E-002   2.2673647864963453E-002   2.8794646111493322E-002
  -9.1682985655742011E-002   2.7184496134835534E-002   2.2956446546285730E-002
  -8.9042419309957571E-002   2.6569440463135668E-002   2.2307034503674661E-002
  -8.6401852964173173E-002   2.5901577507440612E-002   2.1889161116587896E-002
  -8.3761286618388775E-002   2.5180907267750321E-002   2.1702826385025489E-002
  -8.1120720272604391E-002   2.4407429744064901E-002   2.1748030308987351E-002
  -9.8550508749638610E-002   2.9528516671430860E-002   1.5526153345777713E-002
  -9.5708061855599269E-002   2.8612790197525641E-002   1.5072865437659309E-002
  -9.2865614961559942E-002   2.7742997198179853E-002   1.4791799970526435E-002
  -9.0023168067520615E-002   2.6919137673393358E-002   1.4682956944379044E-002
  -8.7180721173481246E-002   2.6141211623166322E-002   1.4746336359217099E-002
 -0.10518881269705523        3.1872537208026089E-002   7.7458189637871940E-003
 -0.10220380146929979        3.0656139931915630E-002   7.5873959487158891E-003
  -9.9218790241544355E-002   2.9584416888919135E-002   7.5418791600914085E-003
  -9.6233779013788934E-002   2.8657368079036408E-002   7.6092685979137365E-003
  -9.3248767786033471E-002   2.7874993502267811E-002   7.7895642621826043E-003
 -0.11159789749799182        3.4216557744621456E-002  -3.8455659968605893E-004
 -0.10852963815105915        3.2699489666305648E-002  -1.4937396315534146E-004
 -0.10546137880412643        3.1425836579658334E-002   1.3939868528321797E-004
 -0.10239311945719373        3.0395598484679480E-002   4.8176134562946324E-004
  -9.9324860110261037E-002   2.9608775381369246E-002   8.7771401788366843E-004
  -7.5068765083402822E-002   2.2673647864963453E-002   2.8794646111493322E-002
  -7.2707756334281087E-002   2.1851936220017118E-002   2.8607834340078769E-002
  -7.0346747585159380E-002   2.1076407322015614E-002   2.8573555162507175E-002
  -6.7985738836037660E-002   2.0347061170958931E-002   2.8691808578778275E-002
  -6.5624730086915939E-002   1.9663897766846794E-002   2.8962594588892332E-002
  -8.1120720272604391E-002   2.4407429744064901E-002   2.1748030308987351E-002
  -7.8605304035193890E-002   2.3614094755833689E-002   2.1584685271267626E-002
  -7.6089887797783487E-002   2.2833852122506049E-002   2.1577622616282315E-002
  -7.3574471560373028E-002   2.2066701844082104E-002   2.1726842344031754E-002
  -7.1059055322962639E-002   2.1312643920561702E-002   2.2032344454515657E-002
  -8.7180721173481246E-002   2.6141211623166322E-002   1.4746336359217099E-002
  -8.4507147658890336E-002   2.5376253291650268E-002   1.4573367663150968E-002
  -8.1833574144299398E-002   2.4591296922996643E-002   1.4560431138710937E-002
  -7.9160000629708460E-002   2.3786342517205385E-002   1.4707526785897561E-002
  -7.6486427115117550E-002   2.2961390074276639E-002   1.5014654604710229E-002
  -9.3248767786033471E-002   2.7874993502267811E-002   7.7895642621826043E-003
  -9.0413287205370382E-002   2.7138411827466871E-002   7.5738815157287073E-003
  -8.7577806624707225E-002   2.6348741723487019E-002   7.5219807297931002E-003
  -8.4742326044044053E-002   2.5505983190328752E-002   7.6338619043751907E-003
  -8.1906845463380965E-002   2.4610136227991505E-002   7.9095250394757045E-003
  -9.9324860110261037E-002   2.9608775381369246E-002   8.7771401788366843E-004
  -9.6323722674633960E-002   2.8900570363283279E-002   5.8622682900100198E-004
  -9.3322585239006856E-002   2.8106186523977547E-002   4.6227138952827096E-004
  -9.0321447803379765E-002   2.7225623863451950E-002   5.0584769946535393E-004
  -8.7320310367752674E-002   2.6258882381706372E-002   7.1695575881214335E-004
  -6.5624730086915939E-002   1.9663897766846794E-002   2.8962594588892332E-002
  -6.3285573682111990E-002   1.8994145157378739E-002   2.8661915650206843E-002
  -6.0946417277307971E-002   1.8305031390253856E-002   2.8548590288437758E-002
  -5.8607260872504015E-002   1.7596556465472091E-002   2.8622618503585287E-002
  -5.6268104467700031E-002   1.6868720383033498E-002   2.8884000295649359E-002
  -7.1059055322962639E-002   2.1312643920561702E-002   2.2032344454515657E-002
  -6.8532364728331935E-002   2.0561917842709193E-002   2.1725904662019485E-002
  -6.6005674133701273E-002   1.9804763101288592E-002   2.1607179672260168E-002
  -6.3478983539070583E-002   1.9041179696299898E-002   2.1676169485237630E-002
  -6.0952292944439920E-002   1.8271167627743334E-002   2.1932874100951821E-002
  -7.6486427115117550E-002   2.2961390074276639E-002   1.5014654604710229E-002
  -7.3771841104839919E-002   2.2129690528039425E-002   1.4715386452492096E-002
  -7.1057255094562344E-002   2.1304494812323271E-002   1.4604194328831061E-002
  -6.8342669084284755E-002   2.0485802927127705E-002   1.4681078233727371E-002
  -6.5628083074007137E-002   1.9673614872453032E-002   1.4946038167180611E-002
  -8.1906845463380965E-002   2.4610136227991505E-002   7.9095250394757045E-003
  -7.9004002811636095E-002   2.3697463213369907E-002   7.6303610216245238E-003
  -7.6101160159891226E-002   2.2804226523357785E-002   7.5396342581508374E-003
  -7.3198317508146343E-002   2.1930426157955402E-002   7.6373447490546854E-003
  -7.0295474856401544E-002   2.1076062117162828E-002   7.9234924943358369E-003
  -8.7320310367752674E-002   2.6258882381706372E-002   7.1695575881214335E-004
  -8.4228849848720255E-002   2.5265235898700000E-002   4.7082836941703121E-004
  -8.1137389329687948E-002   2.4303958234392714E-002   4.1349946021937423E-004
  -7.8045928810655529E-002   2.3375049388783160E-002   5.4496903121955403E-004
  -7.4954468291623222E-002   2.2478509361872567E-002   8.6523708241736941E-004
  -5.6268104467700031E-002   1.6868720383033498E-002   2.8884000295649359E-002
  -5.3928754034829079E-002   1.6135179852553722E-002   2.8553358834462639E-002
  -5.1589403601958059E-002   1.5409591583648172E-002   2.8393373809687344E-002
  -4.9250053169087059E-002   1.4691955576316747E-002   2.8404045221323657E-002
  -4.6910702736216087E-002   1.3982271830559889E-002   2.8585373069371811E-002
  -6.0952292944439920E-002   1.8271167627743334E-002   2.1932874100951821E-002
  -5.8440156114570513E-002   1.7499370150085763E-002   2.1618166000994782E-002
  -5.5928019284701015E-002   1.6730430517794534E-002   2.1478374258623381E-002
  -5.3415882454831531E-002   1.5964348730869545E-002   2.1513498873837196E-002
  -5.0903745624962110E-002   1.5201124789310794E-002   2.1723539846636442E-002
  -6.5628083074007137E-002   1.9673614872453032E-002   1.4946038167180611E-002
  -6.2938899925965436E-002   1.8863560447618097E-002   1.4642169012245507E-002
  -6.0249716777923651E-002   1.8051269451941014E-002   1.4517476136069803E-002
  -5.7560533629881935E-002   1.7236741885422235E-002   1.4571959538652948E-002
  -5.4871350481840171E-002   1.6419977748061532E-002   1.4805619219995458E-002
  -7.0295474856401544E-002   2.1076062117162828E-002   7.9234924943358369E-003
  -6.7424985469013807E-002   2.0227750745150118E-002   7.6253678682145568E-003
  -6.4554496081626001E-002   1.9372108386087602E-002   7.5106794420262950E-003
  -6.1684006694238222E-002   1.8509135039974978E-002   7.5794272157707265E-003
  -5.8813517306850471E-002   1.7638830706812464E-002   7.8316111894485563E-003
  -7.4954468291623222E-002   2.2478509361872567E-002   8.6523708241736941E-004
  -7.1898412743715612E-002   2.1591941042682306E-002   5.6776256890195276E-004
  -6.8842357195808057E-002   2.0692947320233801E-002   4.5798417649312029E-004
  -6.5786301647900502E-002   1.9781528194527567E-002   5.3590190519109404E-004
  -6.2730246099992892E-002   1.8857683665563285E-002   8.0151575499554095E-004
  -4.6910702736216087E-002   1.3982271830559889E-002   2.8585373069371811E-002
  -4.4574880732108496E-002   1.3265259859055467E-002   2.8142876919889925E-002
  -4.2239058728000836E-002   1.2525639174482017E-002   2.7836404074430776E-002
  -3.9903236723893239E-002   1.1763409776838901E-002   2.7665954532994114E-002
  -3.7567414719785641E-002   1.0978571666127035E-002   2.7631528295579910E-002
  -5.0903745624962110E-002   1.5201124789310794E-002   2.1723539846636442E-002
  -4.8425528899762177E-002   1.4434760946349240E-002   2.1296979965471696E-002
  -4.5947312174562258E-002   1.3659259455215483E-002   2.1019186222468816E-002
  -4.3469095449362373E-002   1.2874620315909489E-002   2.0890158617628177E-002
  -4.0990878724162461E-002   1.2080843528431751E-002   2.0909897150949486E-002
  -5.4871350481840171E-002   1.6419977748061532E-002   1.4805619219995458E-002
  -5.2237996201408475E-002   1.5604262033642735E-002   1.4408466672044679E-002
  -4.9604641920976772E-002   1.4792879735948838E-002   1.4172823096395545E-002
  -4.6971287640545173E-002   1.3985830854980077E-002   1.4098688493048066E-002
  -4.4337933360113435E-002   1.3183115390736466E-002   1.4186062862001581E-002
  -5.8813517306850471E-002   1.7638830706812464E-002   7.8316111894485563E-003
  -5.6012282637047536E-002   1.6773763120936369E-002   7.4773370396089139E-003
  -5.3211047967244504E-002   1.5926500016682194E-002   7.2973146962105814E-003
  -5.0409813297441576E-002   1.5097041394050666E-002   7.2915441592531251E-003
  -4.7608578627638523E-002   1.4285387253041182E-002   7.4600254287367079E-003
  -6.2730246099992892E-002   1.8857683665563285E-002   8.0151575499554095E-004
  -5.9748388206679159E-002   1.7943264208230336E-002   5.0359106816477706E-004
  -5.6766530313365371E-002   1.7060120297415909E-002   3.9266102191404251E-004
  -5.3784672420051749E-002   1.6208251933121039E-002   4.6872561624436426E-004
  -5.0802814526737849E-002   1.5387659115345897E-002   7.3178485115477088E-004
 </DataArray>
 </PointData>
 </Piece>
 <Piece  NumberOfPoints="          1600 "  NumberOfCells="         1024 ">
 <Points>
 <DataArray  type="Float64" NumberOfComponents="3"  format="ascii" >
  0.50000000000000000        0.0000000000000000        0.0000000000000000     
  0.53125000000000000        0.0000000000000000        0.0000000000000000     
  0.56250000000000000        0.0000000000000000        0.0000000000000000     
  0.59375000000000000        0.0000000000000000        0.0000000000000000     
  0.62500000000000000        0.0000000000000000        0.0000000000000000     
  0.50000000000000000        3.1250000000000000E-002   0.0000000000000000     
  0.53125000000000000        3.1250000000000000E-002   0.0000000000000000     
  0.56250000000000000        3.1250000000000000E-002   0.0000000000000000     
  0.59375000000000000        3.1250000000000000E-002   0.0000000000000000     
  0.62500000000000000        3.1250000000000000E-002   0.0000000000000000     
  0.50000000000000000        6.2500000000000000E-002   0.0000000000000000     
  0.53125000000000000        6.2500000000000000E-002   0.0000000000000000     
  0.56250000000000000        6.2500000000000000E-002   0.0000000000000000     
  0.59375000000000000        6.2500000000000000E-002   0.0000000000000000     
  0.62500000000000000        6.2500000000000000E-002   0.0000000000000000     
  0.50000000000000000        9.3750000000000000E-002   0.0000000000000000     
  0.53125000000000000        9.3750000000000000E-002   0.0000000000000000     
  0.56250000000000000        9.3750000000000000E-002   0.0000000000000000     
  0.59375000000000000        9.3750000000000000E-002   0.0000000000000000     
  0.62500000000000000        9.3750000000000000E-002   0.0000000000000000     
  0.50000000000000000       0.12500000000000000        0.0000000000000000     
  0.53125000000000000       0.12500000000000000        0.0000000000000000     
  0.56250000000000000       0.12500000000000000        0.0000000000000000     
  0.59375000000000000       0.12500000000000000        0.0000000000000000     
  0.62500000000000000       0.12500000000000000        0.0000000000000000     
  0.62500000000000000        0.0000000000000000        0.0000000000000000     
  0.65625000000000000        0.0000000000000000        0.0000000000000000     
  0.68750000000000000        0.0000000000000000        0.0000000000000000     
  0.71875000000000000        0.0000000000000000        0.0000000000000000     
  0.75000000000000000        0.0000000000000000        0.0000000000000000     
  0.62500000000000000        3.1250000000000000E-002   0.0000000000000000     
  0.65625000000000000        3.1250000000000000E-002   0.0000000000000000     
  0.68750000000000000        3.1250000000000000E-002   0.0000000000000000     
  0.71875000000000000        3.1250000000000000E-002   0.0000000000000000     
  0.75000000000000000        3.1250000000000000E-002   0.0000000000000000     
  0.62500000000000000        6.2500000000000000E-002   0.0000000000000000     
  0.65625000000000000        6.2500000000000000E-002   0.0000000000000000     
  0.68750000000000000        6.2500000000000000E-002   0.0000000000000000     
  0.71875000000000000        6.2500000000000000E-002   0.0000000000000000     
  0.75000000000000000        6.2500000000000000E-002   0.0000000000000000     
  0.62500000000000000        9.3750000000000000E-002   0.0000000000000000     
  0.65625000000000000        9.3750000000000000E-002   0.0000000000000000     
  0.68750000000000000        9.3750000000000000E-002   0.0000000000000000     
  0.71875000000000000        9.3750000000000000E-002   0.0000000000000000     
  0.75000000000000000        9.3750000000000000E-002   0.0000000000000000     
  0.62500000000000000       0.12500000000000000        0.0000000000000000     
  0.65625000000000000       0.12500000000000000        0.0000000000000000     
  0.68750000000000000       0.12500000000000000        0.0000000000000000     
  0.71875000000000000       0.12500000000000000        0.0000000000000000     
  0.75000000000000000       0.12500000000000000        0.0000000000000000     
  0.75000000000000000        0.0000000000000000        0.0000000000000000     
  0.78125000000000000        0.0000000000000000        0.0000000000000000     
  0.81250000000000000        0.0000000000000000        0.0000000000000000     
  0.84375000000000000        0.0000000000000000        0.0000000000000000     
  0.87500000000000000        0.0000000000000000        0.0000000000000000     
  0.75000000000000000        3.1250000000000000E-002   0.0000000000000000     
  0.78125000000000000        3.1250000000000000E-002   0.0000000000000000     
  0.81250000000000000        3.1250000000000000E-002   0.0000000000000000     
  0.84375000000000000        3.1250000000000000E-002   0.0000000000000000     
  0.87500000000000000        3.1250000000000000E-002   0.0000000000000000     
  0.75000000000000000        6.2500000000000000E-002   0.0000000000000000     
  0.78125000000000000        6.2500000000000000E-002   0.0000000000000000     
  0.81250000000000000        6.2500000000000000E-002   0.0000000000000000     
  0.84375000000000000        6.2500000000000000E-002   0.0000000000000000     
  0.87500000000000000        6.2500000000000000E-002   0.0000000000000000     
  0.75000000000000000        9.3750000000000000E-002   0.0000000000000000     
  0.78125000000000000        9.3750000000000000E-002   0.0000000000000000     
  0.81250000000000000        9.3750000000000000E-002   0.0000000000000000     
  0.84375000000000000        9.3750000000000000E-002   0.0000000000000000     
  0.87500000000000000        9.3750000000000000E-002   0.0000000000000000     
  0.75000000000000000       0.12500000000000000        0.0000000000000000     
  0.78125000000000000       0.12500000000000000        0.0000000000000000     
  0.81250000000000000       0.12500000000000000        0.0000000000000000     
  0.84375000000000000       0.12500000000000000        0.0000000000000000     
  0.87500000000000000       0.12500000000000000        0.0000000000000000     
  0.87500000000000000        0.0000000000000000        0.0000000000000000     
  0.90625000000000000        0.0000000000000000        0.0000000000000000     
  0.93750000000000000        0.0000000000000000        0.0000000000000000     
  0.96875000000000000        0.0000000000000000        0.0000000000000000     
   1.0000000000000000        0.0000000000000000        0.0000000000000000     
  0.87500000000000000        3.1250000000000000E-002   0.0000000000000000     
  0.90625000000000000        3.1250000000000000E-002   0.0000000000000000     
  0.93750000000000000        3.1250000000000000E-002   0.0000000000000000     
  0.96875000000000000        3.1250000000000000E-002   0.0000000000000000     
   1.0000000000000000        3.1250000000000000E-002   0.0000000000000000     
  0.87500000000000000        6.2500000000000000E-002   0.0000000000000000     
  0.90625000000000000        6.2500000000000000E-002   0.0000000000000000     
  0.93750000000000000        6.2500000000000000E-002   0.0000000000000000     
  0.96875000000000000        6.2500000000000000E-002   0.0000000000000000     
   1.0000000000000000        6.2500000000000000E-002   0.0000000000000000     
  0.87500000000000000        9.3750000000000000E-002   0.0000000000000000     
  0.90625000000000000        9.3750000000000000E-002   0.0000000000000000     
  0.93750000000000000        9.3750000000000000E-002   0.0000000000000000     
  0.96875000000000000        9.3750000000000000E-002   0.0000000000000000     
   1.0000000000000000        9.3750000000000000E-002   0.0000000000000000     
  0.87500000000000000       0.12500000000000000        0.0000000000000000     
  0.90625000000000000       0.12500000000000000        0.0000000000000000     
  0.93750000000000000       0.12500000000000000        0.0000000000000000     
  0.96875000000000000       0.12500000000000000        0.0000000000000000     
   1.0000000000000000       0.12500000000000000        0.0000000000000000     
   1.0000000000000000        0.0000000000000000        0.0000000000000000     
   1.0312500000000000        0.0000000000000000        0.0000000000000000     
   1.0625000000000000        0.0000000000000000        0.0000000000000000     
   1.0937500000000000        0.0000000000000000        0.0000000000000000     
   1.1250000000000000        0.0000000000000000        0.0000000000000000     
   1.0000000000000000        3.1250000000000000E-002   0.0000000000000000     
   1.0312500000000000        3.1250000000000000E-002   0.0000000000000000     
   1.0625000000000000        3.1250000000000000E-002   0.0000000000000000     
   1.0937500000000000        3.1250000000000000E-002   0.0000000000000000     
   1.1250000000000000        3.1250000000000000E-002   0.0000000000000000     
   1.0000000000000000        6.2500000000000000E-002   0.0000000000000000     
   1.0312500000000000        6.2500000000000000E-002   0.0000000000000000     
   1.0625000000000000        6.2500000000000000E-002   0.0000000000000000     
   1.0937500000000000        6.2500000000000000E-002   0.0000000000000000     
   1.1250000000000000        6.2500000000000000E-002   0.0000000000000000     
   1.0000000000000000        9.3750000000000000E-002   0.0000000000000000     
   1.0312500000000000        9.3750000000000000E-002   0.0000000000000000     
   1.0625000000000000        9.3750000000000000E-002   0.0000000000000000     
   1.0937500000000000        9.3750000000000000E-002   0.0000000000000000     
   1.1250000000000000        9.3750000000000000E-002   0.0000000000000000     
   1.0000000000000000       0.12500000000000000        0.0000000000000000     
   1.0312500000000000       0.12500000000000000        0.0000000000000000     
   1.0625000000000000       0.12500000000000000        0.0000000000000000     
   1.0937500000000000       0.12500000000000000        0.0000000000000000     
   1.1250000000000000       0.12500000000000000        0.0000000000000000     
   1.1250000000000000        0.0000000000000000        0.0000000000000000     
   1.1562500000000000        0.0000000000000000        0.0000000000000000     
   1.1875000000000000        0.0000000000000000        0.0000000000000000     
   1.2187500000000000        0.0000000000000000        0.0000000000000000     
   1.2500000000000000        0.0000000000000000        0.0000000000000000     
   1.1250000000000000        3.1250000000000000E-002   0.0000000000000000     
   1.1562500000000000        3.1250000000000000E-002   0.0000000000000000     
   1.1875000000000000        3.1250000000000000E-002   0.0000000000000000     
   1.2187500000000000        3.1250000000000000E-002   0.0000000000000000     
   1.2500000000000000        3.1250000000000000E-002   0.0000000000000000     
   1.1250000000000000        6.2500000000000000E-002   0.0000000000000000     
   1.1562500000000000        6.2500000000000000E-002   0.0000000000000000     
   1.1875000000000000        6.2500000000000000E-002   0.0000000000000000     
   1.2187500000000000        6.2500000000000000E-002   0.0000000000000000     
   1.2500000000000000        6.2500000000000000E-002   0.0000000000000000     
   1.1250000000000000        9.3750000000000000E-002   0.0000000000000000     
   1.1562500000000000        9.3750000000000000E-002   0.0000000000000000     
   1.1875000000000000        9.3750000000000000E-002   0.0000000000000000     
   1.2187500000000000        9.3750000000000000E-002   0.0000000000000000     
   1.2500000000000000        9.3750000000000000E-002   0.0000000000000000     
   1.1250000000000000       0.12500000000000000        0.0000000000000000     
   1.1562500000000000       0.12500000000000000        0.0000000000000000     
   1.1875000000000000       0.12500000000000000        0.0000000000000000     
   1.2187500000000000       0.12500000000000000        0.0000000000000000     
   1.2500000000000000       0.12500000000000000        0.0000000000000000     
   1.2500000000000000        0.0000000000000000        0.0000000000000000     
   1.2812500000000000        0.0000000000000000        0.0000000000000000     
   1.3125000000000000        0.0000000000000000        0.0000000000000000     
   1.3437500000000000        0.0000000000000000        0.0000000000000000     
   1.3750000000000000        0.0000000000000000        0.0000000000000000     
   1.2500000000000000        3.1250000000000000E-002   0.0000000000000000     
   1.2812500000000000        3.1250000000000000E-002   0.0000000000000000     
   1.3125000000000000        3.1250000000000000E-002   0.0000000000000000     
   1.3437500000000000        3.1250000000000000E-002   0.0000000000000000     
   1.3750000000000000        3.1250000000000000E-002   0.0000000000000000     
   1.2500000000000000        6.2500000000000000E-002   0.0000000000000000     
   1.2812500000000000        6.2500000000000000E-002   0.0000000000000000     
   1.3125000000000000        6.2500000000000000E-002   0.0000000000000000     
   1.3437500000000000        6.2500000000000000E-002   0.0000000000000000     
   1.3750000000000000        6.2500000000000000E-002   0.0000000000000000     
   1.2500000000000000        9.3750000000000000E-002   0.0000000000000000     
   1.2812500000000000        9.3750000000000000E-002   0.0000000000000000     
   1.3125000000000000        9.3750000000000000E-002   0.0000000000000000     
   1.3437500000000000        9.3750000000000000E-002   0.0000000000000000     
   1.3750000000000000        9.3750000000000000E-002   0.0000000000000000     
   1.2500000000000000       0.12500000000000000        0.0000000000000000     
   1.2812500000000000       0.12500000000000000        0.0000000000000000     
   1.3125000000000000       0.12500000000000000        0.0000000000000000     
   1.3437500000000000       0.12500000000000000        0.0000000000000000     
   1.3750000000000000       0.12500000000000000        0.0000000000000000     
   1.3750000000000000        0.0000000000000000        0.0000000000000000     
   1.4062500000000000        0.0000000000000000        0.0000000000000000     
   1.4375000000000000        0.0000000000000000        0.0000000000000000     
   1.4687500000000000        0.0000000000000000        0.0000000000000000     
   1.5000000000000000        0.0000000000000000        0.0000000000000000     
   1.3750000000000000        3.1250000000000000E-002   0.0000000000000000     
   1.4062500000000000        3.1250000000000000E-002   0.0000000000000000     
   1.4375000000000000        3.1250000000000000E-002   0.0000000000000000     
   1.4687500000000000        3.1250000000000000E-002   0.0000000000000000     
   1.5000000000000000        3.1250000000000000E-002   0.0000000000000000     
   1.3750000000000000        6.2500000000000000E-002   0.0000000000000000     
   1.4062500000000000        6.2500000000000000E-002   0.0000000000000000     
   1.4375000000000000        6.2500000000000000E-002   0.0000000000000000     
   1.4687500000000000        6.2500000000000000E-002   0.0000000000000000     
   1.5000000000000000        6.2500000000000000E-002   0.0000000000000000     
   1.3750000000000000        9.3750000000000000E-002   0.0000000000000000     
   1.4062500000000000        9.3750000000000000E-002   0.0000000000000000     
   1.4375000000000000        9.3750000000000000E-002   0.0000000000000000     
   1.4687500000000000        9.3750000000000000E-002   0.0000000000000000     
   1.5000000000000000        9.3750000000000000E-002   0.0000000000000000     
   1.3750000000000000       0.12500000000000000        0.0000000000000000     
   1.4062500000000000       0.12500000000000000        0.0000000000000000     
   1.4375000000000000       0.12500000000000000        0.0000000000000000     
   1.4687500000000000       0.12500000000000000        0.0000000000000000     
   1.5000000000000000       0.12500000000000000        0.0000000000000000     
  0.50000000000000000       0.12500000000000000        0.0000000000000000     
  0.53125000000000000       0.12500000000000000        0.0000000000000000     
  0.56250000000000000       0.12500000000000000        0.0000000000000000     
  0.59375000000000000       0.12500000000000000        0.0000000000000000     
  0.62500000000000000       0.12500000000000000        0.0000000000000000     
  0.50000000000000000       0.15625000000000000        0.0000000000000000     
  0.53125000000000000       0.15625000000000000        0.0000000000000000     
  0.56250000000000000       0.15625000000000000        0.0000000000000000     
  0.59375000000000000       0.15625000000000000        0.0000000000000000     
  0.62500000000000000       0.15625000000000000        0.0000000000000000     
  0.50000000000000000       0.18750000000000000        0.0000000000000000     
  0.53125000000000000       0.18750000000000000        0.0000000000000000     
  0.56250000000000000       0.18750000000000000        0.0000000000000000     
  0.59375000000000000       0.18750000000000000        0.0000000000000000     
  0.62500000000000000       0.18750000000000000        0.0000000000000000     
  0.50000000000000000       0.21875000000000000        0.0000000000000000     
  0.53125000000000000       0.21875000000000000        0.0000000000000000     
  0.56250000000000000       0.21875000000000000        0.0000000000000000     
  0.59375000000000000       0.21875000000000000        0.0000000000000000     
  0.62500000000000000       0.21875000000000000        0.0000000000000000     
  0.50000000000000000       0.25000000000000000        0.0000000000000000     
  0.53125000000000000       0.25000000000000000        0.0000000000000000     
  0.56250000000000000       0.25000000000000000        0.0000000000000000     
  0.59375000000000000       0.25000000000000000        0.0000000000000000     
  0.62500000000000000       0.25000000000000000        0.0000000000000000     
  0.62500000000000000       0.12500000000000000        0.0000000000000000     
  0.65625000000000000       0.12500000000000000        0.0000000000000000     
  0.68750000000000000       0.12500000000000000        0.0000000000000000     
  0.71875000000000000       0.12500000000000000        0.0000000000000000     
  0.75000000000000000       0.12500000000000000        0.0000000000000000     
  0.62500000000000000       0.15625000000000000        0.0000000000000000     
  0.65625000000000000       0.15625000000000000        0.0000000000000000     
  0.68750000000000000       0.15625000000000000        0.0000000000000000     
  0.71875000000000000       0.15625000000000000        0.0000000000000000     
  0.75000000000000000       0.15625000000000000        0.0000000000000000     
  0.62500000000000000       0.18750000000000000        0.0000000000000000     
  0.65625000000000000       0.18750000000000000        0.0000000000000000     
  0.68750000000000000       0.18750000000000000        0.0000000000000000     
  0.71875000000000000       0.18750000000000000        0.0000000000000000     
  0.75000000000000000       0.18750000000000000        0.0000000000000000     
  0.62500000000000000       0.21875000000000000        0.0000000000000000     
  0.65625000000000000       0.21875000000000000        0.0000000000000000     
  0.68750000000000000       0.21875000000000000        0.0000000000000000     
  0.71875000000000000       0.21875000000000000        0.0000000000000000     
  0.75000000000000000       0.21875000000000000        0.0000000000000000     
  0.62500000000000000       0.25000000000000000        0.0000000000000000     
  0.65625000000000000       0.25000000000000000        0.0000000000000000     
  0.68750000000000000       0.25000000000000000        0.0000000000000000     
  0.71875000000000000       0.25000000000000000        0.0000000000000000     
  0.75000000000000000       0.25000000000000000        0.0000000000000000     
  0.75000000000000000       0.12500000000000000        0.0000000000000000     
  0.78125000000000000       0.12500000000000000        0.0000000000000000     
  0.81250000000000000       0.12500000000000000        0.0000000000000000     
  0.84375000000000000       0.12500000000000000        0.0000000000000000     
  0.87500000000000000       0.12500000000000000        0.0000000000000000     
  0.75000000000000000       0.15625000000000000        0.0000000000000000     
  0.78125000000000000       0.15625000000000000        0.0000000000000000     
  0.81250000000000000       0.15625000000000000        0.0000000000000000     
  0.84375000000000000       0.15625000000000000        0.0000000000000000     
  0.87500000000000000       0.15625000000000000        0.0000000000000000     
  0.75000000000000000       0.18750000000000000        0.0000000000000000     
  0.78125000000000000       0.18750000000000000        0.0000000000000000     
  0.81250000000000000       0.18750000000000000        0.0000000000000000     
  0.84375000000000000       0.18750000000000000        0.0000000000000000     
  0.87500000000000000       0.18750000000000000        0.0000000000000000     
  0.75000000000000000       0.21875000000000000        0.0000000000000000     
  0.78125000000000000       0.21875000000000000        0.0000000000000000     
  0.81250000000000000       0.21875000000000000        0.0000000000000000     
  0.84375000000000000       0.21875000000000000        0.0000000000000000     
  0.87500000000000000       0.21875000000000000        0.0000000000000000     
  0.75000000000000000       0.25000000000000000        0.0000000000000000     
  0.78125000000000000       0.25000000000000000        0.0000000000000000     
  0.81250000000000000       0.25000000000000000        0.0000000000000000     
  0.84375000000000000       0.25000000000000000        0.0000000000000000     
  0.87500000000000000       0.25000000000000000        0.0000000000000000     
  0.87500000000000000       0.12500000000000000        0.0000000000000000     
  0.90625000000000000       0.12500000000000000        0.0000000000000000     
  0.93750000000000000       0.12500000000000000        0.0000000000000000     
  0.96875000000000000       0.12500000000000000        0.0000000000000000     
   1.0000000000000000       0.12500000000000000        0.0000000000000000     
  0.87500000000000000       0.15625000000000000        0.0000000000000000     
  0.90625000000000000       0.15625000000000000        0.0000000000000000     
  0.93750000000000000       0.15625000000000000        0.0000000000000000     
  0.96875000000000000       0.15625000000000000        0.0000000000000000     
   1.0000000000000000       0.15625000000000000        0.0000000000000000     
  0.87500000000000000       0.18750000000000000        0.0000000000000000     
  0.90625000000000000       0.18750000000000000        0.0000000000000000     
  0.93750000000000000       0.18750000000000000        0.0000000000000000     
  0.96875000000000000       0.18750000000000000        0.0000000000000000     
   1.0000000000000000       0.18750000000000000        0.0000000000000000     
  0.87500000000000000       0.21875000000000000        0.0000000000000000     
  0.90625000000000000       0.21875000000000000        0.0000000000000000     
  0.93750000000000000       0.21875000000000000        0.0000000000000000     
  0.96875000000000000       0.21875000000000000        0.0000000000000000     
   1.0000000000000000       0.21875000000000000        0.0000000000000000     
  0.87500000000000000       0.25000000000000000        0.0000000000000000     
  0.90625000000000000       0.25000000000000000        0.0000000000000000     
  0.93750000000000000       0.25000000000000000        0.0000000000000000     
  0.96875000000000000       0.25000000000000000        0.0000000000000000     
   1.0000000000000000       0.25000000000000000        0.0000000000000000     
   1.0000000000000000       0.12500000000000000        0.0000000000000000     
   1.0312500000000000       0.12500000000000000        0.0000000000000000     
   1.0625000000000000       0.12500000000000000        0.0000000000000000     
   1.0937500000000000       0.12500000000000000        0.0000000000000000     
   1.1250000000000000       0.12500000000000000        0.0000000000000000     
   1.0000000000000000       0.15625000000000000        0.0000000000000000     
   1.0312500000000000       0.15625000000000000        0.0000000000000000     
   1.0625000000000000       0.15625000000000000        0.0000000000000000     
   1.0937500000000000       0.15625000000000000        0.0000000000000000     
   1.1250000000000000       0.15625000000000000        0.0000000000000000     
   1.0000000000000000       0.18750000000000000        0.0000000000000000     
   1.0312500000000000       0.18750000000000000        0.0000000000000000     
   1.0625000000000000       0.18750000000000000        0.0000000000000000     
   1.0937500000000000       0.18750000000000000        0.0000000000000000     
   1.1250000000000000       0.18750000000000000        0.0000000000000000     
   1.0000000000000000       0.21875000000000000        0.0000000000000000     
   1.0312500000000000       0.21875000000000000        0.0000000000000000     
   1.0625000000000000       0.21875000000000000        0.0000000000000000     
   1.0937500000000000       0.21875000000000000        0.0000000000000000     
   1.1250000000000000       0.21875000000000000        0.0000000000000000     
   1.0000000000000000       0.25000000000000000        0.0000000000000000     
   1.0312500000000000       0.25000000000000000        0.0000000000000000     
   1.0625000000000000       0.25000000000000000        0.0000000000000000     
   1.0937500000000000       0.25000000000000000        0.0000000000000000     
   1.1250000000000000       0.25000000000000000        0.0000000000000000     
   1.1250000000000000       0.12500000000000000        0.0000000000000000     
   1.1562500000000000       0.12500000000000000        0.0000000000000000     
   1.1875000000000000       0.12500000000000000        0.0000000000000000     
   1.2187500000000000       0.12500000000000000        0.0000000000000000     
   1.2500000000000000       0.12500000000000000        0.0000000000000000     
   1.1250000000000000       0.15625000000000000        0.0000000000000000     
   1.1562500000000000       0.15625000000000000        0.0000000000000000     
   1.1875000000000000       0.15625000000000000        0.0000000000000000     
   1.2187500000000000       0.15625000000000000        0.0000000000000000     
   1.2500000000000000       0.15625000000000000        0.0000000000000000     
   1.1250000000000000       0.18750000000000000        0.0000000000000000     
   1.1562500000000000       0.18750000000000000        0.0000000000000000     
   1.1875000000000000       0.18750000000000000        0.0000000000000000     
   1.2187500000000000       0.18750000000000000        0.0000000000000000     
   1.2500000000000000       0.18750000000000000        0.0000000000000000     
   1.1250000000000000       0.21875000000000000        0.0000000000000000     
   1.1562500000000000       0.21875000000000000        0.0000000000000000     
   1.1875000000000000       0.21875000000000000        0.0000000000000000     
   1.2187500000000000       0.21875000000000000        0.0000000000000000     
   1.2500000000000000       0.21875000000000000        0.0000000000000000     
   1.1250000000000000       0.25000000000000000        0.0000000000000000     
   1.1562500000000000       0.25000000000000000        0.0000000000000000     
   1.1875000000000000       0.25000000000000000        0.0000000000000000     
   1.2187500000000000       0.25000000000000000        0.0000000000000000     
   1.2500000000000000       0.25000000000000000        0.0000000000000000     
   1.2500000000000000       0.12500000000000000        0.0000000000000000     
   1.2812500000000000       0.12500000000000000        0.0000000000000000     
   1.3125000000000000       0.12500000000000000        0.0000000000000000     
   1.3437500000000000       0.12500000000000000        0.0000000000000000     
   1.3750000000000000       0.12500000000000000        0.0000000000000000     
   1.2500000000000000       0.15625000000000000        0.0000000000000000     
   1.2812500000000000       0.15625000000000000        0.0000000000000000     
   1.3125000000000000       0.15625000000000000        0.0000000000000000     
   1.3437500000000000       0.15625000000000000        0.0000000000000000     
   1.3750000000000000       0.15625000000000000        0.0000000000000000     
   1.2500000000000000       0.18750000000000000        0.0000000000000000     
   1.2812500000000000       0.18750000000000000        0.0000000000000000     
   1.3125000000000000       0.18750000000000000        0.0000000000000000     
   1.3437500000000000       0.18750000000000000        0.0000000000000000     
   1.3750000000000000       0.18750000000000000        0.0000000000000000     
   1.2500000000000000       0.21875000000000000        0.0000000000000000     
   1.2812500000000000       0.21875000000000000        0.0000000000000000     
   1.3125000000000000       0.21875000000000000        0.0000000000000000     
   1.3437500000000000       0.21875000000000000        0.0000000000000000     
   1.3750000000000000       0.21875000000000000        0.0000000000000000     
   1.2500000000000000       0.25000000000000000        0.0000000000000000     
   1.2812500000000000       0.25000000000000000        0.0000000000000000     
   1.3125000000000000       0.25000000000000000        0.0000000000000000     
   1.3437500000000000       0.25000000000000000        0.0000000000000000     
   1.3750000000000000       0.25000000000000000        0.0000000000000000     
   1.3750000000000000       0.12500000000000000        0.0000000000000000     
   1.4062500000000000       0.12500000000000000        0.0000000000000000     
   1.4375000000000000       0.12500000000000000        0.0000000000000000     
   1.4687500000000000       0.12500000000000000        0.0000000000000000     
   1.5000000000000000       0.12500000000000000        0.0000000000000000     
   1.3750000000000000       0.15625000000000000        0.0000000000000000     
   1.4062500000000000       0.15625000000000000        0.0000000000000000     
   1.4375000000000000       0.15625000000000000        0.0000000000000000     
   1.4687500000000000       0.15625000000000000        0.0000000000000000     
   1.5000000000000000       0.15625000000000000        0.0000000000000000     
   1.3750000000000000       0.18750000000000000        0.0000000000000000     
   1.4062500000000000       0.18750000000000000        0.0000000000000000     
   1.4375000000000000       0.18750000000000000        0.0000000000000000     
   1.4687500000000000       0.18750000000000000        0.0000000000000000     
   1.5000000000000000       0.18750000000000000        0.0000000000000000     
   1.3750000000000000       0.21875000000000000        0.0000000000000000     
   1.4062500000000000       0.21875000000000000        0.0000000000000000     
   1.4375000000000000       0.21875000000000000        0.0000000000000000     
   1.4687500000000000       0.21875000000000000        0.0000000000000000     
   1.5000000000000000       0.21875000000000000        0.0000000000000000     
   1.3750000000000000       0.25000000000000000        0.0000000000000000     
   1.4062500000000000       0.25000000000000000        0.0000000000000000     
   1.4375000000000000       0.25000000000000000        0.0000000000000000     
   1.4687500000000000       0.25000000000000000        0.0000000000000000     
   1.5000000000000000       0.25000000000000000        0.0000000000000000     
  0.50000000000000000       0.25000000000000000        0.0000000000000000     
  0.53125000000000000       0.25000000000000000        0.0000000000000000     
  0.56250000000000000       0.25000000000000000        0.0000000000000000     
  0.59375000000000000       0.25000000000000000        0.0000000000000000     
  0.62500000000000000       0.25000000000000000        0.0000000000000000     
  0.50000000000000000       0.28125000000000000        0.0000000000000000     
  0.53125000000000000       0.28125000000000000        0.0000000000000000     
  0.56250000000000000       0.28125000000000000        0.0000000000000000     
  0.59375000000000000       0.28125000000000000        0.0000000000000000     
  0.62500000000000000       0.28125000000000000        0.0000000000000000     
  0.50000000000000000       0.31250000000000000        0.0000000000000000     
  0.53125000000000000       0.31250000000000000        0.0000000000000000     
  0.56250000000000000       0.31250000000000000        0.0000000000000000     
  0.59375000000000000       0.31250000000000000        0.0000000000000000     
  0.62500000000000000       0.31250000000000000        0.0000000000000000     
  0.50000000000000000       0.34375000000000000        0.0000000000000000     
  0.53125000000000000       0.34375000000000000        0.0000000000000000     
  0.56250000000000000       0.34375000000000000        0.0000000000000000     
  0.59375000000000000       0.34375000000000000        0.0000000000000000     
  0.62500000000000000       0.34375000000000000        0.0000000000000000     
  0.50000000000000000       0.37500000000000000        0.0000000000000000     
  0.53125000000000000       0.37500000000000000        0.0000000000000000     
  0.56250000000000000       0.37500000000000000        0.0000000000000000     
  0.59375000000000000       0.37500000000000000        0.0000000000000000     
  0.62500000000000000       0.37500000000000000        0.0000000000000000     
  0.62500000000000000       0.25000000000000000        0.0000000000000000     
  0.65625000000000000       0.25000000000000000        0.0000000000000000     
  0.68750000000000000       0.25000000000000000        0.0000000000000000     
  0.71875000000000000       0.25000000000000000        0.0000000000000000     
  0.75000000000000000       0.25000000000000000        0.0000000000000000     
  0.62500000000000000       0.28125000000000000        0.0000000000000000     
  0.65625000000000000       0.28125000000000000        0.0000000000000000     
  0.68750000000000000       0.28125000000000000        0.0000000000000000     
  0.71875000000000000       0.28125000000000000        0.0000000000000000     
  0.75000000000000000       0.28125000000000000        0.0000000000000000     
  0.62500000000000000       0.31250000000000000        0.0000000000000000     
  0.65625000000000000       0.31250000000000000        0.0000000000000000     
  0.68750000000000000       0.31250000000000000        0.0000000000000000     
  0.71875000000000000       0.31250000000000000        0.0000000000000000     
  0.75000000000000000       0.31250000000000000        0.0000000000000000     
  0.62500000000000000       0.34375000000000000        0.0000000000000000     
  0.65625000000000000       0.34375000000000000        0.0000000000000000     
  0.68750000000000000       0.34375000000000000        0.0000000000000000     
  0.71875000000000000       0.34375000000000000        0.0000000000000000     
  0.75000000000000000       0.34375000000000000        0.0000000000000000     
  0.62500000000000000       0.37500000000000000        0.0000000000000000     
  0.65625000000000000       0.37500000000000000        0.0000000000000000     
  0.68750000000000000       0.37500000000000000        0.0000000000000000     
  0.71875000000000000       0.37500000000000000        0.0000000000000000     
  0.75000000000000000       0.37500000000000000        0.0000000000000000     
  0.75000000000000000       0.25000000000000000        0.0000000000000000     
  0.78125000000000000       0.25000000000000000        0.0000000000000000     
  0.81250000000000000       0.25000000000000000        0.0000000000000000     
  0.84375000000000000       0.25000000000000000        0.0000000000000000     
  0.87500000000000000       0.25000000000000000        0.0000000000000000     
  0.75000000000000000       0.28125000000000000        0.0000000000000000     
  0.78125000000000000       0.28125000000000000        0.0000000000000000     
  0.81250000000000000       0.28125000000000000        0.0000000000000000     
  0.84375000000000000       0.28125000000000000        0.0000000000000000     
  0.87500000000000000       0.28125000000000000        0.0000000000000000     
  0.75000000000000000       0.31250000000000000        0.0000000000000000     
  0.78125000000000000       0.31250000000000000        0.0000000000000000     
  0.81250000000000000       0.31250000000000000        0.0000000000000000     
  0.84375000000000000       0.31250000000000000        0.0000000000000000     
  0.87500000000000000       0.31250000000000000        0.0000000000000000     
  0.75000000000000000       0.34375000000000000        0.0000000000000000     
  0.78125000000000000       0.34375000000000000        0.0000000000000000     
  0.81250000000000000       0.34375000000000000        0.0000000000000000     
  0.84375000000000000       0.34375000000000000        0.0000000000000000     
  0.87500000000000000       0.34375000000000000        0.0000000000000000     
  0.75000000000000000       0.37500000000000000        0.0000000000000000     
  0.78125000000000000       0.37500000000000000        0.0000000000000000     
  0.81250000000000000       0.37500000000000000        0.0000000000000000     
  0.84375000000000000       0.37500000000000000        0.0000000000000000     
  0.87500000000000000       0.37500000000000000        0.0000000000000000     
  0.87500000000000000       0.25000000000000000        0.0000000000000000     
  0.90625000000000000       0.25000000000000000        0.0000000000000000     
  0.93750000000000000       0.25000000000000000        0.0000000000000000     
  0.96875000000000000       0.25000000000000000        0.0000000000000000     
   1.0000000000000000       0.25000000000000000        0.0000000000000000     
  0.87500000000000000       0.28125000000000000        0.0000000000000000     
  0.90625000000000000       0.28125000000000000        0.0000000000000000     
  0.93750000000000000       0.28125000000000000        0.0000000000000000     
  0.96875000000000000       0.28125000000000000        0.0000000000000000     
   1.0000000000000000       0.28125000000000000        0.0000000000000000     
  0.87500000000000000       0.31250000000000000        0.0000000000000000     
  0.90625000000000000       0.31250000000000000        0.0000000000000000     
  0.93750000000000000       0.31250000000000000        0.0000000000000000     
  0.96875000000000000       0.31250000000000000        0.0000000000000000     
   1.0000000000000000       0.31250000000000000        0.0000000000000000     
  0.87500000000000000       0.34375000000000000        0.0000000000000000     
  0.90625000000000000       0.34375000000000000        0.0000000000000000     
  0.93750000000000000       0.34375000000000000        0.0000000000000000     
  0.96875000000000000       0.34375000000000000        0.0000000000000000     
   1.0000000000000000       0.34375000000000000        0.0000000000000000     
  0.87500000000000000       0.37500000000000000        0.0000000000000000     
  0.90625000000000000       0.37500000000000000        0.0000000000000000     
  0.93750000000000000       0.37500000000000000        0.0000000000000000     
  0.96875000000000000       0.37500000000000000        0.0000000000000000     
   1.0000000000000000       0.37500000000000000        0.0000000000000000     
   1.0000000000000000       0.25000000000000000        0.0000000000000000     
   1.0312500000000000       0.25000000000000000        0.0000000000000000     
   1.0625000000000000       0.25000000000000000        0.0000000000000000     
   1.0937500000000000       0.25000000000000000        0.0000000000000000     
   1.1250000000000000       0.25000000000000000        0.0000000000000000     
   1.0000000000000000       0.28125000000000000        0.0000000000000000     
   1.0312500000000000       0.28125000000000000        0.0000000000000000     
   1.0625000000000000       0.28125000000000000        0.0000000000000000     
   1.0937500000000000       0.28125000000000000        0.0000000000000000     
   1.1250000000000000       0.28125000000000000        0.0000000000000000     
   1.0000000000000000       0.31250000000000000        0.0000000000000000     
   1.0312500000000000       0.31250000000000000        0.0000000000000000     
   1.0625000000000000       0.31250000000000000        0.0000000000000000     
   1.0937500000000000       0.31250000000000000        0.0000000000000000     
   1.1250000000000000       0.31250000000000000        0.0000000000000000     
   1.0000000000000000       0.34375000000000000        0.0000000000000000     
   1.0312500000000000       0.34375000000000000        0.0000000000000000     
   1.0625000000000000       0.34375000000000000        0.0000000000000000     
   1.0937500000000000       0.34375000000000000        0.0000000000000000     
   1.1250000000000000       0.34375000000000000        0.0000000000000000     
   1.0000000000000000       0.37500000000000000        0.0000000000000000     
   1.0312500000000000       0.37500000000000000        0.0000000000000000     
   1.0625000000000000       0.37500000000000000        0.0000000000000000     
   1.0937500000000000       0.37500000000000000        0.0000000000000000     
   1.1250000000000000       0.37500000000000000        0.0000000000000000     
   1.1250000000000000       0.25000000000000000        0.0000000000000000     
   1.1562500000000000       0.25000000000000000        0.0000000000000000     
   1.1875000000000000       0.25000000000000000        0.0000000000000000     
   1.2187500000000000       0.25000000000000000        0.0000000000000000     
   1.2500000000000000       0.25000000000000000        0.0000000000000000     
   1.1250000000000000       0.28125000000000000        0.0000000000000000     
   1.1562500000000000       0.28125000000000000        0.0000000000000000     
   1.1875000000000000       0.28125000000000000        0.0000000000000000     
   1.2187500000000000       0.28125000000000000        0.0000000000000000     
   1.2500000000000000       0.28125000000000000        0.0000000000000000     
   1.1250000000000000       0.31250000000000000        0.0000000000000000     
   1.1562500000000000       0.31250000000000000        0.0000000000000000     
   1.1875000000000000       0.31250000000000000        0.0000000000000000     
   1.2187500000000000       0.31250000000000000        0.0000000000000000     
   1.2500000000000000       0.31250000000000000        0.0000000000000000     
   1.1250000000000000       0.34375000000000000        0.0000000000000000     
   1.1562500000000000       0.34375000000000000        0.0000000000000000     
   1.1875000000000000       0.34375000000000000        0.0000000000000000     
   1.2187500000000000       0.34375000000000000        0.0000000000000000     
   1.2500000000000000       0.34375000000000000        0.0000000000000000     
   1.1250000000000000       0.37500000000000000        0.0000000000000000     
   1.1562500000000000       0.37500000000000000        0.0000000000000000     
   1.1875000000000000       0.37500000000000000        0.0000000000000000     
   1.2187500000000000       0.37500000000000000        0.0000000000000000     
   1.2500000000000000       0.37500000000000000        0.0000000000000000     
   1.2500000000000000       0.25000000000000000        0.0000000000000000     
   1.2812500000000000       0.25000000000000000        0.0000000000000000     
   1.3125000000000000       0.25000000000000000        0.0000000000000000     
   1.3437500000000000       0.25000000000000000        0.0000000000000000     
   1.3750000000000000       0.25000000000000000        0.0000000000000000     
   1.2500000000000000       0.28125000000000000        0.0000000000000000     
   1.2812500000000000       0.28125000000000000        0.0000000000000000     
   1.3125000000000000       0.28125000000000000        0.0000000000000000     
   1.3437500000000000       0.28125000000000000        0.0000000000000000     
   1.3750000000000000       0.28125000000000000        0.0000000000000000     
   1.2500000000000000       0.31250000000000000        0.0000000000000000     
   1.2812500000000000       0.31250000000000000        0.0000000000000000     
   1.3125000000000000       0.31250000000000000        0.0000000000000000     
   1.3437500000000000       0.31250000000000000        0.0000000000000000     
   1.3750000000000000       0.31250000000000000        0.0000000000000000     
   1.2500000000000000       0.34375000000000000        0.0000000000000000     
   1.2812500000000000       0.34375000000000000        0.0000000000000000     
   1.3125000000000000       0.34375000000000000        0.0000000000000000     
   1.3437500000000000       0.34375000000000000        0.0000000000000000     
   1.3750000000000000       0.34375000000000000        0.0000000000000000     
   1.2500000000000000       0.37500000000000000        0.0000000000000000     
   1.2812500000000000       0.37500000000000000        0.0000000000000000     
   1.3125000000000000       0.37500000000000000        0.0000000000000000     
   1.3437500000000000       0.37500000000000000        0.0000000000000000     
   1.3750000000000000       0.37500000000000000        0.0000000000000000     
   1.3750000000000000       0.25000000000000000        0.0000000000000000     
   1.4062500000000000       0.25000000000000000        0.0000000000000000     
   1.4375000000000000       0.25000000000000000        0.0000000000000000     
   1.4687500000000000       0.25000000000000000        0.0000000000000000     
   1.5000000000000000       0.25000000000000000        0.0000000000000000     
   1.3750000000000000       0.28125000000000000        0.0000000000000000     
   1.4062500000000000       0.28125000000000000        0.0000000000000000     
   1.4375000000000000       0.28125000000000000        0.0000000000000000     
   1.4687500000000000       0.28125000000000000        0.0000000000000000     
   1.5000000000000000       0.28125000000000000        0.0000000000000000     
   1.3750000000000000       0.31250000000000000        0.0000000000000000     
   1.4062500000000000       0.31250000000000000        0.0000000000000000     
   1.4375000000000000       0.31250000000000000        0.0000000000000000     
   1.4687500000000000       0.31250000000000000        0.0000000000000000     
   1.5000000000000000       0.31250000000000000        0.0000000000000000     
   1.3750000000000000       0.34375000000000000        0.0000000000000000     
   1.4062500000000000       0.34375000000000000        0.0000000000000000     
   1.4375000000000000       0.34375000000000000        0.0000000000000000     
   1.4687500000000000       0.34375000000000000        0.0000000000000000     
   1.5000000000000000       0.34375000000000000        0.0000000000000000     
   1.3750000000000000       0.37500000000000000        0.0000000000000000     
   1.4062500000000000       0.37500000000000000        0.0000000000000000     
   1.4375000000000000       0.37500000000000000        0.0000000000000000     
   1.4687500000000000       0.37500000000000000        0.0000000000000000     
   1.5000000000000000       0.37500000000000000        0.0000000000000000     
  0.50000000000000000       0.37500000000000000        0.0000000000000000     
  0.53125000000000000       0.37500000000000000        0.0000000000000000     
  0.56250000000000000       0.37500000000000000        0.0000000000000000     
  0.59375000000000000       0.37500000000000000        0.0000000000000000     
  0.62500000000000000       0.37500000000000000        0.0000000000000000     
  0.50000000000000000       0.40625000000000000        0.0000000000000000     
  0.53125000000000000       0.40625000000000000        0.0000000000000000     
  0.56250000000000000       0.40625000000000000        0.0000000000000000     
  0.59375000000000000       0.40625000000000000        0.0000000000000000     
  0.62500000000000000       0.40625000000000000        0.0000000000000000     
  0.50000000000000000       0.43750000000000000        0.0000000000000000     
  0.53125000000000000       0.43750000000000000        0.0000000000000000     
  0.56250000000000000       0.43750000000000000        0.0000000000000000     
  0.59375000000000000       0.43750000000000000        0.0000000000000000     
  0.62500000000000000       0.43750000000000000        0.0000000000000000     
  0.50000000000000000       0.46875000000000000        0.0000000000000000     
  0.53125000000000000       0.46875000000000000        0.0000000000000000     
  0.56250000000000000       0.46875000000000000        0.0000000000000000     
  0.59375000000000000       0.46875000000000000        0.0000000000000000     
  0.62500000000000000       0.46875000000000000        0.0000000000000000     
  0.50000000000000000       0.50000000000000000        0.0000000000000000     
  0.53125000000000000       0.50000000000000000        0.0000000000000000     
  0.56250000000000000       0.50000000000000000        0.0000000000000000     
  0.59375000000000000       0.50000000000000000        0.0000000000000000     
  0.62500000000000000       0.50000000000000000        0.0000000000000000     
  0.62500000000000000       0.37500000000000000        0.0000000000000000     
  0.65625000000000000       0.37500000000000000        0.0000000000000000     
  0.68750000000000000       0.37500000000000000        0.0000000000000000     
  0.71875000000000000       0.37500000000000000        0.0000000000000000     
  0.75000000000000000       0.37500000000000000        0.0000000000000000     
  0.62500000000000000       0.40625000000000000        0.0000000000000000     
  0.65625000000000000       0.40625000000000000        0.0000000000000000     
  0.68750000000000000       0.40625000000000000        0.0000000000000000     
  0.71875000000000000       0.40625000000000000        0.0000000000000000     
  0.75000000000000000       0.40625000000000000        0.0000000000000000     
  0.62500000000000000       0.43750000000000000        0.0000000000000000     
  0.65625000000000000       0.43750000000000000        0.0000000000000000     
  0.68750000000000000       0.43750000000000000        0.0000000000000000     
  0.71875000000000000       0.43750000000000000        0.0000000000000000     
  0.75000000000000000       0.43750000000000000        0.0000000000000000     
  0.62500000000000000       0.46875000000000000        0.0000000000000000     
  0.65625000000000000       0.46875000000000000        0.0000000000000000     
  0.68750000000000000       0.46875000000000000        0.0000000000000000     
  0.71875000000000000       0.46875000000000000        0.0000000000000000     
  0.75000000000000000       0.46875000000000000        0.0000000000000000     
  0.62500000000000000       0.50000000000000000        0.0000000000000000     
  0.65625000000000000       0.50000000000000000        0.0000000000000000     
  0.68750000000000000       0.50000000000000000        0.0000000000000000     
  0.71875000000000000       0.50000000000000000        0.0000000000000000     
  0.75000000000000000       0.50000000000000000        0.0000000000000000     
  0.75000000000000000       0.37500000000000000        0.0000000000000000     
  0.78125000000000000       0.37500000000000000        0.0000000000000000     
  0.81250000000000000       0.37500000000000000        0.0000000000000000     
  0.84375000000000000       0.37500000000000000        0.0000000000000000     
  0.87500000000000000       0.37500000000000000        0.0000000000000000     
  0.75000000000000000       0.40625000000000000        0.0000000000000000     
  0.78125000000000000       0.40625000000000000        0.0000000000000000     
  0.81250000000000000       0.40625000000000000        0.0000000000000000     
  0.84375000000000000       0.40625000000000000        0.0000000000000000     
  0.87500000000000000       0.40625000000000000        0.0000000000000000     
  0.75000000000000000       0.43750000000000000        0.0000000000000000     
  0.78125000000000000       0.43750000000000000        0.0000000000000000     
  0.81250000000000000       0.43750000000000000        0.0000000000000000     
  0.84375000000000000       0.43750000000000000        0.0000000000000000     
  0.87500000000000000       0.43750000000000000        0.0000000000000000     
  0.75000000000000000       0.46875000000000000        0.0000000000000000     
  0.78125000000000000       0.46875000000000000        0.0000000000000000     
  0.81250000000000000       0.46875000000000000        0.0000000000000000     
  0.84375000000000000       0.46875000000000000        0.0000000000000000     
  0.87500000000000000       0.46875000000000000        0.0000000000000000     
  0.75000000000000000       0.50000000000000000        0.0000000000000000     
  0.78125000000000000       0.50000000000000000        0.0000000000000000     
  0.81250000000000000       0.50000000000000000        0.0000000000000000     
  0.84375000000000000       0.50000000000000000        0.0000000000000000     
  0.87500000000000000       0.50000000000000000        0.0000000000000000     
  0.87500000000000000       0.37500000000000000        0.0000000000000000     
  0.90625000000000000       0.37500000000000000        0.0000000000000000     
  0.93750000000000000       0.37500000000000000        0.0000000000000000     
  0.96875000000000000       0.37500000000000000        0.0000000000000000     
   1.0000000000000000       0.37500000000000000        0.0000000000000000     
  0.87500000000000000       0.40625000000000000        0.0000000000000000     
  0.90625000000000000       0.40625000000000000        0.0000000000000000     
  0.93750000000000000       0.40625000000000000        0.0000000000000000     
  0.96875000000000000       0.40625000000000000        0.0000000000000000     
   1.0000000000000000       0.40625000000000000        0.0000000000000000     
  0.87500000000000000       0.43750000000000000        0.0000000000000000     
  0.90625000000000000       0.43750000000000000        0.0000000000000000     
  0.93750000000000000       0.43750000000000000        0.0000000000000000     
  0.96875000000000000       0.43750000000000000        0.0000000000000000     
   1.0000000000000000       0.43750000000000000        0.0000000000000000     
  0.87500000000000000       0.46875000000000000        0.0000000000000000     
  0.90625000000000000       0.46875000000000000        0.0000000000000000     
  0.93750000000000000       0.46875000000000000        0.0000000000000000     
  0.96875000000000000       0.46875000000000000        0.0000000000000000     
   1.0000000000000000       0.46875000000000000        0.0000000000000000     
  0.87500000000000000       0.50000000000000000        0.0000000000000000     
  0.90625000000000000       0.50000000000000000        0.0000000000000000     
  0.93750000000000000       0.50000000000000000        0.0000000000000000     
  0.96875000000000000       0.50000000000000000        0.0000000000000000     
   1.0000000000000000       0.50000000000000000        0.0000000000000000     
   1.0000000000000000       0.37500000000000000        0.0000000000000000     
   1.0312500000000000       0.37500000000000000        0.0000000000000000     
   1.0625000000000000       0.37500000000000000        0.0000000000000000     
   1.0937500000000000       0.37500000000000000        0.0000000000000000     
   1.1250000000000000       0.37500000000000000        0.0000000000000000     
   1.0000000000000000       0.40625000000000000        0.0000000000000000     
   1.0312500000000000       0.40625000000000000        0.0000000000000000     
   1.0625000000000000       0.40625000000000000        0.0000000000000000     
   1.0937500000000000       0.40625000000000000        0.0000000000000000     
   1.1250000000000000       0.40625000000000000        0.0000000000000000     
   1.0000000000000000       0.43750000000000000        0.0000000000000000     
   1.0312500000000000       0.43750000000000000        0.0000000000000000     
   1.0625000000000000       0.43750000000000000        0.0000000000000000     
   1.0937500000000000       0.43750000000000000        0.0000000000000000     
   1.1250000000000000       0.43750000000000000        0.0000000000000000     
   1.0000000000000000       0.46875000000000000        0.0000000000000000     
   1.0312500000000000       0.46875000000000000        0.0000000000000000     
   1.0625000000000000       0.46875000000000000        0.0000000000000000     
   1.0937500000000000       0.46875000000000000        0.0000000000000000     
   1.1250000000000000       0.46875000000000000        0.0000000000000000     
   1.0000000000000000       0.50000000000000000        0.0000000000000000     
   1.0312500000000000       0.50000000000000000        0.0000000000000000     
   1.0625000000000000       0.50000000000000000        0.0000000000000000     
   1.0937500000000000       0.50000000000000000        0.0000000000000000     
   1.1250000000000000       0.50000000000000000        0.0000000000000000     
   1.1250000000000000       0.37500000000000000        0.0000000000000000     
   1.1562500000000000       0.37500000000000000        0.0000000000000000     
   1.1875000000000000       0.37500000000000000        0.0000000000000000     
   1.2187500000000000       0.37500000000000000        0.0000000000000000     
   1.2500000000000000       0.37500000000000000        0.0000000000000000     
   1.1250000000000000       0.40625000000000000        0.0000000000000000     
   1.1562500000000000       0.40625000000000000        0.0000000000000000     
   1.1875000000000000       0.40625000000000000        0.0000000000000000     
   1.2187500000000000       0.40625000000000000        0.0000000000000000     
   1.2500000000000000       0.40625000000000000        0.0000000000000000     
   1.1250000000000000       0.43750000000000000        0.0000000000000000     
   1.1562500000000000       0.43750000000000000        0.0000000000000000     
   1.1875000000000000       0.43750000000000000        0.0000000000000000     
   1.2187500000000000       0.43750000000000000        0.0000000000000000     
   1.2500000000000000       0.43750000000000000        0.0000000000000000     
   1.1250000000000000       0.46875000000000000        0.0000000000000000     
   1.1562500000000000       0.46875000000000000        0.0000000000000000     
   1.1875000000000000       0.46875000000000000        0.0000000000000000     
   1.2187500000000000       0.46875000000000000        0.0000000000000000     
   1.2500000000000000       0.46875000000000000        0.0000000000000000     
   1.1250000000000000       0.50000000000000000        0.0000000000000000     
   1.1562500000000000       0.50000000000000000        0.0000000000000000     
   1.1875000000000000       0.50000000000000000        0.0000000000000000     
   1.2187500000000000       0.50000000000000000        0.0000000000000000     
   1.2500000000000000       0.50000000000000000        0.0000000000000000     
   1.2500000000000000       0.37500000000000000        0.0000000000000000     
   1.2812500000000000       0.37500000000000000        0.0000000000000000     
   1.3125000000000000       0.37500000000000000        0.0000000000000000     
   1.3437500000000000       0.37500000000000000        0.0000000000000000     
   1.3750000000000000       0.37500000000000000        0.0000000000000000     
   1.2500000000000000       0.40625000000000000        0.0000000000000000     
   1.2812500000000000       0.40625000000000000        0.0000000000000000     
   1.3125000000000000       0.40625000000000000        0.0000000000000000     
   1.3437500000000000       0.40625000000000000        0.0000000000000000     
   1.3750000000000000       0.40625000000000000        0.0000000000000000     
   1.2500000000000000       0.43750000000000000        0.0000000000000000     
   1.2812500000000000       0.43750000000000000        0.0000000000000000     
   1.3125000000000000       0.43750000000000000        0.0000000000000000     
   1.3437500000000000       0.43750000000000000        0.0000000000000000     
   1.3750000000000000       0.43750000000000000        0.0000000000000000     
   1.2500000000000000       0.46875000000000000        0.0000000000000000     
   1.2812500000000000       0.46875000000000000        0.0000000000000000     
   1.3125000000000000       0.46875000000000000        0.0000000000000000     
   1.3437500000000000       0.46875000000000000        0.0000000000000000     
   1.3750000000000000       0.46875000000000000        0.0000000000000000     
   1.2500000000000000       0.50000000000000000        0.0000000000000000     
   1.2812500000000000       0.50000000000000000        0.0000000000000000     
   1.3125000000000000       0.50000000000000000        0.0000000000000000     
   1.3437500000000000       0.50000000000000000        0.0000000000000000     
   1.3750000000000000       0.50000000000000000        0.0000000000000000     
   1.3750000000000000       0.37500000000000000        0.0000000000000000     
   1.4062500000000000       0.37500000000000000        0.0000000000000000     
   1.4375000000000000       0.37500000000000000        0.0000000000000000     
   1.4687500000000000       0.37500000000000000        0.0000000000000000     
   1.5000000000000000       0.37500000000000000        0.0000000000000000     
   1.3750000000000000       0.40625000000000000        0.0000000000000000     
   1.4062500000000000       0.40625000000000000        0.0000000000000000     
   1.4375000000000000       0.40625000000000000        0.0000000000000000     
   1.4687500000000000       0.40625000000000000        0.0000000000000000     
   1.5000000000000000       0.40625000000000000        0.0000000000000000     
   1.3750000000000000       0.43750000000000000        0.0000000000000000     
   1.4062500000000000       0.43750000000000000        0.0000000000000000     
   1.4375000000000000       0.43750000000000000        0.0000000000000000     
   1.4687500000000000       0.43750000000000000        0.0000000000000000     
   1.5000000000000000       0.43750000000000000        0.0000000000000000     
   1.3750000000000000       0.46875000000000000        0.0000000000000000     
   1.4062500000000000       0.46875000000000000        0.0000000000000000     
   1.4375000000000000       0.46875000000000000        0.0000000000000000     
   1.4687500000000000       0.46875000000000000        0.0000000000000000     
   1.5000000000000000       0.46875000000000000        0.0000000000000000     
   1.3750000000000000       0.50000000000000000        0.0000000000000000     
   1.4062500000000000       0.50000000000000000        0.0000000000000000     
   1.4375000000000000       0.50000000000000000        0.0000000000000000     
   1.4687500000000000       0.50000000000000000        0.0000000000000000     
   1.5000000000000000       0.50000000000000000        0.0000000000000000     
  0.50000000000000000       0.50000000000000000        0.0000000000000000     
  0.53125000000000000       0.50000000000000000        0.0000000000000000     
  0.56250000000000000       0.50000000000000000        0.0000000000000000     
  0.59375000000000000       0.50000000000000000        0.0000000000000000     
  0.62500000000000000       0.50000000000000000        0.0000000000000000     
  0.50000000000000000       0.53125000000000000        0.0000000000000000     
  0.53125000000000000       0.53125000000000000        0.0000000000000000     
  0.56250000000000000       0.53125000000000000        0.0000000000000000     
  0.59375000000000000       0.53125000000000000        0.0000000000000000     
  0.62500000000000000       0.53125000000000000        0.0000000000000000     
  0.50000000000000000       0.56250000000000000        0.0000000000000000     
  0.53125000000000000       0.56250000000000000        0.0000000000000000     
  0.56250000000000000       0.56250000000000000        0.0000000000000000     
  0.59375000000000000       0.56250000000000000        0.0000000000000000     
  0.62500000000000000       0.56250000000000000        0.0000000000000000     
  0.50000000000000000       0.59375000000000000        0.0000000000000000     
  0.53125000000000000       0.59375000000000000        0.0000000000000000     
  0.56250000000000000       0.59375000000000000        0.0000000000000000     
  0.59375000000000000       0.59375000000000000        0.0000000000000000     
  0.62500000000000000       0.59375000000000000        0.0000000000000000     
  0.50000000000000000       0.62500000000000000        0.0000000000000000     
  0.53125000000000000       0.62500000000000000        0.0000000000000000     
  0.56250000000000000       0.62500000000000000        0.0000000000000000     
  0.59375000000000000       0.62500000000000000        0.0000000000000000     
  0.62500000000000000       0.62500000000000000        0.0000000000000000     
  0.62500000000000000       0.50000000000000000        0.0000000000000000     
  0.65625000000000000       0.50000000000000000        0.0000000000000000     
  0.68750000000000000       0.50000000000000000        0.0000000000000000     
  0.71875000000000000       0.50000000000000000        0.0000000000000000     
  0.75000000000000000       0.50000000000000000        0.0000000000000000     
  0.62500000000000000       0.53125000000000000        0.0000000000000000     
  0.65625000000000000       0.53125000000000000        0.0000000000000000     
  0.68750000000000000       0.53125000000000000        0.0000000000000000     
  0.71875000000000000       0.53125000000000000        0.0000000000000000     
  0.75000000000000000       0.53125000000000000        0.0000000000000000     
  0.62500000000000000       0.56250000000000000        0.0000000000000000     
  0.65625000000000000       0.56250000000000000        0.0000000000000000     
  0.68750000000000000       0.56250000000000000        0.0000000000000000     
  0.71875000000000000       0.56250000000000000        0.0000000000000000     
  0.75000000000000000       0.56250000000000000        0.0000000000000000     
  0.62500000000000000       0.59375000000000000        0.0000000000000000     
  0.65625000000000000       0.59375000000000000        0.0000000000000000     
  0.68750000000000000       0.59375000000000000        0.0000000000000000     
  0.71875000000000000       0.59375000000000000        0.0000000000000000     
  0.75000000000000000       0.59375000000000000        0.0000000000000000     
  0.62500000000000000       0.62500000000000000        0.0000000000000000     
  0.65625000000000000       0.62500000000000000        0.0000000000000000     
  0.68750000000000000       0.62500000000000000        0.0000000000000000     
  0.71875000000000000       0.62500000000000000        0.0000000000000000     
  0.75000000000000000       0.62500000000000000        0.0000000000000000     
  0.75000000000000000       0.50000000000000000        0.0000000000000000     
  0.78125000000000000       0.50000000000000000        0.0000000000000000     
  0.81250000000000000       0.50000000000000000        0.0000000000000000     
  0.84375000000000000       0.50000000000000000        0.0000000000000000     
  0.87500000000000000       0.50000000000000000        0.0000000000000000     
  0.75000000000000000       0.53125000000000000        0.0000000000000000     
  0.78125000000000000       0.53125000000000000        0.0000000000000000     
  0.81250000000000000       0.53125000000000000        0.0000000000000000     
  0.84375000000000000       0.53125000000000000        0.0000000000000000     
  0.87500000000000000       0.53125000000000000        0.0000000000000000     
  0.75000000000000000       0.56250000000000000        0.0000000000000000     
  0.78125000000000000       0.56250000000000000        0.0000000000000000     
  0.81250000000000000       0.56250000000000000        0.0000000000000000     
  0.84375000000000000       0.56250000000000000        0.0000000000000000     
  0.87500000000000000       0.56250000000000000        0.0000000000000000     
  0.75000000000000000       0.59375000000000000        0.0000000000000000     
  0.78125000000000000       0.59375000000000000        0.0000000000000000     
  0.81250000000000000       0.59375000000000000        0.0000000000000000     
  0.84375000000000000       0.59375000000000000        0.0000000000000000     
  0.87500000000000000       0.59375000000000000        0.0000000000000000     
  0.75000000000000000       0.62500000000000000        0.0000000000000000     
  0.78125000000000000       0.62500000000000000        0.0000000000000000     
  0.81250000000000000       0.62500000000000000        0.0000000000000000     
  0.84375000000000000       0.62500000000000000        0.0000000000000000     
  0.87500000000000000       0.62500000000000000        0.0000000000000000     
  0.87500000000000000       0.50000000000000000        0.0000000000000000     
  0.90625000000000000       0.50000000000000000        0.0000000000000000     
  0.93750000000000000       0.50000000000000000        0.0000000000000000     
  0.96875000000000000       0.50000000000000000        0.0000000000000000     
   1.0000000000000000       0.50000000000000000        0.0000000000000000     
  0.87500000000000000       0.53125000000000000        0.0000000000000000     
  0.90625000000000000       0.53125000000000000        0.0000000000000000     
  0.93750000000000000       0.53125000000000000        0.0000000000000000     
  0.96875000000000000       0.53125000000000000        0.0000000000000000     
   1.0000000000000000       0.53125000000000000        0.0000000000000000     
  0.87500000000000000       0.56250000000000000        0.0000000000000000     
  0.90625000000000000       0.56250000000000000        0.0000000000000000     
  0.93750000000000000       0.56250000000000000        0.0000000000000000     
  0.96875000000000000       0.56250000000000000        0.0000000000000000     
   1.0000000000000000       0.56250000000000000        0.0000000000000000     
  0.87500000000000000       0.59375000000000000        0.0000000000000000     
  0.90625000000000000       0.59375000000000000        0.0000000000000000     
  0.93750000000000000       0.59375000000000000        0.0000000000000000     
  0.96875000000000000       0.59375000000000000        0.0000000000000000     
   1.0000000000000000       0.59375000000000000        0.0000000000000000     
  0.87500000000000000       0.62500000000000000        0.0000000000000000     
  0.90625000000000000       0.62500000000000000        0.0000000000000000     
  0.93750000000000000       0.62500000000000000        0.0000000000000000     
  0.96875000000000000       0.62500000000000000        0.0000000000000000     
   1.0000000000000000       0.62500000000000000        0.0000000000000000     
   1.0000000000000000       0.50000000000000000        0.0000000000000000     
   1.0312500000000000       0.50000000000000000        0.0000000000000000     
   1.0625000000000000       0.50000000000000000        0.0000000000000000     
   1.0937500000000000       0.50000000000000000        0.0000000000000000     
   1.1250000000000000       0.50000000000000000        0.0000000000000000     
   1.0000000000000000       0.53125000000000000        0.0000000000000000     
   1.0312500000000000       0.53125000000000000        0.0000000000000000     
   1.0625000000000000       0.53125000000000000        0.0000000000000000     
   1.0937500000000000       0.53125000000000000        0.0000000000000000     
   1.1250000000000000       0.53125000000000000        0.0000000000000000     
   1.0000000000000000       0.56250000000000000        0.0000000000000000     
   1.0312500000000000       0.56250000000000000        0.0000000000000000     
   1.0625000000000000       0.56250000000000000        0.0000000000000000     
   1.0937500000000000       0.56250000000000000        0.0000000000000000     
   1.1250000000000000       0.56250000000000000        0.0000000000000000     
   1.0000000000000000       0.59375000000000000        0.0000000000000000     
   1.0312500000000000       0.59375000000000000        0.0000000000000000     
   1.0625000000000000       0.59375000000000000        0.0000000000000000     
   1.0937500000000000       0.59375000000000000        0.0000000000000000     
   1.1250000000000000       0.59375000000000000        0.0000000000000000     
   1.0000000000000000       0.62500000000000000        0.0000000000000000     
   1.0312500000000000       0.62500000000000000        0.0000000000000000     
   1.0625000000000000       0.62500000000000000        0.0000000000000000     
   1.0937500000000000       0.62500000000000000        0.0000000000000000     
   1.1250000000000000       0.62500000000000000        0.0000000000000000     
   1.1250000000000000       0.50000000000000000        0.0000000000000000     
   1.1562500000000000       0.50000000000000000        0.0000000000000000     
   1.1875000000000000       0.50000000000000000        0.0000000000000000     
   1.2187500000000000       0.50000000000000000        0.0000000000000000     
   1.2500000000000000       0.50000000000000000        0.0000000000000000     
   1.1250000000000000       0.53125000000000000        0.0000000000000000     
   1.1562500000000000       0.53125000000000000        0.0000000000000000     
   1.1875000000000000       0.53125000000000000        0.0000000000000000     
   1.2187500000000000       0.53125000000000000        0.0000000000000000     
   1.2500000000000000       0.53125000000000000        0.0000000000000000     
   1.1250000000000000       0.56250000000000000        0.0000000000000000     
   1.1562500000000000       0.56250000000000000        0.0000000000000000     
   1.1875000000000000       0.56250000000000000        0.0000000000000000     
   1.2187500000000000       0.56250000000000000        0.0000000000000000     
   1.2500000000000000       0.56250000000000000        0.0000000000000000     
   1.1250000000000000       0.59375000000000000        0.0000000000000000     
   1.1562500000000000       0.59375000000000000        0.0000000000000000     
   1.1875000000000000       0.59375000000000000        0.0000000000000000     
   1.2187500000000000       0.59375000000000000        0.0000000000000000     
   1.2500000000000000       0.59375000000000000        0.0000000000000000     
   1.1250000000000000       0.62500000000000000        0.0000000000000000     
   1.1562500000000000       0.62500000000000000        0.0000000000000000     
   1.1875000000000000       0.62500000000000000        0.0000000000000000     
   1.2187500000000000       0.62500000000000000        0.0000000000000000     
   1.2500000000000000       0.62500000000000000        0.0000000000000000     
   1.2500000000000000       0.50000000000000000        0.0000000000000000     
   1.2812500000000000       0.50000000000000000        0.0000000000000000     
   1.3125000000000000       0.50000000000000000        0.0000000000000000     
   1.3437500000000000       0.50000000000000000        0.0000000000000000     
   1.3750000000000000       0.50000000000000000        0.0000000000000000     
   1.2500000000000000       0.53125000000000000        0.0000000000000000     
   1.2812500000000000       0.53125000000000000        0.0000000000000000     
   1.3125000000000000       0.53125000000000000        0.0000000000000000     
   1.3437500000000000       0.53125000000000000        0.0000000000000000     
   1.3750000000000000       0.53125000000000000        0.0000000000000000     
   1.2500000000000000       0.56250000000000000        0.0000000000000000     
   1.2812500000000000       0.56250000000000000        0.0000000000000000     
   1.3125000000000000       0.56250000000000000        0.0000000000000000     
   1.3437500000000000       0.56250000000000000        0.0000000000000000     
   1.3750000000000000       0.56250000000000000        0.0000000000000000     
   1.2500000000000000       0.59375000000000000        0.0000000000000000     
   1.2812500000000000       0.59375000000000000        0.0000000000000000     
   1.3125000000000000       0.59375000000000000        0.0000000000000000     
   1.3437500000000000       0.59375000000000000        0.0000000000000000     
   1.3750000000000000       0.59375000000000000        0.0000000000000000     
   1.2500000000000000       0.62500000000000000        0.0000000000000000     
   1.2812500000000000       0.62500000000000000        0.0000000000000000     
   1.3125000000000000       0.62500000000000000        0.0000000000000000     
   1.3437500000000000       0.62500000000000000        0.0000000000000000     
   1.3750000000000000       0.62500000000000000        0.0000000000000000     
   1.3750000000000000       0.50000000000000000        0.0000000000000000     
   1.4062500000000000       0.50000000000000000        0.0000000000000000     
   1.4375000000000000       0.50000000000000000        0.0000000000000000     
   1.4687500000000000       0.50000000000000000        0.0000000000000000     
   1.5000000000000000       0.50000000000000000        0.0000000000000000     
   1.3750000000000000       0.53125000000000000        0.0000000000000000     
   1.4062500000000000       0.53125000000000000        0.0000000000000000     
   1.4375000000000000       0.53125000000000000        0.0000000000000000     
   1.4687500000000000       0.53125000000000000        0.0000000000000000     
   1.5000000000000000       0.53125000000000000        0.0000000000000000     
   1.3750000000000000       0.56250000000000000        0.0000000000000000     
   1.4062500000000000       0.56250000000000000        0.0000000000000000     
   1.4375000000000000       0.56250000000000000        0.0000000000000000     
   1.4687500000000000       0.56250000000000000        0.0000000000000000     
   1.5000000000000000       0.56250000000000000        0.0000000000000000     
   1.3750000000000000       0.59375000000000000        0.0000000000000000     
   1.4062500000000000       0.59375000000000000        0.0000000000000000     
   1.4375000000000000       0.59375000000000000        0.0000000000000000     
   1.4687500000000000       0.59375000000000000        0.0000000000000000     
   1.5000000000000000       0.59375000000000000        0.0000000000000000     
   1.3750000000000000       0.62500000000000000        0.0000000000000000     
   1.4062500000000000       0.62500000000000000        0.0000000000000000     
   1.4375000000000000       0.62500000000000000        0.0000000000000000     
   1.4687500000000000       0.62500000000000000        0.0000000000000000     
   1.5000000000000000       0.62500000000000000        0.0000000000000000     
  0.50000000000000000       0.62500000000000000        0.0000000000000000     
  0.53125000000000000       0.62500000000000000        0.0000000000000000     
  0.56250000000000000       0.62500000000000000        0.0000000000000000     
  0.59375000000000000       0.62500000000000000        0.0000000000000000     
  0.62500000000000000       0.62500000000000000        0.0000000000000000     
  0.50000000000000000       0.65625000000000000        0.0000000000000000     
  0.53125000000000000       0.65625000000000000        0.0000000000000000     
  0.56250000000000000       0.65625000000000000        0.0000000000000000     
  0.59375000000000000       0.65625000000000000        0.0000000000000000     
  0.62500000000000000       0.65625000000000000        0.0000000000000000     
  0.50000000000000000       0.68750000000000000        0.0000000000000000     
  0.53125000000000000       0.68750000000000000        0.0000000000000000     
  0.56250000000000000       0.68750000000000000        0.0000000000000000     
  0.59375000000000000       0.68750000000000000        0.0000000000000000     
  0.62500000000000000       0.68750000000000000        0.0000000000000000     
  0.50000000000000000       0.71875000000000000        0.0000000000000000     
  0.53125000000000000       0.71875000000000000        0.0000000000000000     
  0.56250000000000000       0.71875000000000000        0.0000000000000000     
  0.59375000000000000       0.71875000000000000        0.0000000000000000     
  0.62500000000000000       0.71875000000000000        0.0000000000000000     
  0.50000000000000000       0.75000000000000000        0.0000000000000000     
  0.53125000000000000       0.75000000000000000        0.0000000000000000     
  0.56250000000000000       0.75000000000000000        0.0000000000000000     
  0.59375000000000000       0.75000000000000000        0.0000000000000000     
  0.62500000000000000       0.75000000000000000        0.0000000000000000     
  0.62500000000000000       0.62500000000000000        0.0000000000000000     
  0.65625000000000000       0.62500000000000000        0.0000000000000000     
  0.68750000000000000       0.62500000000000000        0.0000000000000000     
  0.71875000000000000       0.62500000000000000        0.0000000000000000     
  0.75000000000000000       0.62500000000000000        0.0000000000000000     
  0.62500000000000000       0.65625000000000000        0.0000000000000000     
  0.65625000000000000       0.65625000000000000        0.0000000000000000     
  0.68750000000000000       0.65625000000000000        0.0000000000000000     
  0.71875000000000000       0.65625000000000000        0.0000000000000000     
  0.75000000000000000       0.65625000000000000        0.0000000000000000     
  0.62500000000000000       0.68750000000000000        0.0000000000000000     
  0.65625000000000000       0.68750000000000000        0.0000000000000000     
  0.68750000000000000       0.68750000000000000        0.0000000000000000     
  0.71875000000000000       0.68750000000000000        0.0000000000000000     
  0.75000000000000000       0.68750000000000000        0.0000000000000000     
  0.62500000000000000       0.71875000000000000        0.0000000000000000     
  0.65625000000000000       0.71875000000000000        0.0000000000000000     
  0.68750000000000000       0.71875000000000000        0.0000000000000000     
  0.71875000000000000       0.71875000000000000        0.0000000000000000     
  0.75000000000000000       0.71875000000000000        0.0000000000000000     
  0.62500000000000000       0.75000000000000000        0.0000000000000000     
  0.65625000000000000       0.75000000000000000        0.0000000000000000     
  0.68750000000000000       0.75000000000000000        0.0000000000000000     
  0.71875000000000000       0.75000000000000000        0.0000000000000000     
  0.75000000000000000       0.75000000000000000        0.0000000000000000     
  0.75000000000000000       0.62500000000000000        0.0000000000000000     
  0.78125000000000000       0.62500000000000000        0.0000000000000000     
  0.81250000000000000       0.62500000000000000        0.0000000000000000     
  0.84375000000000000       0.62500000000000000        0.0000000000000000     
  0.87500000000000000       0.62500000000000000        0.0000000000000000     
  0.75000000000000000       0.65625000000000000        0.0000000000000000     
  0.78125000000000000       0.65625000000000000        0.0000000000000000     
  0.81250000000000000       0.65625000000000000        0.0000000000000000     
  0.84375000000000000       0.65625000000000000        0.0000000000000000     
  0.87500000000000000       0.65625000000000000        0.0000000000000000     
  0.75000000000000000       0.68750000000000000        0.0000000000000000     
  0.78125000000000000       0.68750000000000000        0.0000000000000000     
  0.81250000000000000       0.68750000000000000        0.0000000000000000     
  0.84375000000000000       0.68750000000000000        0.0000000000000000     
  0.87500000000000000       0.68750000000000000        0.0000000000000000     
  0.75000000000000000       0.71875000000000000        0.0000000000000000     
  0.78125000000000000       0.71875000000000000        0.0000000000000000     
  0.81250000000000000       0.71875000000000000        0.0000000000000000     
  0.84375000000000000       0.71875000000000000        0.0000000000000000     
  0.87500000000000000       0.71875000000000000        0.0000000000000000     
  0.75000000000000000       0.75000000000000000        0.0000000000000000     
  0.78125000000000000       0.75000000000000000        0.0000000000000000     
  0.81250000000000000       0.75000000000000000        0.0000000000000000     
  0.84375000000000000       0.75000000000000000        0.0000000000000000     
  0.87500000000000000       0.75000000000000000        0.0000000000000000     
  0.87500000000000000       0.62500000000000000        0.0000000000000000     
  0.90625000000000000       0.62500000000000000        0.0000000000000000     
  0.93750000000000000       0.62500000000000000        0.0000000000000000     
  0.96875000000000000       0.62500000000000000        0.0000000000000000     
   1.0000000000000000       0.62500000000000000        0.0000000000000000     
  0.87500000000000000       0.65625000000000000        0.0000000000000000     
  0.90625000000000000       0.65625000000000000        0.0000000000000000     
  0.93750000000000000       0.65625000000000000        0.0000000000000000     
  0.96875000000000000       0.65625000000000000        0.0000000000000000     
   1.0000000000000000       0.65625000000000000        0.0000000000000000     
  0.87500000000000000       0.68750000000000000        0.0000000000000000     
  0.90625000000000000       0.68750000000000000        0.0000000000000000     
  0.93750000000000000       0.68750000000000000        0.0000000000000000     
  0.96875000000000000       0.68750000000000000        0.0000000000000000     
   1.0000000000000000       0.68750000000000000        0.0000000000000000     
  0.87500000000000000       0.71875000000000000        0.0000000000000000     
  0.90625000000000000       0.71875000000000000        0.0000000000000000     
  0.93750000000000000       0.71875000000000000        0.0000000000000000     
  0.96875000000000000       0.71875000000000000        0.0000000000000000     
   1.0000000000000000       0.71875000000000000        0.0000000000000000     
  0.87500000000000000       0.75000000000000000        0.0000000000000000     
  0.90625000000000000       0.75000000000000000        0.0000000000000000     
  0.93750000000000000       0.75000000000000000        0.0000000000000000     
  0.96875000000000000       0.75000000000000000        0.0000000000000000     
   1.0000000000000000       0.75000000000000000        0.0000000000000000     
   1.0000000000000000       0.62500000000000000        0.0000000000000000     
   1.0312500000000000       0.62500000000000000        0.0000000000000000     
   1.0625000000000000       0.62500000000000000        0.0000000000000000     
   1.0937500000000000       0.62500000000000000        0.0000000000000000     
   1.1250000000000000       0.62500000000000000        0.0000000000000000     
   1.0000000000000000       0.65625000000000000        0.0000000000000000     
   1.0312500000000000       0.65625000000000000        0.0000000000000000     
   1.0625000000000000       0.65625000000000000        0.0000000000000000     
   1.0937500000000000       0.65625000000000000        0.0000000000000000     
   1.1250000000000000       0.65625000000000000        0.0000000000000000     
   1.0000000000000000       0.68750000000000000        0.0000000000000000     
   1.0312500000000000       0.68750000000000000        0.0000000000000000     
   1.0625000000000000       0.68750000000000000        0.0000000000000000     
   1.0937500000000000       0.68750000000000000        0.0000000000000000     
   1.1250000000000000       0.68750000000000000        0.0000000000000000     
   1.0000000000000000       0.71875000000000000        0.0000000000000000     
   1.0312500000000000       0.71875000000000000        0.0000000000000000     
   1.0625000000000000       0.71875000000000000        0.0000000000000000     
   1.0937500000000000       0.71875000000000000        0.0000000000000000     
   1.1250000000000000       0.71875000000000000        0.0000000000000000     
   1.0000000000000000       0.75000000000000000        0.0000000000000000     
   1.0312500000000000       0.75000000000000000        0.0000000000000000     
   1.0625000000000000       0.75000000000000000        0.0000000000000000     
   1.0937500000000000       0.75000000000000000        0.0000000000000000     
   1.1250000000000000       0.75000000000000000        0.0000000000000000     
   1.1250000000000000       0.62500000000000000        0.0000000000000000     
   1.1562500000000000       0.62500000000000000        0.0000000000000000     
   1.1875000000000000       0.62500000000000000        0.0000000000000000     
   1.2187500000000000       0.62500000000000000        0.0000000000000000     
   1.2500000000000000       0.62500000000000000        0.0000000000000000     
   1.1250000000000000       0.65625000000000000        0.0000000000000000     
   1.1562500000000000       0.65625000000000000        0.0000000000000000     
   1.1875000000000000       0.65625000000000000        0.0000000000000000     
   1.2187500000000000       0.65625000000000000        0.0000000000000000     
   1.2500000000000000       0.65625000000000000        0.0000000000000000     
   1.1250000000000000       0.68750000000000000        0.0000000000000000     
   1.1562500000000000       0.68750000000000000        0.0000000000000000     
   1.1875000000000000       0.68750000000000000        0.0000000000000000     
   1.2187500000000000       0.68750000000000000        0.0000000000000000     
   1.2500000000000000       0.68750000000000000        0.0000000000000000     
   1.1250000000000000       0.71875000000000000        0.0000000000000000     
   1.1562500000000000       0.71875000000000000        0.0000000000000000     
   1.1875000000000000       0.71875000000000000        0.0000000000000000     
   1.2187500000000000       0.71875000000000000        0.0000000000000000     
   1.2500000000000000       0.71875000000000000        0.0000000000000000     
   1.1250000000000000       0.75000000000000000        0.0000000000000000     
   1.1562500000000000       0.75000000000000000        0.0000000000000000     
   1.1875000000000000       0.75000000000000000        0.0000000000000000     
   1.2187500000000000       0.75000000000000000        0.0000000000000000     
   1.2500000000000000       0.75000000000000000        0.0000000000000000     
   1.2500000000000000       0.62500000000000000        0.0000000000000000     
   1.2812500000000000       0.62500000000000000        0.0000000000000000     
   1.3125000000000000       0.62500000000000000        0.0000000000000000     
   1.3437500000000000       0.62500000000000000        0.0000000000000000     
   1.3750000000000000       0.62500000000000000        0.0000000000000000     
   1.2500000000000000       0.65625000000000000        0.0000000000000000     
   1.2812500000000000       0.65625000000000000        0.0000000000000000     
   1.3125000000000000       0.65625000000000000        0.0000000000000000     
   1.3437500000000000       0.65625000000000000        0.0000000000000000     
   1.3750000000000000       0.65625000000000000        0.0000000000000000     
   1.2500000000000000       0.68750000000000000        0.0000000000000000     
   1.2812500000000000       0.68750000000000000        0.0000000000000000     
   1.3125000000000000       0.68750000000000000        0.0000000000000000     
   1.3437500000000000       0.68750000000000000        0.0000000000000000     
   1.3750000000000000       0.68750000000000000        0.0000000000000000     
   1.2500000000000000       0.71875000000000000        0.0000000000000000     
   1.2812500000000000       0.71875000000000000        0.0000000000000000     
   1.3125000000000000       0.71875000000000000        0.0000000000000000     
   1.3437500000000000       0.71875000000000000        0.0000000000000000     
   1.3750000000000000       0.71875000000000000        0.0000000000000000     
   1.2500000000000000       0.75000000000000000        0.0000000000000000     
   1.2812500000000000       0.75000000000000000        0.0000000000000000     
   1.3125000000000000       0.75000000000000000        0.0000000000000000     
   1.3437500000000000       0.75000000000000000        0.0000000000000000     
   1.3750000000000000       0.75000000000000000        0.0000000000000000     
   1.3750000000000000       0.62500000000000000        0.0000000000000000     
   1.4062500000000000       0.62500000000000000        0.0000000000000000     
   1.4375000000000000       0.62500000000000000        0.0000000000000000     
   1.4687500000000000       0.62500000000000000        0.0000000000000000     
   1.5000000000000000       0.62500000000000000        0.0000000000000000     
   1.3750000000000000       0.65625000000000000        0.0000000000000000     
   1.4062500000000000       0.65625000000000000        0.0000000000000000     
   1.4375000000000000       0.65625000000000000        0.0000000000000000     
   1.4687500000000000       0.65625000000000000        0.0000000000000000     
   1.5000000000000000       0.65625000000000000        0.0000000000000000     
   1.3750000000000000       0.68750000000000000        0.0000000000000000     
   1.4062500000000000       0.68750000000000000        0.0000000000000000     
   1.4375000000000000       0.68750000000000000        0.0000000000000000     
   1.4687500000000000       0.68750000000000000        0.0000000000000000     
   1.5000000000000000       0.68750000000000000        0.0000000000000000     
   1.3750000000000000       0.71875000000000000        0.0000000000000000     
   1.4062500000000000       0.71875000000000000        0.0000000000000000     
   1.4375000000000000       0.71875000000000000        0.0000000000000000     
   1.4687500000000000       0.71875000000000000        0.0000000000000000     
   1.5000000000000000       0.71875000000000000        0.0000000000000000     
   1.3750000000000000       0.75000000000000000        0.0000000000000000     
   1.4062500000000000       0.75000000000000000        0.0000000000000000     
   1.4375000000000000       0.75000000000000000        0.0000000000000000     
   1.4687500000000000       0.75000000000000000        0.0000000000000000     
   1.5000000000000000       0.75000000000000000        0.0000000000000000     
  0.50000000000000000       0.75000000000000000        0.0000000000000000     
  0.53125000000000000       0.75000000000000000        0.0000000000000000     
  0.56250000000000000       0.75000000000000000        0.0000000000000000     
  0.59375000000000000       0.75000000000000000        0.0000000000000000     
  0.62500000000000000       0.75000000000000000        0.0000000000000000     
  0.50000000000000000       0.78125000000000000        0.0000000000000000     
  0.53125000000000000       0.78125000000000000        0.0000000000000000     
  0.56250000000000000       0.78125000000000000        0.0000000000000000     
  0.59375000000000000       0.78125000000000000        0.0000000000000000     
  0.62500000000000000       0.78125000000000000        0.0000000000000000     
  0.50000000000000000       0.81250000000000000        0.0000000000000000     
  0.53125000000000000       0.81250000000000000        0.0000000000000000     
  0.56250000000000000       0.81250000000000000        0.0000000000000000     
  0.59375000000000000       0.81250000000000000        0.0000000000000000     
  0.62500000000000000       0.81250000000000000        0.0000000000000000     
  0.50000000000000000       0.84375000000000000        0.0000000000000000     
  0.53125000000000000       0.84375000000000000        0.0000000000000000     
  0.56250000000000000       0.84375000000000000        0.0000000000000000     
  0.59375000000000000       0.84375000000000000        0.0000000000000000     
  0.62500000000000000       0.84375000000000000        0.0000000000000000     
  0.50000000000000000       0.87500000000000000        0.0000000000000000     
  0.53125000000000000       0.87500000000000000        0.0000000000000000     
  0.56250000000000000       0.87500000000000000        0.0000000000000000     
  0.59375000000000000       0.87500000000000000        0.0000000000000000     
  0.62500000000000000       0.87500000000000000        0.0000000000000000     
  0.62500000000000000       0.75000000000000000        0.0000000000000000     
  0.65625000000000000       0.75000000000000000        0.0000000000000000     
  0.68750000000000000       0.75000000000000000        0.0000000000000000     
  0.71875000000000000       0.75000000000000000        0.0000000000000000     
  0.75000000000000000       0.75000000000000000        0.0000000000000000     
  0.62500000000000000       0.78125000000000000        0.0000000000000000     
  0.65625000000000000       0.78125000000000000        0.0000000000000000     
  0.68750000000000000       0.78125000000000000        0.0000000000000000     
  0.71875000000000000       0.78125000000000000        0.0000000000000000     
  0.75000000000000000       0.78125000000000000        0.0000000000000000     
  0.62500000000000000       0.81250000000000000        0.0000000000000000     
  0.65625000000000000       0.81250000000000000        0.0000000000000000     
  0.68750000000000000       0.81250000000000000        0.0000000000000000     
  0.71875000000000000       0.81250000000000000        0.0000000000000000     
  0.75000000000000000       0.81250000000000000        0.0000000000000000     
  0.62500000000000000       0.84375000000000000        0.0000000000000000     
  0.65625000000000000       0.84375000000000000        0.0000000000000000     
  0.68750000000000000       0.84375000000000000        0.0000000000000000     
  0.71875000000000000       0.84375000000000000        0.0000000000000000     
  0.75000000000000000       0.84375000000000000        0.0000000000000000     
  0.62500000000000000       0.87500000000000000        0.0000000000000000     
  0.65625000000000000       0.87500000000000000        0.0000000000000000     
  0.68750000000000000       0.87500000000000000        0.0000000000000000     
  0.71875000000000000       0.87500000000000000        0.0000000000000000     
  0.75000000000000000       0.87500000000000000        0.0000000000000000     
  0.75000000000000000       0.75000000000000000        0.0000000000000000     
  0.78125000000000000       0.75000000000000000        0.0000000000000000     
  0.81250000000000000       0.75000000000000000        0.0000000000000000     
  0.84375000000000000       0.75000000000000000        0.0000000000000000     
  0.87500000000000000       0.75000000000000000        0.0000000000000000     
  0.75000000000000000       0.78125000000000000        0.0000000000000000     
  0.78125000000000000       0.78125000000000000        0.0000000000000000     
  0.81250000000000000       0.78125000000000000        0.0000000000000000     
  0.84375000000000000       0.78125000000000000        0.0000000000000000     
  0.87500000000000000       0.78125000000000000        0.0000000000000000     
  0.75000000000000000       0.81250000000000000        0.0000000000000000     
  0.78125000000000000       0.81250000000000000        0.0000000000000000     
  0.81250000000000000       0.81250000000000000        0.0000000000000000     
  0.84375000000000000       0.81250000000000000        0.0000000000000000     
  0.87500000000000000       0.81250000000000000        0.0000000000000000     
  0.75000000000000000       0.84375000000000000        0.0000000000000000     
  0.78125000000000000       0.84375000000000000        0.0000000000000000     
  0.81250000000000000       0.84375000000000000        0.0000000000000000     
  0.84375000000000000       0.84375000000000000        0.0000000000000000     
  0.87500000000000000       0.84375000000000000        0.0000000000000000     
  0.75000000000000000       0.87500000000000000        0.0000000000000000     
  0.78125000000000000       0.87500000000000000        0.0000000000000000     
  0.81250000000000000       0.87500000000000000        0.0000000000000000     
  0.84375000000000000       0.87500000000000000        0.0000000000000000     
  0.87500000000000000       0.87500000000000000        0.0000000000000000     
  0.87500000000000000       0.75000000000000000        0.0000000000000000     
  0.90625000000000000       0.75000000000000000        0.0000000000000000     
  0.93750000000000000       0.75000000000000000        0.0000000000000000     
  0.96875000000000000       0.75000000000000000        0.0000000000000000     
   1.0000000000000000       0.75000000000000000        0.0000000000000000     
  0.87500000000000000       0.78125000000000000        0.0000000000000000     
  0.90625000000000000       0.78125000000000000        0.0000000000000000     
  0.93750000000000000       0.78125000000000000        0.0000000000000000     
  0.96875000000000000       0.78125000000000000        0.0000000000000000     
   1.0000000000000000       0.78125000000000000        0.0000000000000000     
  0.87500000000000000       0.81250000000000000        0.0000000000000000     
  0.90625000000000000       0.81250000000000000        0.0000000000000000     
  0.93750000000000000       0.81250000000000000        0.0000000000000000     
  0.96875000000000000       0.81250000000000000        0.0000000000000000     
   1.0000000000000000       0.81250000000000000        0.0000000000000000     
  0.87500000000000000       0.84375000000000000        0.0000000000000000     
  0.90625000000000000       0.84375000000000000        0.0000000000000000     
  0.93750000000000000       0.84375000000000000        0.0000000000000000     
  0.96875000000000000       0.84375000000000000        0.0000000000000000     
   1.0000000000000000       0.84375000000000000        0.0000000000000000     
  0.87500000000000000       0.87500000000000000        0.0000000000000000     
  0.90625000000000000       0.87500000000000000        0.0000000000000000     
  0.93750000000000000       0.87500000000000000        0.0000000000000000     
  0.96875000000000000       0.87500000000000000        0.0000000000000000     
   1.0000000000000000       0.87500000000000000        0.0000000000000000     
   1.0000000000000000       0.75000000000000000        0.0000000000000000     
   1.0312500000000000       0.75000000000000000        0.0000000000000000     
   1.0625000000000000       0.75000000000000000        0.0000000000000000     
   1.0937500000000000       0.75000000000000000        0.0000000000000000     
   1.1250000000000000       0.75000000000000000        0.0000000000000000     
   1.0000000000000000       0.78125000000000000        0.0000000000000000     
   1.0312500000000000       0.78125000000000000        0.0000000000000000     
   1.0625000000000000       0.78125000000000000        0.0000000000000000     
   1.0937500000000000       0.78125000000000000        0.0000000000000000     
   1.1250000000000000       0.78125000000000000        0.0000000000000000     
   1.0000000000000000       0.81250000000000000        0.0000000000000000     
   1.0312500000000000       0.81250000000000000        0.0000000000000000     
   1.0625000000000000       0.81250000000000000        0.0000000000000000     
   1.0937500000000000       0.81250000000000000        0.0000000000000000     
   1.1250000000000000       0.81250000000000000        0.0000000000000000     
   1.0000000000000000       0.84375000000000000        0.0000000000000000     
   1.0312500000000000       0.84375000000000000        0.0000000000000000     
   1.0625000000000000       0.84375000000000000        0.0000000000000000     
   1.0937500000000000       0.84375000000000000        0.0000000000000000     
   1.1250000000000000       0.84375000000000000        0.0000000000000000     
   1.0000000000000000       0.87500000000000000        0.0000000000000000     
   1.0312500000000000       0.87500000000000000        0.0000000000000000     
   1.0625000000000000       0.87500000000000000        0.0000000000000000     
   1.0937500000000000       0.87500000000000000        0.0000000000000000     
   1.1250000000000000       0.87500000000000000        0.0000000000000000     
   1.1250000000000000       0.75000000000000000        0.0000000000000000     
   1.1562500000000000       0.75000000000000000        0.0000000000000000     
   1.1875000000000000       0.75000000000000000        0.0000000000000000     
   1.2187500000000000       0.75000000000000000        0.0000000000000000     
   1.2500000000000000       0.75000000000000000        0.0000000000000000     
   1.1250000000000000       0.78125000000000000        0.0000000000000000     
   1.1562500000000000       0.78125000000000000        0.0000000000000000     
   1.1875000000000000       0.78125000000000000        0.0000000000000000     
   1.2187500000000000       0.78125000000000000        0.0000000000000000     
   1.2500000000000000       0.78125000000000000        0.0000000000000000     
   1.1250000000000000       0.81250000000000000        0.0000000000000000     
   1.1562500000000000       0.81250000000000000        0.0000000000000000     
   1.1875000000000000       0.81250000000000000        0.0000000000000000     
   1.2187500000000000       0.81250000000000000        0.0000000000000000     
   1.2500000000000000       0.81250000000000000        0.0000000000000000     
   1.1250000000000000       0.84375000000000000        0.0000000000000000     
   1.1562500000000000       0.84375000000000000        0.0000000000000000     
   1.1875000000000000       0.84375000000000000        0.0000000000000000     
   1.2187500000000000       0.84375000000000000        0.0000000000000000     
   1.2500000000000000       0.84375000000000000        0.0000000000000000     
   1.1250000000000000       0.87500000000000000        0.0000000000000000     
   1.1562500000000000       0.87500000000000000        0.0000000000000000     
   1.1875000000000000       0.87500000000000000        0.0000000000000000     
   1.2187500000000000       0.87500000000000000        0.0000000000000000     
   1.2500000000000000       0.87500000000000000        0.0000000000000000     
   1.2500000000000000       0.75000000000000000        0.0000000000000000     
   1.2812500000000000       0.75000000000000000        0.0000000000000000     
   1.3125000000000000       0.75000000000000000        0.0000000000000000     
   1.3437500000000000       0.75000000000000000        0.0000000000000000     
   1.3750000000000000       0.75000000000000000        0.0000000000000000     
   1.2500000000000000       0.78125000000000000        0.0000000000000000     
   1.2812500000000000       0.78125000000000000        0.0000000000000000     
   1.3125000000000000       0.78125000000000000        0.0000000000000000     
   1.3437500000000000       0.78125000000000000        0.0000000000000000     
   1.3750000000000000       0.78125000000000000        0.0000000000000000     
   1.2500000000000000       0.81250000000000000        0.0000000000000000     
   1.2812500000000000       0.81250000000000000        0.0000000000000000     
   1.3125000000000000       0.81250000000000000        0.0000000000000000     
   1.3437500000000000       0.81250000000000000        0.0000000000000000     
   1.3750000000000000       0.81250000000000000        0.0000000000000000     
   1.2500000000000000       0.84375000000000000        0.0000000000000000     
   1.2812500000000000       0.84375000000000000        0.0000000000000000     
   1.3125000000000000       0.84375000000000000        0.0000000000000000     
   1.3437500000000000       0.84375000000000000        0.0000000000000000     
   1.3750000000000000       0.84375000000000000        0.0000000000000000     
   1.2500000000000000       0.87500000000000000        0.0000000000000000     
   1.2812500000000000       0.87500000000000000        0.0000000000000000     
   1.3125000000000000       0.87500000000000000        0.0000000000000000     
   1.3437500000000000       0.87500000000000000        0.0000000000000000     
   1.3750000000000000       0.87500000000000000        0.0000000000000000     
   1.3750000000000000       0.75000000000000000        0.0000000000000000     
   1.4062500000000000       0.75000000000000000        0.0000000000000000     
   1.4375000000000000       0.75000000000000000        0.0000000000000000     
   1.4687500000000000       0.75000000000000000        0.0000000000000000     
   1.5000000000000000       0.75000000000000000        0.0000000000000000     
   1.3750000000000000       0.78125000000000000        0.0000000000000000     
   1.4062500000000000       0.78125000000000000        0.0000000000000000     
   1.4375000000000000       0.78125000000000000        0.0000000000000000     
   1.4687500000000000       0.78125000000000000        0.0000000000000000     
   1.5000000000000000       0.78125000000000000        0.0000000000000000     
   1.3750000000000000       0.81250000000000000        0.0000000000000000     
   1.4062500000000000       0.81250000000000000        0.0000000000000000     
   1.4375000000000000       0.81250000000000000        0.0000000000000000     
   1.4687500000000000       0.81250000000000000        0.0000000000000000     
   1.5000000000000000       0.81250000000000000        0.0000000000000000     
   1.3750000000000000       0.84375000000000000        0.0000000000000000     
   1.4062500000000000       0.84375000000000000        0.0000000000000000     
   1.4375000000000000       0.84375000000000000        0.0000000000000000     
   1.4687500000000000       0.84375000000000000        0.0000000000000000     
   1.5000000000000000       0.84375000000000000        0.0000000000000000     
   1.3750000000000000       0.87500000000000000        0.0000000000000000     
   1.4062500000000000       0.87500000000000000        0.0000000000000000     
   1.4375000000000000       0.87500000000000000        0.0000000000000000     
   1.4687500000000000       0.87500000000000000        0.0000000000000000     
   1.5000000000000000       0.87500000000000000        0.0000000000000000     
  0.50000000000000000       0.87500000000000000        0.0000000000000000     
  0.53125000000000000       0.87500000000000000        0.0000000000000000     
  0.56250000000000000       0.87500000000000000        0.0000000000000000     
  0.59375000000000000       0.87500000000000000        0.0000000000000000     
  0.62500000000000000       0.87500000000000000        0.0000000000000000     
  0.50000000000000000       0.90625000000000000        0.0000000000000000     
  0.53125000000000000       0.90625000000000000        0.0000000000000000     
  0.56250000000000000       0.90625000000000000        0.0000000000000000     
  0.59375000000000000       0.90625000000000000        0.0000000000000000     
  0.62500000000000000       0.90625000000000000        0.0000000000000000     
  0.50000000000000000       0.93750000000000000        0.0000000000000000     
  0.53125000000000000       0.93750000000000000        0.0000000000000000     
  0.56250000000000000       0.93750000000000000        0.0000000000000000     
  0.59375000000000000       0.93750000000000000        0.0000000000000000     
  0.62500000000000000       0.93750000000000000        0.0000000000000000     
  0.50000000000000000       0.96875000000000000        0.0000000000000000     
  0.53125000000000000       0.96875000000000000        0.0000000000000000     
  0.56250000000000000       0.96875000000000000        0.0000000000000000     
  0.59375000000000000       0.96875000000000000        0.0000000000000000     
  0.62500000000000000       0.96875000000000000        0.0000000000000000     
  0.50000000000000000        1.0000000000000000        0.0000000000000000     
  0.53125000000000000        1.0000000000000000        0.0000000000000000     
  0.56250000000000000        1.0000000000000000        0.0000000000000000     
  0.59375000000000000        1.0000000000000000        0.0000000000000000     
  0.62500000000000000        1.0000000000000000        0.0000000000000000     
  0.62500000000000000       0.87500000000000000        0.0000000000000000     
  0.65625000000000000       0.87500000000000000        0.0000000000000000     
  0.68750000000000000       0.87500000000000000        0.0000000000000000     
  0.71875000000000000       0.87500000000000000        0.0000000000000000     
  0.75000000000000000       0.87500000000000000        0.0000000000000000     
  0.62500000000000000       0.90625000000000000        0.0000000000000000     
  0.65625000000000000       0.90625000000000000        0.0000000000000000     
  0.68750000000000000       0.90625000000000000        0.0000000000000000     
  0.71875000000000000       0.90625000000000000        0.0000000000000000     
  0.75000000000000000       0.90625000000000000        0.0000000000000000     
  0.62500000000000000       0.93750000000000000        0.0000000000000000     
  0.65625000000000000       0.93750000000000000        0.0000000000000000     
  0.68750000000000000       0.93750000000000000        0.0000000000000000     
  0.71875000000000000       0.93750000000000000        0.0000000000000000     
  0.75000000000000000       0.93750000000000000        0.0000000000000000     
  0.62500000000000000       0.96875000000000000        0.0000000000000000     
  0.65625000000000000       0.96875000000000000        0.0000000000000000     
  0.68750000000000000       0.96875000000000000        0.0000000000000000     
  0.71875000000000000       0.96875000000000000        0.0000000000000000     
  0.75000000000000000       0.96875000000000000        0.0000000000000000     
  0.62500000000000000        1.0000000000000000        0.0000000000000000     
  0.65625000000000000        1.0000000000000000        0.0000000000000000     
  0.68750000000000000        1.0000000000000000        0.0000000000000000     
  0.71875000000000000        1.0000000000000000        0.0000000000000000     
  0.75000000000000000        1.0000000000000000        0.0000000000000000     
  0.75000000000000000       0.87500000000000000        0.0000000000000000     
  0.78125000000000000       0.87500000000000000        0.0000000000000000     
  0.81250000000000000       0.87500000000000000        0.0000000000000000     
  0.84375000000000000       0.87500000000000000        0.0000000000000000     
  0.87500000000000000       0.87500000000000000        0.0000000000000000     
  0.75000000000000000       0.90625000000000000        0.0000000000000000     
  0.78125000000000000       0.90625000000000000        0.0000000000000000     
  0.81250000000000000       0.90625000000000000        0.0000000000000000     
  0.84375000000000000       0.90625000000000000        0.0000000000000000     
  0.87500000000000000       0.90625000000000000        0.0000000000000000     
  0.75000000000000000       0.93750000000000000        0.0000000000000000     
  0.78125000000000000       0.93750000000000000        0.0000000000000000     
  0.81250000000000000       0.93750000000000000        0.0000000000000000     
  0.84375000000000000       0.93750000000000000        0.0000000000000000     
  0.87500000000000000       0.93750000000000000        0.0000000000000000     
  0.75000000000000000       0.96875000000000000        0.0000000000000000     
  0.78125000000000000       0.96875000000000000        0.0000000000000000     
  0.81250000000000000       0.96875000000000000        0.0000000000000000     
  0.84375000000000000       0.96875000000000000        0.0000000000000000     
  0.87500000000000000       0.96875000000000000        0.0000000000000000     
  0.75000000000000000        1.0000000000000000        0.0000000000000000     
  0.78125000000000000        1.0000000000000000        0.0000000000000000     
  0.81250000000000000        1.0000000000000000        0.0000000000000000     
  0.84375000000000000        1.0000000000000000        0.0000000000000000     
  0.87500000000000000        1.0000000000000000        0.0000000000000000     
  0.87500000000000000       0.87500000000000000        0.0000000000000000     
  0.90625000000000000       0.87500000000000000        0.0000000000000000     
  0.93750000000000000       0.87500000000000000        0.0000000000000000     
  0.96875000000000000       0.87500000000000000        0.0000000000000000     
   1.0000000000000000       0.87500000000000000        0.0000000000000000     
  0.87500000000000000       0.90625000000000000        0.0000000000000000     
  0.90625000000000000       0.90625000000000000        0.0000000000000000     
  0.93750000000000000       0.90625000000000000        0.0000000000000000     
  0.96875000000000000       0.90625000000000000        0.0000000000000000     
   1.0000000000000000       0.90625000000000000        0.0000000000000000     
  0.87500000000000000       0.93750000000000000        0.0000000000000000     
  0.90625000000000000       0.93750000000000000        0.0000000000000000     
  0.93750000000000000       0.93750000000000000        0.0000000000000000     
  0.96875000000000000       0.93750000000000000        0.0000000000000000     
   1.0000000000000000       0.93750000000000000        0.0000000000000000     
  0.87500000000000000       0.96875000000000000        0.0000000000000000     
  0.90625000000000000       0.96875000000000000        0.0000000000000000     
  0.93750000000000000       0.96875000000000000        0.0000000000000000     
  0.96875000000000000       0.96875000000000000        0.0000000000000000     
   1.0000000000000000       0.96875000000000000        0.0000000000000000     
  0.87500000000000000        1.0000000000000000        0.0000000000000000     
  0.90625000000000000        1.0000000000000000        0.0000000000000000     
  0.93750000000000000        1.0000000000000000        0.0000000000000000     
  0.96875000000000000        1.0000000000000000        0.0000000000000000     
   1.0000000000000000        1.0000000000000000        0.0000000000000000     
   1.0000000000000000       0.87500000000000000        0.0000000000000000     
   1.0312500000000000       0.87500000000000000        0.0000000000000000     
   1.0625000000000000       0.87500000000000000        0.0000000000000000     
   1.0937500000000000       0.87500000000000000        0.0000000000000000     
   1.1250000000000000       0.87500000000000000        0.0000000000000000     
   1.0000000000000000       0.90625000000000000        0.0000000000000000     
   1.0312500000000000       0.90625000000000000        0.0000000000000000     
   1.0625000000000000       0.90625000000000000        0.0000000000000000     
   1.0937500000000000       0.90625000000000000        0.0000000000000000     
   1.1250000000000000       0.90625000000000000        0.0000000000000000     
   1.0000000000000000       0.93750000000000000        0.0000000000000000     
   1.0312500000000000       0.93750000000000000        0.0000000000000000     
   1.0625000000000000       0.93750000000000000        0.0000000000000000     
   1.0937500000000000       0.93750000000000000        0.0000000000000000     
   1.1250000000000000       0.93750000000000000        0.0000000000000000     
   1.0000000000000000       0.96875000000000000        0.0000000000000000     
   1.0312500000000000       0.96875000000000000        0.0000000000000000     
   1.0625000000000000       0.96875000000000000        0.0000000000000000     
   1.0937500000000000       0.96875000000000000        0.0000000000000000     
   1.1250000000000000       0.96875000000000000        0.0000000000000000     
   1.0000000000000000        1.0000000000000000        0.0000000000000000     
   1.0312500000000000        1.0000000000000000        0.0000000000000000     
   1.0625000000000000        1.0000000000000000        0.0000000000000000     
   1.0937500000000000        1.0000000000000000        0.0000000000000000     
   1.1250000000000000        1.0000000000000000        0.0000000000000000     
   1.1250000000000000       0.87500000000000000        0.0000000000000000     
   1.1562500000000000       0.87500000000000000        0.0000000000000000     
   1.1875000000000000       0.87500000000000000        0.0000000000000000     
   1.2187500000000000       0.87500000000000000        0.0000000000000000     
   1.2500000000000000       0.87500000000000000        0.0000000000000000     
   1.1250000000000000       0.90625000000000000        0.0000000000000000     
   1.1562500000000000       0.90625000000000000        0.0000000000000000     
   1.1875000000000000       0.90625000000000000        0.0000000000000000     
   1.2187500000000000       0.90625000000000000        0.0000000000000000     
   1.2500000000000000       0.90625000000000000        0.0000000000000000     
   1.1250000000000000       0.93750000000000000        0.0000000000000000     
   1.1562500000000000       0.93750000000000000        0.0000000000000000     
   1.1875000000000000       0.93750000000000000        0.0000000000000000     
   1.2187500000000000       0.93750000000000000        0.0000000000000000     
   1.2500000000000000       0.93750000000000000        0.0000000000000000     
   1.1250000000000000       0.96875000000000000        0.0000000000000000     
   1.1562500000000000       0.96875000000000000        0.0000000000000000     
   1.1875000000000000       0.96875000000000000        0.0000000000000000     
   1.2187500000000000       0.96875000000000000        0.0000000000000000     
   1.2500000000000000       0.96875000000000000        0.0000000000000000     
   1.1250000000000000        1.0000000000000000        0.0000000000000000     
   1.1562500000000000        1.0000000000000000        0.0000000000000000     
   1.1875000000000000        1.0000000000000000        0.0000000000000000     
   1.2187500000000000        1.0000000000000000        0.0000000000000000     
   1.2500000000000000        1.0000000000000000        0.0000000000000000     
   1.2500000000000000       0.87500000000000000        0.0000000000000000     
   1.2812500000000000       0.87500000000000000        0.0000000000000000     
   1.3125000000000000       0.87500000000000000        0.0000000000000000     
   1.3437500000000000       0.87500000000000000        0.0000000000000000     
   1.3750000000000000       0.87500000000000000        0.0000000000000000     
   1.2500000000000000       0.90625000000000000        0.0000000000000000     
   1.2812500000000000       0.90625000000000000        0.0000000000000000     
   1.3125000000000000       0.90625000000000000        0.0000000000000000     
   1.3437500000000000       0.90625000000000000        0.0000000000000000     
   1.3750000000000000       0.90625000000000000        0.0000000000000000     
   1.2500000000000000       0.93750000000000000        0.0000000000000000     
   1.2812500000000000       0.93750000000000000        0.0000000000000000     
   1.3125000000000000       0.93750000000000000        0.0000000000000000     
   1.3437500000000000       0.93750000000000000        0.0000000000000000     
   1.3750000000000000       0.93750000000000000        0.0000000000000000     
   1.2500000000000000       0.96875000000000000        0.0000000000000000     
   1.2812500000000000       0.96875000000000000        0.0000000000000000     
   1.3125000000000000       0.96875000000000000        0.0000000000000000     
   1.3437500000000000       0.96875000000000000        0.0000000000000000     
   1.3750000000000000       0.96875000000000000        0.0000000000000000     
   1.2500000000000000        1.0000000000000000        0.0000000000000000     
   1.2812500000000000        1.0000000000000000        0.0000000000000000     
   1.3125000000000000        1.0000000000000000        0.0000000000000000     
   1.3437500000000000        1.0000000000000000        0.0000000000000000     
   1.3750000000000000        1.0000000000000000        0.0000000000000000     
   1.3750000000000000       0.87500000000000000        0.0000000000000000     
   1.4062500000000000       0.87500000000000000        0.0000000000000000     
   1.4375000000000000       0.87500000000000000        0.0000000000000000     
   1.4687500000000000       0.87500000000000000        0.0000000000000000     
   1.5000000000000000       0.87500000000000000        0.0000000000000000     
   1.3750000000000000       0.90625000000000000        0.0000000000000000     
   1.4062500000000000       0.90625000000000000        0.0000000000000000     
   1.4375000000000000       0.90625000000000000        0.0000000000000000     
   1.4687500000000000       0.90625000000000000        0.0000000000000000     
   1.5000000000000000       0.90625000000000000        0.0000000000000000     
   1.3750000000000000       0.93750000000000000        0.0000000000000000     
   1.4062500000000000       0.93750000000000000        0.0000000000000000     
   1.4375000000000000       0.93750000000000000        0.0000000000000000     
   1.4687500000000000       0.93750000000000000        0.0000000000000000     
   1.5000000000000000       0.93750000000000000        0.0000000000000000     
   1.3750000000000000       0.96875000000000000        0.0000000000000000     
   1.4062500000000000       0.96875000000000000        0.0000000000000000     
   1.4375000000000000       0.96875000000000000        0.0000000000000000     
   1.4687500000000000       0.96875000000000000        0.0000000000000000     
   1.5000000000000000       0.96875000000000000        0.0000000000000000     
   1.3750000000000000        1.0000000000000000        0.0000000000000000     
   1.4062500000000000        1.0000000000000000        0.0000000000000000     
   1.4375000000000000        1.0000000000000000        0.0000000000000000     
   1.4687500000000000        1.0000000000000000        0.0000000000000000     
   1.5000000000000000        1.0000000000000000        0.0000000000000000     
 </DataArray>
 </Points>
 <Cells>
 <DataArray  type="Int32"  Name="connectivity"  format="ascii">
           0           1           6           5
           1           2           7           6
           2           3           8           7
           3           4           9           8
           5           6          11          10
           6           7          12          11
           7           8          13          12
           8           9          14          13
          10          11          16          15
          11          12          17          16
          12          13          18          17
          13          14          19          18
          15          16          21          20
          16          17          22          21
          17          18          23          22
          18          19          24          23
          25          26          31          30
          26          27          32          31
          27          28          33          32
          28          29          34          33
          30          31          36          35
          31          32          37          36
          32          33          38          37
          33          34          39          38
          35          36          41          40
          36          37          42          41
          37          38          43          42
          38          39          44          43
          40          41          46          45
          41          42          47          46
          42          43          48          47
          43          44          49          48
          50          51          56          55
          51          52          57          56
          52          53          58          57
          53          54          59          58
          55          56          61          60
          56          57          62          61
          57          58          63          62
          58          59          64          63
          60          61          66          65
          61          62          67          66
          62          63          68          67
          63          64          69          68
          65          66          71          70
          66          67          72          71
          67          68          73          72
          68          69          74          73
          75          76          81          80
          76          77          82          81
          77          78          83          82
          78          79          84          83
          80          81          86          85
          81          82          87          86
          82          83          88          87
          83          84          89          88
          85          86          91          90
          86          87          92          91
          87          88          93          92
          88          89          94          93
          90          91          96          95
          91          92          97          96
          92          93          98          97
          93          94          99          98
         100         101         106         105
         101         102         107         106
         102         103         108         107
         103         104         109         108
         105         106         111         110
         106         107         112         111
         107         108         113         112
         108         109         114         113
         110         111         116         115
         111         112         117         116
         112         113         118         117
         113         114         119         118
         115         116         121         120
         116         117         122         121
         117         118         123         122
         118         119         124         123
         125         126         131         130
         126         127         132         131
         127         128         133         132
         128         129         134         133
         130         131         136         135
         131         132         137         136
         132         133         138         137
         133         134         139         138
         135         136         141         140
         136         137         142         141
         137         138         143         142
         138         139         144         143
         140         141         146         145
         141         142         147         146
         142         143         148         147
         143         144         149         148
         150         151         156         155
         151         152         157         156
         152         153         158         157
         153         154         159         158
         155         156         161         160
         156         157         162         161
         157         158         163         162
         158         159         164         163
         160         161         166         165
         161         162         167         166
         162         163         168         167
         163         164         169         168
         165         166         171         170
         166         167         172         171
         167         168         173         172
         168         169         174         173
         175         176         181         180
         176         177         182         181
         177         178         183         182
         178         179         184         183
         180         181         186         185
         181         182         187         186
         182         183         188         187
         183         184         189         188
         185         186         191         190
         186         187         192         191
         187         188         193         192
         188         189         194         193
         190         191         196         195
         191         192         197         196
         192         193         198         197
         193         194         199         198
         200         201         206         205
         201         202         207         206
         202         203         208         207
         203         204         209         208
         205         206         211         210
         206         207         212         211
         207         208         213         212
         208         209         214         213
         210         211         216         215
         211         212         217         216
         212         213         218         217
         213         214         219         218
         215         216         221         220
         216         217         222         221
         217         218         223         222
         218         219         224         223
         225         226         231         230
         226         227         232         231
         227         228         233         232
         228         229         234         233
         230         231         236         235
         231         232         237         236
         232         233         238         237
         233         234         239         238
         235         236         241         240
         236         237         242         241
         237         238         243         242
         238         239         244         243
         240         241         246         245
         241         242         247         246
         242         243         248         247
         243         244         249         248
         250         251         256         255
         251         252         257         256
         252         253         258         257
         253         254         259         258
         255         256         261         260
         256         257         262         261
         257         258         263         262
         258         259         264         263
         260         261         266         265
         261         262         267         266
         262         263         268         267
         263         264         269         268
         265         266         271         270
         266         267         272         271
         267         268         273         272
         268         269         274         273
         275         276         281         280
         276         277         282         281
         277         278         283         282
         278         279         284         283
         280         281         286         285
         281         282         287         286
         282         283         288         287
         283         284         289         288
         285         286         291         290
         286         287         292         291
         287         288         293         292
         288         289         294         293
         290         291         296         295
         291         292         297         296
         292         293         298         297
         293         294         299         298
         300         301         306         305
         301         302         307         306
         302         303         308         307
         303         304         309         308
         305         306         311         310
         306         307         312         311
         307         308         313         312
         308         309         314         313
         310         311         316         315
         311         312         317         316
         312         313         318         317
         313         314         319         318
         315         316         321         320
         316         317         322         321
         317         318         323         322
         318         319         324         323
         325         326         331         330
         326         327         332         331
         327         328         333         332
         328         329         334         333
         330         331         336         335
         331         332         337         336
         332         333         338         337
         333         334         339         338
         335         336         341         340
         336         337         342         341
         337         338         343         342
         338         339         344         343
         340         341         346         345
         341         342         347         346
         342         343         348         347
         343         344         349         348
         350         351         356         355
         351         352         357         356
         352         353         358         357
         353         354         359         358
         355         356         361         360
         356         357         362         361
         357         358         363         362
         358         359         364         363
         360         361         366         365
         361         362         367         366
         362         363         368         367
         363         364         369         368
         365         366         371         370
         366         367         372         371
         367         368         373         372
         368         369         374         373
         375         376         381         380
         376         377         382         381
         377         378         383         382
         378         379         384         383
         380         381         386         385
         381         382         387         386
         382         383         388         387
         383         384         389         388
         385         386         391         390
         386         387         392         391
         387         388         393         392
         388         389         394         393
         390         391         396         395
         391         392         397         396
         392         393         398         397
         393         394         399         398
         400         401         406         405
         401         402         407         406
         402         403         408         407
         403         404         409         408
         405         406         411         410
         406         407         412         411
         407         408         413         412
         408         409         414         413
         410         411         416         415
         411         412         417         416
         412         413         418         417
         413         414         419         418
         415         416         421         420
         416         417         422         421
         417         418         423         422
         418         419         424         423
         425         426         431         430
         426         427         432         431
         427         428         433         432
         428         429         434         433
         430         431         436         435
         431         432         437         436
         432         433         438         437
         433         434         439         438
         435         436         441         440
         436         437         442         441
         437         438         443         442
         438         439         444         443
         440         441         446         445
         441         442         447         446
         442         443         448         447
         443         444         449         448
         450         451         456         455
         451         452         457         456
         452         453         458         457
         453         454         459         458
         455         456         461         460
         456         457         462         461
         457         458         463         462
         458         459         464         463
         460         461         466         465
         461         462         467         466
         462         463         468         467
         463         464         469         468
         465         466         471         470
         466         467         472         471
         467         468         473         472
         468         469         474         473
         475         476         481         480
         476         477         482         481
         477         478         483         482
         478         479         484         483
         480         481         486         485
         481         482         487         486
         482         483         488         487
         483         484         489         488
         485         486         491         490
         486         487         492         491
         487         488         493         492
         488         489         494         493
         490         491         496         495
         491         492         497         496
         492         493         498         497
         493         494         499         498
         500         501         506         505
         501         502         507         506
         502         503         508         507
         503         504         509         508
         505         506         511         510
         506         507         512         511
         507         508         513         512
         508         509         514         513
         510         511         516         515
         511         512         517         516
         512         513         518         517
         513         514         519         518
         515         516         521         520
         516         517         522         521
         517         518         523         522
         518         519         524         523
         525         526         531         530
         526         527         532         531
         527         528         533         532
         528         529         534         533
         530         531         536         535
         531         532         537         536
         532         533         538         537
         533         534         539         538
         535         536         541         540
         536         537         542         541
         537         538         543         542
         538         539         544         543
         540         541         546         545
         541         542         547         546
         542         543         548         547
         543         544         549         548
         550         551         556         555
         551         552         557         556
         552         553         558         557
         553         554         559         558
         555         556         561         560
         556         557         562         561
         557         558         563         562
         558         559         564         563
         560         561         566         565
         561         562         567         566
         562         563         568         567
         563         564         569         568
         565         566         571         570
         566         567         572         571
         567         568         573         572
         568         569         574         573
         575         576         581         580
         576         577         582         581
         577         578         583         582
         578         579         584         583
         580         581         586         585
         581         582         587         586
         582         583         588         587
         583         584         589         588
         585         586         591         590
         586         587         592         591
         587         588         593         592
         588         589         594         593
         590         591         596         595
         591         592         597         596
         592         593         598         597
         593         594         599         598
         600         601         606         605
         601         602         607         606
         602         603         608         607
         603         604         609         608
         605         606         611         610
         606         607         612         611
         607         608         613         612
         608         609         614         613
         610         611         616         615
         611         612         617         616
         612         613         618         617
         613         614         619         618
         615         616         621         620
         616         617         622         621
         617         618         623         622
         618         619         624         623
         625         626         631         630
         626         627         632         631
         627         628         633         632
         628         629         634         633
         630         631         636         635
         631         632         637         636
         632         633         638         637
         633         634         639         638
         635         636         641         640
         636         637         642         641
         637         638         643         642
         638         639         644         643
         640         641         646         645
         641         642         647         646
         642         643         648         647
         643         644         649         648
         650         651         656         655
         651         652         657         656
         652         653         658         657
         653         654         659         658
         655         656         661         660
         656         657         662         661
         657         658         663         662
         658         659         664         663
         660         661         666         665
         661         662         667         666
         662         663         668         667
         663         664         669         668
         665         666         671         670
         666         667         672         671
         667         668         673         672
         668         669         674         673
         675         676         681         680
         676         677         682         681
         677         678         683         682
         678         679         684         683
         680         681         686         685
         681         682         687         686
         682         683         688         687
         683         684         689         688
         685         686         691         690
         686         687         692         691
         687         688         693         692
         688         689         694         693
         690         691         696         695
         691         692         697         696
         692         693         698         697
         693         694         699         698
         700         701         706         705
         701         702         707         706
         702         703         708         707
         703         704         709         708
         705         706         711         710
         706         707         712         711
         707         708         713         712
         708         709         714         713
         710         711         716         715
         711         712         717         716
         712         713         718         717
         713         714         719         718
         715         716         721         720
         716         717         722         721
         717         718         723         722
         718         719         724         723
         725         726         731         730
         726         727         732         731
         727         728         733         732
         728         729         734         733
         730         731         736         735
         731         732         737         736
         732         733         738         737
         733         734         739         738
         735         736         741         740
         736         737         742         741
         737         738         743         742
         738         739         744         743
         740         741         746         745
         741         742         747         746
         742         743         748         747
         743         744         749         748
         750         751         756         755
         751         752         757         756
         752         753         758         757
         753         754         759         758
         755         756         761         760
         756         757         762         761
         757         758         763         762
         758         759         764         763
         760         761         766         765
         761         762         767         766
         762         763         768         767
         763         764         769         768
         765         766         771         770
         766         767         772         771
         767         768         773         772
         768         769         774         773
         775         776         781         780
         776         777         782         781
         777         778         783         782
         778         779         784         783
         780         781         786         785
         781         782         787         786
         782         783         788         787
         783         784         789         788
         785         786         791         790
         786         787         792         791
         787         788         793         792
         788         789         794         793
         790         791         796         795
         791         792         797         796
         792         793         798         797
         793         794         799         798
         800         801         806         805
         801         802         807         806
         802         803         808         807
         803         804         809         808
         805         806         811         810
         806         807         812         811
         807         808         813         812
         808         809         814         813
         810         811         816         815
         811         812         817         816
         812         813         818         817
         813         814         819         818
         815         816         821         820
         816         817         822         821
         817         818         823         822
         818         819         824         823
         825         826         831         830
         826         827         832         831
         827         828         833         832
         828         829         834         833
         830         831         836         835
         831         832         837         836
         832         833         838         837
         833         834         839         838
         835         836         841         840
         836         837         842         841
         837         838         843         842
         838         839         844         843
         840         841         846         845
         841         842         847         846
         842         843         848         847
         843         844         849         848
         850         851         856         855
         851         852         857         856
         852         853         858         857
         853         854         859         858
         855         856         861         860
         856         857         862         861
         857         858         863         862
         858         859         864         863
         860         861         866         865
         861         862         867         866
         862         863         868         867
         863         864         869         868
         865         866         871         870
         866         867         872         871
         867         868         873         872
         868         869         874         873
         875         876         881         880
         876         877         882         881
         877         878         883         882
         878         879         884         883
         880         881         886         885
         881         882         887         886
         882         883         888         887
         883         884         889         888
         885         886         891         890
         886         887         892         891
         887         888         893         892
         888         889         894         893
         890         891         896         895
         891         892         897         896
         892         893         898         897
         893         894         899         898
         900         901         906         905
         901         902         907         906
         902         903         908         907
         903         904         909         908
         905         906         911         910
         906         907         912         911
         907         908         913         912
         908         909         914         913
         910         911         916         915
         911         912         917         916
         912         913         918         917
         913         914         919         918
         915         916         921         920
         916         917         922         921
         917         918         923         922
         918         919         924         923
         925         926         931         930
         926         927         932         931
         927         928         933         932
         928         929         934         933
         930         931         936         935
         931         932         937         936
         932         933         938         937
         933         934         939         938
         935         936         941         940
         936         937         942         941
         937         938         943         942
         938         939         944         943
         940         941         946         945
         941         942         947         946
         942         943         948         947
         943         944         949         948
         950         951         956         955
         951         952         957         956
         952         953         958         957
         953         954         959         958
         955         956         961         960
         956         957         962         961
         957         958         963         962
         958         959         964         963
         960         961         966         965
         961         962         967         966
         962         963         968         967
         963         964         969         968
         965         966         971         970
         966         967         972         971
         967         968         973         972
         968         969         974         973
         975         976         981         980
         976         977         982         981
         977         978         983         982
         978         979         984         983
         980         981         986         985
         981         982         987         986
         982         983         988         987
         983         984         989         988
         985         986         991         990
         986         987         992         991
         987         988         993         992
         988         989         994         993
         990         991         996         995
         991         992         997         996
         992         993         998         997
         993         994         999         998
        1000        1001        1006        1005
        1001        1002        1007        1006
        1002        1003        1008        1007
        1003        1004        1009        1008
        1005        1006        1011        1010
        1006        1007        1012        1011
        1007        1008        1013        1012
        1008        1009        1014        1013
        1010        1011        1016        1015
        1011        1012        1017        1016
        1012        1013        1018        1017
        1013        1014        1019        1018
        1015        1016        1021        1020
        1016        1017        1022        1021
        1017        1018        1023        1022
        1018        1019        1024        1023
        1025        1026        1031        1030
        1026        1027        1032        1031
        1027        1028        1033        1032
        1028        1029        1034        1033
        1030        1031        1036        1035
        1031        1032        1037        1036
        1032        1033        1038        1037
        1033        1034        1039        1038
        1035        1036        1041        1040
        1036        1037        1042        1041
        1037        1038        1043        1042
        1038        1039        1044        1043
        1040        1041        1046        1045
        1041        1042        1047        1046
        1042        1043        1048        1047
        1043        1044        1049        1048
        1050        1051        1056        1055
        1051        1052        1057        1056
        1052        1053        1058        1057
        1053        1054        1059        1058
        1055        1056        1061        1060
        1056        1057        1062        1061
        1057        1058        1063        1062
        1058        1059        1064        1063
        1060        1061        1066        1065
        1061        1062        1067        1066
        1062        1063        1068        1067
        1063        1064        1069        1068
        1065        1066        1071        1070
        1066        1067        1072        1071
        1067        1068        1073        1072
        1068        1069        1074        1073
        1075        1076        1081        1080
        1076        1077        1082        1081
        1077        1078        1083        1082
        1078        1079        1084        1083
        1080        1081        1086        1085
        1081        1082        1087        1086
        1082        1083        1088        1087
        1083        1084        1089        1088
        1085        1086        1091        1090
        1086        1087        1092        1091
        1087        1088        1093        1092
        1088        1089        1094        1093
        1090        1091        1096        1095
        1091        1092        1097        1096
        1092        1093        1098        1097
        1093        1094        1099        1098
        1100        1101        1106        1105
        1101        1102        1107        1106
        1102        1103        1108        1107
        1103        1104        1109        1108
        1105        1106        1111        1110
        1106        1107        1112        1111
        1107        1108        1113        1112
        1108        1109        1114        1113
        1110        1111        1116        1115
        1111        1112        1117        1116
        1112        1113        1118        1117
        1113        1114        1119        1118
        1115        1116        1121        1120
        1116        1117        1122        1121
        1117        1118        1123        1122
        1118        1119        1124        1123
        1125        1126        1131        1130
        1126        1127        1132        1131
        1127        1128        1133        1132
        1128        1129        1134        1133
        1130        1131        1136        1135
        1131        1132        1137        1136
        1132        1133        1138        1137
        1133        1134        1139        1138
        1135        1136        1141        1140
        1136        1137        1142        1141
        1137        1138        1143        1142
        1138        1139        1144        1143
        1140        1141        1146        1145
        1141        1142        1147        1146
        1142        1143        1148        1147
        1143        1144        1149        1148
        1150        1151        1156        1155
        1151        1152        1157        1156
        1152        1153        1158        1157
        1153        1154        1159        1158
        1155        1156        1161        1160
        1156        1157        1162        1161
        1157        1158        1163        1162
        1158        1159        1164        1163
        1160        1161        1166        1165
        1161        1162        1167        1166
        1162        1163        1168        1167
        1163        1164        1169        1168
        1165        1166        1171        1170
        1166        1167        1172        1171
        1167        1168        1173        1172
        1168        1169        1174        1173
        1175        1176        1181        1180
        1176        1177        1182        1181
        1177        1178        1183        1182
        1178        1179        1184        1183
        1180        1181        1186        1185
        1181        1182        1187        1186
        1182        1183        1188        1187
        1183        1184        1189        1188
        1185        1186        1191        1190
        1186        1187        1192        1191
        1187        1188        1193        1192
        1188        1189        1194        1193
        1190        1191        1196        1195
        1191        1192        1197        1196
        1192        1193        1198        1197
        1193        1194        1199        1198
        1200        1201        1206        1205
        1201        1202        1207        1206
        1202        1203        1208        1207
        1203        1204        1209        1208
        1205        1206        1211        1210
        1206        1207        1212        1211
        1207        1208        1213        1212
        1208        1209        1214        1213
        1210        1211        1216        1215
        1211        1212        1217        1216
        1212        1213        1218        1217
        1213        1214        1219        1218
        1215        1216        1221        1220
        1216        1217        1222        1221
        1217        1218        1223        1222
        1218        1219        1224        1223
        1225        1226        1231        1230
        1226        1227        1232        1231
        1227        1228        1233        1232
        1228        1229        1234        1233
        1230        1231        1236        1235
        1231        1232        1237        1236
        1232        1233        1238        1237
        1233        1234        1239        1238
        1235        1236        1241        1240
        1236        1237        1242        1241
        1237        1238        1243        1242
        1238        1239        1244        1243
        1240        1241        1246        1245
        1241        1242        1247        1246
        1242        1243        1248        1247
        1243        1244        1249        1248
        1250        1251        1256        1255
        1251        1252        1257        1256
        1252        1253        1258        1257
        1253        1254        1259        1258
        1255        1256        1261        1260
        1256        1257        1262        1261
        1257        1258        1263        1262
        1258        1259        1264        1263
        1260        1261        1266        1265
        1261        1262        1267        1266
        1262        1263        1268        1267
        1263        1264        1269        1268
        1265        1266        1271        1270
        1266        1267        1272        1271
        1267        1268        1273        1272
        1268        1269        1274        1273
        1275        1276        1281        1280
        1276        1277        1282        1281
        1277        1278        1283        1282
        1278        1279        1284        1283
        1280        1281        1286        1285
        1281        1282        1287        1286
        1282        1283        1288        1287
        1283        1284        1289        1288
        1285        1286        1291        1290
        1286        1287        1292        1291
        1287        1288        1293        1292
        1288        1289        1294        1293
        1290        1291        1296        1295
        1291        1292        1297        1296
        1292        1293        1298        1297
        1293        1294        1299        1298
        1300        1301        1306        1305
        1301        1302        1307        1306
        1302        1303        1308        1307
        1303        1304        1309        1308
        1305        1306        1311        1310
        1306        1307        1312        1311
        1307        1308        1313        1312
        1308        1309        1314        1313
        1310        1311        1316        1315
        1311        1312        1317        1316
        1312        1313        1318        1317
        1313        1314        1319        1318
        1315        1316        1321        1320
        1316        1317        1322        1321
        1317        1318        1323        1322
        1318        1319        1324        1323
        1325        1326        1331        1330
        1326        1327        1332        1331
        1327        1328        1333        1332
        1328        1329        1334        1333
        1330        1331        1336        1335
        1331        1332        1337        1336
        1332        1333        1338        1337
        1333        1334        1339        1338
        1335        1336        1341        1340
        1336        1337        1342        1341
        1337        1338        1343        1342
        1338        1339        1344        1343
        1340        1341        1346        1345
        1341        1342        1347        1346
        1342        1343        1348        1347
        1343        1344        1349        1348
        1350        1351        1356        1355
        1351        1352        1357        1356
        1352        1353        1358        1357
        1353        1354        1359        1358
        1355        1356        1361        1360
        1356        1357        1362        1361
        1357        1358        1363        1362
        1358        1359        1364        1363
        1360        1361        1366        1365
        1361        1362        1367        1366
        1362        1363        1368        1367
        1363        1364        1369        1368
        1365        1366        1371        1370
        1366        1367        1372        1371
        1367        1368        1373        1372
        1368        1369        1374        1373
        1375        1376        1381        1380
        1376        1377        1382        1381
        1377        1378        1383        1382
        1378        1379        1384        1383
        1380        1381        1386        1385
        1381        1382        1387        1386
        1382        1383        1388        1387
        1383        1384        1389        1388
        1385        1386        1391        1390
        1386        1387        1392        1391
        1387        1388        1393        1392
        1388        1389        1394        1393
        1390        1391        1396        1395
        1391        1392        1397        1396
        1392        1393        1398        1397
        1393        1394        1399        1398
        1400        1401        1406        1405
        1401        1402        1407        1406
        1402        1403        1408        1407
        1403        1404        1409        1408
        1405        1406        1411        1410
        1406        1407        1412        1411
        1407        1408        1413        1412
        1408        1409        1414        1413
        1410        1411        1416        1415
        1411        1412        1417        1416
        1412        1413        1418        1417
        1413        1414        1419        1418
        1415        1416        1421        1420
        1416        1417        1422        1421
        1417        1418        1423        1422
        1418        1419        1424        1423
        1425        1426        1431        1430
        1426        1427        1432        1431
        1427        1428        1433        1432
        1428        1429        1434        1433
        1430        1431        1436        1435
        1431        1432        1437        1436
        1432        1433        1438        1437
        1433        1434        1439        1438
        1435        1436        1441        1440
        1436        1437        1442        1441
        1437        1438        1443        1442
        1438        1439        1444        1443
        1440        1441        1446        1445
        1441        1442        1447        1446
        1442        1443        1448        1447
        1443        1444        1449        1448
        1450        1451        1456        1455
        1451        1452        1457        1456
        1452        1453        1458        1457
        1453        1454        1459        1458
        1455        1456        1461        1460
        1456        1457        1462        1461
        1457        1458        1463        1462
        1458        1459        1464        1463
        1460        1461        1466        1465
        1461        1462        1467        1466
        1462        1463        1468        1467
        1463        1464        1469        1468
        1465        1466        1471        1470
        1466        1467        1472        1471
        1467        1468        1473        1472
        1468        1469        1474        1473
        1475        1476        1481        1480
        1476        1477        1482        1481
        1477        1478        1483        1482
        1478        1479        1484        1483
        1480        1481        1486        1485
        1481        1482        1487        1486
        1482        1483        1488        1487
        1483        1484        1489        1488
        1485        1486        1491        1490
        1486        1487        1492        1491
        1487        1488        1493        1492
        1488        1489        1494        1493
        1490        1491        1496        1495
        1491        1492        1497        1496
        1492        1493        1498        1497
        1493        1494        1499        1498
        1500        1501        1506        1505
        1501        1502        1507        1506
        1502        1503        1508        1507
        1503        1504        1509        1508
        1505        1506        1511        1510
        1506        1507        1512        1511
        1507        1508        1513        1512
        1508        1509        1514        1513
        1510        1511        1516        1515
        1511        1512        1517        1516
        1512        1513        1518        1517
        1513        1514        1519        1518
        1515        1516        1521        1520
        1516        1517        1522        1521
        1517        1518        1523        1522
        1518        1519        1524        1523
        1525        1526        1531        1530
        1526        1527        1532        1531
        1527        1528        1533        1532
        1528        1529        1534        1533
        1530        1531        1536        1535
        1531        1532        1537        1536
        1532        1533        1538        1537
        1533        1534        1539        1538
        1535        1536        1541        1540
        1536        1537        1542        1541
        1537        1538        1543        1542
        1538        1539        1544        1543
        1540        1541        1546        1545
        1541        1542        1547        1546
        1542        1543        1548        1547
        1543        1544        1549        1548
        1550        1551        1556        1555
        1551        1552        1557        1556
        1552        1553        1558        1557
        1553        1554        1559        1558
        1555        1556        1561        1560
        1556        1557        1562        1561
        1557        1558        1563        1562
        1558        1559        1564        1563
        1560        1561        1566        1565
        1561        1562        1567        1566
        1562        1563        1568        1567
        1563        1564        1569        1568
        1565        1566        1571        1570
        1566        1567        1572        1571
        1567        1568        1573        1572
        1568        1569        1574        1573
        1575        1576        1581        1580
        1576        1577        1582        1581
        1577        1578        1583        1582
        1578        1579        1584        1583
        1580        1581        1586        1585
        1581        1582        1587        1586
        1582        1583        1588        1587
        1583        1584        1589        1588
        1585        1586        1591        1590
        1586        1587        1592        1591
        1587        1588        1593        1592
        1588        1589        1594        1593
        1590        1591        1596        1595
        1591        1592        1597        1596
        1592        1593        1598        1597
        1593        1594        1599        1598
 </DataArray>
 <DataArray  type="Int32"  Name="offsets"  format="ascii"> 
           4
           8
          12
          16
          20
          24
          28
          32
          36
          40
          44
          48
          52
          56
          60
          64
          68
          72
          76
          80
          84
          88
          92
          96
         100
         104
         108
         112
         116
         120
         124
         128
         132
         136
         140
         144
         148
         152
         156
         160
         164
         168
         172
         176
         180
         184
         188
         192
         196
         200
         204
         208
         212
         216
         220
         224
         228
         232
         236
         240
         244
         248
         252
         256
         260
         264
         268
         272
         276
         280
         284
         288
         292
         296
         300
         304
         308
         312
         316
         320
         324
         328
         332
         336
         340
         344
         348
         352
         356
         360
         364
         368
         372
         376
         380
         384
         388
         392
         396
         400
         404
         408
         412
         416
         420
         424
         428
         432
         436
         440
         444
         448
         452
         456
         460
         464
         468
         472
         476
         480
         484
         488
         492
         496
         500
         504
         508
         512
         516
         520
         524
         528
         532
         536
         540
         544
         548
         552
         556
         560
         564
         568
         572
         576
         580
         584
         588
         592
         596
         600
         604
         608
         612
         616
         620
         624
         628
         632
         636
         640
         644
         648
         652
         656
         660
         664
         668
         672
         676
         680
         684
         688
         692
         696
         700
         704
         708
         712
         716
         720
         724
         728
         732
         736
         740
         744
         748
         752
         756
         760
         764
         768
         772
         776
         780
         784
         788
         792
         796
         800
         804
         808
         812
         816
         820
         824
         828
         832
         836
         840
         844
         848
         852
         856
         860
         864
         868
         872
         876
         880
         884
         888
         892
         896
         900
         904
         908
         912
         916
         920
         924
         928
         932
         936
         940
         944
         948
         952
         956
         960
         964
         968
         972
         976
         980
         984
         988
         992
         996
        1000
        1004
        1008
        1012
        1016
        1020
        1024
        1028
        1032
        1036
        1040
        1044
        1048
        1052
        1056
        1060
        1064
        1068
        1072
        1076
        1080
        1084
        1088
        1092
        1096
        1100
        1104
        1108
        1112
        1116
        1120
        1124
        1128
        1132
        1136
        1140
        1144
        1148
        1152
        1156
        1160
        1164
        1168
        1172
        1176
        1180
        1184
        1188
        1192
        1196
        1200
        1204
        1208
        1212
        1216
        1220
        1224
        1228
        1232
        1236
        1240
        1244
        1248
        1252
        1256
        1260
        1264
        1268
        1272
        1276
        1280
        1284
        1288
        1292
        1296
        1300
        1304
        1308
        1312
        1316
        1320
        1324
        1328
        1332
        1336
        1340
        1344
        1348
        1352
        1356
        1360
        1364
        1368
        1372
        1376
        1380
        1384
        1388
        1392
        1396
        1400
        1404
        1408
        1412
        1416
        1420
        1424
        1428
        1432
        1436
        1440
        1444
        1448
        1452
        1456
        1460
        1464
        1468
        1472
        1476
        1480
        1484
        1488
        1492
        1496
        1500
        1504
        1508
        1512
        1516
        1520
        1524
        1528
        1532
        1536
        1540
        1544
        1548
        1552
        1556
        1560
        1564
        1568
        1572
        1576
        1580
        1584
        1588
        1592
        1596
        1600
        1604
        1608
        1612
        1616
        1620
        1624
        1628
        1632
        1636
        1640
        1644
        1648
        1652
        1656
        1660
        1664
        1668
        1672
        1676
        1680
        1684
        1688
        1692
        1696
        1700
        1704
        1708
        1712
        1716
        1720
        1724
        1728
        1732
        1736
        1740
        1744
        1748
        1752
        1756
        1760
        1764
        1768
        1772
        1776
        1780
        1784
        1788
        1792
        1796
        1800
        1804
        1808
        1812
        1816
        1820
        1824
        1828
        1832
        1836
        1840
        1844
        1848
        1852
        1856
        1860
        1864
        1868
        1872
        1876
        1880
        1884
        1888
        1892
        1896
        1900
        1904
        1908
        1912
        1916
        1920
        1924
        1928
        1932
        1936
        1940
        1944
        1948
        1952
        1956
        1960
        1964
        1968
        1972
        1976
        1980
        1984
        1988
        1992
        1996
        2000
        2004
        2008
        2012
        2016
        2020
        2024
        2028
        2032
        2036
        2040
        2044
        2048
        2052
        2056
        2060
        2064
        2068
        2072
        2076
        2080
        2084
        2088
        2092
        2096
        2100
        2104
        2108
        2112
        2116
        2120
        2124
        2128
        2132
        2136
        2140
        2144
        2148
        2152
        2156
        2160
        2164
        2168
        2172
        2176
        2180
        2184
        2188
        2192
        2196
        2200
        2204
        2208
        2212
        2216
        2220
        2224
        2228
        2232
        2236
        2240
        2244
        2248
        2252
        2256
        2260
        2264
        2268
        2272
        2276
        2280
        2284
        2288
        2292
        2296
        2300
        2304
        2308
        2312
        2316
        2320
        2324
        2328
        2332
        2336
        2340
        2344
        2348
        2352
        2356
        2360
        2364
        2368
        2372
        2376
        2380
        2384
        2388
        2392
        2396
        2400
        2404
        2408
        2412
        2416
        2420
        2424
        2428
        2432
        2436
        2440
        2444
        2448
        2452
        2456
        2460
        2464
        2468
        2472
        2476
        2480
        2484
        2488
        2492
        2496
        2500
        2504
        2508
        2512
        2516
        2520
        2524
        2528
        2532
        2536
        2540
        2544
        2548
        2552
        2556
        2560
        2564
        2568
        2572
        2576
        2580
        2584
        2588
        2592
        2596
        2600
        2604
        2608
        2612
        2616
        2620
        2624
        2628
        2632
        2636
        2640
        2644
        2648
        2652
        2656
        2660
        2664
        2668
        2672
        2676
        2680
        2684
        2688
        2692
        2696
        2700
        2704
        2708
        2712
        2716
        2720
        2724
        2728
        2732
        2736
        2740
        2744
        2748
        2752
        2756
        2760
        2764
        2768
        2772
        2776
        2780
        2784
        2788
        2792
        2796
        2800
        2804
        2808
        2812
        2816
        2820
        2824
        2828
        2832
        2836
        2840
        2844
        2848
        2852
        2856
        2860
        2864
        2868
        2872
        2876
        2880
        2884
        2888
        2892
        2896
        2900
        2904
        2908
        2912
        2916
        2920
        2924
        2928
        2932
        2936
        2940
        2944
        2948
        2952
        2956
        2960
        2964
        2968
        2972
        2976
        2980
        2984
        2988
        2992
        2996
        3000
        3004
        3008
        3012
        3016
        3020
        3024
        3028
        3032
        3036
        3040
        3044
        3048
        3052
        3056
        3060
        3064
        3068
        3072
        3076
        3080
        3084
        3088
        3092
        3096
        3100
        3104
        3108
        3112
        3116
        3120
        3124
        3128
        3132
        3136
        3140
        3144
        3148
        3152
        3156
        3160
        3164
        3168
        3172
        3176
        3180
        3184
        3188
        3192
        3196
        3200
        3204
        3208
        3212
        3216
        3220
        3224
        3228
        3232
        3236
        3240
        3244
        3248
        3252
        3256
        3260
        3264
        3268
        3272
        3276
        3280
        3284
        3288
        3292
        3296
        3300
        3304
        3308
        3312
        3316
        3320
        3324
        3328
        3332
        3336
        3340
        3344
        3348
        3352
        3356
        3360
        3364
        3368
        3372
        3376
        3380
        3384
        3388
        3392
        3396
        3400
        3404
        3408
        3412
        3416
        3420
        3424
        3428
        3432
        3436
        3440
        3444
        3448
        3452
        3456
        3460
        3464
        3468
        3472
        3476
        3480
        3484
        3488
        3492
        3496
        3500
        3504
        3508
        3512
        3516
        3520
        3524
        3528
        3532
        3536
        3540
        3544
        3548
        3552
        3556
        3560
        3564
        3568
        3572
        3576
        3580
        3584
        3588
        3592
        3596
        3600
        3604
        3608
        3612
        3616
        3620
        3624
        3628
        3632
        3636
        3640
        3644
        3648
        3652
        3656
        3660
        3664
        3668
        3672
        3676
        3680
        3684
        3688
        3692
        3696
        3700
        3704
        3708
        3712
        3716
        3720
        3724
        3728
        3732
        3736
        3740
        3744
        3748
        3752
        3756
        3760
        3764
        3768
        3772
        3776
        3780
        3784
        3788
        3792
        3796
        3800
        3804
        3808
        3812
        3816
        3820
        3824
        3828
        3832
        3836
        3840
        3844
        3848
        3852
        3856
        3860
        3864
        3868
        3872
        3876
        3880
        3884
        3888
        3892
        3896
        3900
        3904
        3908
        3912
        3916
        3920
        3924
        3928
        3932
        3936
        3940
        3944
        3948
        3952
        3956
        3960
        3964
        3968
        3972
        3976
        3980
        3984
        3988
        3992
        3996
        4000
        4004
        4008
        4012
        4016
        4020
        4024
        4028
        4032
        4036
        4040
        4044
        4048
        4052
        4056
        4060
        4064
        4068
        4072
        4076
        4080
        4084
        4088
        4092
        4096
 </DataArray>
 <DataArray  type="UInt8"  Name="types"  format="ascii">
 9
 9
 9
 9
 9
 9
 9
 9
 9
 9
 9
 9
 9
 9
 9
 9
 9
 9
 9
 9
 9
 9
 9
 9
 9
 9
 9
 9
 9
 9
 9
 9
 9
 9
 9
 9
 9
 9
 9
 9
 9
 9
 9
 9
 9
 9
 9
 9
 9
 9
 9
 9
 9
 9
 9
 9
 9
 9
 9
 9
 9
 9
 9
 9
 9
 9
 9
 9
 9
 9
 9
 9
 9
 9
 9
 9
 9
 9
 9
 9
 9
 9
 9
 9
 9
 9
 9
 9
 9
 9
 9
 9
 9
 9
 9
 9
 9
 9
 9
 9
 9
 9
 9
 9
 9
 9
 9
 9
 9
 9
 9
 9
 9
 9
 9
 9
 9
 9
 9
 9
 9
 9
 9
 9
 9
 9
 9
 9
 9
 9
 9
 9
 9
 9
 9
 9
 9
 9
 9
 9
 9
 9
 9
 9
 9
 9
 9
 9
 9
 9
 9
 9
 9
 9
 9
 9
 9
 9
 9
 9
 9
 9
 9
 9
 9
 9
 9
 9
 9
 9
 9
 9
 9
 9
 9
 9
 9
 9
 9
 9
 9
 9
 9
 9
 9
 9
 9
 9
 9
 9
 9
 9
 9
 9
 9
 9
 9
 9
 9
 9
 9
 9
 9
 9
 9
 9
 9
 9
 9
 9
 9
 9
 9
 9
 9
 9
 9
 9
 9
 9
 9
 9
 9
 9
 9
 9
 9
 9
 9
 9
 9
 9
 9
 9
 9
 9
 9
 9
 9
 9
 9
 9
 9
 9
 9
 9
 9
 9
 9
 9
 9
 9
 9
 9
 9
 9
 9
 9
 9
 9
 9
 9
 9
 9
 9
 9
 9
 9
 9
 9
 9
 9
 9
 9
 9
 9
 9
 9
 9
 9
 9
 9
 9
 9
 9
 9
 9
 9
 9
 9
 9
 9
 9
 9
 9
 9
 9
 9
 9
 9
 9
 9
 9
 9
 9
 9
 9
 9
 9
 9
 9
 9
 9
 9
 9
 9
 9
 9
 9
 9
 9
 9
 9
 9
 9
 9
 9
 9
 9
 9
 9
 9
 9
 9
 9
 9
 9
 9
 9
 9
 9
 9
 9
 9
 9
 9
 9
 9
 9
 9
 9
 9
 9
 9
 9
 9
 9
 9
 9
 9
 9
 9
 9
 9
 9
 9
 9
 9
 9
 9
 9
 9
 9
 9
 9
 9
 9
 9
 9
 9
 9
 9
 9
 9
 9
 9
 9
 9
 9
 9
 9
 9
 9
 9
 9
 9
 9
 9
 9
 9
 9
 9
 9
 9
 9
 9
 9
 9
 9
 9
 9
 9
 9
 9
 9
 9
 9
 9
 9
 9
 9
 9
 9
 9
 9
 9
 9
 9
 9
 9
 9
 9
 9
 9
 9
 9
 9
 9
 9
 9
 9
 9
 9
 9
 9
 9
 9
 9
 9
 9
 9
 9
 9
 9
 9
 9
 9
 9
 9
 9
 9
 9
 9
 9
 9
 9
 9
 9
 9
 9
 9
 9
 9
 9
 9
 9
 9
 9
 9
 9
 9
 9
 9
 9
 9
 9
 9
 9
 9
 9
 9
 9
 9
 9
 9
 9
 9
 9
 9
 9
 9
 9
 9
 9
 9
 9
 9
 9
 9
 9
 9
 9
 9
 9
 9
 9
 9
 9
 9
 9
 9
 9
 9
 9
 9
 9
 9
 9
 9
 9
 9
 9
 9
 9
 9
 9
 9
 9
 9
 9
 9
 9
 9
 9
 9
 9
 9
 9
 9
 9
 9
 9
 9
 9
 9
 9
 9
 9
 9
 9
 9
 9
 9
 9
 9
 9
 9
 9
 9
 9
 9
 9
 9
 9
 9
 9
 9
 9
 9
 9
 9
 9
 9
 9
 9
 9
 9
 9
 9
 9
 9
 9
 9
 9
 9
 9
 9
 9
 9
 9
 9
 9
 9
 9
 9
 9
 9
 9
 9
 9
 9
 9
 9
 9
 9
 9
 9
 9
 9
 9
 9
 9
 9
 9
 9
 9
 9
 9
 9
 9
 9
 9
 9
 9
 9
 9
 9
 9
 9
 9
 9
 9
 9
 9
 9
 9
 9
 9
 9
 9
 9
 9
 9
 9
 9
 9
 9
 9
 9
 9
 9
 9
 9
 9
 9
 9
 9
 9
 9
 9
 9
 9
 9
 9
 9
 9
 9
 9
 9
 9
 9
 9
 9
 9
 9
 9
 9
 9
 9
 9
 9
 9
 9
 9
 9
 9
 9
 9
 9
 9
 9
 9
 9
 9
 9
 9
 9
 9
 9
 9
 9
 9
 9
 9
 9
 9
 9
 9
 9
 9
 9
 9
 9
 9
 9
 9
 9
 9
 9
 9
 9
 9
 9
 9
 9
 9
 9
 9
 9
 9
 9
 9
 9
 9
 9
 9
 9
 9
 9
 9
 9
 9
 9
 9
 9
 9
 9
 9
 9
 9
 9
 9
 9
 9
 9
 9
 9
 9
 9
 9
 9
 9
 9
 9
 9
 9
 9
 9
 9
 9
 9
 9
 9
 9
 9
 9
 9
 9
 9
 9
 9
 9
 9
 9
 9
 9
 9
 9
 9
 9
 9
 9
 9
 9
 9
 9
 9
 9
 9
 9
 9
 9
 9
 9
 9
 9
 9
 9
 9
 9
 9
 9
 9
 9
 9
 9
 9
 9
 9
 9
 9
 9
 9
 9
 9
 9
 9
 9
 9
 9
 9
 9
 9
 9
 9
 9
 9
 9
 9
 9
 9
 9
 9
 9
 9
 9
 9
 9
 9
 9
 9
 9
 9
 9
 9
 9
 9
 9
 9
 9
 9
 9
 9
 9
 9
 9
 9
 9
 9
 9
 9
 9
 9
 9
 9
 9
 9
 9
 9
 9
 9
 9
 9
 9
 9
 9
 9
 9
 9
 9
 9
 9
 9
 9
 9
 9
 9
 9
 9
 9
 9
 9
 9
 9
 9
 9
 9
 9
 9
 9
 9
 9
 9
 9
 9
 9
 9
 9
 9
 9
 9
 9
 9
 9
 9
 9
 9
 9
 9
 9
 9
 9
 9
 9
 9
 9
 9
 9
 9
 9
 9
 9
 9
 9
 9
 9
 9
 9
 9
 9
 9
 9
 9
 9
 9
 9
 9
 9
 9
 9
 9
 9
 9
 9
 9
 9
 9
 9
 9
 9
 9
 9
 9
 9
 9
 9
 9
 9
 9
 9
 9
 9
 9
 9
 9
 9
 9
 9
 9
 9
 9
 9
 9
 9
 9
 9
 9
 9
 9
 9
 9
 9
 9
 9
 9
 9
 9
 9
 9
 9
 9
 9
 9
 9
 </DataArray>
 </Cells> 
 <PointData>
 <DataArray  type="Float64" Name="disp" NumberOfComponents="3" format="ascii">
   6.5314647808716292E-002   6.2785512293420373E-002   0.0000000000000000     
   6.8371656920885315E-002   6.8175636299349057E-002   0.0000000000000000     
   7.1334880497561565E-002   7.3744037154517092E-002   0.0000000000000000     
   7.4204318538745082E-002   7.9490714858924449E-002   0.0000000000000000     
   7.6979971044435838E-002   8.5415669412571144E-002   0.0000000000000000     
   6.0138345405597586E-002   6.1887328502985839E-002   0.0000000000000000     
   6.3008065004579311E-002   6.7300027230040776E-002   0.0000000000000000     
   6.5789175836158148E-002   7.2893178898480848E-002   0.0000000000000000     
   6.8481677900334118E-002   7.8666783508306068E-002   0.0000000000000000     
   7.1085571197107192E-002   8.4620841059516422E-002   0.0000000000000000     
   5.5156551505293916E-002   6.1043325361073625E-002   0.0000000000000000     
   5.7839174439149002E-002   6.6479485601541585E-002   0.0000000000000000     
   6.0438248195211874E-002   7.2097240787497061E-002   0.0000000000000000     
   6.2953772773482547E-002   7.7896590918940023E-002   0.0000000000000000     
   6.5385748173961006E-002   8.3877535995870514E-002   0.0000000000000000     
   5.0369266107805268E-002   6.0253502867683703E-002   0.0000000000000000     
   5.2864985224594360E-002   6.5714011413851484E-002   0.0000000000000000     
   5.5282097574722730E-002   7.1356222821565687E-002   0.0000000000000000     
   5.7620603158190370E-002   7.7180137090826356E-002   0.0000000000000000     
   5.9880501974997252E-002   8.3185754221633434E-002   0.0000000000000000     
   4.5776489213131655E-002   5.9517861022816095E-002   0.0000000000000000     
   4.8085497360915427E-002   6.5003604666970485E-002   0.0000000000000000     
   5.0320723974690729E-002   7.0670125000686784E-002   0.0000000000000000     
   5.2482169054457566E-002   7.6517422023965012E-002   0.0000000000000000     
   5.4569832600215945E-002   8.2545495736805169E-002   0.0000000000000000     
   7.6979971044435838E-002   8.5415669412571144E-002   0.0000000000000000     
   7.9660426706564480E-002   9.1508972763161389E-002   0.0000000000000000     
   8.2244274217061625E-002   9.7760696858399346E-002   0.0000000000000000     
   8.4731513575927259E-002  0.10417084169828507        0.0000000000000000     
   8.7122144783161437E-002  0.11073940728281852        0.0000000000000000     
   7.1085571197107192E-002   8.4620841059516422E-002   0.0000000000000000     
   7.3599803197380062E-002   9.0743930706369075E-002   0.0000000000000000     
   7.6023321372055391E-002   9.7024631603121150E-002   0.0000000000000000     
   7.8356125721133152E-002  0.10346294374977268        0.0000000000000000     
   8.0598216244613372E-002  0.11005886714632364        0.0000000000000000     
   6.5385748173961006E-002   8.3877535995870514E-002   0.0000000000000000     
   6.7733533587784209E-002   9.0027881500098647E-002   0.0000000000000000     
   6.9996488206089086E-002   9.6335432913434549E-002   0.0000000000000000     
   7.2174612028875679E-002  0.10280019023587823        0.0000000000000000     
   7.4267905056143932E-002  0.10942215346742969        0.0000000000000000     
   5.9880501974997252E-002   8.3185754221633434E-002   0.0000000000000000     
   6.2061617877776878E-002   8.9360825144350106E-002   0.0000000000000000     
   6.4163774719162750E-002   9.5693100789339541E-002   0.0000000000000000     
   6.6186972499154825E-002  0.10218258115660174        0.0000000000000000     
   6.8131211217753132E-002  0.10882926624613669        0.0000000000000000     
   5.4569832600215945E-002   8.2545495736805169E-002   0.0000000000000000     
   5.6584056067358120E-002   8.8742761639123452E-002   0.0000000000000000     
   5.8525180911276349E-002   9.5097635230836142E-002   0.0000000000000000     
   6.0393207131970626E-002  0.10161011651194318        0.0000000000000000     
   6.2188134729440972E-002  0.10828020548244462        0.0000000000000000     
   8.7122144783161437E-002  0.11073940728281852        0.0000000000000000     
   8.9416721040898983E-002  0.11745379995622364        0.0000000000000000     
   9.1615795551274831E-002  0.12430142606272436        0.0000000000000000     
   9.3719368314288981E-002  0.13128228560232072        0.0000000000000000     
   9.5727439329941433E-002  0.13839637857501266        0.0000000000000000     
   8.0598216244613372E-002  0.11005886714632364        0.0000000000000000     
   8.2750098451606191E-002  0.11680036724644621        0.0000000000000000     
   8.4812277851221779E-002  0.12367540950381263        0.0000000000000000     
   8.6784754443460135E-002  0.13068399391842284        0.0000000000000000     
   8.8667528228321274E-002  0.13782612049027684        0.0000000000000000     
   7.4267905056143932E-002  0.10942215346742969        0.0000000000000000     
   7.6276764192248700E-002  0.11618956548909515        0.0000000000000000     
   7.8201586341544810E-002  0.12309066918188075        0.0000000000000000     
   8.0042371504032248E-002  0.13012546454578658        0.0000000000000000     
   8.1799119679711013E-002  0.13729395158081256        0.0000000000000000     
   6.8131211217753132E-002  0.10882926624613669        0.0000000000000000     
   6.9996718262826566E-002  0.11562139468417038        0.0000000000000000     
   7.1783721022243951E-002  0.12254720509692882        0.0000000000000000     
   7.3492219496005304E-002  0.12960669748441195        0.0000000000000000     
   7.5122213684110636E-002  0.13679987184661985        0.0000000000000000     
   6.2188134729440972E-002  0.10828020548244462        0.0000000000000000     
   6.3909960663339691E-002  0.11509585483167196        0.0000000000000000     
   6.5558681893319135E-002  0.12204501724895674        0.0000000000000000     
   6.7134298419379276E-002  0.12912769273429894        0.0000000000000000     
   6.8636810241520158E-002  0.13634388128769864        0.0000000000000000     
   9.5727439329941433E-002  0.13839637857501266        0.0000000000000000     
   9.7641167956628777E-002  0.14563197247209922        0.0000000000000000     
   9.9461713552747660E-002  0.15297733478487938        0.0000000000000000     
  0.10118907611829808       0.16043246551335319        0.0000000000000000     
  0.10282325565328004       0.16799736465752063        0.0000000000000000     
   8.8667528228321274E-002  0.13782612049027684        0.0000000000000000     
   9.0461681329463861E-002  0.14508951890489918        0.0000000000000000     
   9.2168295870546590E-002  0.15246191884781424        0.0000000000000000     
   9.3787371851569490E-002  0.15994332031902214        0.0000000000000000     
   9.5318909272532545E-002  0.16753372331852276        0.0000000000000000     
   8.1799119679711013E-002  0.13729395158081256        0.0000000000000000     
   8.3472703209689275E-002  0.14458361225806826        0.0000000000000000     
   8.5063994435075174E-002  0.15198192854866319        0.0000000000000000     
   8.6572993355868766E-002  0.15948890045259731        0.0000000000000000     
   8.7999699972070022E-002  0.16710452796987063        0.0000000000000000     
   7.5122213684110636E-002  0.13679987184661985        0.0000000000000000     
   7.6674233597304992E-002  0.14411425253160659        0.0000000000000000     
   7.8148809246333412E-002  0.15153736388742620        0.0000000000000000     
   7.9545940631195897E-002  0.15906920591407878        0.0000000000000000     
   8.0865627751892460E-002  0.16670977861156427        0.0000000000000000     
   6.8636810241520158E-002  0.13634388128769864        0.0000000000000000     
   7.0066272492311066E-002  0.14368143972551398        0.0000000000000000     
   7.1422740304321317E-002  0.15112822486410327        0.0000000000000000     
   7.2706213677550924E-002  0.15868423670346651        0.0000000000000000     
   7.3916692611999874E-002  0.16634947524360372        0.0000000000000000     
  0.10282325565328004       0.16799736465752063        0.0000000000000000     
  0.10436821924856725       0.17566207639442838        0.0000000000000000     
  0.10582793399503344       0.18341664490112311        0.0000000000000000     
  0.10720239989267863       0.19126107017760477        0.0000000000000000     
  0.10849161694150278       0.19919535222387347        0.0000000000000000     
   9.5318909272532545E-002  0.16753372331852276        0.0000000000000000     
   9.6765004915187511E-002  0.17522384917048911        0.0000000000000000     
   9.8127755561286195E-002  0.18300441919909413        0.0000000000000000     
   9.9407161210828585E-002  0.19087543340433785        0.0000000000000000     
  0.10060322186381468       0.19883689178622022        0.0000000000000000     
   8.7999699972070022E-002  0.16710452796987063        0.0000000000000000     
   8.9344821514342601E-002  0.17481978715745597        0.0000000000000000     
   9.0609065213350173E-002  0.18262565407232614        0.0000000000000000     
   9.1792431069092753E-002  0.19052212871448115        0.0000000000000000     
   9.2894919081570326E-002  0.19850921108392106        0.0000000000000000     
   8.0865627751892460E-002  0.16670977861156427        0.0000000000000000     
   8.2107669046032464E-002  0.17444989035532901        0.0000000000000000     
   8.3271862951225364E-002  0.18228034952081917        0.0000000000000000     
   8.4358209467471093E-002  0.19020115610803487        0.0000000000000000     
   8.5366708594769677E-002  0.19821231011697599        0.0000000000000000     
   7.3916692611999874E-002  0.16634947524360372        0.0000000000000000     
   7.5053547510257140E-002  0.17411415876410818        0.0000000000000000     
   7.6116148774911740E-002  0.18196850554457322        0.0000000000000000     
   7.7104496405963618E-002  0.18991251558499883        0.0000000000000000     
   7.8018590403412802E-002  0.19794618888538504        0.0000000000000000     
  0.10849161694150278       0.19919535222387347        0.0000000000000000     
  0.10970038809497992       0.20721530325913912        0.0000000000000000     
  0.11083351630658403       0.21531673550261179        0.0000000000000000     
  0.11189100157631508       0.22349964895429145        0.0000000000000000     
  0.11287284390417313       0.23176404361417813        0.0000000000000000     
  0.10060322186381468       0.19883689178622022        0.0000000000000000     
  0.10172091574550554       0.20688225661118445        0.0000000000000000     
  0.10276522108116234       0.21500499014567379        0.0000000000000000     
  0.10373613787078498       0.22320509238968819        0.0000000000000000     
  0.10463366611437357       0.23148256334322770        0.0000000000000000     
   9.2894919081570326E-002  0.19850921108392106        0.0000000000000000     
   9.3920841239206548E-002  0.20657908304182090        0.0000000000000000     
   9.4874509530425102E-002  0.21472392644935590        0.0000000000000000     
   9.5755923955225988E-002  0.22294374130652594        0.0000000000000000     
   9.6565084513609206E-002  0.23123852761333114        0.0000000000000000     
   8.5366708594769677E-002  0.19821231011697599        0.0000000000000000     
   8.6300164576082861E-002  0.20630578255104845        0.0000000000000000     
   8.7161381654372316E-002  0.21447354441365801        0.0000000000000000     
   8.7950359829638058E-002  0.22271559570480468        0.0000000000000000     
   8.8667099101880087E-002  0.23103193642448844        0.0000000000000000     
   7.8018590403412802E-002  0.19794618888538504        0.0000000000000000     
   7.8858885756134520E-002  0.20606235513886709        0.0000000000000000     
   7.9625837453003986E-002  0.21425384403858017        0.0000000000000000     
   8.0319445494021216E-002  0.22252065558452436        0.0000000000000000     
   8.0939709879186195E-002  0.23086278977669958        0.0000000000000000     
  0.11287284390417313       0.23176404361417813        0.0000000000000000     
  0.11380738947478536       0.24012667338174529        0.0000000000000000     
  0.11472298447277904       0.24860429215646640        0.0000000000000000     
  0.11561962889815415       0.25719689993834138        0.0000000000000000     
  0.11649732275091071       0.26590449672737032        0.0000000000000000     
  0.10463366611437357       0.23148256334322770        0.0000000000000000     
  0.10546295508921692       0.23986100256955917        0.0000000000000000     
  0.10622915407260407       0.24836400963194949        0.0000000000000000     
  0.10693226306453496       0.25699158453039866        0.0000000000000000     
  0.10757228206500963       0.26574372726490669        0.0000000000000000     
   9.6565084513609206E-002  0.23123852761333114        0.0000000000000000     
   9.7292924563591440E-002  0.23963480765401524        0.0000000000000000     
   9.7930377463189347E-002  0.24815910371282210        0.0000000000000000     
   9.8477443212402982E-002  0.25681141578975175        0.0000000000000000     
   9.8934121811232276E-002  0.26559174388480405        0.0000000000000000     
   8.8667099101880087E-002  0.23103193642448844        0.0000000000000000     
   8.9297297897908884E-002  0.23944808863511355        0.0000000000000000     
   8.9826654644534917E-002  0.24798957439908423        0.0000000000000000     
   9.0255169341758187E-002  0.25665639371640059        0.0000000000000000     
   9.0582841989578708E-002  0.26544854658706246        0.0000000000000000     
   8.0939709879186195E-002  0.23086278977669958        0.0000000000000000     
   8.1476075092169267E-002  0.23930084551285405        0.0000000000000000     
   8.1917985616640723E-002  0.24785542169073593        0.0000000000000000     
   8.2265441452600604E-002  0.25652651831034518        0.0000000000000000     
   8.2518442600048883E-002  0.26531413537168186        0.0000000000000000     
  0.11649732275091071       0.26590449672737032        0.0000000000000000     
  0.11729635789483500       0.27489157538180614        0.0000000000000000     
  0.11795702619371327       0.28432262875990189        0.0000000000000000     
  0.11847932764754555       0.29419765686165744        0.0000000000000000     
  0.11886326225633184       0.30451665968707298        0.0000000000000000     
  0.10757228206500963       0.26574372726490669        0.0000000000000000     
  0.10813020433203725       0.27475252557083835        0.0000000000000000     
  0.10858702312362702       0.28415006718355840        0.0000000000000000     
  0.10894273843977897       0.29393635210306673        0.0000000000000000     
  0.10919735028049309       0.30411138032936347        0.0000000000000000     
   9.8934121811232276E-002  0.26559174388480405        0.0000000000000000     
   9.9311420830253599E-002  0.27459836064873944        0.0000000000000000     
   9.9620347840043214E-002  0.28392953873231791        0.0000000000000000     
   9.9860902840601132E-002  0.29358527813553964        0.0000000000000000     
  0.10003308583192733       0.30356557885840452        0.0000000000000000     
   9.0582841989578708E-002  0.26544854658706246        0.0000000000000000     
   9.0840007389484057E-002  0.27442908061550930        0.0000000000000000     
   9.1057000342961811E-002  0.28366104340618059        0.0000000000000000     
   9.1233820850011985E-002  0.29314443495907616        0.0000000000000000     
   9.1370468910634564E-002  0.30287925527419612        0.0000000000000000     
   8.2518442600048883E-002  0.26531413537168186        0.0000000000000000     
   8.2715964009728624E-002  0.27424468547114811        0.0000000000000000     
   8.2896980632382850E-002  0.28334458120514627        0.0000000000000000     
   8.3061492468011575E-002  0.29261382257367630        0.0000000000000000     
   8.3209499516614799E-002  0.30205240957673812        0.0000000000000000     
   4.5776489213131655E-002   5.9517861022816095E-002   0.0000000000000000     
   4.8085497360915427E-002   6.5003604666970485E-002   0.0000000000000000     
   5.0320723974690729E-002   7.0670125000686784E-002   0.0000000000000000     
   5.2482169054457566E-002   7.6517422023965012E-002   0.0000000000000000     
   5.4569832600215945E-002   8.2545495736805169E-002   0.0000000000000000     
   4.1354244497095613E-002   5.8839837194836209E-002   0.0000000000000000     
   4.3475576439663717E-002   6.4349364714256799E-002   0.0000000000000000     
   4.5528198081494525E-002   7.0038615013773703E-002   0.0000000000000000     
   4.7512109422588031E-002   7.5907588093386977E-002   0.0000000000000000     
   4.9427310462944248E-002   8.1956283953096551E-002   0.0000000000000000     
   3.7078555635519657E-002   5.8222868752109469E-002   0.0000000000000000     
   3.9010088052390798E-002   6.3752390909068646E-002   0.0000000000000000     
   4.0878590581512796E-002   6.9461360549739851E-002   0.0000000000000000     
   4.2684063222885621E-002   7.5349777674123125E-002   0.0000000000000000     
   4.4426505976509302E-002   8.1417642282218455E-002   0.0000000000000000     
   3.2949422628403786E-002   5.7666955694635889E-002   0.0000000000000000     
   3.4689032199096657E-002   6.3212683251406027E-002   0.0000000000000000     
   3.6371901474745512E-002   6.8938361608585214E-002   0.0000000000000000     
   3.7998030455350336E-002   7.4843990766173499E-002   0.0000000000000000     
   3.9567419140911136E-002   8.0929570724170841E-002   0.0000000000000000     
   2.8966845475748015E-002   5.7172098022415442E-002   0.0000000000000000     
   3.0512408879781312E-002   6.2730241741268955E-002   0.0000000000000000     
   3.2008130761192695E-002   6.8469618190309833E-002   0.0000000000000000     
   3.3454011119982169E-002   7.4390227369538112E-002   0.0000000000000000     
   3.4850049956149723E-002   8.0492069278953748E-002   0.0000000000000000     
   5.4569832600215945E-002   8.2545495736805169E-002   0.0000000000000000     
   5.6584056067358120E-002   8.8742761639123452E-002   0.0000000000000000     
   5.8525180911276349E-002   9.5097635230836142E-002   0.0000000000000000     
   6.0393207131970626E-002  0.10161011651194318        0.0000000000000000     
   6.2188134729440972E-002  0.10828020548244462        0.0000000000000000     
   4.9427310462944248E-002   8.1956283953096551E-002   0.0000000000000000     
   5.1274521889674504E-002   8.8173897125144091E-002   0.0000000000000000     
   5.3054464389890130E-002   9.4549622141771109E-002   0.0000000000000000     
   5.4767137963591152E-002  0.10108345900297766        0.0000000000000000     
   5.6412542610777570E-002  0.10777540770876373        0.0000000000000000     
   4.4426505976509302E-002   8.1417642282218455E-002   0.0000000000000000     
   4.6106689077872617E-002   8.7654437743137345E-002   0.0000000000000000     
   4.7725382762464352E-002   9.4049647425991242E-002   0.0000000000000000     
   4.9282587030284493E-002  0.10060327133078024        0.0000000000000000     
   5.0778301881333046E-002  0.10731530945750430        0.0000000000000000     
   3.9567419140911136E-002   8.0929570724170841E-002   0.0000000000000000     
   4.1080557631952494E-002   8.7184383493103215E-002   0.0000000000000000     
   4.2537936028999003E-002   9.3597711083496599E-002   0.0000000000000000     
   4.3939554332050643E-002  0.10016955349535095        0.0000000000000000     
   4.5285412541107441E-002  0.10689991072866628        0.0000000000000000     
   3.4850049956149723E-002   8.0492069278953748E-002   0.0000000000000000     
   3.6196127551914113E-002   8.6763734375041757E-002   0.0000000000000000     
   3.7492124189494068E-002   9.3193813114287094E-002   0.0000000000000000     
   3.8738039868889601E-002   9.9782305496689747E-002   0.0000000000000000     
   3.9933874590100706E-002  0.10652921152224973        0.0000000000000000     
   6.2188134729440972E-002  0.10828020548244462        0.0000000000000000     
   6.3909960663339691E-002  0.11509585483167196        0.0000000000000000     
   6.5558681893319135E-002  0.12204501724895674        0.0000000000000000     
   6.7134298419379276E-002  0.12912769273429894        0.0000000000000000     
   6.8636810241520158E-002  0.13634388128769864        0.0000000000000000     
   5.6412542610777570E-002  0.10777540770876373        0.0000000000000000     
   5.7990458393364419E-002  0.11461309525505152        0.0000000000000000     
   5.9500665373266787E-002  0.12158414863776319        0.0000000000000000     
   6.0943163550484666E-002  0.12868856785689878        0.0000000000000000     
   6.2317952925018072E-002  0.13592635291245828        0.0000000000000000     
   5.0778301881333046E-002  0.10731530945750430        0.0000000000000000     
   5.2212178452476984E-002  0.11417326527776071        0.0000000000000000     
   5.3583867880583266E-002  0.12116464226314683        0.0000000000000000     
   5.4893370165651892E-002  0.12828944041366264        0.0000000000000000     
   5.6140685307682847E-002  0.13554765972930816        0.0000000000000000     
   4.5285412541107441E-002  0.10689991072866628        0.0000000000000000     
   4.6575120840677393E-002  0.11377636489979955        0.0000000000000000     
   4.7808289415268559E-002  0.12078649812510761        0.0000000000000000     
   4.8984918264880939E-002  0.12793031040459049        0.0000000000000000     
   5.0105007389514525E-002  0.13520780173824817        0.0000000000000000     
   3.9933874590100706E-002  0.10652921152224973        0.0000000000000000     
   4.1079285557965639E-002  0.11342239412116802        0.0000000000000000     
   4.2173929977322680E-002  0.12044971622364557        0.0000000000000000     
   4.3217807848171821E-002  0.12761117782968237        0.0000000000000000     
   4.4210919170513056E-002  0.13490677893927847        0.0000000000000000     
   6.8636810241520158E-002  0.13634388128769864        0.0000000000000000     
   7.0066272492311066E-002  0.14368143972551398        0.0000000000000000     
   7.1422740304321317E-002  0.15112822486410327        0.0000000000000000     
   7.2706213677550924E-002  0.15868423670346651        0.0000000000000000     
   7.3916692611999874E-002  0.16634947524360372        0.0000000000000000     
   6.2317952925018072E-002  0.13592635291245828        0.0000000000000000     
   6.3624611535737993E-002  0.14328575257598239        0.0000000000000000     
   6.4862717421515434E-002  0.15075501561901183        0.0000000000000000     
   6.6032270582350408E-002  0.15833414204154661        0.0000000000000000     
   6.7133271018242929E-002  0.16602313184358680        0.0000000000000000     
   5.6140685307682847E-002  0.13554765972930816        0.0000000000000000     
   5.7325042368616297E-002  0.14292776981920358        0.0000000000000000     
   5.8445670410392350E-002  0.15041824029246928        0.0000000000000000     
   5.9502569433011035E-002  0.15801907114910518        0.0000000000000000     
   6.0495739436472351E-002  0.16573026238911134        0.0000000000000000     
   5.0105007389514525E-002  0.13520780173824817        0.0000000000000000     
   5.1167564990946005E-002  0.14260749145517757        0.0000000000000000     
   5.2171599270952093E-002  0.15011789888447558        0.0000000000000000     
   5.3117110229532791E-002  0.15773902402614215        0.0000000000000000     
   5.4004097866688104E-002  0.16547086688017740        0.0000000000000000     
   4.4210919170513056E-002  0.13490677893927847        0.0000000000000000     
   4.5152179402727095E-002  0.14232491748390438        0.0000000000000000     
   4.6040504003194635E-002  0.14985399139503075        0.0000000000000000     
   4.6875892971915668E-002  0.15749400067265759        0.0000000000000000     
   4.7658346308890209E-002  0.16524494531678491        0.0000000000000000     
   7.3916692611999874E-002  0.16634947524360372        0.0000000000000000     
   7.5053547510257140E-002  0.17411415876410818        0.0000000000000000     
   7.6116148774911740E-002  0.18196850554457322        0.0000000000000000     
   7.7104496405963618E-002  0.18991251558499883        0.0000000000000000     
   7.8018590403412802E-002  0.19794618888538504        0.0000000000000000     
   6.7133271018242929E-002  0.16602313184358680        0.0000000000000000     
   6.8164901142087675E-002  0.17381151092294742        0.0000000000000000     
   6.9126343366779336E-002  0.18168880517744379        0.0000000000000000     
   7.0017597692317912E-002  0.18965501460707573        0.0000000000000000     
   7.0838664118703390E-002  0.19771013921184341        0.0000000000000000     
   6.0495739436472351E-002  0.16573026238911134        0.0000000000000000     
   6.1424174176595105E-002  0.17354086537100072        0.0000000000000000     
   6.2286867409198185E-002  0.18143993145328635        0.0000000000000000     
   6.3083819134281557E-002  0.18942746063596821        0.0000000000000000     
   6.3815029351845229E-002  0.19750345291904634        0.0000000000000000     
   5.4004097866688104E-002  0.16547086688017740        0.0000000000000000     
   5.4831366613779443E-002  0.17330222210826807        0.0000000000000000     
   5.5597720902168260E-002  0.18122188437210099        0.0000000000000000     
   5.6303160731854540E-002  0.18922985367167627        0.0000000000000000     
   5.6947686102838298E-002  0.19732613000699387        0.0000000000000000     
   4.7658346308890209E-002  0.16524494531678491        0.0000000000000000     
   4.8386478453640691E-002  0.17309558113474935        0.0000000000000000     
   4.9058903845689589E-002  0.18103466393388770        0.0000000000000000     
   4.9675622485036895E-002  0.18906219371419988        0.0000000000000000     
   5.0236634371682597E-002  0.19717817047568592        0.0000000000000000     
   7.8018590403412802E-002  0.19794618888538504        0.0000000000000000     
   7.8858885756134520E-002  0.20606235513886709        0.0000000000000000     
   7.9625837453003986E-002  0.21425384403858017        0.0000000000000000     
   8.0319445494021216E-002  0.22252065558452436        0.0000000000000000     
   8.0939709879186195E-002  0.23086278977669958        0.0000000000000000     
   7.0838664118703390E-002  0.19771013921184341        0.0000000000000000     
   7.1587734753157120E-002  0.20584797922489084        0.0000000000000000     
   7.2263001702900412E-002  0.21406233487936227        0.0000000000000000     
   7.2864464967933237E-002  0.22235320617525761        0.0000000000000000     
   7.3392124548255611E-002  0.23072059311257684        0.0000000000000000     
   6.3815029351845229E-002  0.19750345291904634        0.0000000000000000     
   6.4477441540946298E-002  0.20566183322873391        0.0000000000000000     
   6.5067999180641850E-002  0.21389652649124410        0.0000000000000000     
   6.5586702270931885E-002  0.22220753270657692        0.0000000000000000     
   6.6033550811816374E-002  0.23059485187473236        0.0000000000000000     
   5.6947686102838298E-002  0.19732613000699387        0.0000000000000000     
   5.7528006119502047E-002  0.20550391715039618        0.0000000000000000     
   5.8040829886228343E-002  0.21375641887422572        0.0000000000000000     
   5.8486157403017172E-002  0.22208363517848237        0.0000000000000000     
   5.8863988669868542E-002  0.23048556606316623        0.0000000000000000     
   5.0236634371682597E-002  0.19717817047568592        0.0000000000000000     
   5.0739428488824366E-002  0.20537423098987770        0.0000000000000000     
   5.1181493819659869E-002  0.21364201202830704        0.0000000000000000     
   5.1562830364189093E-002  0.22198151359097393        0.0000000000000000     
   5.1883438122412050E-002  0.23039273567787844        0.0000000000000000     
   8.0939709879186195E-002  0.23086278977669958        0.0000000000000000     
   8.1476075092169267E-002  0.23930084551285405        0.0000000000000000     
   8.1917985616640723E-002  0.24785542169073593        0.0000000000000000     
   8.2265441452600604E-002  0.25652651831034518        0.0000000000000000     
   8.2518442600048883E-002  0.26531413537168186        0.0000000000000000     
   7.3392124548255611E-002  0.23072059311257684        0.0000000000000000     
   7.3842772344650837E-002  0.23917811715659498        0.0000000000000000     
   7.4213200257902248E-002  0.24773939977258697        0.0000000000000000     
   7.4503408288009804E-002  0.25640444096055276        0.0000000000000000     
   7.4713396434973531E-002  0.26517324072049242        0.0000000000000000     
   6.6033550811816374E-002  0.23059485187473236        0.0000000000000000     
   6.6410905853631880E-002  0.23906494243569446        0.0000000000000000     
   6.6721128446714892E-002  0.24762426282944722        0.0000000000000000     
   6.6964218591065397E-002  0.25627281305599053        0.0000000000000000     
   6.7140176286683423E-002  0.26501059311532449        0.0000000000000000     
   5.8863988669868542E-002  0.23048556606316623        0.0000000000000000     
   5.9180475619112376E-002  0.23896132135015261        0.0000000000000000     
   5.9441770183078661E-002  0.24751001086131663        0.0000000000000000     
   5.9647872361767378E-002  0.25613163459665844        0.0000000000000000     
   5.9798782155178538E-002  0.26482619255617801        0.0000000000000000     
   5.1883438122412050E-002  0.23039273567787844        0.0000000000000000     
   5.2151481641092338E-002  0.23886725389996932        0.0000000000000000     
   5.2375125466993570E-002  0.24739664386819535        0.0000000000000000     
   5.2554369600115738E-002  0.25598090558255654        0.0000000000000000     
   5.2689214040458857E-002  0.26462003904305298        0.0000000000000000     
   8.2518442600048883E-002  0.26531413537168186        0.0000000000000000     
   8.2715964009728624E-002  0.27424468547114811        0.0000000000000000     
   8.2896980632382850E-002  0.28334458120514627        0.0000000000000000     
   8.3061492468011575E-002  0.29261382257367630        0.0000000000000000     
   8.3209499516614799E-002  0.30205240957673812        0.0000000000000000     
   7.4713396434973531E-002  0.26517324072049242        0.0000000000000000     
   7.4884101693659666E-002  0.27403948052874694        0.0000000000000000     
   7.5056461058934390E-002  0.28299684186165752        0.0000000000000000     
   7.5230474530797731E-002  0.29204532471922406        0.0000000000000000     
   7.5406142109249646E-002  0.30118492910144656        0.0000000000000000     
   6.7140176286683423E-002  0.26501059311532449        0.0000000000000000     
   6.7289231443949590E-002  0.27380777110139720        0.0000000000000000     
   6.7451613973244520E-002  0.28263451510815690        0.0000000000000000     
   6.7627323874568240E-002  0.29149082513560365        0.0000000000000000     
   6.7816361147920709E-002  0.30037670118373738        0.0000000000000000     
   5.9798782155178538E-002  0.26482619255617801        0.0000000000000000     
   5.9931353260598390E-002  0.27354955718909885        0.0000000000000000     
   6.0082439375313268E-002  0.28225760094464447        0.0000000000000000     
   6.0252040499323131E-002  0.29095032382281510        0.0000000000000000     
   6.0440156632627993E-002  0.29962772582361047        0.0000000000000000     
   5.2689214040458857E-002  0.26462003904305298        0.0000000000000000     
   5.2810467143606085E-002  0.27326483879185176        0.0000000000000000     
   5.2948937265140598E-002  0.28186609937112023        0.0000000000000000     
   5.3104624405062396E-002  0.29042382078085832        0.0000000000000000     
   5.3277528563371472E-002  0.29893800302106599        0.0000000000000000     
   2.8966845475748015E-002   5.7172098022415442E-002   0.0000000000000000     
   3.0512408879781312E-002   6.2730241741268955E-002   0.0000000000000000     
   3.2008130761192695E-002   6.8469618190309833E-002   0.0000000000000000     
   3.3454011119982169E-002   7.4390227369538112E-002   0.0000000000000000     
   3.4850049956149723E-002   8.0492069278953748E-002   0.0000000000000000     
   2.5100706584504456E-002   5.6736999922162391E-002   0.0000000000000000     
   2.6451587539210446E-002   6.2305144721178887E-002   0.0000000000000000     
   2.7759617068513195E-002   6.8056001579693798E-002   0.0000000000000000     
   2.9024795172412712E-002   7.3989570497707075E-002   0.0000000000000000     
   3.0247121850908991E-002   8.0105851475218773E-002   0.0000000000000000     
   2.1320888361625236E-002   5.6360365580590974E-002   0.0000000000000000     
   2.2477937622149766E-002   6.1937470533657335E-002   0.0000000000000000     
   2.3598699024365871E-002   6.7698383061517209E-002   0.0000000000000000     
   2.4683172568273563E-002   7.3643103164170609E-002   0.0000000000000000     
   2.5731358253872839E-002   7.9771630841617577E-002   0.0000000000000000     
   1.7627390807110361E-002   5.6042194997701182E-002   0.0000000000000000     
   1.8591459128599264E-002   6.1627219178704271E-002   0.0000000000000000     
   1.9525376628750715E-002   6.7396762635780108E-002   0.0000000000000000     
   2.0429143307564717E-002   7.3350825368928715E-002   0.0000000000000000     
   2.1302759165041273E-002   7.9489407378150093E-002   0.0000000000000000     
   1.4020213920959828E-002   5.5782488173493031E-002   0.0000000000000000     
   1.4792152058558950E-002   6.1374390656319694E-002   0.0000000000000000     
   1.5539649881667733E-002   6.7151140302482482E-002   0.0000000000000000     
   1.6262707390286180E-002   7.3112737111981380E-002   0.0000000000000000     
   1.6961324584414291E-002   7.9259181084816388E-002   0.0000000000000000     
   3.4850049956149723E-002   8.0492069278953748E-002   0.0000000000000000     
   3.6196127551914113E-002   8.6763734375041757E-002   0.0000000000000000     
   3.7492124189494068E-002   9.3193813114287094E-002   0.0000000000000000     
   3.8738039868889601E-002   9.9782305496689747E-002   0.0000000000000000     
   3.9933874590100706E-002  0.10652921152224973        0.0000000000000000     
   3.0247121850908991E-002   8.0105851475218773E-002   0.0000000000000000     
   3.1425869925942963E-002   8.6392638191842605E-002   0.0000000000000000     
   3.2560312219455580E-002   9.2837724327192284E-002   0.0000000000000000     
   3.3650448731446812E-002   9.9441109881267836E-002   0.0000000000000000     
   3.4696279461916682E-002  0.10620279485406926        0.0000000000000000     
   2.5731358253872839E-002   7.9771630841617577E-002   0.0000000000000000     
   2.6742255842224536E-002   8.6071242746395465E-002   0.0000000000000000     
   2.7714865094389494E-002   9.2529215531041750E-002   0.0000000000000000     
   2.8649186010367707E-002   9.9145549195556432E-002   0.0000000000000000     
   2.9545218590159177E-002  0.10592024373993951        0.0000000000000000     
   2.1302759165041273E-002   7.9489407378150093E-002   0.0000000000000000     
   2.2145285300758825E-002   8.5799548038700324E-002   0.0000000000000000     
   2.2955782814295833E-002   9.2268286725835466E-002   0.0000000000000000     
   2.3734251705652288E-002   9.8895623439555519E-002   0.0000000000000000     
   2.4480691974828189E-002  0.10568155817986050        0.0000000000000000     
   1.6961324584414291E-002   7.9259181084816388E-002   0.0000000000000000     
   1.7634958301545833E-002   8.5577554068757181E-002   0.0000000000000000     
   1.8283065379174585E-002   9.2054937911573431E-002   0.0000000000000000     
   1.8905645817300549E-002   9.8691332613265126E-002   0.0000000000000000     
   1.9502699615923717E-002  0.10548673817383225        0.0000000000000000     
   3.9933874590100706E-002  0.10652921152224973        0.0000000000000000     
   4.1079285557965639E-002  0.11342239412116802        0.0000000000000000     
   4.2173929977322680E-002  0.12044971622364557        0.0000000000000000     
   4.3217807848171821E-002  0.12761117782968237        0.0000000000000000     
   4.4210919170513056E-002  0.13490677893927847        0.0000000000000000     
   3.4696279461916682E-002  0.10620279485406926        0.0000000000000000     
   3.5697524787884773E-002  0.11311095277464783        0.0000000000000000     
   3.6653905086370668E-002  0.12015375717205473        0.0000000000000000     
   3.7565420357374375E-002  0.12733120804629006        0.0000000000000000     
   3.8432070600895887E-002  0.13464330539735378        0.0000000000000000     
   2.9545218590159177E-002  0.10592024373993951        0.0000000000000000     
   3.0402690713977835E-002  0.11284164069302058        0.0000000000000000     
   3.1221330262037595E-002  0.11989808158362915        0.0000000000000000     
   3.2001137234338450E-002  0.12708956641176530        0.0000000000000000     
   3.2742111630880422E-002  0.13441609517742903        0.0000000000000000     
   2.4480691974828189E-002  0.10568155817986050        0.0000000000000000     
   2.5194783336244819E-002  0.11261445787628631        0.0000000000000000     
   2.5876205504323440E-002  0.11968268945836887        0.0000000000000000     
   2.6524958479064057E-002  0.12688625292610817        0.0000000000000000     
   2.7141042260466666E-002  0.13422514827950413        0.0000000000000000     
   1.9502699615923717E-002  0.10548673817383225        0.0000000000000000     
   2.0073802654685727E-002  0.11242940432444505        0.0000000000000000     
   2.0618530813228213E-002  0.11950758079627381        0.0000000000000000     
   2.1136884091551175E-002  0.12672126758931854        0.0000000000000000     
   2.1628862489654607E-002  0.13407046470357922        0.0000000000000000     
   4.4210919170513056E-002  0.13490677893927847        0.0000000000000000     
   4.5152179402727095E-002  0.14232491748390438        0.0000000000000000     
   4.6040504003194635E-002  0.14985399139503075        0.0000000000000000     
   4.6875892971915668E-002  0.15749400067265759        0.0000000000000000     
   4.7658346308890209E-002  0.16524494531678491        0.0000000000000000     
   3.8432070600895887E-002  0.13464330539735378        0.0000000000000000     
   3.9252771043791358E-002  0.14207827727277353        0.0000000000000000     
   4.0026436912916921E-002  0.14962435172007704        0.0000000000000000     
   4.0753068208272576E-002  0.15728152873926426        0.0000000000000000     
   4.1432664929858337E-002  0.16504980833033517        0.0000000000000000     
   3.2742111630880422E-002  0.13441609517742903        0.0000000000000000     
   3.3443225353970547E-002  0.14186580018917463        0.0000000000000000     
   3.4103450305915883E-002  0.14942681375555655        0.0000000000000000     
   3.4722786486716437E-002  0.15709913587657484        0.0000000000000000     
   3.5301233896372186E-002  0.16488276655222944        0.0000000000000000     
   2.7141042260466666E-002  0.13422514827950413        0.0000000000000000     
   2.7723542333264690E-002  0.14168748623310765        0.0000000000000000     
   2.8271544182191549E-002  0.14926137750146942        0.0000000000000000     
   2.8785047807247229E-002  0.15694682208458940        0.0000000000000000     
   2.9264053208431753E-002  0.16474381998246768        0.0000000000000000     
   2.1628862489654607E-002  0.13407046470357922        0.0000000000000000     
   2.2093721981673760E-002  0.14154333540457259        0.0000000000000000     
   2.2530718541743891E-002  0.14912804295781551        0.0000000000000000     
   2.2939852169864973E-002  0.15682458736330795        0.0000000000000000     
   2.3321122866037033E-002  0.16463296862104992        0.0000000000000000     
   4.7658346308890209E-002  0.16524494531678491        0.0000000000000000     
   4.8386478453640691E-002  0.17309558113474935        0.0000000000000000     
   4.9058903845689589E-002  0.18103466393388770        0.0000000000000000     
   4.9675622485036895E-002  0.18906219371419988        0.0000000000000000     
   5.0236634371682597E-002  0.19717817047568592        0.0000000000000000     
   4.1432664929858337E-002  0.16504980833033517        0.0000000000000000     
   4.2063712972614631E-002  0.17291795355613745        0.0000000000000000     
   4.2644698231481884E-002  0.18087472747951869        0.0000000000000000     
   4.3175620706460097E-002  0.18892013010047889        0.0000000000000000     
   4.3656480397549276E-002  0.19705416141901813        0.0000000000000000     
   3.5301233896372186E-002  0.16488276655222944        0.0000000000000000     
   3.5837273447137039E-002  0.17276635047812500        0.0000000000000000     
   3.6329386051264873E-002  0.18073853234986631        0.0000000000000000     
   3.6777571708755688E-002  0.18879931216745327        0.0000000000000000     
   3.7181830419609478E-002  0.19694868993088593        0.0000000000000000     
   2.9264053208431753E-002  0.16474381998246768        0.0000000000000000     
   2.9707159877207921E-002  0.17264077190071211        0.0000000000000000     
   3.0112967305038558E-002  0.18062607854493049        0.0000000000000000     
   3.0481475491923656E-002  0.18869973991512293        0.0000000000000000     
   3.0812684437863221E-002  0.19686175601128941        0.0000000000000000     
   2.3321122866037033E-002  0.16463296862104992        0.0000000000000000     
   2.3673372262827282E-002  0.17254121782389864        0.0000000000000000     
   2.3995441992802940E-002  0.18053736606471130        0.0000000000000000     
   2.4287332055964006E-002  0.18862141334348795        0.0000000000000000     
   2.4549042452310484E-002  0.19679335966022854        0.0000000000000000     
   5.0236634371682597E-002  0.19717817047568592        0.0000000000000000     
   5.0739428488824366E-002  0.20537423098987770        0.0000000000000000     
   5.1181493819659869E-002  0.21364201202830704        0.0000000000000000     
   5.1562830364189093E-002  0.22198151359097393        0.0000000000000000     
   5.1883438122412050E-002  0.23039273567787844        0.0000000000000000     
   4.3656480397549276E-002  0.19705416141901813        0.0000000000000000     
   4.4085919753199615E-002  0.20526653718726301        0.0000000000000000     
   4.4462581221861294E-002  0.21354697315734017        0.0000000000000000     
   4.4786464803534341E-002  0.22189546932924978        0.0000000000000000     
   4.5057570498218735E-002  0.23031202570299172        0.0000000000000000     
   3.7181830419609478E-002  0.19694868993088593        0.0000000000000000     
   3.7541691016914125E-002  0.20517459818263650        0.0000000000000000     
   3.7856682333757490E-002  0.21346496946517721        0.0000000000000000     
   3.8126804370139579E-002  0.22181980377850802        0.0000000000000000     
   3.8352057126060386E-002  0.23023910112262891        0.0000000000000000     
   3.0812684437863221E-002  0.19686175601128941        0.0000000000000000     
   3.1106742279967920E-002  0.20509841397599832        0.0000000000000000     
   3.1363797155348455E-002  0.21339600095181807        0.0000000000000000     
   3.1583849064004819E-002  0.22175451693874862        0.0000000000000000     
   3.1766898005936996E-002  0.23017396193679010        0.0000000000000000     
   2.4549042452310484E-002  0.19679335966022854        0.0000000000000000     
   2.4781073542361001E-002  0.20503798456734834        0.0000000000000000     
   2.4983925686634188E-002  0.21334006761726274        0.0000000000000000     
   2.5157598885130045E-002  0.22169960880997164        0.0000000000000000     
   2.5302093137848577E-002  0.23011660814547508        0.0000000000000000     
   5.1883438122412050E-002  0.23039273567787844        0.0000000000000000     
   5.2151481641092338E-002  0.23886725389996932        0.0000000000000000     
   5.2375125466993570E-002  0.24739664386819535        0.0000000000000000     
   5.2554369600115738E-002  0.25598090558255654        0.0000000000000000     
   5.2689214040458857E-002  0.26462003904305298        0.0000000000000000     
   4.5057570498218735E-002  0.23031202570299172        0.0000000000000000     
   4.5284789398998070E-002  0.23878130408457310        0.0000000000000000     
   4.5477012598955917E-002  0.24728796628000110        0.0000000000000000     
   4.5634240098092277E-002  0.25583201228927555        0.0000000000000000     
   4.5756471896407164E-002  0.26441344211239665        0.0000000000000000     
   3.8352057126060386E-002  0.23023910112262891        0.0000000000000000     
   3.8541264372255871E-002  0.23870203590339265        0.0000000000000000     
   3.8703249879462005E-002  0.24718778252665172        0.0000000000000000     
   3.8838013647678797E-002  0.25569634099240629        0.0000000000000000     
   3.8945555676906225E-002  0.26422771130065625        0.0000000000000000     
   3.1766898005936996E-002  0.23017396193679010        0.0000000000000000     
   3.1920906560865756E-002  0.23862944935642777        0.0000000000000000     
   3.2053837308511850E-002  0.24709609260814733        0.0000000000000000     
   3.2165690248875271E-002  0.25557389169194866        0.0000000000000000     
   3.2256465381956027E-002  0.26406284660783180        0.0000000000000000     
   2.5302093137848577E-002  0.23011660814547508        0.0000000000000000     
   2.5423715964827721E-002  0.23856354444367861        0.0000000000000000     
   2.5528774886105436E-002  0.24701289652448782        0.0000000000000000     
   2.5617269901681720E-002  0.25546466438790272        0.0000000000000000     
   2.5689201011556570E-002  0.26391884803392329        0.0000000000000000     
   5.2689214040458857E-002  0.26462003904305298        0.0000000000000000     
   5.2810467143606085E-002  0.27326483879185176        0.0000000000000000     
   5.2948937265140598E-002  0.28186609937112023        0.0000000000000000     
   5.3104624405062396E-002  0.29042382078085832        0.0000000000000000     
   5.3277528563371472E-002  0.29893800302106599        0.0000000000000000     
   4.5756471896407164E-002  0.26441344211239665        0.0000000000000000     
   4.5867817499368371E-002  0.27298232840540237        0.0000000000000000     
   4.5992386412443735E-002  0.28148874382433092        0.0000000000000000     
   4.6130178635633227E-002  0.28993268836918212        0.0000000000000000     
   4.6281194168936862E-002  0.29831416203995603        0.0000000000000000     
   3.8945555676906225E-002  0.26422771130065625        0.0000000000000000     
   3.9044648734281012E-002  0.27273073852549690        0.0000000000000000     
   3.9154065586939887E-002  0.28115426774102314        0.0000000000000000     
   3.9273806234882837E-002  0.28949829894723522        0.0000000000000000     
   3.9403870678109874E-002  0.29776283214413307        0.0000000000000000     
   3.2256465381956027E-002  0.26406284660783180        0.0000000000000000     
   3.2340960848343987E-002  0.27251006915213510        0.0000000000000000     
   3.2433974788629062E-002  0.28086267112119712        0.0000000000000000     
   3.2535507202811224E-002  0.28912065251501773        0.0000000000000000     
   3.2645558090890495E-002  0.29728401333359689        0.0000000000000000     
   2.5689201011556570E-002  0.26391884803392329        0.0000000000000000     
   2.5756753841557310E-002  0.27232032028531733        0.0000000000000000     
   2.5832114017511246E-002  0.28061395396485272        0.0000000000000000     
   2.5915281539418387E-002  0.28879974907252953        0.0000000000000000     
   2.6006256407278720E-002  0.29687770560834770        0.0000000000000000     
   1.4020213920959828E-002   5.5782488173493031E-002   0.0000000000000000     
   1.4792152058558950E-002   6.1374390656319694E-002   0.0000000000000000     
   1.5539649881667733E-002   6.7151140302482482E-002   0.0000000000000000     
   1.6262707390286180E-002   7.3112737111981380E-002   0.0000000000000000     
   1.6961324584414291E-002   7.9259181084816388E-002   0.0000000000000000     
   1.0470938136822721E-002   5.5580822596760955E-002   0.0000000000000000     
   1.1050851536086270E-002   6.1178288188498242E-002   0.0000000000000000     
   1.1611975071856177E-002   6.6960719926297055E-002   0.0000000000000000     
   1.2154308744132446E-002   7.2928117810157400E-002   0.0000000000000000     
   1.2677852552915078E-002   7.9080481840079306E-002   0.0000000000000000     
   6.9511438883481276E-003   5.5436775756299392E-002   0.0000000000000000     
   7.3383926852386705E-003   6.1038214997234531E-002   0.0000000000000000     
   7.7128084880553017E-003   6.6824705371896623E-002   0.0000000000000000     
   8.0743912967980187E-003   7.2796246880285673E-002   0.0000000000000000     
   8.4231411114668257E-003   7.8952839522401688E-002   0.0000000000000000     
   3.4608311755360472E-003   5.5350347652108348E-002   0.0000000000000000     
   3.6547755060161525E-003   6.0954171082528541E-002   0.0000000000000000     
   3.8421501302651011E-003   6.6743096639281144E-002   0.0000000000000000     
   4.0229550482828950E-003   7.2717124322366156E-002   0.0000000000000000     
   4.1971902600695310E-003   7.8876254131783563E-002   0.0000000000000000     
  -1.6135192140720456E-012   5.5321538284187823E-002   0.0000000000000000     
  -1.5812847992818790E-012   6.0926156444380306E-002   0.0000000000000000     
  -1.5144214007833945E-012   6.6715893728450645E-002   0.0000000000000000     
  -1.4129292354170264E-012   7.2690750136398835E-002   0.0000000000000000     
  -1.2768070021401678E-012   7.8850725668224930E-002   0.0000000000000000     
   1.6961324584414291E-002   7.9259181084816388E-002   0.0000000000000000     
   1.7634958301545833E-002   8.5577554068757181E-002   0.0000000000000000     
   1.8283065379174585E-002   9.2054937911573431E-002   0.0000000000000000     
   1.8905645817300549E-002   9.8691332613265126E-002   0.0000000000000000     
   1.9502699615923717E-002  0.10548673817383225        0.0000000000000000     
   1.2677852552915078E-002   7.9080481840079306E-002   0.0000000000000000     
   1.3182519486563795E-002   8.5405053417816554E-002   0.0000000000000000     
   1.3668222533438322E-002   9.1889073945123009E-002   0.0000000000000000     
   1.4134961693538657E-002   9.8532543421998658E-002   0.0000000000000000     
   1.4582736966864802E-002  0.10533546184844354        0.0000000000000000     
   8.4231411114668257E-003   7.8952839522401688E-002   0.0000000000000000     
   8.7592134977909422E-003   8.5281838667128920E-002   0.0000000000000000     
   9.0827640214995939E-003   9.1770599683351564E-002   0.0000000000000000     
   9.3937926825927772E-003   9.8419122571069689E-002   0.0000000000000000     
   9.6922994810704887E-003  0.10522740733028324        0.0000000000000000     
   4.1971902600695310E-003   7.8876254131783563E-002   0.0000000000000000     
   4.3650403352272788E-003   8.5207909816694252E-002   0.0000000000000000     
   4.5266898433584009E-003   9.1699515126259137E-002   0.0000000000000000     
   4.6821387844629006E-003   9.8351070060478163E-002   0.0000000000000000     
   4.8313871585407781E-003  0.10516257461935136        0.0000000000000000     
  -1.2768070021401678E-012   7.8850725668224930E-002   0.0000000000000000     
  -1.1272001127632381E-012   8.5183266866512619E-002   0.0000000000000000     
  -9.8525273226415799E-013   9.1675820273845660E-002   0.0000000000000000     
  -8.5096351894273919E-013   9.8328385890224079E-002   0.0000000000000000     
  -7.2433335371324681E-013  0.10514096371564789        0.0000000000000000     
   1.9502699615923717E-002  0.10548673817383225        0.0000000000000000     
   2.0073802654685727E-002  0.11242940432444505        0.0000000000000000     
   2.0618530813228213E-002  0.11950758079627381        0.0000000000000000     
   2.1136884091551175E-002  0.12672126758931854        0.0000000000000000     
   2.1628862489654607E-002  0.13407046470357922        0.0000000000000000     
   1.4582736966864802E-002  0.10533546184844354        0.0000000000000000     
   1.5011051988625818E-002  0.11228591401996356        0.0000000000000000     
   1.5419410394030761E-002  0.11937198473206469        0.0000000000000000     
   1.5807812183079636E-002  0.12659367398474691        0.0000000000000000     
   1.6176257355772435E-002  0.13395098177801029        0.0000000000000000     
   9.6922994810704887E-003  0.10522740733028324        0.0000000000000000     
   9.9778346573903380E-003  0.11218342094530859        0.0000000000000000     
   1.0249948452009928E-002  0.11927513040046209        0.0000000000000000     
   1.0508640864929256E-002  0.12650253569574374        0.0000000000000000     
   1.0753911896148324E-002  0.13386563683115349        0.0000000000000000     
   4.8313871585407781E-003  0.10516257461935136        0.0000000000000000     
   4.9741506609792922E-003  0.11212192510048016        0.0000000000000000     
   5.1101449871657151E-003  0.11921701780146601        0.0000000000000000     
   5.2393701371000433E-003  0.12644785272230891        0.0000000000000000     
   5.3618261107822775E-003  0.13381442986300887        0.0000000000000000     
  -7.2433335371324681E-013  0.10514096371564789        0.0000000000000000     
  -6.0731909952427277E-013  0.11210142648547829        0.0000000000000000     
  -5.0187783616484349E-013  0.11919764693507648        0.0000000000000000     
  -4.0800495577572593E-013  0.12642962506444250        0.0000000000000000     
  -3.2570734304071536E-013  0.13379736087357635        0.0000000000000000     
   2.1628862489654607E-002  0.13407046470357922        0.0000000000000000     
   2.2093721981673760E-002  0.14154333540457259        0.0000000000000000     
   2.2530718541743891E-002  0.14912804295781551        0.0000000000000000     
   2.2939852169864973E-002  0.15682458736330795        0.0000000000000000     
   2.3321122866037033E-002  0.16463296862104992        0.0000000000000000     
   1.6176257355772435E-002  0.13395098177801029        0.0000000000000000     
   1.6524197595028160E-002  0.14143214979789095        0.0000000000000000     
   1.6851084583765798E-002  0.14902541973042518        0.0000000000000000     
   1.7156918321985359E-002  0.15673079157561298        0.0000000000000000     
   1.7441698809686833E-002  0.16454826533345435        0.0000000000000000     
   1.0753911896148324E-002  0.13386563683115349        0.0000000000000000     
   1.0985402469158252E-002  0.14135273150738423        0.0000000000000000     
   1.1202753507450170E-002  0.14895211742512873        0.0000000000000000     
   1.1405965011024069E-002  0.15666379458438703        0.0000000000000000     
   1.1595036979879953E-002  0.16448776298515910        0.0000000000000000     
   5.3618261107822775E-003  0.13381442986300887        0.0000000000000000     
   5.4773366040640490E-003  0.14130508053305244        0.0000000000000000     
   5.5857253127969920E-003  0.14890813604192615        0.0000000000000000     
   5.6869922369811067E-003  0.15662359638963014        0.0000000000000000     
   5.7811373766163947E-003  0.16445146157616422        0.0000000000000000     
  -3.2570734304071536E-013  0.13379736087357635        0.0000000000000000     
  -2.5445466046714049E-013  0.14128919687489550        0.0000000000000000     
  -1.9372795468514115E-013  0.14889347558081745        0.0000000000000000     
  -1.4352497597520941E-013  0.15661019699134218        0.0000000000000000     
  -1.0384358303805463E-013  0.16443936110646967        0.0000000000000000     
   2.3321122866037033E-002  0.16463296862104992        0.0000000000000000     
   2.3673372262827282E-002  0.17254121782389864        0.0000000000000000     
   2.3995441992802940E-002  0.18053736606471130        0.0000000000000000     
   2.4287332055964006E-002  0.18862141334348795        0.0000000000000000     
   2.4549042452310484E-002  0.19679335966022854        0.0000000000000000     
   1.7441698809686833E-002  0.16454826533345435        0.0000000000000000     
   1.7704568018941227E-002  0.17246549372569470        0.0000000000000000     
   1.7944667921819542E-002  0.18047012947407953        0.0000000000000000     
   1.8161998518321773E-002  0.18856217257860888        0.0000000000000000     
   1.8356559808447921E-002  0.19674162303928269        0.0000000000000000     
   1.1595036979879953E-002  0.16448776298515910        0.0000000000000000     
   1.1769404560495876E-002  0.17241140508411032        0.0000000000000000     
   1.1928502899349887E-002  0.18042210333790609        0.0000000000000000     
   1.2072331996441985E-002  0.18851985774654642        0.0000000000000000     
   1.2200891851772172E-002  0.19670466831003125        0.0000000000000000     
   5.7811373766163947E-003  0.16445146157616422        0.0000000000000000     
   5.8678818874912265E-003  0.17237895189914551        0.0000000000000000     
   5.9469469253939774E-003  0.18039328765619095        0.0000000000000000     
   6.0183324903246458E-003  0.18849446884730056        0.0000000000000000     
   6.0820385822832335E-003  0.19668249547247429        0.0000000000000000     
  -1.0384358303805463E-013  0.16443936110646967        0.0000000000000000     
  -7.2719824953382250E-014  0.17236813417080024        0.0000000000000000     
  -4.8186389774163008E-014  0.18038368242893413        0.0000000000000000     
  -3.0242328823495979E-014  0.18848600588087128        0.0000000000000000     
  -1.8889837610780447E-014  0.19667510452661174        0.0000000000000000     
   2.4549042452310484E-002  0.19679335966022854        0.0000000000000000     
   2.4781073542361001E-002  0.20503798456734834        0.0000000000000000     
   2.4983925686634188E-002  0.21334006761726274        0.0000000000000000     
   2.5157598885130045E-002  0.22169960880997164        0.0000000000000000     
   2.5302093137848577E-002  0.23011660814547508        0.0000000000000000     
   1.8356559808447921E-002  0.19674162303928269        0.0000000000000000     
   1.8528984892509745E-002  0.20499200155889821        0.0000000000000000     
   1.8679906870818989E-002  0.21329682884025267        0.0000000000000000     
   1.8809325743375668E-002  0.22165610488334606        0.0000000000000000     
   1.8917241510179764E-002  0.23006982968817832        0.0000000000000000     
   1.2200891851772172E-002  0.19670466831003125        0.0000000000000000     
   1.2314776418830536E-002  0.20495915655285932        0.0000000000000000     
   1.2414579651107165E-002  0.21326594399952914        0.0000000000000000     
   1.2500301548602060E-002  0.22162503065004080        0.0000000000000000     
   1.2571942111315224E-002  0.23003641650439419        0.0000000000000000     
   6.0820385822832335E-003  0.19668249547247429        0.0000000000000000     
   6.1384481213233753E-003  0.20493944954923163        0.0000000000000000     
   6.1879440274987098E-003  0.21324741309509218        0.0000000000000000     
   6.2305263008092327E-003  0.22160638611005584        0.0000000000000000     
   6.2661949412549448E-003  0.23001636859412264        0.0000000000000000     
  -1.8889837610780447E-014  0.19667510452661174        0.0000000000000000     
  -1.1732368548900141E-014  0.20493288054801531        0.0000000000000000     
  -6.3764098168217487E-015  0.21324123612694185        0.0000000000000000     
  -2.8218529943280224E-015  0.22160017126339127        0.0000000000000000     
  -1.0677222994637248E-015  0.23000968595736360        0.0000000000000000     
   2.5302093137848577E-002  0.23011660814547508        0.0000000000000000     
   2.5423715964827721E-002  0.23856354444367861        0.0000000000000000     
   2.5528774886105436E-002  0.24701289652448782        0.0000000000000000     
   2.5617269901681720E-002  0.25546466438790272        0.0000000000000000     
   2.5689201011556570E-002  0.26391884803392329        0.0000000000000000     
   1.8917241510179764E-002  0.23006982968817832        0.0000000000000000     
   1.9008028475754470E-002  0.23850880085999226        0.0000000000000000     
   1.9086060944622937E-002  0.24694381600403034        0.0000000000000000     
   1.9151338916785186E-002  0.25537487512029261        0.0000000000000000     
   1.9203862392241203E-002  0.26380197820877910        0.0000000000000000     
   1.2571942111315224E-002  0.23003641650439419        0.0000000000000000     
   1.2632179985258696E-002  0.23846969830021583        0.0000000000000000     
   1.2683693816444526E-002  0.24689447277513199        0.0000000000000000     
   1.2726483604872708E-002  0.25531073992914260        0.0000000000000000     
   1.2760549350543242E-002  0.26371849976224787        0.0000000000000000     
   6.2661949412549448E-003  0.23001636859412264        0.0000000000000000     
   6.2961704933404104E-003  0.23844623676434931        0.0000000000000000     
   6.3216735015701924E-003  0.24686486683779271        0.0000000000000000     
   6.3427039659442836E-003  0.25527225881445281        0.0000000000000000     
   6.3592618864626920E-003  0.26366841269432945        0.0000000000000000     
  -1.0677222994637248E-015  0.23000968595736360        0.0000000000000000     
  -3.8944542035679319E-016  0.23843841625239273        0.0000000000000000     
  -6.0173220572945496E-017  0.24685499819201254        0.0000000000000000     
  -8.0095435492366640E-017  0.25525943177622296        0.0000000000000000     
  -4.4712497593302203E-016  0.26365171700502404        0.0000000000000000     
   2.5689201011556570E-002  0.26391884803392329        0.0000000000000000     
   2.5756753841557310E-002  0.27232032028531733        0.0000000000000000     
   2.5832114017511246E-002  0.28061395396485272        0.0000000000000000     
   2.5915281539418387E-002  0.28879974907252953        0.0000000000000000     
   2.6006256407278720E-002  0.29687770560834770        0.0000000000000000     
   1.9203862392241203E-002  0.26380197820877910        0.0000000000000000     
   1.9253606801051280E-002  0.27216781774846488        0.0000000000000000     
   1.9310547573275709E-002  0.28041508621832495        0.0000000000000000     
   1.9374684708914486E-002  0.28854378361835936        0.0000000000000000     
   1.9446018207967611E-002  0.29655390994856812        0.0000000000000000     
   1.2760549350543242E-002  0.26371849976224787        0.0000000000000000     
   1.2793098813956212E-002  0.27205888736499922        0.0000000000000000     
   1.2831339755611697E-002  0.28027303782794860        0.0000000000000000     
   1.2875272175509695E-002  0.28836095115109578        0.0000000000000000     
   1.2924896073650207E-002  0.29632262733444081        0.0000000000000000     
   6.3592618864626920E-003  0.26366841269432945        0.0000000000000000     
   6.3752298802721031E-003  0.27199352913492059        0.0000000000000000     
   6.3944905645192127E-003  0.28018780879372368        0.0000000000000000     
   6.4170439392040139E-003  0.28825125167073873        0.0000000000000000     
   6.4428900043265128E-003  0.29618385776596579        0.0000000000000000     
  -4.4712497593302203E-016  0.26365171700502404        0.0000000000000000     
  -1.0432193303655524E-015  0.27197174305822874        0.0000000000000000     
  -1.7463244392224020E-015  0.28015939911565013        0.0000000000000000     
  -2.5548953144077791E-015  0.28821468517728821        0.0000000000000000     
  -3.4720490371675794E-015  0.29613760124314298        0.0000000000000000     
  -1.6135192140720456E-012   5.5321538284187823E-002   0.0000000000000000     
  -1.5812847992818790E-012   6.0926156444380306E-002   0.0000000000000000     
  -1.5144214007833945E-012   6.6715893728450645E-002   0.0000000000000000     
  -1.4129292354170264E-012   7.2690750136398835E-002   0.0000000000000000     
  -1.2768070021401678E-012   7.8850725668224930E-002   0.0000000000000000     
  -3.4608311787338365E-003   5.5350347652536061E-002   0.0000000000000000     
  -3.6547755091470464E-003   6.0954171082785127E-002   0.0000000000000000     
  -3.8421501332613025E-003   6.6743096639399077E-002   0.0000000000000000     
  -4.0229550510766030E-003   7.2717124322377910E-002   0.0000000000000000     
  -4.1971902625929517E-003   7.8876254131721640E-002   0.0000000000000000     
  -6.9511438914581693E-003   5.5436775757151315E-002   0.0000000000000000     
  -7.3383926882745389E-003   6.1038214997738358E-002   0.0000000000000000     
  -7.7128084909535797E-003   6.6824705372120416E-002   0.0000000000000000     
  -8.0743912994952882E-003   7.2796246880297497E-002   0.0000000000000000     
  -8.4231411138996660E-003   7.8952839522269586E-002   0.0000000000000000     
  -1.0470938139786517E-002   5.5580822598033576E-002   0.0000000000000000     
  -1.1050851538963761E-002   6.1178288189239989E-002   0.0000000000000000     
  -1.1611975074591248E-002   6.6960719926614662E-002   0.0000000000000000     
  -1.2154308746668979E-002   7.2928117810157581E-002   0.0000000000000000     
  -1.2677852555196953E-002   7.9080481839868752E-002   0.0000000000000000     
  -1.4020213923718879E-002   5.5782488175182846E-002   0.0000000000000000     
  -1.4792152061214715E-002   6.1374390657290022E-002   0.0000000000000000     
  -1.5539649884174316E-002   6.7151140302881801E-002   0.0000000000000000     
  -1.6262707392597678E-002   7.3112737111958190E-002   0.0000000000000000     
  -1.6961324586484808E-002   7.9259181084519181E-002   0.0000000000000000     
  -1.2768070021401678E-012   7.8850725668224930E-002   0.0000000000000000     
  -1.1272001127632381E-012   8.5183266866512619E-002   0.0000000000000000     
  -9.8525273226415799E-013   9.1675820273845660E-002   0.0000000000000000     
  -8.5096351894273919E-013   9.8328385890224079E-002   0.0000000000000000     
  -7.2433335371324681E-013  0.10514096371564789        0.0000000000000000     
  -4.1971902625929517E-003   7.8876254131721640E-002   0.0000000000000000     
  -4.3650403374539577E-003   8.5207909816581981E-002   0.0000000000000000     
  -4.5266898453032375E-003   9.1699515126110673E-002   0.0000000000000000     
  -4.6821387861407894E-003   9.8351070060307758E-002   0.0000000000000000     
  -4.8313871599666141E-003  0.10516257461917318        0.0000000000000000     
  -8.4231411138996660E-003   7.8952839522269586E-002   0.0000000000000000     
  -8.7592134999344637E-003   8.5281838666900409E-002   0.0000000000000000     
  -9.0827640233674244E-003   9.1770599683053691E-002   0.0000000000000000     
  -9.3937926841985448E-003   9.8419122570729406E-002   0.0000000000000000     
  -9.6922994824278335E-003  0.10522740732992757        0.0000000000000000     
  -1.2677852555196953E-002   7.9080481839868752E-002   0.0000000000000000     
  -1.3182519488568715E-002   8.5405053417467888E-002   0.0000000000000000     
  -1.3668222535177806E-002   9.1889073944674632E-002   0.0000000000000000     
  -1.4134961695024234E-002   9.8532543421489038E-002   0.0000000000000000     
  -1.4582736968107990E-002  0.10533546184791108        0.0000000000000000     
  -1.6961324586484808E-002   7.9259181084519181E-002   0.0000000000000000     
  -1.7634958303356710E-002   8.5577554068284406E-002   0.0000000000000000     
  -1.8283065380734390E-002   9.2054937910973592E-002   0.0000000000000000     
  -1.8905645818617853E-002   9.8691332612586682E-002   0.0000000000000000     
  -1.9502699617007090E-002  0.10548673817312369        0.0000000000000000     
  -7.2433335371324681E-013  0.10514096371564789        0.0000000000000000     
  -6.0731909952427277E-013  0.11210142648547829        0.0000000000000000     
  -5.0187783616484349E-013  0.11919764693507648        0.0000000000000000     
  -4.0800495577572593E-013  0.12642962506444250        0.0000000000000000     
  -3.2570734304071536E-013  0.13379736087357635        0.0000000000000000     
  -4.8313871599666141E-003  0.10516257461917318        0.0000000000000000     
  -4.9741506621722217E-003  0.11212192510030321        0.0000000000000000     
  -5.1101449881491229E-003  0.11921701780129408        0.0000000000000000     
  -5.2393701378973204E-003  0.12644785272214579        0.0000000000000000     
  -5.3618261114168099E-003  0.13381442986285835        0.0000000000000000     
  -9.6922994824278335E-003  0.10522740732992757        0.0000000000000000     
  -9.9778346585181338E-003  0.11218342094495522        0.0000000000000000     
  -1.0249948452932301E-002  0.11927513040011935        0.0000000000000000     
  -1.0508640865670328E-002  0.12650253569542003        0.0000000000000000     
  -1.0753911896732218E-002  0.13386563683085723        0.0000000000000000     
  -1.4582736968107990E-002  0.10533546184791108        0.0000000000000000     
  -1.5011051989645056E-002  0.11228591401943432        0.0000000000000000     
  -1.5419410394851403E-002  0.11937198473155240        0.0000000000000000     
  -1.5807812183727024E-002  0.12659367398426530        0.0000000000000000     
  -1.6176257356271932E-002  0.13395098177757300        0.0000000000000000     
  -1.9502699617007090E-002  0.10548673817312369        0.0000000000000000     
  -2.0073802655552989E-002  0.11242940432374054        0.0000000000000000     
  -2.0618530813906428E-002  0.11950758079559314        0.0000000000000000     
  -2.1136884092067418E-002  0.12672126758868149        0.0000000000000000     
  -2.1628862490035945E-002  0.13407046470300560        0.0000000000000000     
  -3.2570734304071536E-013  0.13379736087357635        0.0000000000000000     
  -2.5445466046714049E-013  0.14128919687489550        0.0000000000000000     
  -1.9372795468514115E-013  0.14889347558081745        0.0000000000000000     
  -1.4352497597520941E-013  0.15661019699134218        0.0000000000000000     
  -1.0384358303805463E-013  0.16443936110646967        0.0000000000000000     
  -5.3618261114168099E-003  0.13381442986285835        0.0000000000000000     
  -5.4773366045581086E-003  0.14130508053291690        0.0000000000000000     
  -5.5857253131717244E-003  0.14890813604180667        0.0000000000000000     
  -5.6869922372576572E-003  0.15662359638952755        0.0000000000000000     
  -5.7811373768159114E-003  0.16445146157607962        0.0000000000000000     
  -1.0753911896732218E-002  0.13386563683085723        0.0000000000000000     
  -1.0985402469607755E-002  0.14135273150712011        0.0000000000000000     
  -1.1202753507786725E-002  0.14895211742489792        0.0000000000000000     
  -1.1405965011269127E-002  0.15666379458419061        0.0000000000000000     
  -1.1595036980054960E-002  0.16448776298499820        0.0000000000000000     
  -1.6176257356271932E-002  0.13395098177757300        0.0000000000000000     
  -1.6524197595403405E-002  0.14143214979750507        0.0000000000000000     
  -1.6851084584038736E-002  0.14902541973009117        0.0000000000000000     
  -1.7156918322177937E-002  0.15673079157533126        0.0000000000000000     
  -1.7441698809820994E-002  0.16454826533322536        0.0000000000000000     
  -2.1628862490035945E-002  0.13407046470300560        0.0000000000000000     
  -2.2093721981945046E-002  0.14154333540407180        0.0000000000000000     
  -2.2530718541927758E-002  0.14912804295738646        0.0000000000000000     
  -2.2939852169984069E-002  0.15682458736294957        0.0000000000000000     
  -2.3321122866114007E-002  0.16463296862076113        0.0000000000000000     
  -1.0384358303805463E-013  0.16443936110646967        0.0000000000000000     
  -7.2719824953382250E-014  0.17236813417080024        0.0000000000000000     
  -4.8186389774163008E-014  0.18038368242893413        0.0000000000000000     
  -3.0242328823495979E-014  0.18848600588087128        0.0000000000000000     
  -1.8889837610780447E-014  0.19667510452661174        0.0000000000000000     
  -5.7811373768159114E-003  0.16445146157607962        0.0000000000000000     
  -5.8678818876306731E-003  0.17237895189907826        0.0000000000000000     
  -5.9469469254861294E-003  0.18039328765613882        0.0000000000000000     
  -6.0183324903822838E-003  0.18849446884726134        0.0000000000000000     
  -6.0820385823191318E-003  0.19668249547244573        0.0000000000000000     
  -1.1595036980054960E-002  0.16448776298499820        0.0000000000000000     
  -1.1769404560617338E-002  0.17241140508398323        0.0000000000000000     
  -1.1928502899429375E-002  0.18042210333780825        0.0000000000000000     
  -1.2072331996491071E-002  0.18851985774647331        0.0000000000000000     
  -1.2200891851802422E-002  0.19670466830997829        0.0000000000000000     
  -1.7441698809820994E-002  0.16454826533322536        0.0000000000000000     
  -1.7704568019032720E-002  0.17246549372551517        0.0000000000000000     
  -1.7944667921877919E-002  0.18047012947394248        0.0000000000000000     
  -1.8161998518356603E-002  0.18856217257850727        0.0000000000000000     
  -1.8356559808468762E-002  0.19674162303920950        0.0000000000000000     
  -2.3321122866114007E-002  0.16463296862076113        0.0000000000000000     
  -2.3673372262876809E-002  0.17254121782367410        0.0000000000000000     
  -2.3995441992831771E-002  0.18053736606454146        0.0000000000000000     
  -2.4287332055978886E-002  0.18862141334336316        0.0000000000000000     
  -2.4549042452318148E-002  0.19679335966013928        0.0000000000000000     
  -1.8889837610780447E-014  0.19667510452661174        0.0000000000000000     
  -1.1732368548900141E-014  0.20493288054801531        0.0000000000000000     
  -6.3764098168217487E-015  0.21324123612694185        0.0000000000000000     
  -2.8218529943280224E-015  0.22160017126339127        0.0000000000000000     
  -1.0677222994637248E-015  0.23000968595736360        0.0000000000000000     
  -6.0820385823191318E-003  0.19668249547244573        0.0000000000000000     
  -6.1384481213456596E-003  0.20493944954921178        0.0000000000000000     
  -6.1879440275108511E-003  0.21324741309507914        0.0000000000000000     
  -6.2305263008147057E-003  0.22160638611004782        0.0000000000000000     
  -6.2661949412572207E-003  0.23001636859411778        0.0000000000000000     
  -1.2200891851802422E-002  0.19670466830997829        0.0000000000000000     
  -1.2314776418849276E-002  0.20495915655282251        0.0000000000000000     
  -1.2414579651117478E-002  0.21326594399950521        0.0000000000000000     
  -1.2500301548607026E-002  0.22162503065002628        0.0000000000000000     
  -1.2571942111317919E-002  0.23003641650438575        0.0000000000000000     
  -1.8356559808468762E-002  0.19674162303920950        0.0000000000000000     
  -1.8528984892522582E-002  0.20499200155884761        0.0000000000000000     
  -1.8679906870826258E-002  0.21329682884022000        0.0000000000000000     
  -1.8809325743379783E-002  0.22165610488332663        0.0000000000000000     
  -1.8917241510183161E-002  0.23006982968816750        0.0000000000000000     
  -2.4549042452318148E-002  0.19679335966013928        0.0000000000000000     
  -2.4781073542365577E-002  0.20503798456728700        0.0000000000000000     
  -2.4983925686637192E-002  0.21334006761722352        0.0000000000000000     
  -2.5157598885132977E-002  0.22169960880994885        0.0000000000000000     
  -2.5302093137852949E-002  0.23011660814546306        0.0000000000000000     
  -1.0677222994637248E-015  0.23000968595736360        0.0000000000000000     
  -3.8944542035679319E-016  0.23843841625239273        0.0000000000000000     
  -6.0173220572945496E-017  0.24685499819201254        0.0000000000000000     
  -8.0095435492366640E-017  0.25525943177622296        0.0000000000000000     
  -4.4712497593302203E-016  0.26365171700502404        0.0000000000000000     
  -6.2661949412572207E-003  0.23001636859411778        0.0000000000000000     
  -6.2961704933415449E-003  0.23844623676434662        0.0000000000000000     
  -6.3216735015708195E-003  0.24686486683779191        0.0000000000000000     
  -6.3427039659450487E-003  0.25527225881445353        0.0000000000000000     
  -6.3592618864642290E-003  0.26366841269433161        0.0000000000000000     
  -1.2571942111317919E-002  0.23003641650438575        0.0000000000000000     
  -1.2632179985260894E-002  0.23846969830021147        0.0000000000000000     
  -1.2683693816446682E-002  0.24689447277513113        0.0000000000000000     
  -1.2726483604875284E-002  0.25531073992914477        0.0000000000000000     
  -1.2760549350546702E-002  0.26371849976225237        0.0000000000000000     
  -1.8917241510183161E-002  0.23006982968816750        0.0000000000000000     
  -1.9008028475758436E-002  0.23850880085998724        0.0000000000000000     
  -1.9086060944627642E-002  0.24694381600403026        0.0000000000000000     
  -1.9151338916790790E-002  0.25537487512029666        0.0000000000000000     
  -1.9203862392247868E-002  0.26380197820878631        0.0000000000000000     
  -2.5302093137852949E-002  0.23011660814546306        0.0000000000000000     
  -2.5423715964834167E-002  0.23856354444367392        0.0000000000000000     
  -2.5528774886113707E-002  0.24701289652448929        0.0000000000000000     
  -2.5617269901691556E-002  0.25546466438790916        0.0000000000000000     
  -2.5689201011567731E-002  0.26391884803393351        0.0000000000000000     
  -4.4712497593302203E-016  0.26365171700502404        0.0000000000000000     
  -1.0432193303655524E-015  0.27197174305822874        0.0000000000000000     
  -1.7463244392224020E-015  0.28015939911565013        0.0000000000000000     
  -2.5548953144077791E-015  0.28821468517728821        0.0000000000000000     
  -3.4720490371675794E-015  0.29613760124314298        0.0000000000000000     
  -6.3592618864642290E-003  0.26366841269433161        0.0000000000000000     
  -6.3752298802748361E-003  0.27199352913492386        0.0000000000000000     
  -6.3944905645233465E-003  0.28018780879372807        0.0000000000000000     
  -6.4170439392097619E-003  0.28825125167074428        0.0000000000000000     
  -6.4428900043340814E-003  0.29618385776597239        0.0000000000000000     
  -1.2760549350546702E-002  0.26371849976225237        0.0000000000000000     
  -1.2793098813960879E-002  0.27205888736500589        0.0000000000000000     
  -1.2831339755617763E-002  0.28027303782795737        0.0000000000000000     
  -1.2875272175517352E-002  0.28836095115110666        0.0000000000000000     
  -1.2924896073659650E-002  0.29632262733445391        0.0000000000000000     
  -1.9203862392247868E-002  0.26380197820878631        0.0000000000000000     
  -1.9253606801059180E-002  0.27216781774847498        0.0000000000000000     
  -1.9310547573284997E-002  0.28041508621833799        0.0000000000000000     
  -1.9374684708925328E-002  0.28854378361837557        0.0000000000000000     
  -1.9446018207980174E-002  0.29655390994858760        0.0000000000000000     
  -2.5689201011567731E-002  0.26391884803393351        0.0000000000000000     
  -2.5756753841569720E-002  0.27232032028533099        0.0000000000000000     
  -2.5832114017525044E-002  0.28061395396487010        0.0000000000000000     
  -2.5915281539433684E-002  0.28879974907255085        0.0000000000000000     
  -2.6006256407295657E-002  0.29687770560837334        0.0000000000000000     
  -1.4020213923718879E-002   5.5782488175182846E-002   0.0000000000000000     
  -1.4792152061214715E-002   6.1374390657290022E-002   0.0000000000000000     
  -1.5539649884174316E-002   6.7151140302881801E-002   0.0000000000000000     
  -1.6262707392597678E-002   7.3112737111958190E-002   0.0000000000000000     
  -1.6961324586484808E-002   7.9259181084519181E-002   0.0000000000000000     
  -1.7627390809588875E-002   5.6042194999789699E-002   0.0000000000000000     
  -1.8591459130974337E-002   6.1627219179898399E-002   0.0000000000000000     
  -1.9525376630982357E-002   6.7396762636264707E-002   0.0000000000000000     
  -2.0429143309612919E-002   7.3350825368888581E-002   0.0000000000000000     
  -2.1302759166866032E-002   7.9489407377770063E-002   0.0000000000000000     
  -2.1320888363730115E-002   5.6360365583044691E-002   0.0000000000000000     
  -2.2477937624189575E-002   6.1937470535075083E-002   0.0000000000000000     
  -2.3598699026294946E-002   6.7698383062106210E-002   0.0000000000000000     
  -2.4683172570046218E-002   7.3643103164138080E-002   0.0000000000000000     
  -2.5731358255443402E-002   7.9771630841170685E-002   0.0000000000000000     
  -2.5100706586142597E-002   5.6736999924947823E-002   0.0000000000000000     
  -2.6451587540860418E-002   6.2305144722820047E-002   0.0000000000000000     
  -2.7759617070112083E-002   6.8056001580406325E-002   0.0000000000000000     
  -2.9024795173897586E-002   7.3989570497706644E-002   0.0000000000000000     
  -3.0247121852216945E-002   8.0105851474721032E-002   0.0000000000000000     
  -2.8966845476826326E-002   5.7172098025499093E-002   0.0000000000000000     
  -3.0512408880986875E-002   6.2730241743133297E-002   0.0000000000000000     
  -3.2008130762433779E-002   6.8469618191165052E-002   0.0000000000000000     
  -3.3454011121167020E-002   7.4390227369594331E-002   0.0000000000000000     
  -3.4850049957186630E-002   8.0492069278421119E-002   0.0000000000000000     
  -1.6961324586484808E-002   7.9259181084519181E-002   0.0000000000000000     
  -1.7634958303356710E-002   8.5577554068284406E-002   0.0000000000000000     
  -1.8283065380734390E-002   9.2054937910973592E-002   0.0000000000000000     
  -1.8905645818617853E-002   9.8691332612586682E-002   0.0000000000000000     
  -1.9502699617007090E-002  0.10548673817312369        0.0000000000000000     
  -2.1302759166866032E-002   7.9489407377770063E-002   0.0000000000000000     
  -2.2145285302342926E-002   8.5799548038102913E-002   0.0000000000000000     
  -2.2955782815644823E-002   9.2268286725080972E-002   0.0000000000000000     
  -2.3734251706771740E-002   9.8895623438704158E-002   0.0000000000000000     
  -2.4480691975723664E-002  0.10568155817897257        0.0000000000000000     
  -2.5731358255443402E-002   7.9771630841170685E-002   0.0000000000000000     
  -2.6742255843571813E-002   8.6071242745676305E-002   0.0000000000000000     
  -2.7714865095516756E-002   9.2529215530127204E-002   0.0000000000000000     
  -2.8649186011278232E-002   9.9145549194523397E-002   0.0000000000000000     
  -2.9545218590856244E-002  0.10592024373886490        0.0000000000000000     
  -3.0247121852216945E-002   8.0105851474721032E-002   0.0000000000000000     
  -3.1425869927043396E-002   8.6392638191004553E-002   0.0000000000000000     
  -3.2560312220350190E-002   9.2837724326112328E-002   0.0000000000000000     
  -3.3650448732137336E-002   9.9441109880044370E-002   0.0000000000000000     
  -3.4696279462404833E-002  0.10620279485280064        0.0000000000000000     
  -3.4850049957186630E-002   8.0492069278421119E-002   0.0000000000000000     
  -3.6196127552757640E-002   8.6763734374087714E-002   0.0000000000000000     
  -3.7492124190145110E-002   9.3193813113036358E-002   0.0000000000000000     
  -3.8738039869349039E-002   9.9782305495267051E-002   0.0000000000000000     
  -3.9933874590369442E-002  0.10652921152077982        0.0000000000000000     
  -1.9502699617007090E-002  0.10548673817312369        0.0000000000000000     
  -2.0073802655552989E-002  0.11242940432374054        0.0000000000000000     
  -2.0618530813906428E-002  0.11950758079559314        0.0000000000000000     
  -2.1136884092067418E-002  0.12672126758868149        0.0000000000000000     
  -2.1628862490035945E-002  0.13407046470300560        0.0000000000000000     
  -2.4480691975723664E-002  0.10568155817897257        0.0000000000000000     
  -2.5194783336933702E-002  0.11261445787540521        0.0000000000000000     
  -2.5876205504834951E-002  0.11968268945752107        0.0000000000000000     
  -2.6524958479427416E-002  0.12688625292532027        0.0000000000000000     
  -2.7141042260711096E-002  0.13422514827880272        0.0000000000000000     
  -2.9545218590856244E-002  0.10592024373886490        0.0000000000000000     
  -3.0402690714478955E-002  0.11284164069195966        0.0000000000000000     
  -3.1221330262374520E-002  0.11989808158261576        0.0000000000000000     
  -3.2001137234542940E-002  0.12708956641083316        0.0000000000000000     
  -3.2742111630984214E-002  0.13441609517661190        0.0000000000000000     
  -3.4696279462404833E-002  0.10620279485280064        0.0000000000000000     
  -3.5697524788188759E-002  0.11311095277340398        0.0000000000000000     
  -3.6653905086525128E-002  0.12015375717087719        0.0000000000000000     
  -3.7565420357413989E-002  0.12733120804522025        0.0000000000000000     
  -3.8432070600855309E-002  0.13464330539643318        0.0000000000000000     
  -3.9933874590369442E-002  0.10652921152077982        0.0000000000000000     
  -4.1079285558063089E-002  0.11342239411973809        0.0000000000000000     
  -4.2173929977286799E-002  0.12044971622230530        0.0000000000000000     
  -4.3217807848040558E-002  0.12761117782848147        0.0000000000000000     
  -4.4210919170324367E-002  0.13490677893826658        0.0000000000000000     
  -2.1628862490035945E-002  0.13407046470300560        0.0000000000000000     
  -2.2093721981945046E-002  0.14154333540407180        0.0000000000000000     
  -2.2530718541927758E-002  0.14912804295738646        0.0000000000000000     
  -2.2939852169984069E-002  0.15682458736294957        0.0000000000000000     
  -2.3321122866114007E-002  0.16463296862076113        0.0000000000000000     
  -2.7141042260711096E-002  0.13422514827880272        0.0000000000000000     
  -2.7723542333416392E-002  0.14168748623250391        0.0000000000000000     
  -2.8271544182273727E-002  0.14926137750095933        0.0000000000000000     
  -2.8785047807283092E-002  0.15694682208416896        0.0000000000000000     
  -2.9264053208444482E-002  0.16474381998213286        0.0000000000000000     
  -3.2742111630984214E-002  0.13441609517661190        0.0000000000000000     
  -3.3443225354001162E-002  0.14186580018848494        0.0000000000000000     
  -3.4103450305896600E-002  0.14942681375498529        0.0000000000000000     
  -3.4722786486670522E-002  0.15709913587611291        0.0000000000000000     
  -3.5301233896322913E-002  0.16488276655186784        0.0000000000000000     
  -3.8432070600855309E-002  0.13464330539643318        0.0000000000000000     
  -3.9252771043699342E-002  0.14207827727201489        0.0000000000000000     
  -4.0026436912796365E-002  0.14962435171946431        0.0000000000000000     
  -4.0753068208146337E-002  0.15728152873878140        0.0000000000000000     
  -4.1432664929749306E-002  0.16504980832996616        0.0000000000000000     
  -4.4210919170324367E-002  0.13490677893826658        0.0000000000000000     
  -4.5152179402510956E-002  0.14232491748309384        0.0000000000000000     
  -4.6040504002973034E-002  0.14985399139439642        0.0000000000000000     
  -4.6875892971710596E-002  0.15749400067217442        0.0000000000000000     
  -4.7658346308723648E-002  0.16524494531642778        0.0000000000000000     
  -2.3321122866114007E-002  0.16463296862076113        0.0000000000000000     
  -2.3673372262876809E-002  0.17254121782367410        0.0000000000000000     
  -2.3995441992831771E-002  0.18053736606454146        0.0000000000000000     
  -2.4287332055978886E-002  0.18862141334336316        0.0000000000000000     
  -2.4549042452318148E-002  0.19679335966013928        0.0000000000000000     
  -2.9264053208444482E-002  0.16474381998213286        0.0000000000000000     
  -2.9707159877210867E-002  0.17264077190045474        0.0000000000000000     
  -3.0112967305035199E-002  0.18062607854473839        0.0000000000000000     
  -3.0481475491917490E-002  0.18869973991498382        0.0000000000000000     
  -3.0812684437857722E-002  0.19686175601119102        0.0000000000000000     
  -3.5301233896322913E-002  0.16488276655186784        0.0000000000000000     
  -3.5837273447096134E-002  0.17276635047785183        0.0000000000000000     
  -3.6329386051232489E-002  0.18073853234966653        0.0000000000000000     
  -3.6777571708731999E-002  0.18879931216731194        0.0000000000000000     
  -3.7181830419594629E-002  0.19694868993078812        0.0000000000000000     
  -4.1432664929749306E-002  0.16504980832996616        0.0000000000000000     
  -4.2063712972532606E-002  0.17291795355586542        0.0000000000000000     
  -4.2644698231423625E-002  0.18087472747932587        0.0000000000000000     
  -4.3175620706422391E-002  0.18892013010034758        0.0000000000000000     
  -4.3656480397528875E-002  0.19705416141893056        0.0000000000000000     
  -4.7658346308723648E-002  0.16524494531642778        0.0000000000000000     
  -4.8386478453520301E-002  0.17309558113449547        0.0000000000000000     
  -4.9058903845608647E-002  0.18103466393371642        0.0000000000000000     
  -4.9675622484988698E-002  0.18906219371409072        0.0000000000000000     
  -5.0236634371660441E-002  0.19717817047561834        0.0000000000000000     
  -2.4549042452318148E-002  0.19679335966013928        0.0000000000000000     
  -2.4781073542365577E-002  0.20503798456728700        0.0000000000000000     
  -2.4983925686637192E-002  0.21334006761722352        0.0000000000000000     
  -2.5157598885132977E-002  0.22169960880994885        0.0000000000000000     
  -2.5302093137852949E-002  0.23011660814546306        0.0000000000000000     
  -3.0812684437857722E-002  0.19686175601119102        0.0000000000000000     
  -3.1106742279965016E-002  0.20509841397593132        0.0000000000000000     
  -3.1363797155348462E-002  0.21339600095177599        0.0000000000000000     
  -3.1583849064008067E-002  0.22175451693872514        0.0000000000000000     
  -3.1766898005943837E-002  0.23017396193677866        0.0000000000000000     
  -3.7181830419594629E-002  0.19694868993078812        0.0000000000000000     
  -3.7541691016907658E-002  0.20517459818257130        0.0000000000000000     
  -3.7856682333758288E-002  0.21346496946513774        0.0000000000000000     
  -3.8126804370146539E-002  0.22181980377848748        0.0000000000000000     
  -3.8352057126072384E-002  0.23023910112262055        0.0000000000000000     
  -4.3656480397528875E-002  0.19705416141893056        0.0000000000000000     
  -4.4085919753193481E-002  0.20526653718720686        0.0000000000000000     
  -4.4462581221866630E-002  0.21354697315730867        0.0000000000000000     
  -4.4786464803548351E-002  0.22189546932923596        0.0000000000000000     
  -4.5057570498238594E-002  0.23031202570298873        0.0000000000000000     
  -5.0236634371660441E-002  0.19717817047561834        0.0000000000000000     
  -5.0739428488822513E-002  0.20537423098983806        0.0000000000000000     
  -5.1181493819673539E-002  0.21364201202828878        0.0000000000000000     
  -5.1562830364213531E-002  0.22198151359097046        0.0000000000000000     
  -5.1883438122442463E-002  0.23039273567788313        0.0000000000000000     
  -2.5302093137852949E-002  0.23011660814546306        0.0000000000000000     
  -2.5423715964834167E-002  0.23856354444367392        0.0000000000000000     
  -2.5528774886113707E-002  0.24701289652448929        0.0000000000000000     
  -2.5617269901691556E-002  0.25546466438790916        0.0000000000000000     
  -2.5689201011567731E-002  0.26391884803393351        0.0000000000000000     
  -3.1766898005943837E-002  0.23017396193677866        0.0000000000000000     
  -3.1920906560876032E-002  0.23862944935642461        0.0000000000000000     
  -3.2053837308524930E-002  0.24709609260815102        0.0000000000000000     
  -3.2165690248890530E-002  0.25557389169195793        0.0000000000000000     
  -3.2256465381972819E-002  0.26406284660784529        0.0000000000000000     
  -3.8352057126072384E-002  0.23023910112262055        0.0000000000000000     
  -3.8541264372271969E-002  0.23870203590339231        0.0000000000000000     
  -3.8703249879481386E-002  0.24718778252665830        0.0000000000000000     
  -3.8838013647700613E-002  0.25569634099241850        0.0000000000000000     
  -3.8945555676929693E-002  0.26422771130067285        0.0000000000000000     
  -4.5057570498238594E-002  0.23031202570298873        0.0000000000000000     
  -4.5284789399021967E-002  0.23878130408457704        0.0000000000000000     
  -4.5477012598983048E-002  0.24728796628001107        0.0000000000000000     
  -4.5634240098121837E-002  0.25583201228929081        0.0000000000000000     
  -4.5756471896438340E-002  0.26441344211241635        0.0000000000000000     
  -5.1883438122442463E-002  0.23039273567788313        0.0000000000000000     
  -5.2151481641126041E-002  0.23886725389997879        0.0000000000000000     
  -5.2375125467029951E-002  0.24739664386820942        0.0000000000000000     
  -5.2554369600154187E-002  0.25598090558257508        0.0000000000000000     
  -5.2689214040498755E-002  0.26462003904307579        0.0000000000000000     
  -2.5689201011567731E-002  0.26391884803393351        0.0000000000000000     
  -2.5756753841569720E-002  0.27232032028533099        0.0000000000000000     
  -2.5832114017525044E-002  0.28061395396487010        0.0000000000000000     
  -2.5915281539433684E-002  0.28879974907255085        0.0000000000000000     
  -2.6006256407295657E-002  0.29687770560837334        0.0000000000000000     
  -3.2256465381972819E-002  0.26406284660784529        0.0000000000000000     
  -3.2340960848362063E-002  0.27251006915215237        0.0000000000000000     
  -3.2433974788648491E-002  0.28086267112121860        0.0000000000000000     
  -3.2535507202832097E-002  0.28912065251504399        0.0000000000000000     
  -3.2645558090912893E-002  0.29728401333362842        0.0000000000000000     
  -3.8945555676929693E-002  0.26422771130067285        0.0000000000000000     
  -3.9044648734305749E-002  0.27273073852551755        0.0000000000000000     
  -3.9154065586965936E-002  0.28115426774104857        0.0000000000000000     
  -3.9273806234910245E-002  0.28949829894726598        0.0000000000000000     
  -3.9403870678138678E-002  0.29776283214416982        0.0000000000000000     
  -4.5756471896438340E-002  0.26441344211241635        0.0000000000000000     
  -4.5867817499400762E-002  0.27298232840542647        0.0000000000000000     
  -4.5992386412477347E-002  0.28148874382436007        0.0000000000000000     
  -4.6130178635668102E-002  0.28993268836921715        0.0000000000000000     
  -4.6281194168973021E-002  0.29831416203999761        0.0000000000000000     
  -5.2689214040498755E-002  0.26462003904307579        0.0000000000000000     
  -5.2810467143647129E-002  0.27326483879187918        0.0000000000000000     
  -5.2948937265182766E-002  0.28186609937115298        0.0000000000000000     
  -5.3104624405105702E-002  0.29042382078089723        0.0000000000000000     
  -5.3277528563415902E-002  0.29893800302111184        0.0000000000000000     
  -2.8966845476826326E-002   5.7172098025499093E-002   0.0000000000000000     
  -3.0512408880986875E-002   6.2730241743133297E-002   0.0000000000000000     
  -3.2008130762433779E-002   6.8469618191165052E-002   0.0000000000000000     
  -3.3454011121167020E-002   7.4390227369594331E-002   0.0000000000000000     
  -3.4850049957186630E-002   8.0492069278421119E-002   0.0000000000000000     
  -3.2949422628947338E-002   5.7666955698201711E-002   0.0000000000000000     
  -3.4689032199857930E-002   6.3212683253595650E-002   0.0000000000000000     
  -3.6371901475611840E-002   6.8938361609626617E-002   0.0000000000000000     
  -3.7998030456209052E-002   7.4843990766294596E-002   0.0000000000000000     
  -3.9567419141649574E-002   8.0929570723599603E-002   0.0000000000000000     
  -3.7078555635671681E-002   5.8222868756558882E-002   0.0000000000000000     
  -3.9010088052762598E-002   6.3752390911787832E-002   0.0000000000000000     
  -4.0878590581998088E-002   6.9461360551035203E-002   0.0000000000000000     
  -4.2684063223378185E-002   7.5349777674300955E-002   0.0000000000000000     
  -4.4426505976902869E-002   8.1417642281585101E-002   0.0000000000000000     
  -4.1354244496999329E-002   5.8839837200570594E-002   0.0000000000000000     
  -4.3475576439700847E-002   6.4349364717709884E-002   0.0000000000000000     
  -4.5528198081592544E-002   7.0038615015390826E-002   0.0000000000000000     
  -4.7512109422674434E-002   7.5907588093613407E-002   0.0000000000000000     
  -4.9427310462946510E-002   8.1956283952377654E-002   0.0000000000000000     
  -4.5776489212930309E-002   5.9517861030236867E-002   0.0000000000000000     
  -4.8085497360672691E-002   6.5003604671361778E-002   0.0000000000000000     
  -5.0320723974395180E-002   7.0670125002693485E-002   0.0000000000000000     
  -5.2482169054097784E-002   7.6517422024231965E-002   0.0000000000000000     
  -5.4569832599780509E-002   8.2545495735977234E-002   0.0000000000000000     
  -3.4850049957186630E-002   8.0492069278421119E-002   0.0000000000000000     
  -3.6196127552757640E-002   8.6763734374087714E-002   0.0000000000000000     
  -3.7492124190145110E-002   9.3193813113036358E-002   0.0000000000000000     
  -3.8738039869349039E-002   9.9782305495267051E-002   0.0000000000000000     
  -3.9933874590369442E-002  0.10652921152077982        0.0000000000000000     
  -3.9567419141649574E-002   8.0929570723599603E-002   0.0000000000000000     
  -4.1080557632515412E-002   8.7184383492029421E-002   0.0000000000000000     
  -4.2537936029388573E-002   9.3597711082071836E-002   0.0000000000000000     
  -4.3939554332269058E-002  0.10016955349372685        0.0000000000000000     
  -4.5285412541156866E-002  0.10689991072699448        0.0000000000000000     
  -4.4426505976902869E-002   8.1417642281585101E-002   0.0000000000000000     
  -4.6106689078117540E-002   8.7654437741933336E-002   0.0000000000000000     
  -4.7725382762567603E-002   9.4049647424391342E-002   0.0000000000000000     
  -4.9282587030253067E-002  0.10060327132895909        0.0000000000000000     
  -5.0778301881173910E-002  0.10731530945563661        0.0000000000000000     
  -4.9427310462946510E-002   8.1956283952377654E-002   0.0000000000000000     
  -5.1274521889564030E-002   8.8173897123799486E-002   0.0000000000000000     
  -5.3054464389682206E-002   9.4549622139994863E-002   0.0000000000000000     
  -5.4767137963301064E-002  0.10108345900096377        0.0000000000000000     
  -5.6412542610420585E-002  0.10777540770670621        0.0000000000000000     
  -5.4569832599780509E-002   8.2545495735977234E-002   0.0000000000000000     
  -5.6584056066854869E-002   8.8742761637627871E-002   0.0000000000000000     
  -5.8525180910732388E-002   9.5097635228882427E-002   0.0000000000000000     
  -6.0393207131413065E-002  0.10161011650974092        0.0000000000000000     
  -6.2188134728896907E-002  0.10828020548020330        0.0000000000000000     
  -3.9933874590369442E-002  0.10652921152077982        0.0000000000000000     
  -4.1079285558063089E-002  0.11342239411973809        0.0000000000000000     
  -4.2173929977286799E-002  0.12044971622230530        0.0000000000000000     
  -4.3217807848040558E-002  0.12761117782848147        0.0000000000000000     
  -4.4210919170324367E-002  0.13490677893826658        0.0000000000000000     
  -4.5285412541156866E-002  0.10689991072699448        0.0000000000000000     
  -4.6575120840578112E-002  0.11377636489818510        0.0000000000000000     
  -4.7808289415058942E-002  0.12078649812360914        0.0000000000000000     
  -4.8984918264599331E-002  0.12793031040326661        0.0000000000000000     
  -5.0105007389199305E-002  0.13520780173715743        0.0000000000000000     
  -5.0778301881173910E-002  0.10731530945563661        0.0000000000000000     
  -5.2212178452209948E-002  0.11417326527596805        0.0000000000000000     
  -5.3583867880240985E-002  0.12116464226149765        0.0000000000000000     
  -5.4893370165267012E-002  0.12828944041222531        0.0000000000000000     
  -5.6140685307288024E-002  0.13554765972815117        0.0000000000000000     
  -5.6412542610420585E-002  0.10777540770670621        0.0000000000000000     
  -5.7990458392958605E-002  0.11461309525308697        0.0000000000000000     
  -5.9500665372832932E-002  0.12158414863597082        0.0000000000000000     
  -6.0943163550043568E-002  0.12868856785535776        0.0000000000000000     
  -6.2317952924590511E-002  0.13592635291124777        0.0000000000000000     
  -6.2188134728896907E-002  0.10828020548020330        0.0000000000000000     
  -6.3909960662824089E-002  0.11509585482954182        0.0000000000000000     
  -6.5558681892834786E-002  0.12204501724702865        0.0000000000000000     
  -6.7134298418929025E-002  0.12912769273266381        0.0000000000000000     
  -6.8636810241106794E-002  0.13634388128644731        0.0000000000000000     
  -4.4210919170324367E-002  0.13490677893826658        0.0000000000000000     
  -4.5152179402510956E-002  0.14232491748309384        0.0000000000000000     
  -4.6040504002973034E-002  0.14985399139439642        0.0000000000000000     
  -4.6875892971710596E-002  0.15749400067217442        0.0000000000000000     
  -4.7658346308723648E-002  0.16524494531642778        0.0000000000000000     
  -5.0105007389199305E-002  0.13520780173715743        0.0000000000000000     
  -5.1167564990626725E-002  0.14260749145433144        0.0000000000000000     
  -5.2171599270649481E-002  0.15011789888383834        0.0000000000000000     
  -5.3117110229267538E-002  0.15773902402567816        0.0000000000000000     
  -5.4004097866480930E-002  0.16547086687985088        0.0000000000000000     
  -5.6140685307288024E-002  0.13554765972815117        0.0000000000000000     
  -5.7325042368237412E-002  0.14292776981833749        0.0000000000000000     
  -5.8445670410048563E-002  0.15041824029184667        0.0000000000000000     
  -5.9502569432721454E-002  0.15801907114867875        0.0000000000000000     
  -6.0495739436256107E-002  0.16573026238883368        0.0000000000000000     
  -6.2317952924590511E-002  0.13592635291124777        0.0000000000000000     
  -6.3624611535343004E-002  0.14328575257511203        0.0000000000000000     
  -6.4862717421170293E-002  0.15075501561842147        0.0000000000000000     
  -6.6032270582072353E-002  0.15833414204117621        0.0000000000000000     
  -6.7133271018049195E-002  0.16602313184337619        0.0000000000000000     
  -6.8636810241106794E-002  0.13634388128644731        0.0000000000000000     
  -7.0066272491943513E-002  0.14368143972465497        0.0000000000000000     
  -7.1422740304014659E-002  0.15112822486356270        0.0000000000000000     
  -7.2706213677320219E-002  0.15868423670317053        0.0000000000000000     
  -7.3916692611860194E-002  0.16634947524347840        0.0000000000000000     
  -4.7658346308723648E-002  0.16524494531642778        0.0000000000000000     
  -4.8386478453520301E-002  0.17309558113449547        0.0000000000000000     
  -4.9058903845608647E-002  0.18103466393371642        0.0000000000000000     
  -4.9675622484988698E-002  0.18906219371409072        0.0000000000000000     
  -5.0236634371660441E-002  0.19717817047561834        0.0000000000000000     
  -5.4004097866480930E-002  0.16547086687985088        0.0000000000000000     
  -5.4831366613635565E-002  0.17330222210804916        0.0000000000000000     
  -5.5597720902077367E-002  0.18122188437196576        0.0000000000000000     
  -5.6303160731806343E-002  0.18922985367160061        0.0000000000000000     
  -5.6947686102822484E-002  0.19732613000695376        0.0000000000000000     
  -6.0495739436256107E-002  0.16573026238883368        0.0000000000000000     
  -6.1424174176454766E-002  0.17354086537083380        0.0000000000000000     
  -6.2286867409119651E-002  0.18143993145320142        0.0000000000000000     
  -6.3083819134250776E-002  0.18942746063593660        0.0000000000000000     
  -6.3815029351848143E-002  0.19750345291903926        0.0000000000000000     
  -6.7133271018049195E-002  0.16602313184337619        0.0000000000000000     
  -6.8164901141977902E-002  0.17381151092284930        0.0000000000000000     
  -6.9126343366735496E-002  0.18168880517742345        0.0000000000000000     
  -7.0017597692321992E-002  0.18965501460709855        0.0000000000000000     
  -7.0838664118737418E-002  0.19771013921187475        0.0000000000000000     
  -7.3916692611860194E-002  0.16634947524347840        0.0000000000000000     
  -7.5053547510204960E-002  0.17411415876409569        0.0000000000000000     
  -7.6116148774924897E-002  0.18196850554463176        0.0000000000000000     
  -7.7104496406020018E-002  0.18991251558508662        0.0000000000000000     
  -7.8018590403490309E-002  0.19794618888546023        0.0000000000000000     
  -5.0236634371660441E-002  0.19717817047561834        0.0000000000000000     
  -5.0739428488822513E-002  0.20537423098983806        0.0000000000000000     
  -5.1181493819673539E-002  0.21364201202828878        0.0000000000000000     
  -5.1562830364213531E-002  0.22198151359097046        0.0000000000000000     
  -5.1883438122442463E-002  0.23039273567788313        0.0000000000000000     
  -5.6947686102822484E-002  0.19732613000695376        0.0000000000000000     
  -5.7528006119510325E-002  0.20550391715037705        0.0000000000000000     
  -5.8040829886254405E-002  0.21375641887422223        0.0000000000000000     
  -5.8486157403054718E-002  0.22208363517848939        0.0000000000000000     
  -5.8863988669911271E-002  0.23048556606317849        0.0000000000000000     
  -6.3815029351848143E-002  0.19750345291903926        0.0000000000000000     
  -6.4477441540972499E-002  0.20566183322873596        0.0000000000000000     
  -6.5067999180684649E-002  0.21389652649125321        0.0000000000000000     
  -6.5586702270984593E-002  0.22220753270659102        0.0000000000000000     
  -6.6033550811872274E-002  0.23059485187474940        0.0000000000000000     
  -7.0838664118737418E-002  0.19771013921187475        0.0000000000000000     
  -7.1587734753209079E-002  0.20584797922491480        0.0000000000000000     
  -7.2263001702964305E-002  0.21406233487938170        0.0000000000000000     
  -7.2864464968003098E-002  0.22235320617527538        0.0000000000000000     
  -7.3392124548325513E-002  0.23072059311259585        0.0000000000000000     
  -7.8018590403490309E-002  0.19794618888546023        0.0000000000000000     
  -7.8858885756220007E-002  0.20606235513891355        0.0000000000000000     
  -7.9625837453093332E-002  0.21425384403860762        0.0000000000000000     
  -8.0319445494110311E-002  0.22252065558454237        0.0000000000000000     
  -8.0939709879270932E-002  0.23086278977671784        0.0000000000000000     
  -5.1883438122442463E-002  0.23039273567788313        0.0000000000000000     
  -5.2151481641126041E-002  0.23886725389997879        0.0000000000000000     
  -5.2375125467029951E-002  0.24739664386820942        0.0000000000000000     
  -5.2554369600154187E-002  0.25598090558257508        0.0000000000000000     
  -5.2689214040498755E-002  0.26462003904307579        0.0000000000000000     
  -5.8863988669911271E-002  0.23048556606317849        0.0000000000000000     
  -5.9180475619157034E-002  0.23896132135016762        0.0000000000000000     
  -5.9441770183124999E-002  0.24751001086133484        0.0000000000000000     
  -5.9647872361815180E-002  0.25613163459668026        0.0000000000000000     
  -5.9798782155227569E-002  0.26482619255620377        0.0000000000000000     
  -6.6033550811872274E-002  0.23059485187474940        0.0000000000000000     
  -6.6410905853687779E-002  0.23906494243571358        0.0000000000000000     
  -6.6721128446771139E-002  0.24762426282946898        0.0000000000000000     
  -6.6964218591122351E-002  0.25627281305601546        0.0000000000000000     
  -6.7140176286741390E-002  0.26501059311535308        0.0000000000000000     
  -7.3392124548325513E-002  0.23072059311259585        0.0000000000000000     
  -7.3842772344718324E-002  0.23917811715661674        0.0000000000000000     
  -7.4213200257968362E-002  0.24773939977261167        0.0000000000000000     
  -7.4503408288075695E-002  0.25640444096058068        0.0000000000000000     
  -7.4713396435040241E-002  0.26517324072052367        0.0000000000000000     
  -8.0939709879270932E-002  0.23086278977671784        0.0000000000000000     
  -8.1476075092248579E-002  0.23930084551287706        0.0000000000000000     
  -8.1917985616716663E-002  0.24785542169076308        0.0000000000000000     
  -8.2265441452675170E-002  0.25652651831037593        0.0000000000000000     
  -8.2518442600124087E-002  0.26531413537171561        0.0000000000000000     
  -5.2689214040498755E-002  0.26462003904307579        0.0000000000000000     
  -5.2810467143647129E-002  0.27326483879187918        0.0000000000000000     
  -5.2948937265182766E-002  0.28186609937115298        0.0000000000000000     
  -5.3104624405105702E-002  0.29042382078089723        0.0000000000000000     
  -5.3277528563415902E-002  0.29893800302111184        0.0000000000000000     
  -5.9798782155227569E-002  0.26482619255620377        0.0000000000000000     
  -5.9931353260648523E-002  0.27354955718912921        0.0000000000000000     
  -6.0082439375364408E-002  0.28225760094468039        0.0000000000000000     
  -6.0252040499375228E-002  0.29095032382285724        0.0000000000000000     
  -6.0440156632680958E-002  0.29962772582365993        0.0000000000000000     
  -6.7140176286741390E-002  0.26501059311535308        0.0000000000000000     
  -6.7289231444008654E-002  0.27380777110143023        0.0000000000000000     
  -6.7451613973304486E-002  0.28263451510819532        0.0000000000000000     
  -6.7627323874628859E-002  0.29149082513564828        0.0000000000000000     
  -6.7816361147981813E-002  0.30037670118378929        0.0000000000000000     
  -7.4713396435040241E-002  0.26517324072052367        0.0000000000000000     
  -7.4884101693727501E-002  0.27403948052878219        0.0000000000000000     
  -7.5056461059002974E-002  0.28299684186169766        0.0000000000000000     
  -7.5230474530866620E-002  0.29204532471927036        0.0000000000000000     
  -7.5406142109318453E-002  0.30118492910149991        0.0000000000000000     
  -8.2518442600124087E-002  0.26531413537171561        0.0000000000000000     
  -8.2715964009805118E-002  0.27424468547118513        0.0000000000000000     
  -8.2896980632459913E-002  0.28334458120518780        0.0000000000000000     
  -8.3061492468088513E-002  0.29261382257372331        0.0000000000000000     
  -8.3209499516690877E-002  0.30205240957679186        0.0000000000000000     
  -4.5776489212930309E-002   5.9517861030236867E-002   0.0000000000000000     
  -4.8085497360672691E-002   6.5003604671361778E-002   0.0000000000000000     
  -5.0320723974395180E-002   7.0670125002693485E-002   0.0000000000000000     
  -5.2482169054097784E-002   7.6517422024231965E-002   0.0000000000000000     
  -5.4569832599780509E-002   8.2545495735977234E-002   0.0000000000000000     
  -5.0369266106781739E-002   6.0253502877018895E-002   0.0000000000000000     
  -5.2864985223527533E-002   6.5714011419313156E-002   0.0000000000000000     
  -5.5282097573636786E-002   7.1356222824029703E-002   0.0000000000000000     
  -5.7620603157109491E-002   7.7180137091168596E-002   0.0000000000000000     
  -5.9880501973945642E-002   8.3185754220729796E-002   0.0000000000000000     
  -5.5156551501870731E-002   6.1043325372377895E-002   0.0000000000000000     
  -5.7839174436114783E-002   6.6479485608133604E-002   0.0000000000000000     
  -6.0438248192548130E-002   7.2097240790486058E-002   0.0000000000000000     
  -6.2953772771170785E-002   7.7896590919435280E-002   0.0000000000000000     
  -6.5385748171982727E-002   8.3877535994981239E-002   0.0000000000000000     
  -6.0138345398197290E-002   6.1887328516313844E-002   0.0000000000000000     
  -6.3008064998434421E-002   6.7300027237823121E-002   0.0000000000000000     
  -6.5789175831129212E-002   7.2893178902062511E-002   0.0000000000000000     
  -6.8481677896281651E-002   7.8666783509032015E-002   0.0000000000000000     
  -7.1085571193891736E-002   8.4620841058731619E-002   0.0000000000000000     
  -6.5314647795761419E-002   6.2785512308826771E-002   0.0000000000000000     
  -6.8371656910486481E-002   6.8175636308381748E-002   0.0000000000000000     
  -7.1334880489380040E-002   7.3744037158759088E-002   0.0000000000000000     
  -7.4204318532442110E-002   7.9490714859958803E-002   0.0000000000000000     
  -7.6979971039672690E-002   8.5415669411980880E-002   0.0000000000000000     
  -5.4569832599780509E-002   8.2545495735977234E-002   0.0000000000000000     
  -5.6584056066854869E-002   8.8742761637627871E-002   0.0000000000000000     
  -5.8525180910732388E-002   9.5097635228882427E-002   0.0000000000000000     
  -6.0393207131413065E-002  0.10161011650974092        0.0000000000000000     
  -6.2188134728896907E-002  0.10828020548020330        0.0000000000000000     
  -5.9880501973945642E-002   8.3185754220729796E-002   0.0000000000000000     
  -6.2061617876778274E-002   8.9360825142748387E-002   0.0000000000000000     
  -6.4163774718240349E-002   9.5693100787259427E-002   0.0000000000000000     
  -6.6186972498331914E-002  0.10218258115426293        0.0000000000000000     
  -6.8131211217052928E-002  0.10882926624375888        0.0000000000000000     
  -6.5385748171982727E-002   8.3877535994981239E-002   0.0000000000000000     
  -6.7733533586122413E-002   9.0027881498490947E-002   0.0000000000000000     
  -6.9996488204728327E-002   9.6335432911331287E-002   0.0000000000000000     
  -7.2174612027800428E-002  0.10280019023350227        0.0000000000000000     
  -7.4267905055338729E-002  0.10942215346500395        0.0000000000000000     
  -7.1085571193891736E-002   8.4620841058731619E-002   0.0000000000000000     
  -7.3599803194887334E-002   9.0743930704855535E-002   0.0000000000000000     
  -7.6023321370196295E-002   9.7024631601098005E-002   0.0000000000000000     
  -7.8356125719818606E-002  0.10346294374745899        0.0000000000000000     
  -8.0598216243754323E-002  0.11005886714393852        0.0000000000000000     
  -7.6979971039672690E-002   8.5415669411980880E-002   0.0000000000000000     
  -7.9660426703072995E-002   9.1508972761842194E-002   0.0000000000000000     
  -8.2244274214644281E-002   9.7760696856559567E-002   0.0000000000000000     
  -8.4731513574386505E-002  0.10417084169613304        0.0000000000000000     
  -8.7122144782299696E-002  0.11073940728056259        0.0000000000000000     
  -6.2188134728896907E-002  0.10828020548020330        0.0000000000000000     
  -6.3909960662824089E-002  0.11509585482954182        0.0000000000000000     
  -6.5558681892834786E-002  0.12204501724702865        0.0000000000000000     
  -6.7134298418929025E-002  0.12912769273266381        0.0000000000000000     
  -6.8636810241106794E-002  0.13634388128644731        0.0000000000000000     
  -6.8131211217052928E-002  0.10882926624375888        0.0000000000000000     
  -6.9996718262251095E-002  0.11562139468191460        0.0000000000000000     
  -7.1783721021774105E-002  0.12254720509489749        0.0000000000000000     
  -7.3492219495621972E-002  0.12960669748270745        0.0000000000000000     
  -7.5122213683794667E-002  0.13679987184534453        0.0000000000000000     
  -7.4267905055338729E-002  0.10942215346500395        0.0000000000000000     
  -7.6276764191684360E-002  0.11618956548678736        0.0000000000000000     
  -7.8201586341178450E-002  0.12309066917980356        0.0000000000000000     
  -8.0042371503821000E-002  0.13012546454405258        0.0000000000000000     
  -8.1799119679612023E-002  0.13729395157953439        0.0000000000000000     
  -8.0598216243754323E-002  0.11005886714393852        0.0000000000000000     
  -8.2750098451123896E-002  0.11680036724416000        0.0000000000000000     
  -8.4812277851047835E-002  0.12367540950174689        0.0000000000000000     
  -8.6784754443526152E-002  0.13068399391669921        0.0000000000000000     
  -8.8667528228558848E-002  0.13782612048901693        0.0000000000000000     
  -8.7122144782299696E-002  0.11073940728056259        0.0000000000000000     
  -8.9416721040569663E-002  0.11745379995403260        0.0000000000000000     
  -9.1615795551382218E-002  0.12430142606072753        0.0000000000000000     
  -9.3719368314737386E-002  0.13128228560064734        0.0000000000000000     
  -9.5727439330635128E-002  0.13839637857379203        0.0000000000000000     
  -6.8636810241106794E-002  0.13634388128644731        0.0000000000000000     
  -7.0066272491943513E-002  0.14368143972465497        0.0000000000000000     
  -7.1422740304014659E-002  0.15112822486356270        0.0000000000000000     
  -7.2706213677320219E-002  0.15868423670317053        0.0000000000000000     
  -7.3916692611860194E-002  0.16634947524347840        0.0000000000000000     
  -7.5122213683794667E-002  0.13679987184534453        0.0000000000000000     
  -7.6674233597049737E-002  0.14411425253076859        0.0000000000000000     
  -7.8148809246144715E-002  0.15153736388693939        0.0000000000000000     
  -7.9545940631079573E-002  0.15906920591385698        0.0000000000000000     
  -8.0865627751854352E-002  0.16670977861152131        0.0000000000000000     
  -8.1799119679612023E-002  0.13729395157953439        0.0000000000000000     
  -8.3472703209672511E-002  0.14458361225725508        0.0000000000000000     
  -8.5063994435123497E-002  0.15198192854822054        0.0000000000000000     
  -8.6572993355964981E-002  0.15948890045243083        0.0000000000000000     
  -8.7999699972196935E-002  0.16710452796988598        0.0000000000000000     
  -8.8667528228558848E-002  0.13782612048901693        0.0000000000000000     
  -9.0461681329811833E-002  0.14508951890411440        0.0000000000000000     
  -9.2168295870951003E-002  0.15246191884740617        0.0000000000000000     
  -9.3787371851976387E-002  0.15994332031889216        0.0000000000000000     
  -9.5318909272887969E-002  0.16753372331857236        0.0000000000000000     
  -9.5727439330635128E-002  0.13839637857379203        0.0000000000000000     
  -9.7641167957467676E-002  0.14563197247134668        0.0000000000000000     
  -9.9461713553627235E-002  0.15297733478449627        0.0000000000000000     
 -0.10118907611911382       0.16043246551324086        0.0000000000000000     
 -0.10282325565392740       0.16799736465758044        0.0000000000000000     
  -7.3916692611860194E-002  0.16634947524347840        0.0000000000000000     
  -7.5053547510204960E-002  0.17411415876409569        0.0000000000000000     
  -7.6116148774924897E-002  0.18196850554463176        0.0000000000000000     
  -7.7104496406020018E-002  0.18991251558508662        0.0000000000000000     
  -7.8018590403490309E-002  0.19794618888546023        0.0000000000000000     
  -8.0865627751854352E-002  0.16670977861152131        0.0000000000000000     
  -8.2107669046065035E-002  0.17444989035539768        0.0000000000000000     
  -8.3271862951307590E-002  0.18228034952095135        0.0000000000000000     
  -8.4358209467582060E-002  0.19020115610818225        0.0000000000000000     
  -8.5366708594888416E-002  0.19821231011709042        0.0000000000000000     
  -8.7999699972196935E-002  0.16710452796988598        0.0000000000000000     
  -8.9344821514487138E-002  0.17481978715758001        0.0000000000000000     
  -9.0609065213503259E-002  0.18262565407250700        0.0000000000000000     
  -9.1792431069245312E-002  0.19052212871466701        0.0000000000000000     
  -9.2894919081713295E-002  0.19850921108405997        0.0000000000000000     
  -9.5318909272887969E-002  0.16753372331857236        0.0000000000000000     
  -9.6765004915471284E-002  0.17522384917064263        0.0000000000000000     
  -9.8127755561511903E-002  0.18300441919929880        0.0000000000000000     
  -9.9407161211009787E-002  0.19087543340454091        0.0000000000000000     
 -0.10060322186396500       0.19883689178636893        0.0000000000000000     
 -0.10282325565392740       0.16799736465758044        0.0000000000000000     
 -0.10436821924901749       0.17566207639458556        0.0000000000000000     
 -0.10582793399533352       0.18341664490132670        0.0000000000000000     
 -0.10720239989287553       0.19126107017780397        0.0000000000000000     
 -0.10849161694164350       0.19919535222401727        0.0000000000000000     
  -7.8018590403490309E-002  0.19794618888546023        0.0000000000000000     
  -7.8858885756220007E-002  0.20606235513891355        0.0000000000000000     
  -7.9625837453093332E-002  0.21425384403860762        0.0000000000000000     
  -8.0319445494110311E-002  0.22252065558454237        0.0000000000000000     
  -8.0939709879270932E-002  0.23086278977671784        0.0000000000000000     
  -8.5366708594888416E-002  0.19821231011709042        0.0000000000000000     
  -8.6300164576198157E-002  0.20630578255111387        0.0000000000000000     
  -8.7161381654482839E-002  0.21447354441369076        0.0000000000000000     
  -8.7950359829742461E-002  0.22271559570482094        0.0000000000000000     
  -8.8667099101976982E-002  0.23103193642450448        0.0000000000000000     
  -9.2894919081713295E-002  0.19850921108405997        0.0000000000000000     
  -9.3920841239336444E-002  0.20657908304189737        0.0000000000000000     
  -9.4874509530543952E-002  0.21472392644939070        0.0000000000000000     
  -9.5755923955335817E-002  0.22294374130653988        0.0000000000000000     
  -9.6565084513712068E-002  0.23123852761334496        0.0000000000000000     
 -0.10060322186396500       0.19883689178636893        0.0000000000000000     
 -0.10172091574563484       0.20688225661126408        0.0000000000000000     
 -0.10276522108127664       0.21500499014570751        0.0000000000000000     
 -0.10373613787089044       0.22320509238969918        0.0000000000000000     
 -0.10463366611447619       0.23148256334323919        0.0000000000000000     
 -0.10849161694164350       0.19919535222401727        0.0000000000000000     
 -0.10970038809509332       0.20721530325921389        0.0000000000000000     
 -0.11083351630668091       0.21531673550264108        0.0000000000000000     
 -0.11189100157640623       0.22349964895429886        0.0000000000000000     
 -0.11287284390426935       0.23176404361418720        0.0000000000000000     
  -8.0939709879270932E-002  0.23086278977671784        0.0000000000000000     
  -8.1476075092248579E-002  0.23930084551287706        0.0000000000000000     
  -8.1917985616716663E-002  0.24785542169076308        0.0000000000000000     
  -8.2265441452675170E-002  0.25652651831037593        0.0000000000000000     
  -8.2518442600124087E-002  0.26531413537171561        0.0000000000000000     
  -8.8667099101976982E-002  0.23103193642450448        0.0000000000000000     
  -8.9297297897998812E-002  0.23944808863513681        0.0000000000000000     
  -8.9826654644620252E-002  0.24798957439911318        0.0000000000000000     
  -9.0255169341841357E-002  0.25665639371643367        0.0000000000000000     
  -9.0582841989662100E-002  0.26544854658709832        0.0000000000000000     
  -9.6565084513712068E-002  0.23123852761334496        0.0000000000000000     
  -9.7292924563689112E-002  0.23963480765403825        0.0000000000000000     
  -9.7930377463283327E-002  0.24815910371285202        0.0000000000000000     
  -9.8477443212494783E-002  0.25681141578978639        0.0000000000000000     
  -9.8934121811323383E-002  0.26559174388484130        0.0000000000000000     
 -0.10463366611447619       0.23148256334323919        0.0000000000000000     
 -0.10546295508931949       0.23986100256958134        0.0000000000000000     
 -0.10622915407270590       0.24836400963197963        0.0000000000000000     
 -0.10693226306463538       0.25699158453043403        0.0000000000000000     
 -0.10757228206510797       0.26574372726494461        0.0000000000000000     
 -0.11287284390426935       0.23176404361418720        0.0000000000000000     
 -0.11380738947489000       0.24012667338176624        0.0000000000000000     
 -0.11472298447288795       0.24860429215649602        0.0000000000000000     
 -0.11561962889826323       0.25719689993837669        0.0000000000000000     
 -0.11649732275101585       0.26590449672740807        0.0000000000000000     
  -8.2518442600124087E-002  0.26531413537171561        0.0000000000000000     
  -8.2715964009805118E-002  0.27424468547118513        0.0000000000000000     
  -8.2896980632459913E-002  0.28334458120518780        0.0000000000000000     
  -8.3061492468088513E-002  0.29261382257372331        0.0000000000000000     
  -8.3209499516690877E-002  0.30205240957679186        0.0000000000000000     
  -9.0582841989662100E-002  0.26544854658709832        0.0000000000000000     
  -9.0840007389568475E-002  0.27442908061554777        0.0000000000000000     
  -9.1057000343046535E-002  0.28366104340622278        0.0000000000000000     
  -9.1233820850096237E-002  0.29314443495912351        0.0000000000000000     
  -9.1370468910717609E-002  0.30287925527424975        0.0000000000000000     
  -9.8934121811323383E-002  0.26559174388484130        0.0000000000000000     
  -9.9311420830344666E-002  0.27459836064877868        0.0000000000000000     
  -9.9620347840134044E-002  0.28392953873236076        0.0000000000000000     
  -9.9860902840691546E-002  0.29358527813558721        0.0000000000000000     
 -0.10003308583201714       0.30356557885845836        0.0000000000000000     
 -0.10757228206510797       0.26574372726494461        0.0000000000000000     
 -0.10813020433213365       0.27475252557087804        0.0000000000000000     
 -0.10858702312372248       0.28415006718360131        0.0000000000000000     
 -0.10894273843987440       0.29393635210311453        0.0000000000000000     
 -0.10919735028058945       0.30411138032941770        0.0000000000000000     
 -0.11649732275101585       0.26590449672740807        0.0000000000000000     
 -0.11729635789493545       0.27489157538184567        0.0000000000000000     
 -0.11795702619381179       0.28432262875994480        0.0000000000000000     
 -0.11847932764764484       0.29419765686170546        0.0000000000000000     
 -0.11886326225643459       0.30451665968712760        0.0000000000000000     
 </DataArray>
 <DataArray  type="Float64" Name="stress" NumberOfComponents="3" format="ascii">
   5963223867.4426775        12440860.017097235        20255207.470379986     
   5779355092.7657986       -227628.41889858246        13528496.347954448     
   5597190984.4982538       -7213895.4904263020        10667895.253445838     
   5416731542.6400356       -8517941.1975340843        11673404.186855432     
   5237976767.1911583       -4139765.5401930809        16545023.148184512     
   5596896934.3250637        6569625.2446408272        179759338.81932715     
   5424511881.7248220       -951105.37773633003        174781998.92628649     
   5253176951.8932362       -4971426.7712593079        173584237.26113993     
   5082892144.8302984       -5491338.9359564781        176166053.82388940     
   4913657460.5360146       -2510841.8717930317        182527448.61452529     
   5231100506.2805099        857541.99409937859        340300149.28841305     
   5069951942.0425606       -1589600.9289498329        336308546.37728667     
   4909198956.9325705       -2718146.7587749958        336009989.89404380     
   4748841550.9505548       -2528095.4953615665        339404479.83865744     
   4588879724.0965109       -1019447.1387145519        346492016.21114755     
   4865834583.3090239       -4695389.7345221043        501877638.87761497     
   4715675273.7189941       -2143115.0725660324        498108138.70095700     
   4565256999.6162567       -454055.45298743248        497945153.15214097     
   4414579761.0008068        371789.12422251701        501388682.23117107     
   4263643557.8726411        334418.65905451775        508438725.93804473     
   4501099165.4105959       -10089169.941222429        664491807.58695495     
   4361681876.7541399       -2611647.8085587025        660180775.89729035     
   4221351079.9442921        1820847.1461081505        659389727.03544629     
   4080106774.9810481        3208314.9228029251        662118661.00142407     
   3937948961.8644133        1550755.5215122700        668367577.79521596     
   5237976767.1911583       -4139765.5401930809        16545023.148184512     
   5053798769.2945814        225745.24610948563        10865179.521538306     
   4868980479.8435822        2456950.8509943485        9542239.7801602483     
   4683521898.8381414        2553851.2744097710        12576203.924043290     
   4497423026.2782764        516446.51641440392        19967071.953190636     
   4913657460.5360146       -2510841.8717930317        182527448.61452529     
   4740314158.4485645        246634.99434852600        176085203.01210922     
   4566586380.9374695        1722527.1150274277        173991519.66686535     
   4392474128.0027466        1916834.4902763367        176246398.57878631     
   4217977399.6443830        829557.12004446983        182849839.74789032     
   4588879724.0965109       -1019447.1387145519        346492016.21114755     
   4426347284.5950623        122845.84031033516        339585820.78554374     
   4263686185.8007751        836274.50989365578        337019845.98902833     
   4100896427.7136459        1120838.8699917793        338794091.82159573     
   3937978010.3336811        976538.92063212395        344908558.28325248     
   4263643557.8726411        334418.65905451775        508438725.93804473     
   4111898147.7340889       -145622.21595311165        501367032.84185290     
   3960279894.4334950       -201806.96443271637        498627218.74666464     
   3808788797.9708548        165864.41361284256        500219283.65246916     
   3657424858.3461766        957391.91818237305        506143227.55927408     
   3937948961.8644133        1550755.5215122700        668367577.79521596     
   3796966747.8656487       -558769.17445349693        661428839.18104005     
   3656367506.8356361       -1391717.3079111576        658813637.93976510     
   3516151238.7743764       -948088.87885856628        660521974.07140481     
   3376317943.6818662        772116.11268758774        666553847.57595003     
   4497423026.2782764        516446.51641440392        19967071.953190636     
   4313461299.1849489       -1478127.3464286327        13102254.049835747     
   4129745371.7263923       -2653369.0933525562        10568882.073184695     
   3946275243.9026251       -3009278.7243146896        12366956.023254130     
   3763050915.7136555       -2545856.2392940521        18496475.900040213     
   4217977399.6443830        829557.12004446983        182849839.74789032     
   4045494083.3088694       -16863.450707912445        175970034.03274891     
   3873155791.7547607       -379868.08344078064        173323370.67566070     
   3700962524.9820566       -259456.77816128731        174909849.67661414     
   3528914282.9907651        344370.46515941620        180729471.03561306     
   3937978010.3336811        976538.92063212395        344908558.28325248     
   3776692237.4169230        1194011.4402730465        337896194.09406811     
   3615450714.4281921        1558983.7199954987        335018668.69424909     
   3454253441.3674808        2071455.7597894669        336275982.08379948     
   3293100418.2348113        2731427.5597171783        341668134.26273161     
   3657424858.3461766        957391.91818237305        506143227.55927408     
   3507055761.5091023        2154497.3264782429        498880734.23376185     
   3356630139.7466822        3163186.3169400692        495654776.12894529     
   3206147993.0589018        3983458.8895459175        496465353.24482983     
   3055609321.4457774        4615315.0443255901        501312465.58141065     
   3376317943.6818662        772116.11268758774        666553847.57595003     
   3236584655.5854158        2864594.2079319954        658923654.45183861     
   3096694067.7102313        4432739.7074030638        655231692.97975338     
   2956646180.0563121        5476552.6110795736        655477963.15969038     
   2816440992.6236696        5996032.9190255404        659662464.99165046     
   3763050915.7136555       -2545856.2392940521        18496475.900040213     
   3584532402.3301654       -1236171.8793995380        11621334.700272746     
   3405395243.6634769       -1988638.4635202885        9061451.1220486425     
   3225639439.7135839       -4803255.9916458130        10816825.165367903     
   3045264990.4804983       -9680024.4637457132        16887456.830220278     
   3528914282.9907651        344370.46515941620        180729471.03561306     
   3361328785.5993462        1972830.2101078033        172553948.52845243     
   3193391104.6056519        2427344.6141383648        168399617.15094215     
   3025101240.0096788        1707913.6772451401        168266476.90307710     
   2856459191.8114252       -185462.60059273243        172154527.78486753     
   3293100418.2348113        2731427.5597171783        341668134.26273161     
   3135607746.8586130        4426605.6966772079        332503102.40925628     
   2978029353.5610557        5836044.0957716703        327065195.19354570     
   2820365238.3421507        6959742.7570359707        325354412.61557370     
   2662615401.2018843        7797701.6804398298        327370754.67535460     
   3055609321.4457774        4615315.0443255901        501312465.58141065     
   2907369286.1079531        6125154.5802438259        491468796.34270531     
   2759309990.5296907        8237459.9813845158        485058185.24985588     
   2611431434.7109971        10952231.247745633        482080632.30285460     
   2463733618.6518760        14269468.379335523        482536137.50170451     
   2816440992.6236696        5996032.9190255404        659662464.99165046     
   2676613403.3473654        7068476.8608421087        649451030.32878006     
   2537233015.5115519        9631592.2709718943        642378587.31987202     
   2398299829.1162252        13685379.149380088        638445135.96492124     
   2259813844.1613779        19229837.496064544        637650676.26392245     
   3045264990.4804983       -9680024.4637457132        16887456.830220278     
   2881574446.5420666       -9722538.4706803560        11010699.436877834     
   2718389855.2780919       -8078543.5627559423        6331875.6445718268     
   2555711216.6886148       -4748039.7398456335        2850985.4533278821     
   2393538530.7735915        268972.99791908264        568028.86315112142     
   2856459191.8114252       -185462.60059273243        172154527.78486753     
   2696607842.8082018        384685.34896028042        165156238.65109852     
   2536994159.4746184        1747052.1973088980        159771859.26109219     
   2377618141.8106976        3901637.9445412159        156001389.61484280     
   2218479789.8164291        6848442.5906132460        153844829.71235478     
   2662615401.2018843        7797701.6804398298        327370754.67535460     
   2507791750.3987284        9337062.5659284592        318937932.29556161     
   2352937478.2604008        10774352.334190607        312534995.80222291     
   2198052584.7869043        12109570.985218525        308161945.19534600     
   2043137069.9782426        13342718.519033432        305818780.47492915     
   2463733618.6518760        14269468.379335523        482536137.50170451     
   2315126169.3136311        17134593.180197716        472355780.37025696     
   2166219811.6354046        19003356.847778916        464621285.26797158     
   2017014545.6171978        19875759.382095098        459332652.19483346     
   1867510371.2590017        19751800.783127189        456489881.15086293     
   2259813844.1613779        19229837.496064544        637650676.26392245     
   2118611099.5529220        23777277.191800237        625409782.87519062     
   1976841159.5996614        26434065.738179684        616030727.65832710     
   1834504024.3015985        27200203.135226369        609513510.61331654     
   1691599693.6587248        26075689.382896960        605858131.74017441     
   2393538530.7735915        268972.99791908264        568028.86315112142     
   2250313268.8152442        6966261.1241872311       -6261881.8654940175     
   2103942085.9636326        3177146.2729082108       -11013574.292480126     
   1954424982.2187605       -11098371.555919170       -13687048.417811047     
   1801761957.5805941       -35860292.362370849       -14282304.241470128     
   2218479789.8164291        6848442.5906132460        153844829.71235478     
   2079437171.5012190        13059742.824888945        143465170.58961838     
   1938334321.9017200        12403605.444869161        134336862.40423805     
   1795171241.0179098        4880030.4504948854        126459905.15622789     
   1649947928.8498156       -9510982.1581817865        119834298.84558403     
   2043137069.9782426        13342718.519033432        305818780.47492915     
   1905914617.1224487        18359287.406157255        293156010.83523953     
   1767717622.5913332        20127384.042219877        280917724.76862413     
   1628546086.3849168        18647008.427265942        269103922.27507728     
   1488400008.5031745        13918160.561241984        257714603.35459441     
   1867510371.2590017        19751800.783127189        456489881.15086293     
   1729745605.6789265        22864894.867998242        442810638.87137288     
   1592091988.0325198        26348482.065089703        428729012.80065268     
   1454549518.3197756        30202562.374399304        414245002.93869799     
   1317118196.5406911        34427135.795909643        399358609.28553218     
   1691599693.6587248        26075689.382896960        605858131.74017441     
   1550930137.1706684        26576565.210415125        592429054.69801307     
   1411457418.2252483        31066899.513393939        577770726.50033224     
   1273181536.8224871        39546692.291887999        561883147.14712358     
   1136102492.9623587        52015943.545835853        544766316.63839662     
   1801761957.5805941       -35860292.362370849       -14282304.241470128     
   1771142307.4829650       -16642127.929013968       -8501202.0153481141     
   1748525988.9671755        29253808.443785429       -41534043.512908995     
   1733913002.0332065        101827516.75599170       -113380828.73414509     
   1727303346.6810768        201078997.00767374       -224041557.67906407     
   1649947928.8498156       -9510982.1581817865        119834298.84558403     
   1527484736.6099262       -13945677.637884319        135500816.31797341     
   1409144378.6107349       -4637592.3152651787        124790751.23069629     
   1294926854.8522136        18413273.809594750        87704103.583777010     
   1184832165.3343761        55206920.736723959        24240873.377175868     
   1488400008.5031745        13918160.561241984        257714603.35459441     
   1309628591.7325294       -3508799.5480353236        278739289.17523509     
   1131099511.8614218       -20127969.992190838        285824753.60024619     
   952812768.88985419       -35939350.771212101        278970996.62960815     
   774768362.81782210       -50942941.885108650        258178018.26335144     
   1317118196.5406911        34427135.795909643        399358609.28553218     
   1117573872.8507719        14668506.340478718        421214216.55642927     
   914391388.71924424       -17217324.586975873        441567963.59571898     
   707570744.14611459       -61230356.986446261        460419850.40338749     
   497111939.13136727       -117370590.85796139        477769876.97943926     
   1136102492.9623587        52015943.545835853        544766316.63839662     
   951320579.96465933        40586240.027706265        562925598.46155083     
   759020009.18420768        4094343.9003964067        592020381.21711075     
   559200780.62100255       -57459744.836088449        632050664.90508997     
   351862894.27503860       -144076026.18176967        683016449.52546847     
   1727303346.6810768        201078997.00767374       -224041557.67906407     
   1456676665.9107416        184537869.40095216       -96570518.428811088     
   1153923027.0314333        60906881.430954218        60091404.249749638     
   819042430.04313743       -169813966.90232551        245944210.35663474     
   452034874.94583899       -507624675.59893560        460987899.89181989     
   1184832165.3343761        55206920.736723959        24240873.377175868     
   977698432.03241086        11823385.865660250        155594899.96442428     
   732772324.71196127       -157534729.06699476        312793173.62154114     
   450053843.37304628       -452867424.06120723        495835694.34857267     
   129542988.01566732       -874174699.11702168        704722462.14548290     
   774768362.81782210       -50942941.885108650        258178018.26335144     
   621565758.81728852       -124037429.47065586        386805380.29317290     
   424905364.88880432       -341991216.81604761        537930353.03446782     
   184787181.03236669       -704804303.92125845        711552936.48723197     
  -98788792.752025545       -1212476690.7863374        907673130.65149331     
   497111939.13136727       -117370590.85796139        477769876.97943926     
   388278646.26536918       -223044576.60804442        597060922.55745852     
   230322147.56193385       -492462581.81624186        735502942.48853040     
   23242443.021074295       -925624606.48252356        893095936.77265728     
  -232960467.35721865       -1522530650.6069167        1069839905.4098653     
   351862894.27503860       -144076026.18176967        683016449.52546847     
   277837094.37666172       -285198055.54647607        786361526.75727665     
   149022672.73138848       -608948824.06752038        905510941.98373926     
  -34580370.660803437       -1115328331.7449465        1040464695.2048378     
  -272972035.79990685       -1804336578.5787442        1191222786.4205768     
   4501099165.4105959       -10089169.941222429        664491807.58695495     
   4361681876.7541399       -2611647.8085587025        660180775.89729035     
   4221351079.9442921        1820847.1461081505        659389727.03544629     
   4080106774.9810481        3208314.9228029251        662118661.00142407     
   3937948961.8644133        1550755.5215122700        668367577.79521596     
   4138419169.7528210       -1666828.9525110722        790670282.26442313     
   4007303163.4584918        1025741.4517767429        784012988.46013868     
   3875766485.4226685        2316072.7177450657        781325533.27466929     
   3743809135.6453481        2204164.8453948498        782607916.70802557     
   3611431114.1265283        690017.83471512794        787860138.76020384     
   3770616550.0814152        5218724.8321113586        913763062.71303296     
   3649087128.4092207        3511934.1860322952        905334482.60799479     
   3527629871.4074192        2045692.4412875175        901325596.91279125     
   3406244779.0760264        819999.59789204597        901736405.62740743     
   3284931851.4150324       -165144.34416723251        906566908.75184906     
   3397691306.3963699        10567491.412641764        1033770148.9327637     
   3287033771.6063089        4846930.3941950798        1024145258.3408740     
   3176941237.8985496        1009706.3167457581        1019389917.9498039     
   3067413705.2730932       -944180.81969344616        1019504127.7595643     
   2958451173.7299328       -1014731.0151313543        1024487887.7701558     
   3019643438.6976895        14379470.789081812        1150691540.9236317     
   2921143093.0497727        5030730.0762684345        1140445315.6587608     
   2823700584.8960571       -791885.65588140488        1135518496.3857167     
   2727315914.2365403       -3088376.4073611498        1135911083.1045055     
   2631989081.0712237       -1858742.1781783104        1141623075.8151209     
   3937948961.8644133        1550755.5215122700        668367577.79521596     
   3796966747.8656487       -558769.17445349693        661428839.18104005     
   3656367506.8356361       -1391717.3079111576        658813637.93976510     
   3516151238.7743764       -948088.87885856628        660521974.07140481     
   3376317943.6818662        772116.11268758774        666553847.57595003     
   3611431114.1265283        690017.83471512794        787860138.76020384     
   3482011525.0813689       -187482.62227439880        781281673.54672718     
   3352847190.2908454       -214135.56382179260        778989684.56181979     
   3223938109.7549510        610059.01007342339        780984171.80547321     
   3095284283.4736905        2285101.0994027853        787265135.27768564     
   3284931851.4150324       -165144.34416723251        906566908.75184906     
   3166968998.3396401        157612.74267339706        900199711.77260721     
   3049133680.8047609        905488.29788625240        898081929.87758112     
   2931425898.8103900        2078482.3214613199        900213563.06677699     
   2813845652.3565321        3676594.8134149313        906594611.34018993     
   2958451173.7299328       -1014731.0151313543        1024487887.7701558     
   2851839167.6404629        476516.92038500309        1018182953.8586692     
   2745226978.3773828        1967154.2772045135        1016090373.8870573     
   2638614605.9406900        3457181.0553150177        1018210147.8553202     
   2532002050.3303928        4946597.2547403574        1024542275.7634516     
   2631989081.0712237       -1858742.1781783104        1141623075.8151209     
   2536622032.9838295        769229.91085290909        1135231399.8049166     
   2441127083.0087090        2970862.3741300106        1133015016.5902414     
   2345504231.1458545        4746155.2116243839        1134973926.1710923     
   2249753477.3952727        6095108.4233614206        1141108128.5474761     
   3376317943.6818662        772116.11268758774        666553847.57595003     
   3236584655.5854158        2864594.2079319954        658923654.45183861     
   3096694067.7102313        4432739.7074030638        655231692.97975338     
   2956646180.0563121        5476552.6110795736        655477963.15969038     
   2816440992.6236696        5996032.9190255404        659662464.99165046     
   3095284283.4736905        2285101.0994027853        787265135.27768564     
   2965815451.0584803        4058663.5627508163        779430911.31203306     
   2836317532.8815289        5735273.4869467020        775627786.74882507     
   2706790528.9428182        7314930.8719578981        775855761.58806300     
   2577234439.2423644        8797635.7178258896        780114835.82975042     
   2813845652.3565321        3676594.8134149313        906594611.34018993     
   2694906612.0523486        5210842.5738133192        898705939.55280125     
   2576066700.0034041        7075517.8516567945        894941234.91828537     
   2457325916.2096858        9270620.6469409466        895300497.43663716     
   2338684260.6712108        11796150.959678173        899783727.10786343     
   2532002050.3303928        4946597.2547403574        1024542275.7634516     
   2423858138.5670247        6321131.2411266565        1016748739.1741433     
   2315941569.0758696        8453472.8015537262        1013172037.4881322     
   2208252341.8569274        11343621.936038017        1013812170.7054160     
   2100790456.9102085        14991578.644575834        1018669138.8259933     
   2249753477.3952727        6095108.4233614206        1141108128.5474761     
   2152670030.6024938        7389529.5646615028        1133559310.1760638     
   2055942140.0989149        9869138.3366181850        1130320194.4583685     
   1959569805.8845336        13533934.739234567        1131390781.3943911     
   1863553027.9593501        18383918.772513509        1136771070.9841349     
   2816440992.6236696        5996032.9190255404        659662464.99165046     
   2676613403.3473654        7068476.8608421087        649451030.32878006     
   2537233015.5115519        9631592.2709718943        642378587.31987202     
   2398299829.1162252        13685379.149380088        638445135.96492124     
   2259813844.1613779        19229837.496064544        637650676.26392245     
   2577234439.2423644        8797635.7178258896        780114835.82975042     
   2446062619.3627305        10295675.750831604        770744338.28632605     
   2315249591.3377376        12989688.632670403        764794918.75765121     
   2184795355.1673980        16879674.363326669        762266577.24372661     
   2054699910.8517025        21965632.942815423        763159313.74454272     
   2338684260.6712108        11796150.959678173        899783727.10786343     
   2216974171.2190623        13961575.393106103        891151022.16707397     
   2095534464.0357292        17028274.055907488        886221481.60182023     
   1974365139.1212077        20996246.948078036        884995105.41210079     
   1853466196.4754920        25865494.069615841        887471893.59791946     
   2100790456.9102085        14991578.644575834        1018669138.8259933     
   1989348058.9163823        18066175.787679434        1010671081.9710248     
   1878087633.6055305        21747348.540692329        1006658275.8523811     
   1767009180.9776540        26035096.903620243        1006630720.4700640     
   1656112701.0327427        30929420.876443088        1010588415.8240781     
   1863553027.9593501        18383918.772513509        1136771070.9841349     
   1763184282.4546752        22609476.934538007        1129304517.6981752     
   1662909100.0471382        27146912.087021828        1126105301.5093327     
   1562727480.7367322        31996224.229947567        1127173422.4176018     
   1462639424.5234611        37157413.363317192        1132508880.4229889     
   2259813844.1613779        19229837.496064544        637650676.26392245     
   2118611099.5529220        23777277.191800237        625409782.87519062     
   1976841159.5996614        26434065.738179684        616030727.65832710     
   1834504024.3015985        27200203.135226369        609513510.61331654     
   1691599693.6587248        26075689.382896960        605858131.74017441     
   2054699910.8517025        21965632.942815423        763159313.74454272     
   1921143909.2087877        25981515.379485846        751864615.45659673     
   1787208076.8466029        28731295.418605685        743712856.03006434     
   1652892413.7651508        30214973.060160160        738704035.46495640     
   1518196919.9644432        30432548.304191351        736838153.76125836     
   1853466196.4754920        25865494.069615841        887471893.59791946     
   1728360082.6254175        29590762.695392489        877341982.47389221     
   1603061502.6816123        32674477.675425351        870636110.90083706     
   1477570456.6440933        35116639.009730995        867354278.87875366     
   1351886944.5128443        36917246.698277056        867496486.40764880     
   1656112701.0327427        30929420.876443088        1010588415.8240781     
   1540259619.8028107        34605019.139532387        1001841883.9270937     
   1424401437.1046965        38263612.508687615        996800492.27063966     
   1308538152.9383993        41905200.983887374        995464240.85472143     
   1192669767.3039250        45529784.565180063        997833129.67932367     
   1462639424.5234611        37157413.363317192        1132508880.4229889     
   1356842520.7409811        41024284.711912036        1125364319.8161924     
   1251227880.1158528        45498699.918356359        1122206000.1394746     
   1145795502.6480899        50580658.982682109        1123033921.3928454     
   1040545388.3376863        56270161.904873908        1127848083.5762959     
   1691599693.6587248        26075689.382896960        605858131.74017441     
   1550930137.1706684        26576565.210415125        592429054.69801307     
   1411457418.2252483        31066899.513393939        577770726.50033224     
   1273181536.8224871        39546692.291887999        561883147.14712358     
   1136102492.9623587        52015943.545835853        544766316.63839662     
   1518196919.9644432        30432548.304191351        736838153.76125836     
   1375839308.4733729        28250758.814167619        727662074.70669198     
   1233795112.6947968        27113688.365791917        719035819.57091832     
   1092064332.6287236        27021336.959088087        710959388.35393381     
   950646968.27514207        27973704.594032407        703432781.05574012     
   1351886944.5128443        36917246.698277056        867496486.40764880     
   1212924349.6596549        33577713.382994950        861542746.53883457     
   1073391748.6888143        28338159.675538063        857917905.66312420     
   933289141.60031903        21198585.575896084        856621963.78051960     
   792616528.39417434        12158991.084096849        857654920.89101028     
   1192669767.3039250        45529784.565180063        997833129.67932367     
   1062185260.7295119        42557428.916904032        994071070.19442534     
   930247326.20729816        34740313.442613780        994416984.77694225     
   796855963.73728180        22078438.142327458        998870873.42687452     
   662011173.31946576        4571803.0160391629        1007432736.1442138     
   1040545388.3376863        56270161.904873908        1127848083.5762959     
   923622041.68294334        55189905.415872008        1125247045.6734736     
   804361845.25024915        46320149.667036235        1128533056.9123743     
   682764799.03959835        29660894.658343315        1137706117.2929986     
   558830903.05100942        5212140.3898571134        1152766226.8153570     
   1136102492.9623587        52015943.545835853        544766316.63839662     
   951320579.96465933        40586240.027706265        562925598.46155083     
   759020009.18420768        4094343.9003964067        592020381.21711075     
   559200780.62100255       -57459744.836088449        632050664.90508997     
   351862894.27503860       -144076026.18176967        683016449.52546847     
   950646968.27514207        27973704.594032407        703432781.05574012     
   791530324.21848142        10992143.192364335        721343047.92839754     
   623776652.27852321       -34779511.153625458        749341526.41180170     
   447385952.45528704       -109341258.44387671        787428216.50594437     
   262358224.74875104       -212693098.67844969        835603118.21084547     
   792616528.39417434        12158991.084096849        857654920.89101028     
   656744326.64522839       -11100676.191116691        874011407.69587791     
   511116726.91245532       -66878336.745749891        899608816.78983378     
   355733729.19586158       -155173990.57978481        934447148.17287040     
   190595333.49545258       -275987637.69320959        978526401.84498668     
   662011173.31946576        4571803.0160391629        1007432736.1442138     
   546962587.24491310       -25692218.122711390        1020930677.7640040     
   421040233.08600056       -92202132.875993311        1042822252.3512224     
   284244110.84274131       -194957941.24376461        1073107459.9058591     
   136574220.51511282       -333959643.22610033        1111786300.4279106     
   558830903.05100942        5212140.3898571134        1152766226.8153570     
   462185106.01753020       -32782482.602426410        1162100858.1327770     
   353547170.79915953       -110750899.54435927        1178981833.0959592     
   232917097.39590096       -228693110.43590707        1203409151.7049000     
   100294885.80775538       -386609115.27708960        1235382813.9595957     
   351862894.27503860       -144076026.18176967        683016449.52546847     
   277837094.37666172       -285198055.54647607        786361526.75727665     
   149022672.73138848       -608948824.06752038        905510941.98373926     
  -34580370.660803437       -1115328331.7449465        1040464695.2048378     
  -272972035.79990685       -1804336578.5787442        1191222786.4205768     
   262358224.74875104       -212693098.67844969        835603118.21084547     
   223638132.43314177       -352346355.23088825        884997627.83486891     
   140680096.39518288       -639459424.19116712        945407088.49431384     
   13484116.634906590       -1074032305.5591719        1016831500.1891797     
  -157949806.84772521       -1656064999.3350289        1099270862.9194787     
   190595333.49545258       -275987637.69320959        978526401.84498668     
   173496986.02195960       -418277310.25564909        986279468.22321761     
   122711372.85071775       -672857868.47727776        1000258098.6776613     
   38238493.981710076       -1039729312.3581059        1020462293.2083144     
  -79921650.585063457       -1518891641.8981564        1046892051.8151634     
   136574220.51511282       -333959643.22610033        1111786300.4279106     
   127413655.14314300       -482990920.62066197        1090207047.9223471     
   95116502.097979307       -709144156.92586410        1070063972.5337770     
   39682761.379633009       -1012419352.1416858        1051357074.2621961     
  -38887567.011902750       -1392816506.2681341        1034086353.1076106     
   100294885.80775538       -386609115.27708960        1235382813.9595957     
   85388139.796671510       -546487186.32599127        1196780366.9322460     
   57895484.136973411       -748318289.53694558        1154824710.0626752     
   17816918.828666925       -992102424.90991974        1109515843.3508832     
  -34847556.128262520       -1277839592.4449813        1060853766.7968457     
   3019643438.6976895        14379470.789081812        1150691540.9236317     
   2921143093.0497727        5030730.0762684345        1140445315.6587608     
   2823700584.8960571       -791885.65588140488        1135518496.3857167     
   2727315914.2365403       -3088376.4073611498        1135911083.1045055     
   2631989081.0712237       -1858742.1781783104        1141623075.8151209     
   2638516327.6672068        12291754.148672462        1221275233.6289830     
   2554105447.0947723        5171274.8212764263        1212749686.1168683     
   2470509462.3976951        767115.07839405537        1209228568.5051215     
   2387728373.5759649       -920725.07999002934        1210711880.7937429     
   2305762180.6295867        107754.34613513947        1217199622.9827309     
   2259634182.3498173        10877527.222189307        1291231958.3797271     
   2188412835.1629796        5715329.7732510567        1284143656.7317140     
   2117763442.2326450        2459646.5126606226        1281744808.8926094     
   2047686003.5588148        1110477.4404115677        1284035414.8624077     
   1978180519.1414878        1667822.5565117598        1291015474.6411140     
   1882997002.7455325        10136790.009639382        1360561715.1758678     
   1824065257.2543945        6662894.9321850538        1354627227.5033023     
   1765462524.4009144        4285708.6469273567        1353067217.5481791     
   1707188804.1850867        3005231.1538434029        1355881685.3105032     
   1649244096.6069148        2821462.4529435635        1363070630.7902687     
   1508604788.8543444        10069542.511016786        1429264504.0174091     
   1461062713.3690138        8013970.2980836034        1424200398.4316301     
   1413606708.9024971        6245301.4811815619        1423195794.4718359     
   1366236775.4547808        4763536.0602925420        1426250692.1380243     
   1318952913.0258763        3568674.0354390740        1433365091.4301908     
   2631989081.0712237       -1858742.1781783104        1141623075.8151209     
   2536622032.9838295        769229.91085290909        1135231399.8049166     
   2441127083.0087090        2970862.3741300106        1133015016.5902414     
   2345504231.1458545        4746155.2116243839        1134973926.1710923     
   2249753477.3952727        6095108.4233614206        1141108128.5474761     
   2305762180.6295867        107754.34613513947        1217199622.9827309     
   2221126554.6753716        1546002.9021719694        1210338883.3048370     
   2136474230.0099311        2928589.0874600410        1207832342.5183980     
   2051805206.6332695        4255512.9020094872        1209680000.6234093     
   1967119484.5453804        5526774.3458043337        1215881857.6198783     
   1978180519.1414878        1667822.5565117598        1291015474.6411140     
   1904787475.5945172        2069695.6617619991        1283815408.3347874     
   1831488936.5128314        2786583.6512908936        1281148447.0158405     
   1758284901.8964317        3818486.5251055956        1283014590.6842713     
   1685175371.7453134        5165404.2831965685        1289413839.3400812     
   1649244096.6069148        2821462.4529435635        1363070630.7902687     
   1587604795.7412667        2340308.1896365285        1355660974.8947678     
   1526171202.5174077        2544846.0656225085        1352963330.0825715     
   1464943316.9353437        3435076.0809282660        1354977696.3536828     
   1403921138.9950681        5010998.2355260253        1361704073.7080946     
   1318952913.0258763        3568674.0354390740        1433365091.4301908     
   1269578515.1156228        2357840.4857931137        1425875582.9847784     
   1220521028.0236647        2203376.3304642439        1423276991.7185924     
   1171780451.7500093        3105281.5694785118        1425569317.6316369     
   1123356786.2946508        5063556.2028172016        1432752560.7239151     
   2249753477.3952727        6095108.4233614206        1141108128.5474761     
   2152670030.6024938        7389529.5646615028        1133559310.1760638     
   2055942140.0989149        9869138.3366181850        1130320194.4583685     
   1959569805.8845336        13533934.739234567        1131390781.3943911     
   1863553027.9593501        18383918.772513509        1136771070.9841349     
   1967119484.5453804        5526774.3458043337        1215881857.6198783     
   1881388584.8014960        6893284.4188921452        1208997221.1683671     
   1795943923.5003221        9213922.6343461275        1206518974.6549544     
   1710785500.6418600        12488688.992170930        1208447118.0796347     
   1625913316.2261076        16717583.492366612        1214781651.4424071     
   1685175371.7453134        5165404.2831965685        1289413839.3400812     
   1611073268.4342532        6686878.1032543182        1283112513.9875798     
   1537188085.7194138        8931420.5773861408        1281314265.8575435     
   1463519823.6008000        11899031.705601573        1284019094.9499745     
   1390068482.0784073        15589711.487887442        1291227001.2648787     
   1403921138.9950681        5010998.2355260253        1361704073.7080946     
   1341724081.5007594        6770310.6177388430        1355905188.6336906     
   1279674626.7561898        9021632.1657413840        1354706068.0661321     
   1217772774.7613471        11764962.879499197        1358106712.0054142     
   1156018525.5162413        15000302.759056032        1366107120.4515455     
   1123356786.2946508        5063556.2028172016        1432752560.7239151     
   1073341024.0010215        7143581.9623517394        1427375245.1067102     
   1023403546.6106389        9484557.3993726969        1426694381.2807243     
   973544354.12350595        12086482.513893902        1430709969.2459540     
   923763446.53962111        14949357.305908203        1439422009.0024087     
   1863553027.9593501        18383918.772513509        1136771070.9841349     
   1763184282.4546752        22609476.934538007        1129304517.6981752     
   1662909100.0471382        27146912.087021828        1126105301.5093327     
   1562727480.7367322        31996224.229947567        1127173422.4176018     
   1462639424.5234611        37157413.363317192        1132508880.4229889     
   1625913316.2261076        16717583.492366612        1214781651.4424071     
   1536665800.7231023        20247137.276382864        1208157147.3107862     
   1447536393.1136374        24170384.038869202        1205980714.7859511     
   1358525093.3977265        28487323.779869556        1208252353.8678999     
   1269631901.5753605        33197956.499348164        1214972064.5566421     
   1390068482.0784073        15589711.487887442        1291227001.2648787     
   1312458580.8904028        18578176.187869728        1285473181.8834112     
   1234991332.3923635        22042149.854391694        1284348168.6183996     
   1157666736.5842862        25981632.487458050        1287851961.4698477     
   1080484793.4661698        30396624.087062061        1295984560.4377487     
   1156018525.5162413        15000302.759056032        1366107120.4515455     
   1090562622.9565918        17602593.669026434        1361252621.4160495     
   1025273917.8833147        20762209.533571541        1361207663.0066810     
   960152410.29641855        24479150.352719784        1365972245.2234383     
   895198100.19589376        28753416.126438767        1375546368.0663226     
   923763446.53962111        14949357.305908203        1439422009.0024087     
   870977926.92166626        17320389.719865501        1435495465.9087043     
   818384149.58649290        20330563.076427758        1436559197.9507916     
   765982114.53411770        23979877.375650436        1442613205.1286788     
   713771821.76453137        28268332.617502868        1453657487.4423604     
   1462639424.5234611        37157413.363317192        1132508880.4229889     
   1356842520.7409811        41024284.711912036        1125364319.8161924     
   1251227880.1158528        45498699.918356359        1122206000.1394746     
   1145795502.6480899        50580658.982682109        1123033921.3928454     
   1040545388.3376863        56270161.904873908        1127848083.5762959     
   1269631901.5753605        33197956.499348164        1214972064.5566421     
   1174432462.0338335        36268308.250778913        1209494452.6817970     
   1079280800.3225169        39497919.436227262        1208366307.6615722     
   984176916.44140112        42886790.055689096        1211587629.4959583     
   889120810.39048719        46434920.109151959        1219158418.1849561     
   1080484793.4661698        30396624.087062061        1295984560.4377487     
   996920606.52139926        32981792.748076439        1292016997.7465217     
   913269712.07967210        35277936.419239670        1292762127.8344347     
   829532110.14099491        37285055.100567728        1298219950.7014892     
   745707800.70536566        39003148.792053282        1308390466.3476796     
   895198100.19589376        28753416.126438767        1375546368.0663226     
   824306954.20366561        31164738.203775793        1372931955.0103641     
   753194615.38732362        32838750.867400527        1375393460.6580663     
   681861083.74687350        33775454.117331713        1382930885.0094399     
   610306359.28231680        33974847.953573048        1395544228.0644751     
   713771821.76453137        28268332.617502868        1453657487.4423604     
   656591505.08063316        30817144.617882133        1452239324.4733179     
   599055510.24546897        32180362.780711234        1456260306.1324644     
   541163837.25904024        32357987.105987519        1465720432.4198048     
   482916486.12134540        31350017.593716055        1480619703.3353379     
   1040545388.3376863        56270161.904873908        1127848083.5762959     
   923622041.68294334        55189905.415872008        1125247045.6734736     
   804361845.25024915        46320149.667036235        1128533056.9123743     
   682764799.03959835        29660894.658343315        1137706117.2929986     
   558830903.05100942        5212140.3898571134        1152766226.8153570     
   889120810.39048719        46434920.109151959        1219158418.1849561     
   787211585.55393159        44515980.714634955        1216642806.0597599     
   683005483.67026830        34940784.496425599        1219983011.4773281     
   576502504.73949826        17709331.454522997        1229179034.4376669     
   467702648.76163024       -7178378.4110364914        1244230874.9407651     
   745707800.70536566        39003148.792053282        1308390466.3476796     
   658723464.54710793        36218756.550050944        1306006914.8527627     
   569482224.07258964        25911349.920518994        1309447949.3016553     
   477984079.28180313        8080928.9034308791        1318713569.6943476     
   384229030.17476261       -17272506.501179978        1333803776.0308499     
   610306359.28231680        33974847.953573048        1395544228.0644751     
   538157678.66246402        30298232.922119230        1393339372.0525005     
   463792066.45719433        19231845.939270705        1396927870.3853621     
   387209522.66651225        775687.00504332781        1406309723.0630631     
   308410047.29041421       -25070243.880562663        1421484930.0856178     
   482916486.12134540        31350017.593716055        1480619703.3353379     
   425514227.90001220        26754409.830848500        1478640177.6589460     
   365935010.82411027        14902272.552757442        1482422774.7284334     
   304178834.89362490       -4206394.2406160533        1491967494.5438015     
   240245700.10857582       -30571590.549199030        1507274337.1050518     
   558830903.05100942        5212140.3898571134        1152766226.8153570     
   462185106.01753020       -32782482.602426410        1162100858.1327770     
   353547170.79915953       -110750899.54435927        1178981833.0959592     
   232917097.39590096       -228693110.43590707        1203409151.7049000     
   100294885.80775538       -386609115.27708960        1235382813.9595957     
   467702648.76163024       -7178378.4110364914        1244230874.9407651     
   390199597.46550894       -41549397.473951131        1242728606.0946059     
   302550115.12735236       -109741853.34364706        1247568966.3400309     
   204754201.74716583       -211755746.02011108        1258751955.6770334     
   96811857.324943811       -347591075.50335979        1276277574.1056280     
   384229030.17476261       -17272506.501179978        1333803776.0308499     
   322429540.17549497       -49051676.966883644        1323617932.0211082     
   252329326.27705443       -108499927.09648876        1318571002.5487800     
   173928388.47943687       -195617256.89001989        1318662987.6138570     
   87226726.782643482       -310403666.34747332        1323893887.2163432     
   308410047.29041421       -25070243.880562663        1421484930.0856178     
   258874934.14750001       -55289321.081192166        1404768835.9122958     
   202884804.24827325       -107025120.80286545        1391987941.7222092     
   140439657.59272015       -180277643.04562837        1383142247.5153522     
   71539494.180853873       -275046887.80943525        1378231753.2917287     
   240245700.10857582       -30571590.549199030        1507274337.1050518     
   199535779.38150787       -60262329.816929772        1486181317.7681580     
   154216549.04099539       -105317434.46281445        1467819783.8603134     
   104288009.08701240       -165736904.48692995        1452189735.3815312     
   49750159.519570261       -241520739.88924539        1439291172.3318033     
   100294885.80775538       -386609115.27708960        1235382813.9595957     
   85388139.796671510       -546487186.32599127        1196780366.9322460     
   57895484.136973411       -748318289.53694558        1154824710.0626752     
   17816918.828666925       -992102424.90991974        1109515843.3508832     
  -34847556.128262520       -1277839592.4449813        1060853766.7968457     
   96811857.324943811       -347591075.50335979        1276277574.1056280     
   79842921.631726861       -488783379.21125841        1221963065.5787535     
   51493605.875048071       -667910283.13069904        1165103366.9830086     
   11763910.054897130       -884971787.26169705        1105698478.3183858     
  -39346165.828710318       -1139967891.6042414        1043748399.5848711     
   87226726.782643482       -310403666.34747332        1323893887.2163432     
   70504229.331158131       -432217614.33720267        1255273768.3726168     
   43606881.401357263       -587947730.58798790        1184916479.2333727     
   6534682.9932458103       -777594015.09981203        1112822019.7985964     
  -40712365.893193364       -1001156467.8727118        1038990390.0682976     
   71539494.180853873       -275046887.80943525        1378231753.2917287     
   57372062.894960865       -376789891.70384055        1296712475.3138220     
   34235310.715910614       -508430631.90878063        1214264046.8137441     
   2129237.6436730623       -669969108.42433012        1130886467.7914946     
  -38946156.321710974       -861405321.25039268        1046579738.2470729     
   49750159.519570261       -241520739.88924539        1439291172.3318033     
   40446422.323131815       -322500211.31118125        1346279186.4023960     
   23378893.818682641       -429358987.09316111        1253146069.7241700     
  -1452425.9937780201       -562097067.23517525        1159891822.2971303     
  -34047537.114269346       -720714451.73728585        1066516444.1212673     
   1508604788.8543444        10069542.511016786        1429264504.0174091     
   1461062713.3690138        8013970.2980836034        1424200398.4316301     
   1413606708.9024971        6245301.4811815619        1423195794.4718359     
   1366236775.4547808        4763536.0602925420        1426250692.1380243     
   1318952913.0258763        3568674.0354390740        1433365091.4301908     
   1133963537.7891645        8305140.8308561444        1455099694.0804973     
   1097337217.3797703        6472532.4921700954        1449650937.6796885     
   1060775450.2369295        4855101.7086569071        1448487961.1249487     
   1024278236.3606410        3452848.4803209901        1451610764.4162717     
   987845575.75090408        2265772.8071594834        1459019347.5536623     
   757648989.31961310        6038749.9293824136        1479773681.3009093     
   732584933.18638957        4623058.2250079215        1473915170.0407772     
   707563912.56746399        3350818.2349611819        1472568716.8467944     
   682585927.46283627        2222029.9592399299        1475734321.7189565     
   657650977.87250757        1236693.3978491724        1483411984.6572711     
   379661143.44569165        3270369.8065993339        1503286465.6786489     
   366805860.78887445        2465547.4966075569        1496993095.5148938     
   353972095.89410180        1732451.0600989312        1495438061.6373734     
   341159848.76137245        1071080.4970644712        1498621364.0460806     
   328369119.39068681        481435.80751171708        1506543002.7410190     
  0.16739704860364260       0.46250265522169387        1525638047.2137146     
  0.18722496080953194       0.30697020017475635        1518884714.1020401     
  0.21684083100532395       0.18406288398204701        1517095995.4966817     
  0.25624747287437094        9.3792167256244618E-002   1520271891.3976386     
  0.30544285049945058        3.6150569717217591E-002   1528412401.8049059     
   1318952913.0258763        3568674.0354390740        1433365091.4301908     
   1269578515.1156228        2357840.4857931137        1425875582.9847784     
   1220521028.0236647        2203376.3304642439        1423276991.7185924     
   1171780451.7500093        3105281.5694785118        1425569317.6316369     
   1123356786.2946508        5063556.2028172016        1432752560.7239151     
   987845575.75090408        2265772.8071594834        1459019347.5536623     
   951196863.33337319        1472273.4368678331        1452128234.3220255     
   914785834.03073859        1471051.1162367463        1450038884.8641686     
   878612487.84301054        2262105.8452942967        1452751299.1800942     
   842676824.77018476        3845437.6240220070        1460265477.2697995     
   657650977.87250757        1236693.3978491724        1483411984.6572711     
   633473226.93212879        784111.00224414468        1477026834.3187826     
   609453931.40325379        859713.31165197492        1475354294.3486240     
   585593091.28588319        1463500.3260749876        1478394364.7468007     
   561890706.58001888        2595472.0455185175        1486147045.5133083     
   328369119.39068681        481435.80751171708        1506543002.7410190     
   316407605.91189289        293353.18192297220        1500571382.9750464     
   304525320.14120835        369362.91670057178        1499223220.1719599     
   292722262.07862681        709465.01182192564        1502498514.3317523     
   280998431.72415555        1313659.4673083127        1510397265.4544284     
  0.30544285049945058        3.6150569717217591E-002   1528412401.8049059     
  0.27266481197427594       -2.4092518273440014E-002   1522761880.2908208     
  0.24459793165258009       -6.8630357807054357E-002   1521645662.3341701     
  0.22123695961298628       -9.7482009872676315E-002   1525063747.9349537     
  0.20259178949817605      -0.11061536302310498        1533016137.0931716     
   1123356786.2946508        5063556.2028172016        1432752560.7239151     
   1073341024.0010215        7143581.9623517394        1427375245.1067102     
   1023403546.6106389        9484557.3993726969        1426694381.2807243     
   973544354.12350595        12086482.513893902        1430709969.2459540     
   923763446.53962111        14949357.305908203        1439422009.0024087     
   842676824.77018476        3845437.6240220070        1460265477.2697995     
   804794809.76705503        5294398.9591148496        1454974111.8741300     
   766971508.44162917        6939072.5532195568        1454465576.7009542     
   729206920.79390824        8779458.4063423276        1458739871.7502804     
   691501046.82389724        10815556.518498302        1467796997.0221009     
   561890706.58001888        2595472.0455185175        1486147045.5133083     
   536389234.38532627        3487407.6115485728        1480918797.2427037     
   510926904.64279526        4509818.0181153417        1480559757.6258769     
   485503717.35242951        5662703.2652330101        1485069926.6628249     
   460119672.51422739        6946063.3528978825        1494449304.3535519     
   280998431.72415555        1313659.4673083127        1510397265.4544284     
   268124297.85583711        1722607.9196528494        1505209301.2124312     
   255269735.21413609        2196793.7940537781        1504976924.0554867     
   242434743.79906267        2736217.0905473381        1509700133.9835954     
   229619323.61061203        3340877.8091171384        1519378930.9967647     
  0.20259178949817605      -0.11061536302310498        1533016137.0931716     
  0.17858722742383668      -0.11657106141177735        1527845623.7833121     
  0.15566115246595974      -0.11893249663496532        1527717075.9897830     
  0.13381525740965150      -0.11769333218625766        1532630493.7125893     
  0.11305233306278975      -0.11284357148333789        1542585876.9517286     
   923763446.53962111        14949357.305908203        1439422009.0024087     
   870977926.92166626        17320389.719865501        1435495465.9087043     
   818384149.58649290        20330563.076427758        1436559197.9507916     
   765982114.53411770        23979877.375650436        1442613205.1286788     
   713771821.76453137        28268332.617502868        1453657487.4423604     
   691501046.82389724        10815556.518498302        1467796997.0221009     
   651582655.47624099        12495055.342035681        1464412962.4243979     
   611808070.84079385        14653909.872942179        1466096028.3427618     
   572177292.91754925        17292120.111186713        1472846194.7771943     
   532690321.70650542        20409686.056769550        1484663461.7276905     
   460119672.51422739        6946063.3528978825        1494449304.3535519     
   433287910.52336991        7999878.9120004624        1491551853.4194949     
   406552019.67413229        9373264.9431670755        1493798328.3817825     
   379911999.96650630        11066221.446373820        1501188729.2404070     
   353367851.40049684        13078748.421634838        1513723055.9953761     
   229619323.61061203        3340877.8091171384        1519378930.9967647     
   216093692.06304446        3834860.4297247604        1516912138.8940070     
   202615996.08650413        4488628.2870923877        1519666098.0678613     
   189186235.68099400        5302181.3812268451        1527640808.5183277     
   175804410.84651104        6275519.7121169269        1540836270.2454095     
  0.11305233306278975      -0.11284357148333789        1542585876.9517286     
   9.5259468811228112E-002 -0.10480213308904864        1540493818.8479190     
   7.7921002983316612E-002  -9.5244645503811384E-002   1543699337.4009922     
   6.1007929477505322E-002  -8.4269530456268713E-002   1552202432.6109493     
   4.4540470213171326E-002  -7.1809728493192115E-002   1566003104.4777908     
   713771821.76453137        28268332.617502868        1453657487.4423604     
   656591505.08063316        30817144.617882133        1452239324.4733179     
   599055510.24546897        32180362.780711234        1456260306.1324644     
   541163837.25904024        32357987.105987519        1465720432.4198048     
   482916486.12134540        31350017.593716055        1480619703.3353379     
   532690321.70650542        20409686.056769550        1484663461.7276905     
   489521185.26194274        22236125.381814778        1483530992.6007891     
   446085290.20376730        23173369.328150794        1487903911.1856418     
   402382636.53196573        23221417.895732805        1497782217.4822547     
   358413224.24654877        22380271.084599838        1513165911.4906237     
   353367851.40049684        13078748.421634838        1513723055.9953761     
   324399161.14831805        14239594.857275441        1512980020.1711991     
   295252631.82016677        14807644.373006567        1517808615.1423445     
   265928263.41604164        14782896.968826339        1528208840.9088140     
   236426055.93594161        14165352.644730471        1544180697.4706078     
   175804410.84651104        6275519.7121169269        1540836270.2454095     
   161225432.73975807        6827553.0442613512        1540586407.1845458     
   146557535.09467545        7083187.9153088182        1545974418.0025704     
   131800717.91126239        7042424.3252517357        1557000302.6994834     
   116954981.18952678        6705262.2741237879        1573664061.2752810     
   4.4540470213171326E-002  -7.1809728493192115E-002   1566003104.4777908     
   3.6254881880520291E-002  -5.7252371341966646E-002   1566350153.6408279     
   2.7285225361157909E-002  -4.4975241479779000E-002   1572401319.7663178     
   1.7636830640621361E-002  -3.4960919232867115E-002   1584156602.8542621     
   7.3024919444719689E-003  -2.7232383015274312E-002   1601616002.9046590     
   482916486.12134540        31350017.593716055        1480619703.3353379     
   425514227.90001220        26754409.830848500        1478640177.6589460     
   365935010.82411027        14902272.552757442        1482422774.7284334     
   304178834.89362490       -4206394.2406160533        1491967494.5438015     
   240245700.10857582       -30571590.549199030        1507274337.1050518     
   358413224.24654877        22380271.084599838        1513165911.4906237     
   316165617.25645363        19174791.267423004        1509750896.2853496     
   272285291.12527788        10526914.313306436        1511910383.6015298     
   226772245.85302588       -3563359.7777280957        1519644373.4391608     
   179626481.43968213       -23096031.005736478        1532952865.7982337     
   236426055.93594161        14165352.644730471        1544180697.4706078     
   208797042.39300838        12189183.438046470        1539965139.0688608     
   180079549.42247891        6584749.4727112874        1541136462.9641299     
   150273577.02435410       -2647949.2512754798        1547694669.1564248     
   119379125.19863367       -15508912.733913697        1559639757.6457386     
   116954981.18952678        6705262.2741237879        1573664061.2752810     
   103408503.30965866        5797586.3426778167        1569282906.0094655     
   89317785.715689108        3075778.0308926404        1570101012.8162301     
   74682828.407618836       -1460162.6612284966        1576118381.6955895     
   59503631.385431916       -7810235.7337369025        1587335012.6475415     
   7.3024919444719689E-003  -2.7232383015274312E-002   1601616002.9046590     
   6.4244397347766645E-003  -1.8629557603526400E-002   1597704197.1071663     
   4.9227105908084172E-003  -1.2105655306021640E-002   1598804033.1578352     
   2.8101605291847936E-003  -7.6185166234251922E-003   1604915511.0566590     
   7.2378001028447839E-005  -5.2140983838237032E-003   1616038630.8036511     
   240245700.10857582       -30571590.549199030        1507274337.1050518     
   199535779.38150787       -60262329.816929772        1486181317.7681580     
   154216549.04099539       -105317434.46281445        1467819783.8603134     
   104288009.08701240       -165736904.48692995        1452189735.3815312     
   49750159.519570261       -241520739.88924539        1439291172.3318033     
   179626481.43968213       -23096031.005736478        1532952865.7982337     
   148394470.05291671       -45573956.708428472        1507366278.0121651     
   113705476.45604989       -79575156.444798768        1484674408.8514946     
   75559500.649048105       -125099630.21494737        1464877258.3162227     
   33956542.631940059       -182147378.01878905        1447974826.4063430     
   119379125.19863367       -15508912.733913697        1559639757.6457386     
   98091403.713144466       -30634110.703279845        1530903983.3810611     
   74499027.420885265       -53441491.361877151        1505226160.9381239     
   48601996.321852788       -83931054.709721208        1482606290.3169253     
   20400310.416045427       -122102800.74681203        1463044371.5174625     
   59503631.385431916       -7810235.7337369025        1587335012.6475415     
   48626580.362194091       -15442791.801472146        1556794433.8748269     
   36597201.935518004       -26916439.214002162        1529475040.1201921     
   23415496.105423570       -42231177.971258312        1505376831.3836346     
   9081462.8718903735       -61387008.073313124        1484499807.6651652     
   7.2378001028447839E-005  -5.2140983838237032E-003   1616038630.8036511     
   5.1973077856078652E-005  -3.0519542936824841E-003   1585037629.4934695     
  -5.7508942662932256E-005  -1.1846521931922318E-003   1557421046.3977017     
  -2.4945704842453296E-004   4.0602823301341109E-004   1533188881.5163586     
  -5.2668492278096723E-004   1.7138305426837239E-003   1512341134.8494384     
   49750159.519570261       -241520739.88924539        1439291172.3318033     
   40446422.323131815       -322500211.31118125        1346279186.4023960     
   23378893.818682641       -429358987.09316111        1253146069.7241700     
  -1452425.9937780201       -562097067.23517525        1159891822.2971303     
  -34047537.114269346       -720714451.73728585        1066516444.1212673     
   33956542.631940059       -182147378.01878905        1447974826.4063430     
   29807794.221461326       -242033265.23888281        1347490331.7949815     
   19836202.329969391       -321328630.72901773        1246224593.7212157     
   4041766.9574588835       -420033474.48921806        1144177612.1850407     
  -17575511.896067977       -538147796.51946878        1041349387.1864589     
   20400310.416045427       -122102800.74681203        1463044371.5174625     
   19520514.466990814       -161460914.66241774        1357351807.3556445     
   14758822.863920912       -213758680.75807503        1250217887.0178366     
   6115235.6068317294       -278996099.03379345        1141642610.5040212     
  -6410247.3042700291       -357173169.48955947        1031625977.8142306     
   9081462.8718903735       -61387008.073313124        1484499807.6651652     
   9584583.0597177669       -80783159.581803381        1375863613.0843947     
   8146755.4205273911       -106649137.18035580        1265125949.6140432     
   4767979.9543274119       -138984940.86893877        1152286817.2541056     
  -551743.33889076114       -177790570.64758235        1037346216.0045937     
  -5.2668492278096723E-004   1.7138305426837239E-003   1512341134.8494384     
  -3.5301432107174625E-004   2.9782952660871611E-003   1403025748.9812126     
  -1.9238273977536190E-004   4.1972149199433042E-003   1290948781.5098166     
  -4.6826096114169604E-005   5.3662317263773358E-003   1176110232.4352548     
   7.8874635760457345E-005   6.4718377177510463E-003   1058510101.7575140     
  0.16739704860364260       0.46250265522169387        1525638047.2137146     
  0.18722496080953194       0.30697020017475635        1518884714.1020401     
  0.21684083100532395       0.18406288398204701        1517095995.4966817     
  0.25624747287437094        9.3792167256244618E-002   1520271891.3976386     
  0.30544285049945058        3.6150569717217591E-002   1528412401.8049059     
  -379661143.10645515       -3270368.8869875968        1503286465.5834832     
  -366805860.41675597       -2465546.9012951553        1496993095.4472964     
  -353972095.46756119       -1732450.7172877640        1495438061.5951860     
  -341159848.25887352       -1071080.3349676579        1498621364.0271497     
  -328369118.79068917       -481435.75432763994        1506543002.7431884     
  -757648988.96261799       -6038749.0111727118        1479773681.1051309     
  -732584932.80944276       -4623057.6461656392        1473915169.9024231     
  -707563912.14706850       -3350817.9171662331        1472568716.7615469     
  -682585926.97549450       -2222029.8241657317        1475734321.6825087     
  -657650977.29472387       -1236693.3671766520        1483411984.6653047     
  -1133963537.4010911       -8305139.9100500345        1455099693.7786572     
  -1097337216.9908352       -6472531.9276452661        1449650937.4674139     
  -1060775449.8216801       -4855101.4155712128        1448487960.9957633     
  -1024278235.8936218       -3452848.3738214970        1451610764.3637099     
  -987845575.20665979       -2265772.8023959994        1459019347.5712526     
  -1508604788.4218748       -10069541.583620608        1429264503.6040642     
  -1461062712.9609427       -8013969.7457494736        1424200398.1422694     
  -1413606708.4914021       -6245301.2125201225        1423195794.2978361     
  -1366236775.0132527       -4763535.9839286208        1426250692.0707552     
  -1318952912.5264986       -3568674.0599862337        1433365091.4610329     
  0.30544285049945058        3.6150569717217591E-002   1528412401.8049059     
  0.27266481197427594       -2.4092518273440014E-002   1522761880.2908208     
  0.24459793165258009       -6.8630357807054357E-002   1521645662.3341701     
  0.22123695961298628       -9.7482009872676315E-002   1525063747.9349537     
  0.20259178949817605      -0.11061536302310498        1533016137.0931716     
  -328369118.79068917       -481435.75432763994        1506543002.7431884     
  -316407605.37383389       -293353.23986396194        1500571382.9840450     
  -304525319.65653688       -369363.05726309121        1499223220.1884062     
  -292722261.63880473       -709465.20654425025        1502498514.3562717     
  -280998431.32063282       -1313659.6876925230        1510397265.4876485     
  -657650977.29472387       -1236693.3671766520        1483411984.6653047     
  -633473226.41088426       -784111.07279595733        1477026834.3394492     
  -609453930.93087852       -859713.45786118507        1475354294.3831706     
  -585593090.85470629       -1463500.5223711133        1478394364.7964697     
  -561890706.18236792       -2595472.2663278580        1486147045.5793500     
  -987845575.20665979       -2265772.8023959994        1459019347.5712526     
  -951196862.83848965       -1472273.5228985548        1452128234.3570356     
  -914785833.57842171       -1471051.2704080939        1450038884.9184682     
  -878612487.42646718       -2262106.0449624658        1452751299.2555528     
  -842676824.38261199       -3845437.8465150595        1460265477.3682826     
  -1318952912.5264986       -3568674.0599862337        1433365091.4610329     
  -1269578514.6566477       -2357840.5901619792        1425875583.0368040     
  -1220521027.5991776       -2203376.4949404597        1423276991.7942977     
  -1171780451.3540788       -3105281.7742910385        1425569317.7335110     
  -1123356785.9213631       -5063556.4282510281        1432752560.8544478     
  0.20259178949817605      -0.11061536302310498        1533016137.0931716     
  0.17858722742383668      -0.11657106141177735        1527845623.7833121     
  0.15566115246595974      -0.11893249663496532        1527717075.9897830     
  0.13381525740965150      -0.11769333218625766        1532630493.7125893     
  0.11305233306278975      -0.11284357148333789        1542585876.9517286     
  -280998431.32063282       -1313659.6876925230        1510397265.4876485     
  -268124297.50093341       -1722608.1524116397        1505209301.2468009     
  -255269734.90521127       -2196794.0303887725        1504976924.0906475     
  -242434743.53346005       -2736217.3216027468        1509700134.0191829     
  -229619323.38568351       -3340878.0260643959        1519378931.0324137     
  -561890706.18236792       -2595472.2663278580        1486147045.5793500     
  -536389234.03793639       -3487407.8454985619        1480918797.3116190     
  -510926904.34253466       -4509818.2547670901        1480559757.6969404     
  -485503717.09616482       -5662703.4941409826        1485069926.7353144     
  -460119672.29882193       -6946063.5636076629        1494449304.4267404     
  -842676824.38261199       -3845437.8465150595        1460265477.3682826     
  -804794809.43242061       -5294399.1958240867        1454974111.9777727     
  -766971508.15631700       -6939072.7920896411        1454465576.8086717     
  -729206920.55429912       -8779458.6353114247        1458739871.8609817     
  -691501046.62636340       -10815556.725471020        1467796997.1347027     
  -1123356785.9213631       -5063556.4282510281        1432752560.8544478     
  -1073341023.6843889       -7143582.2034014463        1427375245.2452557     
  -1023403546.3465525       -9484557.6423448920        1426694381.4258337     
  -973544353.90786147       -12086482.745106101        1430709969.3961828     
  -923763446.36830688       -14949357.511654973        1439422009.1563010     
  0.11305233306278975      -0.11284357148333789        1542585876.9517286     
   9.5259468811228112E-002 -0.10480213308904864        1540493818.8479190     
   7.7921002983316612E-002  -9.5244645503811384E-002   1543699337.4009922     
   6.1007929477505322E-002  -8.4269530456268713E-002   1552202432.6109493     
   4.4540470213171326E-002  -7.1809728493192115E-002   1566003104.4777908     
  -229619323.38568351       -3340878.0260643959        1519378931.0324137     
  -216093691.87255940       -3834860.6261439100        1516912138.9273870     
  -202615995.93010268       -4488628.4617809355        1519666098.0988226     
  -189186235.55832213       -5302181.5330051780        1527640808.5467227     
  -175804410.75721341       -6275519.8398040682        1540836270.2710915     
  -460119672.29882193       -6946063.5636076629        1494449304.4267404     
  -433287910.34169179       -7999879.0978797525        1491551853.4875288     
  -406552019.52634847       -9373265.1047742963        1493798328.4443593     
  -379911999.85279000       -11066221.584282249        1501188729.2972386     
  -353367851.32101679       -13078748.536413267        1513723056.0461619     
  -691501046.62636340       -10815556.725471020        1467796997.1347027     
  -651582655.31214023       -12495055.520013720        1464412962.5283380     
  -611808070.71081781       -14653910.024226129        1466096028.4375980     
  -572177292.82239377       -17292120.238100052        1472846194.8624861     
  -532690321.64687270       -20409686.161651582        1484663461.8030016     
  -923763446.36830688       -14949357.511654973        1439422009.1563010     
  -870977926.78390157       -17320389.892541558        1435495466.0498195     
  -818384149.48351455       -20330563.220152915        1436559198.0785446     
  -765982114.46713662       -23979877.494461268        1442613205.2424757     
  -713771821.73477197       -28268332.715482831        1453657487.5416169     
   4.4540470213171326E-002  -7.1809728493192115E-002   1566003104.4777908     
   3.6254881880520291E-002  -5.7252371341966646E-002   1566350153.6408279     
   2.7285225361157909E-002  -4.4975241479779000E-002   1572401319.7663178     
   1.7636830640621361E-002  -3.4960919232867115E-002   1584156602.8542621     
   7.3024919444719689E-003  -2.7232383015274312E-002   1601616002.9046590     
  -175804410.75721341       -6275519.8398040682        1540836270.2710915     
  -161225432.66671568       -6827553.1443551928        1540586407.2053781     
  -146557535.03932852       -7083187.9926100448        1545974418.0191500     
  -131800717.87506029       -7042424.3845933899        1557000302.7124009     
  -116954981.17390114       -6705262.3202770948        1573664061.2851391     
  -353367851.32101679       -13078748.536413267        1513723056.0461619     
  -324399161.08308488       -14239594.945492610        1512980020.2121954     
  -295252631.77069277       -14807644.439703301        1517808615.1747432     
  -265928263.38384312       -14782897.019058228        1528208840.9338002     
  -236426055.92253500       -14165352.683547556        1544180697.4893715     
  -532690321.64687270       -20409686.161651582        1484663461.8030016     
  -489521185.21284580       -22236125.460640013        1483530992.6612854     
  -446085290.16678965       -23173369.386199668        1487903911.2331088     
  -402382636.50870734       -23221417.938337505        1497782217.5184720     
  -358413224.23860204       -22380271.117066279        1513165911.5173767     
  -713771821.73477197       -28268332.715482831        1453657487.5416169     
  -656591505.05600154       -30817144.689809233        1452239324.5526443     
  -599055510.22762585       -32180362.832117885        1456260306.1942394     
  -541163837.24965608       -32357987.142445475        1465720432.4664085     
  -482916486.12208706       -31350017.620777100        1480619703.3691468     
   7.3024919444719689E-003  -2.7232383015274312E-002   1601616002.9046590     
   6.4244397347766645E-003  -1.8629557603526400E-002   1597704197.1071663     
   4.9227105908084172E-003  -1.2105655306021640E-002   1598804033.1578352     
   2.8101605291847936E-003  -7.6185166234251922E-003   1604915511.0566590     
   7.2378001028447839E-005  -5.2140983838237032E-003   1616038630.8036511     
  -116954981.17390114       -6705262.3202770948        1573664061.2851391     
  -103408503.29623581       -5797586.3739502244        1569282906.0169320     
  -89317785.705539346       -3075778.0508538969        1570101012.8215125     
  -74682828.401795581        1460162.6490671188        1576118381.6988773     
  -59503631.385023765        7810235.7257458344        1587335012.6490207     
  -236426055.92253500       -14165352.683547556        1544180697.4893715     
  -208797042.38168642       -12189183.464107998        1539965139.0830553     
  -180079549.41415066       -6584749.4890402481        1541136462.9741459     
  -150273577.01991796        2647949.2416844368        1547694669.1626475     
  -119379125.19899639        15508912.728036165        1559639757.6485500     
  -358413224.23860204       -22380271.117066279        1513165911.5173767     
  -316165617.24992800       -19174791.289103061        1509750896.3055451     
  -272285291.12091208       -10526914.326664954        1511910383.6157415     
  -226772245.85154724        3563359.7702696621        1519644373.4479725     
  -179626481.44184154        23096031.001671404        1532952865.8022242     
  -482916486.12208706       -31350017.620777100        1480619703.3691468     
  -425514227.90096140       -26754409.848942339        1478640177.6843948     
  -365935010.82582957       -14902272.563751504        1482422774.7462974     
  -304178834.89669818        4206394.2347696722        1491967494.5548518     
  -240245700.11356539        30571590.546629712        1507274337.1100633     
   7.2378001028447839E-005  -5.2140983838237032E-003   1616038630.8036511     
   5.1973077856078652E-005  -3.0519542936824841E-003   1585037629.4934695     
  -5.7508942662932256E-005  -1.1846521931922318E-003   1557421046.3977017     
  -2.4945704842453296E-004   4.0602823301341109E-004   1533188881.5163586     
  -5.2668492278096723E-004   1.7138305426837239E-003   1512341134.8494384     
  -59503631.385023765        7810235.7257458344        1587335012.6490207     
  -48626580.361836441        15442791.797395293        1556794433.8757880     
  -36597201.935397528        26916439.213219792        1529475040.1207178     
  -23415496.105702512        42231177.973228194        1505376831.3838148     
  -9081462.8727630489        61387008.077387854        1484499807.6650825     
  -119379125.19899639        15508912.728036165        1559639757.6485500     
  -98091403.713321954        30634110.700965069        1530903983.3828244     
  -74499027.421058625        53441491.362522095        1505226160.9390109     
  -48601996.322205171        83931054.712715715        1482606290.3171074     
  -20400310.416764565        122102800.75152901        1463044371.5171213     
  -179626481.44184154        23096031.001671404        1532952865.8022242     
  -148394470.05440885        45573956.707640275        1507366278.0145731     
  -113705476.45704582        79575156.446712807        1484674408.8525727     
  -75559500.649748981        125099630.21889411        1464877258.3162367     
  -33956542.632529564        182147378.02415612        1447974826.4055545     
  -240245700.11356539        30571590.546629712        1507274337.1100633     
  -199535779.38508677        60262329.817458153        1486181317.7710378     
  -154216549.04334295        105317434.46583886        1467819783.8614178     
  -104288009.08833611        165736904.49176160        1452189735.3812051     
  -49750159.520063177        241520739.89523932        1439291172.3303993     
  -5.2668492278096723E-004   1.7138305426837239E-003   1512341134.8494384     
  -3.5301432107174625E-004   2.9782952660871611E-003   1403025748.9812126     
  -1.9238273977536190E-004   4.1972149199433042E-003   1290948781.5098166     
  -4.6826096114169604E-005   5.3662317263773358E-003   1176110232.4352548     
   7.8874635760457345E-005   6.4718377177510463E-003   1058510101.7575140     
  -9081462.8727630489        61387008.077387854        1484499807.6650825     
  -9584583.0603670180        80783159.587956876        1375863613.0842848     
  -8146755.4209432825        106649137.18862098        1265125949.6139219     
  -4767979.9544891119        138984940.87938604        1152286817.2539861     
   551743.33898564428        177790570.66022074        1037346216.0044695     
  -20400310.416764565        122102800.75152901        1463044371.5171213     
  -19520514.467579119        161460914.66879934        1357351807.3553133     
  -14758822.864326015        213758680.76629600        1250217887.0175281     
  -6115235.6070132703        278996099.04398811        1141642610.5037746     
   6410247.3043637574        357173169.50189775        1031625977.8140179     
  -33956542.632529564        182147378.02415612        1447974826.4055545     
  -29807794.221996173        242033265.24548194        1347490331.7942779     
  -19836202.330359757        321328630.73715532        1246224593.7206173     
  -4041766.9576300085        420033474.49913907        1144177612.1845765     
   17575511.896219969        538147796.53151810        1041349387.1861432     
  -49750159.520063177        241520739.89523932        1439291172.3303993     
  -40446422.323623985        322500211.31798804        1346279186.4011967     
  -23378893.819037795        429358987.10122466        1253146069.7232065     
   1452425.9936834872        562097067.24490654        1159891822.2964258     
   34047537.114553005        720714451.74909496        1066516444.1208677     
  -1508604788.4218748       -10069541.583620608        1429264503.6040642     
  -1461062712.9609427       -8013969.7457494736        1424200398.1422694     
  -1413606708.4914021       -6245301.2125201225        1423195794.2978361     
  -1366236775.0132527       -4763535.9839286208        1426250692.0707552     
  -1318952912.5264986       -3568674.0599862337        1433365091.4610329     
  -1882997002.3277316       -10136789.150950670        1360561714.6887095     
  -1824065256.8523557       -6662894.3820548058        1354627227.1385148     
  -1765462523.9960496       -4285708.3433815241        1353067217.3056798     
  -1707188803.7588129       -3005231.0349482298        1355881685.1902101     
  -1649244096.1406455       -2821462.4567452669        1363070630.7921021     
  -2259634182.0401673       -10877526.460252762        1291231957.8484857     
  -2188412834.8360481       -5715329.2460381985        1284143656.3109317     
  -2117763441.8786726       -2459646.1876400709        1281744808.5907431     
  -2047686003.1680439       -1110477.2850691080        1284035414.6879263     
  -1978180518.7041636       -1667822.5383157730        1291015474.6024740     
  -2638516327.5591869       -12291753.511530995        1221275233.0833938     
  -2554105446.9120183       -5171274.3377019167        1212749685.6595218     
  -2470509462.1392708       -767114.74528717995        1209228568.1530263     
  -2387728373.2409515        920725.26570725441        1210711880.5639014     
  -2305762180.2170482       -107754.30469262600        1217199622.8921537     
  -3019643438.8847895       -14379470.304783940        1150691540.3934302     
  -2921143093.0802679       -5030729.6570578814        1140445315.1842852     
  -2823700584.7778459        791885.98366594315        1135518495.9925234     
  -2727315913.9775252        3088376.6173826456        1135911082.8181384     
  -2631989080.6793041        1858742.2441122532        1141623075.6611364     
  -1318952912.5264986       -3568674.0599862337        1433365091.4610329     
  -1269578514.6566477       -2357840.5901619792        1425875583.0368040     
  -1220521027.5991776       -2203376.4949404597        1423276991.7942977     
  -1171780451.3540788       -3105281.7742910385        1425569317.7335110     
  -1123356785.9213631       -5063556.4282510281        1432752560.8544478     
  -1649244096.1406455       -2821462.4567452669        1363070630.7921021     
  -1587604795.3173437       -2340308.2990012765        1355660974.9276772     
  -1526171202.1268394       -2544846.2505834699        1352963330.1485126     
  -1464943316.5691321       -3435076.3114853501        1354977696.4546070     
  -1403921138.6442206       -5010998.4817131162        1361704073.8459625     
  -1978180518.7041636       -1667822.5383157730        1291015474.6024740     
  -1904787475.2030134       -2069695.7753251791        1283815408.3406978     
  -1831488936.1550822       -2786583.8563975096        1281148447.0677199     
  -1758284901.5603676       -3818486.7815243006        1283014590.7835371     
  -1685175371.4188709       -5165404.5507130623        1289413839.4881537     
  -2305762180.2170482       -107754.30469262600        1217199622.8921537     
  -2221126554.3136563       -1546003.0191382170        1210338883.2758672     
  -2136474229.6839056       -2928589.3123823404        1207832342.5519190     
  -2051805206.3277929       -4255513.1844218969        1209680000.7203028     
  -1967119484.2453163       -5526774.6352481842        1215881857.7810235     
  -2631989080.6793041        1858742.2441122532        1141623075.6611364     
  -2536622032.6492810       -769230.03045904636        1135231399.7331862     
  -2441127082.7133141       -2970862.6185542345        1133015016.6011076     
  -2345504230.8714075       -4746155.5201797485        1134973926.2649019     
  -2249753477.1235566       -6095108.7353285551        1141108128.7245703     
  -1123356785.9213631       -5063556.4282510281        1432752560.8544478     
  -1073341023.6843889       -7143582.2034014463        1427375245.2452557     
  -1023403546.3465525       -9484557.6423448920        1426694381.4258337     
  -973544353.90786147       -12086482.745106101        1430709969.3961828     
  -923763446.36830688       -14949357.511654973        1439422009.1563010     
  -1403921138.6442206       -5010998.4817131162        1361704073.8459625     
  -1341724081.2084892       -6770310.8721766472        1355905188.7837119     
  -1279674626.5180743       -9021632.4136920571        1354706068.2265768     
  -1217772774.5729735       -11764963.106258154        1358106712.1745584     
  -1156018525.3732002       -15000302.949912488        1366107120.6276538     
  -1685175371.4188709       -5165404.5507130623        1289413839.4881537     
  -1611073268.1691136       -6686878.3719040155        1283112514.1523063     
  -1537188085.5108480       -8931420.8314082026        1281314266.0369208     
  -1463519823.4440832       -11899031.929242909        1284019095.1419938     
  -1390068481.9688077       -15589711.665377557        1291227001.4675241     
  -1967119484.2453163       -5526774.6352481842        1215881857.7810235     
  -1881388584.5662625       -6893284.7025945187        1208997221.3510399     
  -1795943923.3248749       -9213922.8954968452        1206518974.8568599     
  -1710785500.5211661       -12488689.213992834        1208447118.2984829     
  -1625913316.1551263       -16717583.658056080        1214781651.6759098     
  -2249753477.1235566       -6095108.7353285551        1141108128.7245703     
  -2152670030.3999367       -7389529.8642410040        1133559310.3799109     
  -2055942139.9601605       -9869138.6059749126        1130320194.6863983     
  -1959569805.8042417       -13533934.960561752        1131390781.6440344     
  -1863553027.9321654       -18383918.927957296        1136771071.2528162     
  -923763446.36830688       -14949357.511654973        1439422009.1563010     
  -870977926.78390157       -17320389.892541558        1435495466.0498195     
  -818384149.48351455       -20330563.220152915        1436559198.0785446     
  -765982114.46713662       -23979877.494461268        1442613205.2424757     
  -713771821.73477197       -28268332.715482831        1453657487.5416169     
  -1156018525.3732002       -15000302.949912488        1366107120.6276538     
  -1090562622.8452163       -17602593.816965401        1361252621.5755694     
  -1025273917.8061210       -20762209.646983504        1361207663.1493778     
  -960152410.25591922       -24479150.439976156        1365972245.3490772     
  -895198100.19460130       -28753416.195920140        1375546368.1746683     
  -1390068481.9688077       -15589711.665377557        1291227001.4675241     
  -1312458580.8095779       -18578176.312303305        1285473182.0641518     
  -1234991332.3441119       -22042149.938449383        1284348168.7773552     
  -1157666736.5724070       -25981632.543796003        1287851961.6071367     
  -1080484793.4944670       -30396624.128351688        1295984560.5534899     
  -1625913316.1551263       -16717583.658056080        1214781651.6759098     
  -1536665800.6769807       -20247137.378556907        1208157147.5155656     
  -1447536393.0974758       -24170384.094523907        1205980714.9624784     
  -1358525093.4166036       -28487323.805935144        1208252354.0166557     
  -1269631901.6343703       -33197956.512809515        1214972064.6780910     
  -1863553027.9321654       -18383918.927957296        1136771071.2528162     
  -1763184282.4474320       -22609477.015718460        1129304517.9298091     
  -1662909100.0662141       -27146912.115197420        1126105301.7047460     
  -1562727480.7885070       -31996224.226379693        1127173422.5776305     
  -1462639424.6143091       -37157413.349257946        1132508880.5484550     
  -713771821.73477197       -28268332.715482831        1453657487.5416169     
  -656591505.05600154       -30817144.689809233        1452239324.5526443     
  -599055510.22762585       -32180362.832117885        1456260306.1942394     
  -541163837.24965608       -32357987.142445475        1465720432.4664085     
  -482916486.12208706       -31350017.620777100        1480619703.3691468     
  -895198100.19460130       -28753416.195920140        1375546368.1746683     
  -824306954.20209217       -31164738.250004709        1372931955.0964479     
  -753194615.38717985       -32838750.896074802        1375393460.7243233     
  -681861083.74985886       -33775454.134119689        1382930885.0582898     
  -610306359.29013383       -33974847.964148253        1395544228.0983601     
  -1080484793.4944670       -30396624.128351688        1295984560.5534899     
  -996920606.54386473       -32981792.768909812        1292016997.8376300     
  -913269712.09805059       -35277936.425420165        1292762127.9033940     
  -829532110.15701842       -37285055.097871006        1298219950.7507768     
  -745707800.72077298       -39003148.786283791        1308390466.3797865     
  -1269631901.6343703       -33197956.512809515        1214972064.6780910     
  -1174432462.0813165       -36268308.246526003        1209494452.7762012     
  -1079280800.3602390       -39497919.420160711        1208366307.7314639     
  -984176916.47114098       -42886790.033722878        1211587629.5438690     
  -889120810.41401267       -46434920.087196171        1219158418.2134299     
  -1462639424.6143091       -37157413.349257946        1132508880.5484550     
  -1356842520.8144448       -41024284.682832003        1125364319.9121516     
  -1251227880.1737471       -45498699.880297303        1122206000.2085195     
  -1145795502.6922164       -50580658.941652298        1123033921.4375622     
  -1040545388.3698553       -56270161.866902709        1127848083.5992801     
  -482916486.12208706       -31350017.620777100        1480619703.3691468     
  -425514227.90096140       -26754409.848942339        1478640177.6843948     
  -365935010.82582957       -14902272.563751504        1482422774.7462974     
  -304178834.89669818        4206394.2347696722        1491967494.5548518     
  -240245700.11356539        30571590.546629712        1507274337.1100633     
  -610306359.29013383       -33974847.964148253        1395544228.0983601     
  -538157678.66948128       -30298232.927899808        1393339372.0773940     
  -463792066.46377170       -19231845.941458747        1396927870.4022365     
  -387209522.67300892       -775687.00484114885        1406309723.0728931     
  -308410047.29717362        25070243.882017076        1421484930.0893466     
  -745707800.72077298       -39003148.786283791        1308390466.3797865     
  -658723464.56016386       -36218756.543529421        1306006914.8755093     
  -569482224.08343089       -25911349.913700253        1309447949.3161972     
  -477984079.29058242       -8080928.8968172371        1318713569.7018507     
  -384229030.18160987        17272506.507146031        1333803776.0324671     
  -889120810.41401267       -46434920.087196171        1219158418.2134299     
  -787211585.57300222       -44515980.695807427        1216642806.0787420     
  -683005483.68480241       -34940784.480449200        1219983011.4881773     
  -576502504.74942827       -17709331.441181839        1229179034.4417336     
  -467702648.76687175        7178378.4220323265        1244230874.9394109     
  -1040545388.3698553       -56270161.866902709        1127848083.5992801     
  -923622041.70798564       -55189905.384698957        1125247045.6870935     
  -804361845.26788330       -46320149.641709328        1128533056.9181774     
  -682764799.04954600       -29660894.637942582        1137706117.2925379     
  -558830903.05295742       -5212140.3733351529        1152766226.8101766     
  -240245700.11356539        30571590.546629712        1507274337.1100633     
  -199535779.38508677        60262329.817458153        1486181317.7710378     
  -154216549.04334295        105317434.46583886        1467819783.8614178     
  -104288009.08833611        165736904.49176160        1452189735.3812051     
  -49750159.520063177        241520739.89523932        1439291172.3303993     
  -308410047.29717362        25070243.882017076        1421484930.0893466     
  -258874934.15269509        55289321.083835274        1404768835.9142973     
  -202884804.25191098        107025120.80667354        1391987941.7226884     
  -140439657.59482232        180277643.05052662        1383142247.5145247     
  -71539494.181446239        275046887.81533766        1378231753.2897937     
  -384229030.18160987        17272506.507146031        1333803776.0324671     
  -322429540.18102425        49051676.972019449        1323617932.0215995     
  -252329326.28110451        108499927.10133971        1318571002.5481999     
  -173928388.48185545        195617256.89509410        1318662987.6122751     
  -87226726.783270150        310403666.35329717        1323893887.2138331     
  -467702648.76687175        7178378.4220323265        1244230874.9394109     
  -390199597.47008258        41549397.481979832        1242728606.0929227     
  -302550115.13093293        109741853.34981251        1247568966.3379431     
  -204754201.74941760        211755746.02551949        1258751955.6744745     
  -96811857.325537920        347591075.50911349        1276277574.1025174     
  -558830903.05295742       -5212140.3733351529        1152766226.8101766     
  -462185106.01987320        32782482.613720566        1162100858.1282804     
  -353547170.80139804        110750899.55207434        1178981833.0919240     
  -232917097.39751309        228693110.44179666        1203409151.7011108     
  -100294885.80823779        386609115.28282022        1235382813.9558396     
  -49750159.520063177        241520739.89523932        1439291172.3303993     
  -40446422.323623985        322500211.31798804        1346279186.4011967     
  -23378893.819037795        429358987.10122466        1253146069.7232065     
   1452425.9936834872        562097067.24490654        1159891822.2964258     
   34047537.114553005        720714451.74909496        1066516444.1208677     
  -71539494.181446239        275046887.81533766        1378231753.2897937     
  -57372062.895505160        376789891.71045351        1296712475.3122528     
  -34235310.716292232        508430631.91646957        1214264046.8125653     
  -2129237.6438170969        669969108.43337297        1130886467.7907295     
   38946156.321936965        861405321.26118529        1046579738.2467591     
  -87226726.783270150        310403666.35329717        1323893887.2138331     
  -70504229.331702232        432217614.34361750        1255273768.3705921     
  -43606881.401738465        587947730.59524846        1184916479.2318563     
  -6534682.9933768809        777594015.10821104        1112822019.7976210     
   40712365.893379629        1001156467.8824934        1038990390.0678852     
  -96811857.325537920        347591075.50911349        1276277574.1025174     
  -79842921.632222116        488783379.21746135        1221963065.5762346     
  -51493605.875370592        667910283.13758922        1165103366.9810898     
  -11763910.055004001        884971787.26944089        1105698478.3170919     
   39346165.828884959        1139967891.6130202        1043748399.5842497     
  -100294885.80823779        386609115.28282022        1235382813.9558396     
  -85388139.797044426        546487186.33204782        1196780366.9291587     
  -57895484.137194842        748318289.54345727        1154824710.0602696     
  -17816918.828690886        992102424.91704249        1109515843.3491704     
   34847556.128449142        1277839592.4527645        1060853766.7958517     
  -3019643438.8847895       -14379470.304783940        1150691540.3934302     
  -2921143093.0802679       -5030729.6570578814        1140445315.1842852     
  -2823700584.7778459        791885.98366594315        1135518495.9925234     
  -2727315913.9775252        3088376.6173826456        1135911082.8181384     
  -2631989080.6793041        1858742.2441122532        1141623075.6611364     
  -3397691306.5423574       -10567490.145313501        1033770148.1743387     
  -3287033771.6762795       -4846929.5945422649        1024145257.7166220     
  -3176941237.8620572       -1009705.8832843304        1019389917.4650915     
  -3067413705.0996952        944180.98844707012        1019504127.4197518     
  -2958451173.3891830        1014731.0206693411        1024487887.5806009     
  -3770616549.9708900       -5218722.7171359062        913763061.55847192     
  -3649087128.3609462       -3511932.9586162567        905334481.71080160     
  -3527629871.3526134       -2045691.8721413612        901325596.25812101     
  -3406244778.9458981       -819999.45770525932        901736405.20044184     
  -3284931851.1407886        165144.28469872475        906566908.53776002     
  -4138419169.1703873        1666831.9797525406        790670280.54582477     
  -4007303163.1342711       -1025739.7492942810        784012987.16681457     
  -3875766485.2495213       -2316071.9829039574        781325532.37160885     
  -3743809135.5161347       -2204164.7210626602        782607916.16020763     
  -3611431113.9341192       -690017.96378135681        787860138.53261805     
  -4501099164.1408482        10089173.945355177        664491805.13640237     
  -4361681875.9962463        2611650.0334389210        660180774.08467233     
  -4221351079.5527654       -1820846.2155637741        659389725.80555701     
  -4080106774.8104062       -3208314.8016350269        662118660.29905522     
  -3937948961.7691760       -1550755.7247891426        668367577.56516790     
  -2631989080.6793041        1858742.2441122532        1141623075.6611364     
  -2536622032.6492810       -769230.03045904636        1135231399.7331862     
  -2441127082.7133141       -2970862.6185542345        1133015016.6011076     
  -2345504230.8714075       -4746155.5201797485        1134973926.2649019     
  -2249753477.1235566       -6095108.7353285551        1141108128.7245703     
  -2958451173.3891830        1014731.0206693411        1024487887.5806009     
  -2851839167.3515387       -476517.07365977764        1018182953.7645556     
  -2745226978.1244655       -1967154.5365636349        1016090373.8861344     
  -2638614605.7079659       -3457181.3680452108        1018210147.9453384     
  -2532002050.1020408       -4946597.5681083202        1024542275.9421711     
  -3284931851.1407886        165144.28469872475        906566908.53776002     
  -3166968998.1190834       -157612.93645012379        900199711.66434979     
  -3049133680.6244683       -905488.58122861385        898081929.87031841     
  -2931425898.6569443       -2078482.6496434212        900213563.15566599     
  -2813845652.2165084       -3676595.1416866779        906594611.52039170     
  -3611431113.9341192       -690017.96378135681        787860138.53261805     
  -3482011524.9519176        187482.38117313385        781281673.43257189     
  -3352847190.2133236        214135.24744749069        778989684.55366135     
  -3223938109.7183328       -610059.36497068405        780984171.89588261     
  -3095284283.4669471       -2285101.4560629129        787265135.45923352     
  -3937948961.7691760       -1550755.7247891426        668367577.56516790     
  -3796966747.8500414        558768.87921071053        661428839.06922114     
  -3656367506.8910284        1391716.9494686127        658813637.93616223     
  -3516151238.8921351        948088.48598909378        660521974.16598558     
  -3376317943.8533640       -772116.51121926308        666553847.75869751     
  -2249753477.1235566       -6095108.7353285551        1141108128.7245703     
  -2152670030.3999367       -7389529.8642410040        1133559310.3799109     
  -2055942139.9601605       -9869138.6059749126        1130320194.6863983     
  -1959569805.8042417       -13533934.960561752        1131390781.6440344     
  -1863553027.9321654       -18383918.927957296        1136771071.2528162     
  -2532002050.1020408       -4946597.5681083202        1024542275.9421711     
  -2423858138.4085302       -6321131.5417945385        1016748739.3727278     
  -2315941568.9812984       -8453473.0697450638        1013172037.7085377     
  -2208252341.8203530       -11343622.151978254        1013812170.9496022     
  -2100790456.9256883       -14991578.788485050        1018669139.0959222     
  -2813845652.2165084       -3676595.1416866779        906594611.52039170     
  -2694906611.9699469       -5210842.8851988316        898705939.74666095     
  -2576066699.9721022       -7075518.1244256496        894941235.13229001     
  -2457325916.2229705       -9270620.8593634367        895300497.67727566     
  -2338684260.7225504       -11796151.090014815        899783727.38162255     
  -3095284283.4669471       -2285101.4560629129        787265135.45923352     
  -2965815451.0841818       -4058663.8944500685        779430911.50171208     
  -2836317532.9325581       -5735273.7699900866        775627786.95765483     
  -2706790529.0120878       -7314931.0826969147        775855761.82706320     
  -2577234439.3227611       -8797635.8325555325        780114836.10993850     
  -3376317943.8533640       -772116.51121926308        666553847.75869751     
  -3236584655.7512341       -2864594.5695414543        658923654.63787699     
  -3096694067.8626809       -4432740.0064686537        655231693.18463182     
  -2956646180.1877036       -5476552.8219733238        655477963.39895225     
  -2816440992.7263079       -5996033.0160840750        659662465.28084731     
  -1863553027.9321654       -18383918.927957296        1136771071.2528162     
  -1763184282.4474320       -22609477.015718460        1129304517.9298091     
  -1662909100.0662141       -27146912.115197420        1126105301.7047460     
  -1562727480.7885070       -31996224.226379693        1127173422.5776305     
  -1462639424.6143091       -37157413.349257946        1132508880.5484550     
  -2100790456.9256883       -14991578.788485050        1018669139.0959222     
  -1989348058.9472346       -18066175.850243330        1010671082.1985664     
  -1878087633.6587996       -21747348.545407176        1006658276.0385944     
  -1767009181.0603833       -26035096.873963356        1006630720.6159987     
  -1656112701.1519902       -30929420.835926652        1010588415.9307816     
  -2338684260.7225504       -11796151.090014815        899783727.38162255     
  -2216974171.2805591       -13961575.434818268        891151022.39233100     
  -2095534464.1151004       -17028274.034724832        886221481.77985156     
  -1974365139.2261684       -20996246.889726400        884995105.54418778     
  -1853466196.6137681       -25865493.999827862        887471893.68533421     
  -2577234439.3227611       -8797635.8325555325        780114836.10993850     
  -2446062619.4474220       -10295675.769461274        770744338.51110864     
  -2315249591.4351153       -12989688.583153486        764794918.92852795     
  -2184795355.2858543       -16879674.273656487        762266577.36219597     
  -2054699910.9996309       -21965632.840952635        763159313.81211531     
  -2816440992.7263079       -5996033.0160840750        659662465.28084731     
  -2676613403.4478078       -7068476.8541510105        649451030.55488896     
  -2537233015.6188512       -9631592.1907082796        642378587.48461461     
  -2398299829.2394433       -13685379.025759816        638445136.07002366     
  -2259813844.3095856       -19229837.359298229        637650676.31111550     
  -1462639424.6143091       -37157413.349257946        1132508880.5484550     
  -1356842520.8144448       -41024284.682832003        1125364319.9121516     
  -1251227880.1737471       -45498699.880297303        1122206000.2085195     
  -1145795502.6922164       -50580658.941652298        1123033921.4375622     
  -1040545388.3698553       -56270161.866902709        1127848083.5992801     
  -1656112701.1519902       -30929420.835926652        1010588415.9307816     
  -1540259619.8979533       -34605019.084577739        1001841884.0050827     
  -1424401437.1783178       -38263612.447912753        996800492.32262731     
  -1308538152.9930794       -41905200.925895751        995464240.88342321     
  -1192669767.3422513       -45529784.518584430        997833129.68746126     
  -1853466196.6137681       -25865493.999827862        887471893.68533421     
  -1728360082.7324843       -29590762.611626863        877341982.53246677     
  -1603061502.7608395       -32674477.588886797        870636110.93341422     
  -1477570456.6988382       -35116638.931627870        867354278.88818359     
  -1351886944.5464759       -36917246.639831364        867496486.39677358     
  -2054699910.9996309       -21965632.840952635        763159313.81211531     
  -1921143909.3180387       -25981515.263988137        751864615.49428988     
  -1787208076.9213192       -28731295.303261638        743712856.04086506     
  -1652892413.8094819       -30214972.958812237        738704035.45183647     
  -1518196919.9825220       -30432548.230619729        736838153.72719538     
  -2259813844.3095856       -19229837.359298229        637650676.31111550     
  -2118611099.6546183       -23777277.041650176        625409782.89057183     
  -1976841159.6597612       -26434065.591031671        616030727.64499283     
  -1834504024.3250232       -27200203.007474065        609513510.57438743     
  -1691599693.6503935       -26075689.290948987        605858131.67873895     
  -1040545388.3698553       -56270161.866902709        1127848083.5992801     
  -923622041.70798564       -55189905.384698957        1125247045.6870935     
  -804361845.26788330       -46320149.641709328        1128533056.9181774     
  -682764799.04954600       -29660894.637942582        1137706117.2925379     
  -558830903.05295742       -5212140.3733351529        1152766226.8101766     
  -1192669767.3422513       -45529784.518584430        997833129.68746126     
  -1062185260.7605026       -42557428.886183977        994071070.19758892     
  -930247326.22951818       -34740313.423007905        994416984.77584147     
  -796855963.74930441       -22078438.129058659        998870873.42221987     
  -662011173.31986415       -4571803.0043614507        1007432736.1367289     
  -1351886944.5464759       -36917246.639831364        867496486.39677358     
  -1212924349.6881161       -33577713.350199699        861542746.52869582     
  -1073391748.7095305       -28338159.659820497        857917905.65360367     
  -933289141.61072981       -21198585.568708420        856621963.77149057     
  -792616528.39169681       -12158991.076848835        857654920.88235497     
  -1518196919.9825220       -30432548.230619729        736838153.72719538     
  -1375839308.4908359       -28250758.776743114        727662074.68041396     
  -1233795112.7079220       -27113688.352133155        719035819.55146468     
  -1092064332.6338065       -27021336.956843436        710959388.34034824     
  -950646968.26847649       -27973704.590838671        703432781.04706633     
  -1691599693.6503935       -26075689.290948987        605858131.67873895     
  -1550930137.1686502       -26576565.165818214        592429054.65274155     
  -1411457418.2246971       -31066899.499985933        577770726.46942365     
  -1273181536.8185344       -39546692.293460011        561883147.12879145     
  -1136102492.9501801       -52015943.546285689        544766316.63084888     
  -558830903.05295742       -5212140.3733351529        1152766226.8101766     
  -462185106.01987320        32782482.613720566        1162100858.1282804     
  -353547170.80139804        110750899.55207434        1178981833.0919240     
  -232917097.39751309        228693110.44179666        1203409151.7011108     
  -100294885.80823779        386609115.28282022        1235382813.9558396     
  -662011173.31986415       -4571803.0043614507        1007432736.1367289     
  -546962587.24567533        25692218.131717026        1020930677.7580179     
  -421040233.08690804        92202132.883057266        1042822252.3463836     
  -284244110.84356356        194957941.24965608        1073107459.9018106     
  -136574220.51564103        333959643.23151237        1111786300.4243119     
  -792616528.39169681       -12158991.076848835        857654920.88235497     
  -656744326.64346850        11100676.198136091        874011407.68921459     
  -511116726.91148633        66878336.752299786        899608816.78466773     
  -355733729.19573969        155173990.58567774        934447148.16872168     
  -190595333.49623507        275987637.69825065        978526401.84137416     
  -950646968.26847649       -27973704.590838671        703432781.04706633     
  -791530324.21326709       -10992143.187063038        721343047.92186439     
  -623776652.27511811        34779511.159849495        749341526.40679204     
  -447385952.45403999        109341258.44986218        787428216.50184369     
  -262358224.75001132        212693098.68303260        835603118.20702565     
  -1136102492.9501801       -52015943.546285689        544766316.63084888     
  -951320579.95505822       -40586240.023846686        562925598.45597064     
  -759020009.17782307       -4094343.8943576515        592020381.21274507     
  -559200780.61846197        57459744.842214704        632050664.90117586     
  -351862894.27697772        144076026.18586415        683016449.52125645     
  -100294885.80823779        386609115.28282022        1235382813.9558396     
  -85388139.797044426        546487186.33204782        1196780366.9291587     
  -57895484.137194842        748318289.54345727        1154824710.0602696     
  -17816918.828690886        992102424.91704249        1109515843.3491704     
   34847556.128449142        1277839592.4527645        1060853766.7958517     
  -136574220.51564103        333959643.23151237        1111786300.4243119     
  -127413655.14357775        482990920.62594223        1090207047.9194200     
  -95116502.098277569        709144156.93116319        1070063972.5315875     
  -39682761.379743218        1012419352.1471666        1051357074.2608246     
   38887567.012011707        1392816506.2739222        1034086353.1071161     
  -190595333.49623507        275987637.69825065        978526401.84137416     
  -173496986.02251786        418277310.26011789        986279468.22027445     
  -122711372.85098580        672857868.48139560        1000258098.6755193     
  -38238493.981626868        1039729312.3620448        1020462293.2070988     
   79921650.585519731        1518891641.9020503        1046892051.8150225     
  -262358224.75001132        212693098.68303260        835603118.20702565     
  -223638132.43385592        352346355.23457921        884997627.83174145     
  -140680096.39530173        639459424.19413209        945407088.49206078     
  -13484116.634356797        1074032305.5616543        1016831500.1880034     
   157949806.84898317        1656064999.3371716        1099270862.9195569     
  -351862894.27697772        144076026.18586415        683016449.52125645     
  -277837094.37760675        285198055.54930997        786361526.75379992     
  -149022672.73123989        608948824.06940341        905510941.98122072     
   34580370.662093997        1115328331.7460566        1040464695.2035376     
   272972035.80239868        1804336578.5792785        1191222786.4207306     
  -4501099164.1408482        10089173.945355177        664491805.13640237     
  -4361681875.9962463        2611650.0334389210        660180774.08467233     
  -4221351079.5527654       -1820846.2155637741        659389725.80555701     
  -4080106774.8104062       -3208314.8016350269        662118660.29905522     
  -3937948961.7691760       -1550755.7247891426        668367577.56516790     
  -4865834581.9630785        4695393.8664567471        501877636.88335985     
  -4715675272.9566669        2143117.4139423370        498108137.19460553     
  -4565256999.2905664        454056.49370932579        497945152.13630658     
  -4414579760.9647856       -371788.89425182343        501388681.70846462     
  -4263643557.9793253       -334418.74994254112        508438725.91107732     
  -5231100505.8570528       -857538.03396153450        340300147.75351393     
  -5069951942.1092663        1589603.1368124485        336308545.18200725     
  -4909198957.3410053        2718147.7091877460        336009989.09880012     
  -4748841551.5522480        2528095.6832134724        339404479.50388837     
  -4588879724.7430096        1019447.0588452816        346492016.39727622     
  -5596896935.8227377       -6569621.7558999062        179759337.74686322     
  -5424511883.4540424        951107.20201611519        174781998.04688272     
  -5253176953.7040682        4971427.4308872223        173584236.69303682     
  -5082892146.5727997        5491338.9307420254        176166053.68533128     
  -4913657462.0602312        2510841.7015709877        182527449.02376035     
  -5963223871.8601532       -12440857.299347162        20255206.863414224     
  -5779355096.9910049        227629.60957050323        13528495.789223181     
  -5597190988.3797731        7213895.6587910652        10667894.919015918     
  -5416731546.0264339        8517940.8483562469        11673404.252784744     
  -5237976769.9310017        4139765.1782321930        16545023.790532226     
  -3937948961.7691760       -1550755.7247891426        668367577.56516790     
  -3796966747.8500414        558768.87921071053        661428839.06922114     
  -3656367506.8910284        1391716.9494686127        658813637.93616223     
  -3516151238.8921351        948088.48598909378        660521974.16598558     
  -3376317943.8533640       -772116.51121926308        666553847.75869751     
  -4263643557.9793253       -334418.74994254112        508438725.91107732     
  -4111898147.9058790        145622.05678629875        501367032.83522981     
  -3960279894.6661768        201806.75105094910        498627218.77610093     
  -3808788798.2602077       -165864.66713333130        500219283.73369747     
  -3657424858.6879721       -957392.19776964188        506143227.70801389     
  -4588879724.7430096        1019447.0588452816        346492016.39727622     
  -4426347285.2185841       -122845.94269704819        339585820.88896936     
  -4263686186.4015079       -836274.63542509079        337019846.05122507     
  -4100896428.2917786       -1120839.0193085670        338794091.88403791     
  -3937978010.8894095       -976539.09436678886        344908558.38741887     
  -4913657462.0602312        2510841.7015709877        182527449.02376035     
  -4740314159.7881451       -246635.11925148964        176085203.23044643     
  -4566586382.0970230       -1722527.2099542618        173991519.76153979     
  -4392474128.9868746       -1916834.5705592632        176246398.61702278     
  -4217977400.4576802       -829557.20102500916        182849839.79690745     
  -5237976769.9310017        4139765.1782321930        16545023.790532226     
  -5053798771.6145725       -225745.47283887863        10865179.859663988     
  -4868980481.7527266       -2456950.9725451469        9542239.9070363212     
  -4683521900.3454466       -2553851.3208041191        12576203.932640100     
  -4497423027.3927650       -516446.51770043373        19967071.936475802     
  -3376317943.8533640       -772116.51121926308        666553847.75869751     
  -3236584655.7512341       -2864594.5695414543        658923654.63787699     
  -3096694067.8626809       -4432740.0064686537        655231693.18463182     
  -2956646180.1877036       -5476552.8219733238        655477963.39895225     
  -2816440992.7263079       -5996033.0160840750        659662465.28084731     
  -3657424858.6879721       -957392.19776964188        506143227.70801389     
  -3507055761.8083820       -2154497.5868108273        498880734.37968618     
  -3356630139.9965601       -3163186.5350775719        495654776.28892606     
  -3206147993.2524939       -3983459.0425356627        496465353.43572122     
  -3055609321.5761986       -4615315.1092197895        501312465.82008368     
  -3937978010.8894095       -976539.09436678886        344908558.38741887     
  -3776692237.8895216       -1194011.6112735271        337896194.18836445     
  -3615450714.8115892       -1558983.8680245876        335018668.79686922     
  -3454253441.6555991       -2071455.8645892143        336275982.21292609     
  -3293100418.4215631       -2731427.6009976864        341668134.43654829     
  -4217977400.4576802       -829557.20102500916        182849839.79690745     
  -4045494083.9946556        16863.357053518295        175970034.06390724     
  -3873155792.3077669        379867.99468374252        173323370.70846638     
  -3700962525.3970213        259456.71183729172        174909849.73057032     
  -3528914283.2623973       -344370.49141669273        180729471.13023624     
  -4497423027.3927650       -516446.51770043373        19967071.936475802     
  -4313461300.1237717        1478127.3181858063        13102254.006328242     
  -4129745372.4850917        2653369.0530529022        10568882.023722338     
  -3946275244.4767351        3009278.6868190765        12366955.988653444     
  -3763050916.0986991        2545856.2195374966        18496475.901141897     
  -2816440992.7263079       -5996033.0160840750        659662465.28084731     
  -2676613403.4478078       -7068476.8541510105        649451030.55488896     
  -2537233015.6188512       -9631592.1907082796        642378587.48461461     
  -2398299829.2394433       -13685379.025759816        638445136.07002366     
  -2259813844.3095856       -19229837.359298229        637650676.31111550     
  -3055609321.5761986       -4615315.1092197895        501312465.82008368     
  -2907369286.2277031       -6125154.5722059011        491468796.50431275     
  -2759309990.6452622       -8237459.9220448732        485058185.34629661     
  -2611431434.8288813       -10952231.158738017        482080632.34603524     
  -2463733618.7785478       -14269468.282275081        482536137.50353259     
  -3293100418.4215631       -2731427.6009976864        341668134.43654829     
  -3135607746.9971504       -4426605.6871212721        332503102.49503511     
  -2978029353.6553082       -5836044.0484852791        327065195.21335101     
  -2820365238.3960290       -6959742.6850492954        325354412.59149057     
  -2662615401.2193041       -7797701.5968067646        327370754.62946695     
  -3528914283.2623973       -344370.49141669273        180729471.13023624     
  -3361328785.7561450       -1972830.1989064217        172553948.52705362     
  -3193391104.6489706       -2427344.5699806213        168399617.08577442     
  -3025101239.9408731       -1707913.6046462059        168266476.80639774     
  -2856459191.6318402        185462.69713592529        172154527.68891975     
  -3763050916.0986991        2545856.2195374966        18496475.901141897     
  -3584532402.5046926        1236171.8924555779        11621334.600374451     
  -3405395243.6262784        1988638.5133738518        9061450.9635760486     
  -3225639439.4634266        4803256.0824316740        10816824.990749730     
  -3045264990.0161581        9680024.5995440483        16887456.681900460     
  -2259813844.3095856       -19229837.359298229        637650676.31111550     
  -2118611099.6546183       -23777277.041650176        625409782.89057183     
  -1976841159.6597612       -26434065.591031671        616030727.64499283     
  -1834504024.3250232       -27200203.007474065        609513510.57438743     
  -1691599693.6503935       -26075689.290948987        605858131.67873895     
  -2463733618.7785478       -14269468.282275081        482536137.50353259     
  -2315126169.3973904       -17134593.074288607        472355780.36228240     
  -2166219811.6794209       -19003356.743601084        464621285.24536228     
  -2017014545.6246443       -19875759.290215135        459332652.15278327     
  -1867510371.2330632       -19751800.714158058        456489881.08453107     
  -2662615401.2193041       -7797701.5968067646        327370754.62946695     
  -2507791750.3994694       -9337062.4847059250        318937932.26391834     
  -2352937478.2459097       -10774352.260205746        312534995.77207208     
  -2198052584.7586155       -12109570.923244476        308161945.15392476     
  -2043137069.9376070       -13342718.473902464        305818780.40947443     
  -2856459191.6318402        185462.69713592529        172154527.68891975     
  -2696607842.6608648       -384685.27295124531        165156238.59548706     
  -2536994159.3592401       -1747052.1408761740        159771859.22511554     
  -2377618141.7269645       -3901637.9066255093        156001389.57781824     
  -2218479789.7640395       -6848442.5702199936        153844829.65357631     
  -3045264990.0161581        9680024.5995440483        16887456.681900460     
  -2881574446.1815619        9722538.5610527992        11010699.356987892     
  -2718389855.0194025        8078543.6144037247        6331875.6044961922     
  -2555711216.5296550        4748039.7597275972        2850985.4244464976     
  -2393538530.7123570       -268973.00310325623        568028.81682663877     
  -1691599693.6503935       -26075689.290948987        605858131.67873895     
  -1550930137.1686502       -26576565.165818214        592429054.65274155     
  -1411457418.2246971       -31066899.499985933        577770726.46942365     
  -1273181536.8185344       -39546692.293460011        561883147.12879145     
  -1136102492.9501801       -52015943.546285689        544766316.63084888     
  -1867510371.2330632       -19751800.714158058        456489881.08453107     
  -1729745605.6607966       -22864894.833767295        442810638.82481688     
  -1592091988.0186830       -26348482.053868473        428729012.77160144     
  -1454549518.3066998       -30202562.374416053        414245002.92489016     
  -1317118196.5248530       -34427135.795424759        399358609.28467965     
  -2043137069.9376070       -13342718.473902464        305818780.40947443     
  -1905914617.0925047       -18359287.383606553        293156010.79165131     
  -1767717622.5698802       -20127384.034902096        280917724.74413508     
  -1628546086.3697422       -18647008.427808762        269103922.26693970     
  -1488400008.4920893       -13918160.562332869        257714603.36006311     
  -2218479789.7640395       -6848442.5702199936        153844829.65357631     
  -2079437171.4637604       -13059742.815282583        143465170.55322617     
  -1938334321.8782964       -12403605.443074226        134336862.38701233     
  -1795171241.0076780       -4880030.4536762238        126459905.15493704     
  -1649947928.8518775        9510982.1529934406        119834298.85699318     
  -2393538530.7123570       -268973.00310325623        568028.81682663877     
  -2250313268.7745643       -6966261.1288295984       -6261881.8904356044     
  -2103942085.9439611       -3177146.2785009146       -11013574.299741626     
  -1954424982.2205014        11098371.548007011       -13687048.411116563     
  -1801761957.6042266        35860292.350564957       -14282304.224534957     
  -1136102492.9501801       -52015943.546285689        544766316.63084888     
  -951320579.95505822       -40586240.023846686        562925598.45597064     
  -759020009.17782307       -4094343.8943576515        592020381.21274507     
  -559200780.61846197        57459744.842214704        632050664.90117586     
  -351862894.27697772        144076026.18586415        683016449.52125645     
  -1317118196.5248530       -34427135.795424759        399358609.28467965     
  -1117573872.8385911       -14668506.336847782        421214216.55440271     
  -914391388.71124732        17217324.592022896        441567963.59270215     
  -707570744.14279842        61230356.991220623        460419850.39957678     
  -497111939.13327283        117370590.86067709        477769876.97501880     
  -1488400008.4920893       -13918160.562332869        257714603.36006311     
  -1309628591.7234778        3508799.5497716069        278739289.17651743     
  -1131099511.8548205        20127969.995372772        285824753.59847105     
  -952812768.88609087        35939350.774553239        278970996.62592089     
  -774768362.81731832        50942941.887201577        258178018.25886208     
  -1649947928.8518775        9510982.1529934406        119834298.85699318     
  -1527484736.6097369        13945677.635929346        135500816.32231706     
  -1409144378.6085477        4637592.3156828284        124790751.23006050     
  -1294926854.8483486       -18413273.807857096        87704103.580216676     
  -1184832165.3291123       -55206920.734610140        24240873.372791395     
  -1801761957.6042266        35860292.350564957       -14282304.224534957     
  -1771142307.4973340        16642127.921752334       -8501202.0082089528     
  -1748525988.9724493       -29253808.447109461       -41534043.512546465     
  -1733913002.0295391       -101827516.75587976       -113380828.73755358     
  -1727303346.6686659       -201078997.00476319       -224041557.68321973     
  -351862894.27697772        144076026.18586415        683016449.52125645     
  -277837094.37760675        285198055.54930997        786361526.75379992     
  -149022672.73123989        608948824.06940341        905510941.98122072     
   34580370.662093997        1115328331.7460566        1040464695.2035376     
   272972035.80239868        1804336578.5792785        1191222786.4207306     
  -497111939.13327283        117370590.86067709        477769876.97501880     
  -388278646.26606613        223044576.60999689        597060922.55445385     
  -230322147.56135184        492462581.81766129        735502942.48674703     
  -23242443.019123733        925624606.48368311        893095936.77190208     
   232960467.36058539        1522530650.6080332        1069839905.4099331     
  -774768362.81731832        50942941.887201577        258178018.25886208     
  -621565758.81661963        124037429.47207218        386805380.29080236     
  -424905364.88789159        341991216.81702328        537930353.03358102     
  -184787181.03113505        704804303.92209482        711552936.48720527     
   98788792.753650248        1212476690.7872512        907673130.65166759     
  -1184832165.3291123       -55206920.734610140        24240873.372791395     
  -977698432.02927804       -11823385.864512265        155594899.96283787     
  -732772324.71088409        157534729.06743991        312793173.62171352     
  -450053843.37392974        452867424.06125993        495835694.34941524     
  -129542988.01842469        874174699.11692715        704722462.14592934     
  -1727303346.6686659       -201078997.00476319       -224041557.68321973     
  -1456676665.9040391       -184537869.39972752       -96570518.429428548     
  -1153923027.0303159       -60906881.431048691        60091404.251153640     
  -819042430.04751658        169813966.90121746        245944210.35853386     
  -452034874.95564806        507624675.59705865        460987899.89273202     
 </DataArray>
 <DataArray  type="Float64" Name="VM" NumberOfComponents="1" format="ascii">
   5957116488.2969599     
   5779516411.1017971     
   5600831895.3532448     
   5421033237.8811989     
   5240126235.1576166     
   5602273573.9804821     
   5433427609.1104326     
   5264257122.3104076     
   5094785376.2334957     
   4925070778.0900850     
   5263776204.2704792     
   5104094898.8893471     
   4944926071.2601547     
   4786344554.5675144     
   4628462642.5731659     
   4945185408.2308502     
   4795001487.8395767     
   4646234247.7741766     
   4499004905.9464769     
   4353476825.7754526     
   4650812394.5890055     
   4510341756.6984758     
   4372242703.3416357     
   4236672595.8961058     
   4103837629.8458962     
   5240126235.1576166     
   5053720939.7448416     
   4867780527.8167553     
   4682296163.5716839     
   4497297801.7302170     
   4925070778.0900850     
   4749992342.1433544     
   4575660304.2125969     
   4402113284.8391953     
   4229436980.3295608     
   4628462642.5731659     
   4465194523.1554327     
   4303045678.1260700     
   4142113063.7581568     
   3982550930.6768808     
   4353476825.7754526     
   4202667234.8791595     
   4053455736.1428199     
   3906007986.1352167     
   3760558312.5992675     
   4103837629.8458962     
   3966300890.3128738     
   3830955512.7239652     
   3698042981.2789531     
   3567884336.5025826     
   4497297801.7302170     
   4314260239.7994499     
   4131113254.0999999     
   3947838854.7828007     
   3764460814.1342211     
   4229436980.3295608     
   4056967704.8251162     
   3884962058.0177879     
   3713470652.2327456     
   3542599371.4413347     
   3982550930.6768808     
   3821180155.6640153     
   3660951023.3279996     
   3501993775.4542665     
   3344508080.7119079     
   3760558312.5992675     
   3610891133.0722485     
   3463145856.8146873     
   3317538666.4715366     
   3174367589.1758933     
   3567884336.5025826     
   3430562356.8449488     
   3296026801.1460061     
   3164577140.6108255     
   3036602056.1792560     
   3764460814.1342211     
   3585207153.8326745     
   3406426155.0638552     
   3228098116.4440393     
   3050256770.0639281     
   3542599371.4413347     
   3373607618.1799445     
   3205476013.2385221     
   3038258487.8911281     
   2872072502.4868450     
   3344508080.7119079     
   3185882982.3485818     
   3028568623.1579857     
   2872707082.2751050     
   2718516899.2174363     
   3174367589.1758933     
   3026491422.4822903     
   2880446858.2486181     
   2736475524.5991173     
   2594909278.6496468     
   3036602056.1792560     
   2900129241.3998137     
   2766072540.0847468     
   2634775947.2823925     
   2506684602.9643378     
   3050256770.0639281     
   2886510998.3572612     
   2722460206.6805120     
   2558093307.4780412     
   2393404257.8261595     
   2872072502.4868450     
   2711546866.6140804     
   2551174493.6820912     
   2390986396.1494164     
   2231033626.4607353     
   2718516899.2174363     
   2563367989.5013885     
   2409172857.3647060     
   2256070851.4567657     
   2104257943.1974952     
   2594909278.6496468     
   2447405560.7520022     
   2302025796.5483713     
   2159076766.4398856     
   2018971882.5085123     
   2506684602.9643378     
   2368990446.6315985     
   2234910591.7708950     
   2104938512.8731132     
   1979715147.2820830     
   2393404257.8261595     
   2246864415.1910238     
   2102441856.5198646     
   1960141098.3615451     
   1820125208.7597010     
   2231033626.4607353     
   2087778570.1410596     
   1946121948.0142968     
   1806067394.0336020     
   1667690627.6495252     
   2104257943.1974952     
   1963587965.1887813     
   1823840858.6298816     
   1685049944.8851354     
   1547275980.7334323     
   2018971882.5085123     
   1881817206.3337264     
   1744972100.9010129     
   1608568351.3123124     
   1472787445.8853748     
   1979715147.2820830     
   1848726254.1616166     
   1717784802.3344443     
   1587243856.8954475     
   1457617957.1456075     
   1820125208.7597010     
   1779582653.8677051     
   1735575727.3520148     
   1696711149.1040113     
   1681448497.1941350     
   1667690627.6495252     
   1552348970.4003859     
   1427922483.5236070     
   1294761288.6877425     
   1158976698.8583102     
   1547275980.7334323     
   1397433847.5069609     
   1244043949.0845995     
   1084832582.7957878     
   917767860.83188891     
   1472787445.8853748     
   1328554716.8275790     
   1198790315.6061809     
   1087975017.9952843     
   1002015281.1661787     
   1457617957.1456075     
   1348593063.7342110     
   1274552801.7224107     
   1243624862.4530189     
   1262851858.3836472     
   1681448497.1941350     
   1383881035.7134945     
   1129512761.3822250     
   1010058311.9290010     
   1152827796.2202435     
   1158976698.8583102     
   1008515557.2992469     
   985255433.25575256     
   1161469413.2082319     
   1544055451.9993293     
   917767860.83188891     
   963162448.44040298     
   1144955745.1744409     
   1476501592.9120142     
   1957470658.5466065     
   1002015281.1661787     
   1164713643.9046395     
   1425442549.1096900     
   1808783004.4806590     
   2334813264.2847276     
   1262851858.3836472     
   1446673195.0465415     
   1715699218.0441294     
   2110517701.5156391     
   2663577664.0950279     
   4650812394.5890055     
   4510341756.6984758     
   4372242703.3416357     
   4236672595.8961058     
   4103837629.8458962     
   4359918866.8545732     
   4230649871.7416878     
   4104144664.0611997     
   3980613669.2577701     
   3860325635.3667808     
   4086904378.2489667     
   3970129144.8474021     
   3856698554.9418416     
   3746878258.4618855     
   3641004046.1061745     
   3835955549.0394416     
   3733001877.1849804     
   3634173397.8147635     
   3539786705.9354835     
   3450240963.4327064     
   3612105405.2296963     
   3524237981.4544640     
   3441471841.3953567     
   3364159119.0668478     
   3292745345.2429104     
   4103837629.8458962     
   3966300890.3128738     
   3830955512.7239652     
   3698042981.2789531     
   3567884336.5025826     
   3860325635.3667808     
   3735807847.4221139     
   3614246405.1417313     
   3495943269.7117081     
   3381283211.9416614     
   3641004046.1061745     
   3529911056.9308720     
   3422588132.7992578     
   3319385874.0414405     
   3220735454.8669758     
   3450240963.4327064     
   3352867056.4345555     
   3260091055.6658340     
   3172291370.2784486     
   3089918232.2175145     
   3292745345.2429104     
   3209166819.8618879     
   3130978615.7489848     
   3058558146.6512175     
   2992339995.9128351     
   3567884336.5025826     
   3430562356.8449488     
   3296026801.1460061     
   3164577140.6108255     
   3036602056.1792560     
   3381283211.9416614     
   3256774194.1848221     
   3135802668.3254285     
   3018745596.8584528     
   2906076161.2009196     
   3220735454.8669758     
   3109907259.6815023     
   3003448375.0794787     
   2901800235.8258133     
   2805499601.5695968     
   3089918232.2175145     
   2993516444.4229541     
   2902349358.0469246     
   2816895961.1212339     
   2737720140.7583990     
   2992339995.9128351     
   2910842794.7980518     
   2835414666.6642089     
   2766534222.1499252     
   2704746541.2623920     
   3036602056.1792560     
   2900129241.3998137     
   2766072540.0847468     
   2634775947.2823925     
   2506684602.9643378     
   2906076161.2009196     
   2782136764.4652052     
   2661805559.0471869     
   2545562420.6784863     
   2434004487.0748067     
   2805499601.5695968     
   2695675681.9640088     
   2590759900.1623464     
   2491335645.1402674     
   2398100129.7123632     
   2737720140.7583990     
   2643153473.0855403     
   2554784791.9812841     
   2473239017.7368627     
   2399231155.9001799     
   2704746541.2623920     
   2625919155.0878878     
   2554447148.2044859     
   2490923389.2564063     
   2435995885.5774913     
   2506684602.9643378     
   2368990446.6315985     
   2234910591.7708950     
   2104938512.8731132     
   1979715147.2820830     
   2434004487.0748067     
   2310293472.4695067     
   2191555573.2686663     
   2078479043.0415194     
   1971911970.9557564     
   2398100129.7123632     
   2290447021.4406476     
   2189181654.9576445     
   2095106359.9763160     
   2009154974.5597384     
   2399231155.9001799     
   2308973358.7231765     
   2226368001.3858709     
   2152217636.2376480     
   2087401495.0692885     
   2435995885.5774913     
   2363551497.4488797     
   2299728466.1615410     
   2245231883.6069808     
   2200789239.7321162     
   1979715147.2820830     
   1848726254.1616166     
   1717784802.3344443     
   1587243856.8954475     
   1457617957.1456075     
   1971911970.9557564     
   1855623800.3816061     
   1743723121.7976053     
   1637136334.1529357     
   1537001008.9024439     
   2009154974.5597384     
   1912682259.8137505     
   1824999821.7124522     
   1747311408.5983047     
   1680912631.5283785     
   2087401495.0692885     
   2012306305.4439375     
   1949575674.9715872     
   1900290139.5872316     
   1865479901.7595582     
   2200789239.7321162     
   2145621525.2957654     
   2105384989.7187645     
   2080846402.9515753     
   2072683371.9962397     
   1457617957.1456075     
   1348593063.7342110     
   1274552801.7224107     
   1243624862.4530189     
   1262851858.3836472     
   1537001008.9024439     
   1476125958.4088206     
   1447943280.3030252     
   1456419250.3373420     
   1504848726.4823034     
   1680912631.5283785     
   1652396581.9532022     
   1651600353.2248442     
   1680892766.9451230     
   1742882517.6929078     
   1865479901.7595582     
   1854933742.8633883     
   1867359544.5702899     
   1904966619.5448589     
   1970786181.3062487     
   2072683371.9962397     
   2069124585.9072733     
   2084804911.5536613     
   2122356757.8799458     
   2185592066.3023243     
   1262851858.3836472     
   1446673195.0465415     
   1715699218.0441294     
   2110517701.5156391     
   2663577664.0950279     
   1504848726.4823034     
   1613264532.8637738     
   1788866162.4253962     
   2066409565.1624641     
   2476108553.1383157     
   1742882517.6929078     
   1787699229.0092175     
   1884651664.6011002     
   2060652028.8568318     
   2340934827.6791577     
   1970786181.3062487     
   1968935836.8252726     
   2003620376.1959903     
   2093513399.6495841     
   2257275033.0494699     
   2185592066.3023243     
   2156258946.3056083     
   2146512690.8812521     
   2166872652.5624199     
   2228405468.6812711     
   3612105405.2296963     
   3524237981.4544640     
   3441471841.3953567     
   3364159119.0668478     
   3292745345.2429104     
   3376984911.6328802     
   3304929469.6411762     
   3238552704.5069079     
   3178193803.0896602     
   3124262401.8965654     
   3175425268.7372336     
   3118292913.5089941     
   3067299848.8935113     
   3022744801.1834283     
   2984973125.6982450     
   3013316688.3123393     
   2969873680.5144982     
   2932862547.0633154     
   2902519178.4466672     
   2879104965.8040876     
   2896409831.4843740     
   2864978165.2932415     
   2840062206.9558239     
   2821823986.3972168     
   2810435742.9393706     
   3292745345.2429104     
   3209166819.8618879     
   3130978615.7489848     
   3058558146.6512175     
   2992339995.9128351     
   3124262401.8965654     
   3053642469.4499254     
   2989122071.7654486     
   2931069488.0116658     
   2879899974.1793003     
   2984973125.6982450     
   2927255248.2625256     
   2876330982.7560945     
   2832533443.6855783     
   2796230006.6518850     
   2879104965.8040876     
   2833765871.8665533     
   2795863097.9536710     
   2765670298.9837899     
   2743482928.9299150     
   2810435742.9393706     
   2776365472.3916769     
   2750298048.0373025     
   2732431883.8271117     
   2722977713.7309175     
   2992339995.9128351     
   2910842794.7980518     
   2835414666.6642089     
   2766534222.1499252     
   2704746541.2623920     
   2879899974.1793003     
   2812778771.9890919     
   2752456338.0676203     
   2699372304.8320427     
   2654011233.9451895     
   2796230006.6518850     
   2742984125.1263824     
   2697145982.6122327     
   2659084899.1398716     
   2629194584.6160774     
   2743482928.9299150     
   2703076414.1772146     
   2670541027.3953290     
   2646156347.8738828     
   2630210867.2475343     
   2722977713.7309175     
   2693816021.1897602     
   2672846576.0491590     
   2660255817.3965101     
   2656230388.8442645     
   2704746541.2623920     
   2625919155.0878878     
   2554447148.2044859     
   2490923389.2564063     
   2435995885.5774913     
   2654011233.9451895     
   2590283714.9739232     
   2534586112.0956473     
   2487432906.5706887     
   2449365109.1934013     
   2629194584.6160774     
   2579890209.3795848     
   2539117610.1428056     
   2507284840.3228416     
   2484805062.0215297     
   2630210867.2475343     
   2594121441.4725275     
   2566902730.8428435     
   2548848502.5103245     
   2540246016.8542929     
   2656230388.8442645     
   2631683599.1217623     
   2616225281.8070846     
   2610044837.9216704     
   2613322108.9821858     
   2435995885.5774913     
   2363551497.4488797     
   2299728466.1615410     
   2245231883.6069808     
   2200789239.7321162     
   2449365109.1934013     
   2393040495.4186587     
   2346108519.6468172     
   2309127333.5758715     
   2282640468.7052331     
   2484805062.0215297     
   2443354667.8546491     
   2411802144.9639626     
   2390545893.2747259     
   2379952363.9414968     
   2540246016.8542929     
   2511889795.4516764     
   2493745788.3153472     
   2486068914.8170824     
   2489080985.8589182     
   2613322108.9821858     
   2595924689.2426724     
   2588958766.3981309     
   2592566975.7321458     
   2606867053.2938933     
   2200789239.7321162     
   2145621525.2957654     
   2105384989.7187645     
   2080846402.9515753     
   2072683371.9962397     
   2282640468.7052331     
   2242164001.5439019     
   2215610129.6505113     
   2203429731.2494521     
   2206011344.9027181     
   2379952363.9414968     
   2351240617.4622860     
   2335420121.5624647     
   2332742583.9095907     
   2343430055.3662720     
   2489080985.8589182     
   2469495952.7117271     
   2461864292.0386686     
   2466323696.1688795     
   2483009345.3066649     
   2606867053.2938933     
   2594132629.5142441     
   2592568050.3521647     
   2602253440.3425984     
   2623285171.9991693     
   2072683371.9962397     
   2069124585.9072733     
   2084804911.5536613     
   2122356757.8799458     
   2185592066.3023243     
   2206011344.9027181     
   2191647280.3988075     
   2192274443.1814375     
   2209862465.3153520     
   2247330943.0504851     
   2343430055.3662720     
   2319067889.2485700     
   2306232534.4319091     
   2306329728.0462718     
   2321447718.0351033     
   2483009345.3066649     
   2450410701.6907606     
   2426359759.1168470     
   2411801999.9687490     
   2408114138.1371422     
   2623285171.9991693     
   2584893671.7871032     
   2552371632.6138439     
   2526300489.8055720     
   2507488839.0105381     
   2185592066.3023243     
   2156258946.3056083     
   2146512690.8812521     
   2166872652.5624199     
   2228405468.6812711     
   2247330943.0504851     
   2182633999.9837346     
   2134372604.2803769     
   2112210111.9922214     
   2127076330.0501261     
   2321447718.0351033     
   2224723080.0691328     
   2141332260.3565052     
   2079638196.4257326     
   2049808628.4886289     
   2408114138.1371422     
   2282820431.0369077     
   2168038646.0525403     
   2070507733.0073798     
   1998993484.1816995     
   2507488839.0105381     
   2357135809.0575480     
   2214962497.8402233     
   2085949648.5868127     
   1976972933.6603031     
   2896409831.4843740     
   2864978165.2932415     
   2840062206.9558239     
   2821823986.3972168     
   2810435742.9393706     
   2761968485.0954785     
   2738896097.8606110     
   2722952455.6460304     
   2714248069.7608366     
   2712898477.8685660     
   2671831515.7115588     
   2655295286.7105336     
   2646443439.3724403     
   2645333083.8109570     
   2652023071.9507842     
   2631068649.9022994     
   2618513552.6132965     
   2614132933.7481666     
   2617942657.5626001     
   2629958912.0405426     
   2642482611.7343192     
   2630785495.6644616     
   2627687344.1595373     
   2633188157.2195444     
   2647287934.8444748     
   2810435742.9393706     
   2776365472.3916769     
   2750298048.0373025     
   2732431883.8271117     
   2722977713.7309175     
   2712898477.8685660     
   2688755556.9956174     
   2672700486.8235416     
   2664852063.1135225     
   2665333815.7811308     
   2652023071.9507842     
   2635453858.1876740     
   2626960555.3778257     
   2626597435.4400420     
   2634419984.2960448     
   2629958912.0405426     
   2618236900.3143959     
   2614504564.6133332     
   2618775382.9913082     
   2631062980.3482742     
   2647287934.8444748     
   2637500944.4928179     
   2635567598.2795782     
   2641487896.2047553     
   2655261838.2683487     
   2722977713.7309175     
   2693816021.1897602     
   2672846576.0491590     
   2660255817.3965101     
   2656230388.8442645     
   2665333815.7811308     
   2644675936.7372284     
   2632371880.2574067     
   2628532634.5120749     
   2633267130.1575384     
   2634419984.2960448     
   2620155800.1305776     
   2614370677.7520118     
   2617115726.0466623     
   2628440318.9503751     
   2631062980.3482742     
   2620762647.5530057     
   2619059624.0764894     
   2625966911.7195320     
   2641496937.9137559     
   2655261838.2683487     
   2646306246.5144606     
   2646083595.2048678     
   2654593884.3395777     
   2671837113.9185867     
   2656230388.8442645     
   2631683599.1217623     
   2616225281.8070846     
   2610044837.9216704     
   2613322108.9821858     
   2633267130.1575384     
   2617267753.8867106     
   2610339281.6371818     
   2612588649.9568496     
   2624115141.4640622     
   2628440318.9503751     
   2618877040.8263698     
   2618370107.6493845     
   2626966730.0994067     
   2644709956.4207153     
   2641496937.9137559     
   2636086078.2848349     
   2639757388.5895214     
   2652522528.5968299     
   2674391995.2180448     
   2671837113.9185867     
   2668213562.9904017     
   2673765683.9889293     
   2688493476.9141703     
   2712396941.7661266     
   2613322108.9821858     
   2595924689.2426724     
   2588958766.3981309     
   2592566975.7321458     
   2606867053.2938933     
   2624115141.4640622     
   2613777534.4625182     
   2613573404.1279655     
   2623578060.2247744     
   2643851878.9488630     
   2644709956.4207153     
   2639724207.8483057     
   2644664508.6962147     
   2659562364.2815118     
   2684442392.3799663     
   2674391995.2180448     
   2673043006.4729486     
   2681529767.0243659     
   2699859747.5089784     
   2728038663.1410303     
   2712396941.7661266     
   2712998048.5492311     
   2723478975.7236190     
   2743839723.2892938     
   2774080291.2462521     
   2606867053.2938933     
   2594132629.5142441     
   2592568050.3521647     
   2602253440.3425984     
   2623285171.9991693     
   2643851878.9488630     
   2632927888.6710367     
   2632299906.1440668     
   2642007472.6044226     
   2662100904.2755032     
   2684442392.3799663     
   2675009832.5606265     
   2675180557.7867980     
   2684969914.7659636     
   2704398613.9676433     
   2728038663.1410303     
   2719940059.6553922     
   2720912342.7468648     
   2730958836.2638512     
   2750084316.2435427     
   2774080291.2462521     
   2767304844.8556519     
   2769209816.7754068     
   2779795207.0055032     
   2799061015.5459666     
   2623285171.9991693     
   2584893671.7871032     
   2552371632.6138439     
   2526300489.8055720     
   2507488839.0105381     
   2662100904.2755032     
   2616738449.9966846     
   2577029990.6816254     
   2543306463.4457312     
   2516030425.6970072     
   2704398613.9676433     
   2654160193.7594848     
   2609502792.4747639     
   2570573871.5441327     
   2537580087.5519123     
   2750084316.2435427     
   2697068905.7426443     
   2649703872.3794703     
   2608025850.1851377     
   2572086187.9875755     
   2799061015.5459666     
   2745365706.1912227     
   2697532381.1379056     
   2655561040.3860326     
   2619451683.9356022     
   2507488839.0105381     
   2357135809.0575480     
   2214962497.8402233     
   2085949648.5868127     
   1976972933.6603031     
   2516030425.6970072     
   2348163892.6374755     
   2183860507.8093796     
   2026220461.2692630     
   1879808332.0111225     
   2537580087.5519123     
   2357289601.2929988     
   2176740617.9916630     
   1997404790.3759739     
   1821559955.1566629     
   2572086187.9875755     
   2384616132.9312987     
   2194069337.4827785     
   2000824068.3493371     
   1805484204.3745439     
   2619451683.9356022     
   2430111881.5628381     
   2235988879.5441360     
   2037082677.8795033     
   1833393276.5689166     
   2642482611.7343192     
   2630785495.6644616     
   2627687344.1595373     
   2633188157.2195444     
   2647287934.8444748     
   2631068649.7556438     
   2618513552.4865451     
   2614132933.6411324     
   2617942657.4752045     
   2629958911.9727221     
   2671831515.4135509     
   2655295286.4553108     
   2646443439.1600857     
   2645333083.6417260     
   2652023071.8249092     
   2761968484.6459303     
   2738896097.4799380     
   2722952455.3350363     
   2714248069.5205216     
   2712898477.6998620     
   2896409830.8862591     
   2864978164.7934699     
   2840062206.5563474     
   2821823986.1001725     
   2810435742.7467875     
   2647287934.8444748     
   2637500944.4928179     
   2635567598.2795782     
   2641487896.2047553     
   2655261838.2683487     
   2629958911.9727221     
   2618236900.2613802     
   2614504564.5770416     
   2618775382.9735789     
   2631062980.3508315     
   2652023071.8249092     
   2635453858.0887513     
   2626960555.3096056     
   2626597435.4061294     
   2634419984.2998638     
   2712898477.6998620     
   2688755556.8622327     
   2672700486.7309308     
   2664852063.0670261     
   2665333815.7858925     
   2810435742.7467875     
   2776365472.2383742     
   2750298047.9302626     
   2732431883.7733121     
   2722977713.7372317     
   2655261838.2683487     
   2646306246.5144606     
   2646083595.2048678     
   2654593884.3395777     
   2671837113.9185867     
   2631062980.3508315     
   2620762647.5642791     
   2619059624.0958033     
   2625966911.7461033     
   2641496937.9467063     
   2634419984.2998638     
   2620155800.1529102     
   2614370677.7916079     
   2617115726.1020637     
   2628440319.0199041     
   2665333815.7858925     
   2644675936.7712469     
   2632371880.3190365     
   2628532634.5993128     
   2633267130.2680402     
   2722977713.7372317     
   2693816021.2368693     
   2672846576.1352248     
   2660255817.5192099     
   2656230389.0007343     
   2671837113.9185867     
   2668213562.9904017     
   2673765683.9889293     
   2688493476.9141703     
   2712396941.7661266     
   2641496937.9467063     
   2636086078.3192182     
   2639757388.6247144     
   2652522528.6321540     
   2674391995.2527719     
   2628440319.0199041     
   2618877040.8980241     
   2618370107.7218366     
   2626966730.1712394     
   2644709956.4903946     
   2633267130.2680402     
   2617267753.9994135     
   2610339281.7499976     
   2612588650.0675168     
   2624115141.5701871     
   2656230389.0007343     
   2631683599.2801042     
   2616225281.9643555     
   2610044838.0746708     
   2613322109.1275320     
   2712396941.7661266     
   2712998048.5492311     
   2723478975.7236190     
   2743839723.2892938     
   2774080291.2462521     
   2674391995.2527719     
   2673043006.5018930     
   2681529767.0481815     
   2699859747.5283136     
   2728038663.1565638     
   2644709956.4903946     
   2639724207.9060125     
   2644664508.7432623     
   2659562364.3192220     
   2684442392.4096971     
   2624115141.5701871     
   2613777534.5498309     
   2613573404.1984472     
   2623578060.2804484     
   2643851878.9918284     
   2613322109.1275320     
   2595924689.3614788     
   2588958766.4930477     
   2592566975.8059382     
   2606867053.3494525     
   2774080291.2462521     
   2767304844.8556519     
   2769209816.7754068     
   2779795207.0055032     
   2799061015.5459666     
   2728038663.1565638     
   2719940059.6672916     
   2720912342.7553768     
   2730958836.2692099     
   2750084316.2459860     
   2684442392.4096971     
   2675009832.5833850     
   2675180557.8030486     
   2684969914.7761960     
   2704398613.9723611     
   2643851878.9918284     
   2632927888.7038746     
   2632299906.1674747     
   2642007472.6191692     
   2662100904.2823796     
   2606867053.3494525     
   2594132629.5566144     
   2592568050.3823333     
   2602253440.3616157     
   2623285172.0081463     
   2799061015.5459666     
   2745365706.1912227     
   2697532381.1379056     
   2655561040.3860326     
   2619451683.9356022     
   2750084316.2459860     
   2697068905.7442408     
   2649703872.3803649     
   2608025850.1854959     
   2572086187.9875503     
   2704398613.9723611     
   2654160193.7624741     
   2609502792.4763274     
   2570573871.5445862     
   2537580087.5515914     
   2662100904.2823796     
   2616738450.0009079     
   2577029990.6836491     
   2543306463.4460464     
   2516030425.6961002     
   2623285172.0081463     
   2584893671.7924213     
   2552371632.6161556     
   2526300489.8055248     
   2507488839.0087905     
   2619451683.9356022     
   2430111881.5628381     
   2235988879.5441360     
   2037082677.8795033     
   1833393276.5689166     
   2572086187.9875503     
   2384616132.9313426     
   2194069337.4829974     
   2000824068.3498750     
   1805484204.3755679     
   2537580087.5515914     
   2357289601.2929153     
   2176740617.9919891     
   1997404790.3770041     
   1821559955.1586902     
   2516030425.6961002     
   2348163892.6370206     
   2183860507.8096218     
   2026220461.2705610     
   1879808332.0139704     
   2507488839.0087905     
   2357135809.0565248     
   2214962497.8402319     
   2085949648.5882690     
   1976972933.6638131     
   2896409830.8862591     
   2864978164.7934699     
   2840062206.5563474     
   2821823986.1001725     
   2810435742.7467875     
   3013316687.6574869     
   2969873679.9365654     
   2932862546.5751877     
   2902519178.0624256     
   2879104965.5387416     
   3175425268.1378436     
   3118292912.9440389     
   3067299848.3827748     
   3022744800.7489867     
   2984973125.3644304     
   3376984911.2033343     
   3304929469.1827126     
   3238552704.0423751     
   3178193802.6450682     
   3124262401.5015373     
   3612105405.0795279     
   3524237981.1922345     
   3441471841.0436954     
   3364159118.6519947     
   3292745344.7957520     
   2810435742.7467875     
   2776365472.2383742     
   2750298047.9302626     
   2732431883.7733121     
   2722977713.7372317     
   2879104965.5387416     
   2833765871.6459136     
   2795863097.7860665     
   2765670298.8776007     
   2743482928.8934436     
   2984973125.3644304     
   2927255247.9788179     
   2876330982.5326943     
   2832533443.5328445     
   2796230006.5801759     
   3124262401.5015373     
   3053642469.1099892     
   2989122071.4930553     
   2931069487.8195777     
   2879899974.0804362     
   3292745344.7957520     
   3209166819.4741263     
   3130978615.4355578     
   3058558146.4275680     
   2992339995.7947874     
   2722977713.7372317     
   2693816021.2368693     
   2672846576.1352248     
   2660255817.5192099     
   2656230389.0007343     
   2743482928.8934436     
   2703076414.1957555     
   2670541027.4672318     
   2646156347.9968753     
   2630210867.4186273     
   2796230006.5801759     
   2742984125.1239052     
   2697145982.6778102     
   2659084899.2715907     
   2629194584.8111529     
   2879899974.0804362     
   2812778771.9734049     
   2752456338.1346235     
   2699372304.9804835     
   2654011234.1728520     
   2992339995.7947874     
   2910842794.7766466     
   2835414666.7398310     
   2766534222.3222275     
   2704746541.5300307     
   2656230389.0007343     
   2631683599.2801042     
   2616225281.9643555     
   2610044838.0746708     
   2613322109.1275320     
   2630210867.4186273     
   2594121441.6471128     
   2566902731.0176039     
   2548848502.6816626     
   2540246017.0183964     
   2629194584.8111529     
   2579890209.5781741     
   2539117610.3410444     
   2507284840.5165491     
   2484805062.2062888     
   2654011234.1728520     
   2590283715.2037725     
   2534586112.3231130     
   2487432906.7908421     
   2449365109.4010119     
   2704746541.5300307     
   2625919155.3553500     
   2554447148.4663701     
   2490923389.5068736     
   2435995885.8103423     
   2613322109.1275320     
   2595924689.3614788     
   2588958766.4930477     
   2592566975.8059382     
   2606867053.3494525     
   2540246017.0183964     
   2511889795.5853119     
   2493745788.4209814     
   2486068914.8973279     
   2489080985.9166236     
   2484805062.2062888     
   2443354668.0042257     
   2411802145.0805969     
   2390545893.3608861     
   2379952363.9999599     
   2449365109.4010119     
   2393040495.5857234     
   2346108519.7752719     
   2309127333.6679597     
   2282640468.7636104     
   2435995885.8103423     
   2363551497.6353254     
   2299728466.3031440     
   2245231883.7056479     
   2200789239.7902565     
   2606867053.3494525     
   2594132629.5566144     
   2592568050.3823333     
   2602253440.3616157     
   2623285172.0081463     
   2489080985.9166236     
   2469495952.7547908     
   2461864292.0684180     
   2466323696.1867299     
   2483009345.3140483     
   2379952363.9999599     
   2351240617.5045605     
   2335420121.5902643     
   2332742583.9247537     
   2343430055.3707142     
   2282640468.7636104     
   2242164001.5842404     
   2215610129.6750093     
   2203429731.2604542     
   2206011344.9027476     
   2200789239.7902565     
   2145621525.3335593     
   2105384989.7389202     
   2080846402.9570687     
   2072683371.9903049     
   2623285172.0081463     
   2584893671.7924213     
   2552371632.6161556     
   2526300489.8055248     
   2507488839.0087905     
   2483009345.3140483     
   2450410701.6950092     
   2426359759.1183829     
   2411801999.9680347     
   2408114138.1346331     
   2343430055.3707142     
   2319067889.2507043     
   2306232534.4319458     
   2306329728.0444646     
   2321447718.0317626     
   2206011344.9027476     
   2191647280.3976688     
   2192274443.1791911     
   2209862465.3120646     
   2247330943.0462708     
   2072683371.9903049     
   2069124585.9016790     
   2084804911.5483186     
   2122356757.8747218     
   2185592066.2971654     
   2507488839.0087905     
   2357135809.0565248     
   2214962497.8402319     
   2085949648.5882690     
   1976972933.6638131     
   2408114138.1346331     
   2282820431.0354662     
   2168038646.0524745     
   2070507733.0090804     
   1998993484.1857080     
   2321447718.0317626     
   2224723080.0671234     
   2141332260.3561153     
   2079638196.4273455     
   2049808628.4926405     
   2247330943.0462708     
   2182633999.9810801     
   2134372604.2795322     
   2112210111.9934785     
   2127076330.0537915     
   2185592066.2971654     
   2156258946.3021846     
   2146512690.8797719     
   2166872652.5630851     
   2228405468.6842031     
   3612105405.0795279     
   3524237981.1922345     
   3441471841.0436954     
   3364159118.6519947     
   3292745344.7957520     
   3835955549.1131496     
   3733001877.0837798     
   3634173397.5643225     
   3539786705.5647526     
   3450240962.9739976     
   4086904378.3455920     
   3970129144.7522693     
   3856698554.6927199     
   3746878258.0990267     
   3641004045.6719985     
   4359918866.8044958     
   4230649871.5214858     
   4104144663.7285371     
   3980613668.8715668     
   3860325634.9871001     
   4650812394.2546816     
   4510341756.2464638     
   4372242702.8560810     
   4236672595.4607835     
   4103837629.5446744     
   3292745344.7957520     
   3209166819.4741263     
   3130978615.4355578     
   3058558146.4275680     
   2992339995.7947874     
   3450240962.9739976     
   3352867056.0379229     
   3260091055.3430305     
   3172291370.0419626     
   3089918232.0804625     
   3641004045.6719985     
   3529911056.5632567     
   3422588132.5068064     
   3319385873.8335900     
   3220735454.7538695     
   3860325634.9871001     
   3735807847.1174603     
   3614246404.9177737     
   3495943269.5749536     
   3381283211.8992953     
   4103837629.5446744     
   3966300890.1006298     
   3830955512.6038013     
   3698042981.2547417     
   3567884336.5787959     
   2992339995.7947874     
   2910842794.7766466     
   2835414666.7398310     
   2766534222.3222275     
   2704746541.5300307     
   3089918232.0804625     
   2993516444.3760448     
   2902349358.0962005     
   2816895961.2725148     
   2737720141.0171199     
   3220735454.7538695     
   3109907259.6438375     
   3003448375.1276345     
   2901800235.9705124     
   2805499601.8219099     
   3381283211.8992953     
   3256774194.1937771     
   3135802668.3990092     
   3018745597.0107884     
   2906076161.4472146     
   3567884336.5787959     
   3430562356.9382420     
   3296026801.2712326     
   3164577140.7839918     
   3036602056.4180050     
   2704746541.5300307     
   2625919155.3553500     
   2554447148.4663701     
   2490923389.5068736     
   2435995885.8103423     
   2737720141.0171199     
   2643153473.3465562     
   2554784792.2386441     
   2473239017.9840055     
   2399231156.1300201     
   2805499601.8219099     
   2695675682.2208896     
   2590759900.4174099     
   2491335645.3863988     
   2398100129.9417558     
   2906076161.4472146     
   2782136764.7182055     
   2661805559.3002324     
   2545562420.9240746     
   2434004487.3046508     
   3036602056.4180050     
   2900129241.6473675     
   2766072540.3342919     
   2634775947.5262556     
   2506684603.1939955     
   2435995885.8103423     
   2363551497.6353254     
   2299728466.3031440     
   2245231883.7056479     
   2200789239.7902565     
   2399231156.1300201     
   2308973358.9049525     
   2226368001.5205655     
   2152217636.3266878     
   2087401495.1147339     
   2398100129.9417558     
   2290447021.6185803     
   2189181655.0843291     
   2095106360.0524096     
   2009154974.5865612     
   2434004487.3046508     
   2310293472.6432643     
   2191555573.3856225     
   2078479043.1012869     
   1971911970.9585376     
   2506684603.1939955     
   2368990446.7998514     
   2234910591.8760109     
   2104938512.9135780     
   1979715147.2566874     
   2200789239.7902565     
   2145621525.3335593     
   2105384989.7389202     
   2080846402.9570687     
   2072683371.9903049     
   2087401495.1147339     
   2012306305.4721146     
   1949575674.9846351     
   1900290139.5874913     
   1865479901.7496161     
   2009154974.5865612     
   1912682259.8276715     
   1824999821.7154274     
   1747311408.5923550     
   1680912631.5156271     
   1971911970.9585376     
   1855623800.3768115     
   1743723121.7873445     
   1637136334.1392965     
   1537001008.8874023     
   1979715147.2566874     
   1848726254.1344812     
   1717784802.3080745     
   1587243856.8722661     
   1457617957.1277106     
   2072683371.9903049     
   2069124585.9016790     
   2084804911.5483186     
   2122356757.8747218     
   2185592066.2971654     
   1865479901.7496161     
   1854933742.8551867     
   1867359544.5635552     
   1904966619.5392246     
   1970786181.3013439     
   1680912631.5156271     
   1652396581.9433656     
   1651600353.2173617     
   1680892766.9393401     
   1742882517.6880448     
   1537001008.8874023     
   1476125958.3978479     
   1447943280.2952299     
   1456419250.3316295     
   1504848726.4772964     
   1457617957.1277106     
   1348593063.7218399     
   1274552801.7143140     
   1243624862.4475105     
   1262851858.3785012     
   2185592066.2971654     
   2156258946.3021846     
   2146512690.8797719     
   2166872652.5630851     
   2228405468.6842031     
   1970786181.3013439     
   1968935836.8219583     
   2003620376.1945505     
   2093513399.6502490     
   2257275033.0522799     
   1742882517.6880448     
   1787699229.0057280     
   1884651664.5993593     
   2060652028.8570275     
   2340934827.6812963     
   1504848726.4772964     
   1613264532.8598659     
   1788866162.4230313     
   2066409565.1618798     
   2476108553.1394439     
   1262851858.3785012     
   1446673195.0419776     
   1715699218.0408525     
   2110517701.5139737     
   2663577664.0949802     
   4650812394.2546816     
   4510341756.2464638     
   4372242702.8560810     
   4236672595.4607835     
   4103837629.5446744     
   4945185408.3354235     
   4795001487.7726154     
   4646234247.6389351     
   4499004905.8491840     
   4353476825.8259830     
   5263776205.5191259     
   5104094899.8165798     
   4944926071.9759350     
   4786344555.1867247     
   4628462643.2163973     
   5602273577.1112089     
   5433427611.6630640     
   5264257124.3918276     
   5094785377.9558887     
   4925070779.5716581     
   5957116494.0627527     
   5779516415.9184113     
   5600831899.3171740     
   5421033241.0929966     
   5240126237.7223110     
   4103837629.5446744     
   3966300890.1006298     
   3830955512.6038013     
   3698042981.2547417     
   3567884336.5787959     
   4353476825.8259830     
   4202667234.9670014     
   4053455736.2767725     
   3906007986.3249741     
   3760558312.8558154     
   4628462643.2163973     
   4465194523.7463722     
   4303045678.6736965     
   4142113064.2719054     
   3982550931.1675334     
   4925070779.5716581     
   4749992343.4421349     
   4575660305.3330994     
   4402113285.7855272     
   4229436981.1065674     
   5240126237.7223110     
   5053720941.9536409     
   4867780529.6659050     
   4682296165.0558643     
   4497297802.8438072     
   3567884336.5787959     
   3430562356.9382420     
   3296026801.2712326     
   3164577140.7839918     
   3036602056.4180050     
   3760558312.8558154     
   3610891133.2970476     
   3463145857.0199418     
   3317538666.6704693     
   3174367589.3832788     
   3982550931.1675334     
   3821180156.0716014     
   3660951023.6616907     
   3501993775.7239461     
   3344508080.9286938     
   4229436981.1065674     
   4056967705.4663234     
   3884962058.5292792     
   3713470652.6208963     
   3542599371.7133112     
   4497297802.8438072     
   4314260240.7237349     
   4131113254.8381429     
   3947838855.3378077     
   3764460814.5093789     
   3036602056.4180050     
   2900129241.6473675     
   2766072540.3342919     
   2634775947.5262556     
   2506684603.1939955     
   3174367589.3832788     
   3026491422.6797805     
   2880446858.4361377     
   2736475524.7763138     
   2594909278.8161297     
   3344508080.9286938     
   3185882982.5163832     
   3028568623.2801490     
   2872707082.3549170     
   2718516899.2586122     
   3542599371.7133112     
   3373607618.3414855     
   3205476013.2933526     
   3038258487.8426781     
   2872072502.3389926     
   3764460814.5093789     
   3585207154.0127587     
   3406426155.0503407     
   3228098116.2376246     
   3050256769.6653662     
   2506684603.1939955     
   2368990446.7998514     
   2234910591.8760109     
   2104938512.9135780     
   1979715147.2566874     
   2594909278.8161297     
   2447405560.8756752     
   2302025796.6240749     
   2159076766.4620414     
   2018971882.4708765     
   2718516899.2586122     
   2563367989.5297356     
   2409172857.3746495     
   2256070851.4421639     
   2104257943.1512544     
   2872072502.3389926     
   2711546866.4951882     
   2551174493.5886550     
   2390986396.0777626     
   2231033626.4066386     
   3050256769.6653662     
   2886510998.0412655     
   2722460206.4474840     
   2558093307.3289537     
   2393404257.7623000     
   1979715147.2566874     
   1848726254.1344812     
   1717784802.3080745     
   1587243856.8722661     
   1457617957.1277106     
   2018971882.4708765     
   1881817206.2996228     
   1744972100.8720291     
   1608568351.2899365     
   1472787445.8709078     
   2104257943.1512544     
   1963587965.1510673     
   1823840858.6013570     
   1685049944.8663983     
   1547275980.7250366     
   2231033626.4066386     
   2087778570.1010892     
   1946121947.9883568     
   1806067394.0216022     
   1667690627.6514344     
   2393404257.7623000     
   2246864415.1482425     
   2102441856.4975181     
   1960141098.3591561     
   1820125208.7768531     
   1457617957.1277106     
   1348593063.7218399     
   1274552801.7143140     
   1243624862.4475105     
   1262851858.3785012     
   1472787445.8709078     
   1328554716.8169594     
   1198790315.5986874     
   1087975017.9900177     
   1002015281.1619043     
   1547275980.7250366     
   1397433847.5000517     
   1244043949.0788186     
   1084832582.7911534     
   917767860.82866049     
   1667690627.6514344     
   1552348970.4003568     
   1427922483.5214858     
   1294761288.6840253     
   1158976698.8537588     
   1820125208.7768531     
   1779582653.8782895     
   1735575727.3556390     
   1696711149.1011071     
   1681448497.1849358     
   1262851858.3785012     
   1446673195.0419776     
   1715699218.0408525     
   2110517701.5139737     
   2663577664.0949802     
   1002015281.1619043     
   1164713643.9010174     
   1425442549.1073399     
   1808783004.4796169     
   2334813264.2847314     
   917767860.82866049     
   963162448.43771172     
   1144955745.1731884     
   1476501592.9119792     
   1957470658.5469708     
   1158976698.8537588     
   1008515557.2960368     
   985255433.25526631     
   1161469413.2098565     
   1544055452.0008950     
   1681448497.1849358     
   1383881035.7074969     
   1129512761.3812947     
   1010058311.9336718     
   1152827796.2261493     
 </DataArray>
 <DataArray  type="Float64" Name="strain" NumberOfComponents="3" format="ascii">
   9.9324860157292472E-002  -2.9608771670261769E-002   8.7772565704979932E-004
   9.6323723021524477E-002  -2.8900569270810639E-002   5.8623484174469276E-004
   9.3322585885756371E-002  -2.8106186513998377E-002   4.6227546098265293E-004
   9.0321448749988265E-002  -2.7225623399825746E-002   5.0584751476373535E-004
   8.7320311614220270E-002  -2.6258879928292345E-002   7.1695100308799553E-004
   9.3248767445861191E-002  -2.7874990917547970E-002   7.7895713488375096E-003
   9.0413286888969047E-002  -2.7138411164919718E-002   7.5738866201390809E-003
   8.7577806332076902E-002  -2.6348741872320502E-002   7.5219836146493968E-003
   8.4742325775184757E-002  -2.5505983039750768E-002   7.6338623323685406E-003
   8.1906845218292557E-002  -2.4610134667209960E-002   7.9095227732960960E-003
   8.7180720728038008E-002  -2.6141210164834228E-002   1.4746339802497899E-002
   8.4507147038687419E-002  -2.5376253059028631E-002   1.4573370343015757E-002
   8.1833573349336719E-002  -2.4591297230642434E-002   1.4560432895408565E-002
   7.9159999659986047E-002  -2.3786342679675464E-002   1.4707527459675157E-002
   7.6486425970635430E-002  -2.2961389406127797E-002   1.5014654035816394E-002
   8.1120720003823005E-002  -2.4407429412120485E-002   2.1748031018029981E-002
   7.8605303470679400E-002  -2.3614094953137738E-002   2.1584686010374804E-002
   7.6089886937535878E-002  -2.2833852588964407E-002   2.1577623303259442E-002
   7.3574470404392328E-002  -2.2066702319600322E-002   2.1726842896684081E-002
   7.1059053871248751E-002  -2.1312644145045634E-002   2.2032344790648604E-002
   7.5068765273216043E-002  -2.2673648659406687E-002   2.8794644995434715E-002
   7.2707756184945127E-002  -2.1851936847246678E-002   2.8607833622215917E-002
   7.0346747096674322E-002  -2.1076407947286324E-002   2.8573554838202675E-002
   6.7985738008403462E-002  -2.0347061959525195E-002   2.8691808643395045E-002
   6.5624728920132658E-002  -1.9663898883963526E-002   2.8962595037792693E-002
   8.7320311614220270E-002  -2.6258879928292345E-002   7.1695100308799553E-004
   8.4228850762012475E-002  -2.5265231425704415E-002   4.7082444593332662E-004
   8.1137389909804736E-002  -2.4303953218368007E-002   4.1349705714027740E-004
   7.8045929057596969E-002  -2.3375045306283877E-002   5.4496883670854257E-004
   7.4954468205389202E-002  -2.2478507689451144E-002   8.6523978463826090E-004
   8.1906845218292557E-002  -2.4610134667209960E-002   7.9095227732960960E-003
   7.9004002799170997E-002  -2.3697460209003679E-002   7.6303587971914000E-003
   7.6101160380049354E-002  -2.2804223119436889E-002   7.5396325188974989E-003
   7.3198317960927725E-002  -2.1930423398509126E-002   7.6373439384140734E-003
   7.0295475541806152E-002  -2.1076061046221173E-002   7.9234930557419148E-003
   7.6486425970635430E-002  -2.2961389406127797E-002   1.5014654035816394E-002
   7.3771840514049475E-002  -2.2129688992303470E-002   1.4715385567373562E-002
   7.1057255057463450E-002  -2.1304493020505647E-002   1.4604193326191228E-002
   6.8342669600877481E-002  -2.0485801490735037E-002   1.4681077312269149E-002
   6.5628084144291526E-002  -1.9673614402991202E-002   1.4946037525607608E-002
   7.1059053871248751E-002  -2.1312644145045634E-002   2.2032344790648604E-002
   6.8532363906647908E-002  -2.0561917775602997E-002   2.1725904756480292E-002
   6.6005673942047080E-002  -1.9804762921574688E-002   2.1607179479022135E-002
   6.3478983977446182E-002  -1.9041179582960727E-002   2.1676168958273664E-002
   6.0952294012845361E-002  -1.8271167759761175E-002   2.1932873194235210E-002
   6.5624728920132658E-002  -1.9663898883963526E-002   2.8962595037792693E-002
   6.3285572976966409E-002  -1.8994146558902469E-002   2.8661916364511736E-002
   6.0946417033800160E-002  -1.8305032822643369E-002   2.8548590977389821E-002
   5.8607261090633897E-002  -1.7596557675186190E-002   2.8622618876427544E-002
   5.6268105147467662E-002  -1.6868721116531205E-002   2.8884000061624504E-002
   7.4954468205389202E-002  -2.2478507689451144E-002   8.6523978463826090E-004
   7.1898412289814639E-002  -2.1591941951698557E-002   5.6776434215954907E-004
   6.8842356374239966E-002  -2.0692949676854505E-002   4.5798488983800345E-004
   6.5786300458665320E-002  -1.9781530864918372E-002   5.3590142767434568E-004
   6.2730244543090730E-002  -1.8857685515889844E-002   8.0151395566840922E-004
   7.0295475541806152E-002  -2.1076061046221173E-002   7.9234930557419148E-003
   6.7424985705734686E-002  -2.0227751474056144E-002   7.6253681414191199E-003
   6.4554495869663220E-002  -1.9372110093497819E-002   7.5106793959452967E-003
   6.1684006033591754E-002  -1.8509136904546308E-002   7.5794268193199454E-003
   5.8813516197520288E-002  -1.7638831907201169E-002   7.8316104115432328E-003
   6.5628084144291526E-002  -1.9673614402991202E-002   1.4946037525607608E-002
   6.2938900566414019E-002  -1.8863560996413398E-002   1.4642168410742951E-002
   6.0249716988536553E-002  -1.8051270510141035E-002   1.4517475643417460E-002
   5.7560533410659066E-002  -1.7236742944174249E-002   1.4571959223631310E-002
   5.4871349832781607E-002  -1.6419978298512106E-002   1.4805619151385035E-002
   6.0952294012845361E-002  -1.8271167759761175E-002   2.1932873194235210E-002
   5.8440156871852653E-002  -1.7499370518770874E-002   2.1618165150129681E-002
   5.5928019730860007E-002  -1.6730430926784411E-002   2.1478373632254296E-002
   5.3415882589867299E-002  -1.5964348983802078E-002   2.1513498640609294E-002
   5.0903745448874660E-002  -1.5201124689823459E-002   2.1723540175194463E-002
   5.6268105147467662E-002  -1.6868721116531205E-002   2.8884000061624504E-002
   5.3928754622050601E-002  -1.6135180041128211E-002   2.8553358359579672E-002
   5.1589404096633512E-002  -1.5409591343427773E-002   2.8393373362455981E-002
   4.9250053571216465E-002  -1.4691955023430233E-002   2.8404045070253250E-002
   4.6910703045799362E-002  -1.3982271081134590E-002   2.8585373482971521E-002
   6.2730244543090730E-002  -1.8857685515889844E-002   8.0151395566840922E-004
   5.9748387564899752E-002  -1.7943264876307485E-002   5.0359117034515233E-004
   5.6766530586708885E-002  -1.7060120192709388E-002   3.9266288195544119E-004
   5.3784673608517963E-002  -1.6208251465095351E-002   4.6872909049927580E-004
   5.0802816630327041E-002  -1.5387658693464923E-002   7.3178979597621208E-004
   5.8813516197520288E-002  -1.7638831907201169E-002   7.8316104115432328E-003
   5.6012282275605230E-002  -1.6773763424494936E-002   7.4773377695662724E-003
   5.3211048353690171E-002  -1.5926499779459286E-002   7.2973167432074937E-003
   5.0409814431775085E-002  -1.5097040972094307E-002   7.2915473324666746E-003
   4.7608580509860055E-002  -1.4285387002400340E-002   7.4600295373442593E-003
   5.4871349832781607E-002  -1.6419978298512106E-002   1.4805619151385035E-002
   5.2237996085826827E-002  -1.5604261972681777E-002   1.4408467771067773E-002
   4.9604642338872074E-002  -1.4792879366209086E-002   1.4172825125053648E-002
   4.6971288591917335E-002  -1.3985830479093488E-002   1.4098691213341528E-002
   4.4337934844962540E-002  -1.3183115311335425E-002   1.4186066035932032E-002
   5.0903745448874660E-002  -1.5201124689823459E-002   2.1723540175194463E-002
   4.8425528995564661E-002  -1.4434760520869033E-002   2.1296981174850564E-002
   4.5947312542254592E-002  -1.3659258952958712E-002   2.1019188027493755E-002
   4.3469096088944552E-002  -1.2874619986092557E-002   2.0890160733123699E-002
   4.0990879635634588E-002  -1.2080843620270454E-002   2.0909899291740530E-002
   4.6910703045799362E-002  -1.3982271081134590E-002   2.8585373482971521E-002
   4.4574881004818545E-002  -1.3265259069056123E-002   2.8142877980913805E-002
   4.2239058963837672E-002  -1.2525638539708228E-002   2.7836405450527790E-002
   3.9903236922856855E-002  -1.1763409493091459E-002   2.7665955891813254E-002
   3.7567414881875982E-002  -1.0978571929205816E-002   2.7631529304769975E-002
   5.0802816630327041E-002  -1.5387658693464923E-002   7.3178979597621208E-004
   4.8074853468054513E-002  -1.4569914540555007E-002   4.7713030893137276E-004
   4.5346890305781984E-002  -1.3726591669103061E-002   2.7438127793144584E-004
   4.2618927143509483E-002  -1.2857690079107170E-002   1.2354270297754155E-004
   3.9890963981236927E-002  -1.1963209770569305E-002   2.4614584069881928E-005
   4.7608580509860055E-002  -1.4285387002400340E-002   7.4600295373442593E-003
   4.4941540620058562E-002  -1.3476627791558338E-002   7.1567703415476025E-003
   4.2274500730257097E-002  -1.2655853260751276E-002   6.9234472346473286E-003
   3.9607460840455591E-002  -1.1823063409977803E-002   6.7600602166431878E-003
   3.6940420950654085E-002  -1.0978258239238592E-002   6.6666092875353744E-003
   4.4337934844962540E-002  -1.3183115311335425E-002   1.4186066035932032E-002
   4.1749843860482500E-002  -1.2383341042561502E-002   1.3820643732807669E-002
   3.9161752876002390E-002  -1.1585114852398826E-002   1.3543183151429661E-002
   3.6573661891522315E-002  -1.0788436740847548E-002   1.3353684291798326E-002
   3.3985570907042212E-002  -9.9933067079073234E-003   1.3252147153913596E-002
   4.0990879635634588E-002  -1.2080843620270454E-002   2.0909899291740530E-002
   3.8499763189326200E-002  -1.1290054293564861E-002   2.0468750482711136E-002
   3.6008646743017847E-002  -1.0514376444047374E-002   2.0133589028278769E-002
   3.3517530296709487E-002  -9.7538100717177376E-003   1.9904414928442783E-002
   3.1026413850401058E-002  -9.0083551765762215E-003   1.9781228183204061E-002
   3.7567414881875982E-002  -1.0978571929205816E-002   2.7631529304769975E-002
   3.5191298606589705E-002  -1.0196767544567942E-002   2.7101090591258259E-002
   3.2815182331303455E-002  -9.4436380356953120E-003   2.6694664865194173E-002
   3.0439066056017178E-002  -8.7191834025875520E-003   2.6412252126577052E-002
   2.8062949780730928E-002  -8.0234036452453417E-003   2.6253852375407560E-002
   3.9890963981236927E-002  -1.1963209770569305E-002   2.4614584069881928E-005
   3.7470389841299800E-002  -1.1135461992006435E-002  -2.7134821417140742E-004
   3.5049815701362674E-002  -1.0466757991936360E-002  -4.7725488600747212E-004
   3.2629241561425604E-002  -9.9570977703591218E-003  -5.9310543143847871E-004
   3.0208667421488422E-002  -9.6064813272758176E-003  -6.1889985046370555E-004
   3.6940420950654085E-002  -1.0978258239238592E-002   6.6666092875353744E-003
   3.4591987477562536E-002  -1.0179523477091279E-002   6.2168240588834633E-003
   3.2243554004470987E-002  -9.4849448520941126E-003   5.8212640375169822E-003
   2.9895120531379354E-002  -8.8945223642479671E-003   5.4799292234365415E-003
   2.7546687058287833E-002  -8.4082560135521067E-003   5.1928196166419749E-003
   3.3985570907042212E-002  -9.9933067079073234E-003   1.3252147153913596E-002
   3.1673447181676695E-002  -9.2235849621762900E-003   1.2703427136193712E-002
   2.9361323456311123E-002  -8.5031317122530037E-003   1.2173101406640380E-002
   2.7049199730945619E-002  -7.8319469581368192E-003   1.1661169965253348E-002
   2.4737076005580033E-002  -7.2100306998285069E-003   1.1167632812032424E-002
   3.1026413850401058E-002  -9.0083551765762215E-003   1.9781228183204061E-002
   2.8714768953642118E-002  -8.2676464472613287E-003   1.9188461017759492E-002
   2.6403124056883213E-002  -7.5213185724111037E-003   1.8578257221361617E-002
   2.4091479160124267E-002  -6.7693715520255569E-003   1.7950616794010246E-002
   2.1779834263365307E-002  -6.0118053861049625E-003   1.7305539735706393E-002
   2.8062949780730928E-002  -8.0234036452453417E-003   2.6253852375407560E-002
   2.5715952793459063E-002  -7.3117079323464229E-003   2.5671925703580567E-002
   2.3368955806187169E-002  -6.5395054325696755E-003   2.5036731481681063E-002
   2.1021958818915346E-002  -5.7067961459143016E-003   2.4348269709708686E-002
   1.8674961831643466E-002  -4.8135800723811961E-003   2.3606540387663855E-002
   3.0208667421488422E-002  -9.6064813272758176E-003  -6.1889985046370555E-004
   2.9602249097694489E-002  -9.1330803362317248E-003  -3.6838542066508495E-004
   2.8995830773900666E-002  -8.2550664707727872E-003  -1.7998085522260565E-003
   2.8389412450106816E-002  -6.9724397308995045E-003  -4.9131692451462872E-003
   2.7782994126312910E-002  -5.2852001166108220E-003  -9.7084674994261100E-003
   2.7546687058287833E-002  -8.4082560135521067E-003   5.1928196166419749E-003
   2.5527807331688190E-002  -7.8698516436810362E-003   5.8717020404455145E-003
   2.3508927605088575E-002  -7.1230150983080942E-003   5.4075992199968392E-003
   2.1490047878488919E-002  -6.1677463774344882E-003   3.8005111552970039E-003
   1.9471168151889318E-002  -5.0040454810598156E-003   1.0504378463442876E-003
   2.4737076005580033E-002  -7.2100306998285069E-003   1.1167632812032424E-002
   2.1844687193282336E-002  -6.6066229511299035E-003   1.2078702530926855E-002
   1.8952298380984653E-002  -5.9909637258436232E-003   1.2385739322677336E-002
   1.6059909568686963E-002  -5.3630530239694718E-003   1.2088743187283021E-002
   1.3167520756389245E-002  -4.7228908455075880E-003   1.1187714124745229E-002
   2.1779834263365307E-002  -6.0118053861049625E-003   1.7305539735706393E-002
   1.8552888682477141E-002  -5.3433942585792149E-003   1.8252616050778603E-002
   1.5325943101588951E-002  -4.8589123533791523E-003   1.9134611755814490E-002
   1.2098997520700807E-002  -4.5583596705046775E-003   1.9951526850813459E-002
   8.8720519398125947E-003  -4.4417362099561930E-003   2.0703361335775702E-002
   1.8674961831643466E-002  -4.8135800723811961E-003   2.3606540387663855E-002
   1.5652411799272459E-002  -4.0801655660281932E-003   2.4393442600000537E-002
   1.2629861766901479E-002  -3.7268609809144315E-003   2.5654216519408135E-002
   9.6073117345304854E-003  -3.7536663170398207E-003   2.7388862145887233E-002
   6.5847617021594917E-003  -4.1605815744046870E-003   2.9597379479436969E-002
   2.7782994126312910E-002  -5.2852001166108220E-003  -9.7084674994261100E-003
   2.3355255084840931E-002  -4.2077521728711709E-003  -4.1847224652484805E-003
   1.8927516043369119E-002  -4.7545004446412631E-003   2.6039608508224843E-003
   1.4499777001897252E-002  -6.9254449319211125E-003   1.0657582448787506E-002
   1.0072037960425329E-002  -1.0720585634711455E-002   1.9976142328645530E-002
   1.9471168151889318E-002  -5.0040454810598156E-003   1.0504378463442876E-003
   1.6235856937878546E-002  -4.6914357290677167E-003   6.7424456651250519E-003
   1.3000545723867662E-002  -6.2894404413430527E-003   1.3554370856933451E-002
   9.7652345098568072E-003  -9.7980596178853518E-003   2.1486213421771483E-002
   6.5299232958462294E-003  -1.5217293258695364E-002   3.0537973359637594E-002
   1.3167520756389245E-002  -4.7228908455075880E-003   1.1187714124745229E-002
   1.0979616460974756E-002  -5.1751192852640404E-003   1.6761566479370826E-002
   8.7917121655603087E-003  -7.8243804380448145E-003   2.3310315298160272E-002
   6.6038078701457364E-003  -1.2670674303849473E-002   3.0833960581113387E-002
   4.4159035747312614E-003  -1.9714000882678828E-002   3.9332502328231378E-002
   8.8720519398125947E-003  -4.4417362099561930E-003   2.0703361335775702E-002
   7.5865336541297082E-003  -5.6588028414609193E-003   2.5872639977489870E-002
   6.3010153684467732E-003  -9.3593204347470343E-003   3.1871794174502983E-002
   5.0154970827638555E-003  -1.5543288989814098E-002   3.8700823926815148E-002
   3.7299787970809378E-003  -2.4210708506662515E-002   4.6359729234427494E-002
   6.5847617021594917E-003  -4.1605815744046870E-003   2.9597379479436969E-002
   6.0566085173434092E-003  -6.1424863976579092E-003   3.4075666159481988E-002
   5.5284553325274099E-003  -1.0894260431448949E-002   3.9238807485962035E-002
   5.0003021477113413E-003  -1.8415903675778424E-002   4.5086803458876307E-002
   4.4721489628952726E-003  -2.8707416130646202E-002   5.1619654078224997E-002
   7.5068765273216043E-002  -2.2673648659406687E-002   2.8794644995434715E-002
   7.2707756184945127E-002  -2.1851936847246678E-002   2.8607833622215917E-002
   7.0346747096674322E-002  -2.1076407947286324E-002   2.8573554838202675E-002
   6.7985738008403462E-002  -2.0347061959525195E-002   2.8691808643395045E-002
   6.5624728920132658E-002  -1.9663898883963526E-002   2.8962595037792693E-002
   6.8981986973976228E-002  -2.0719876331305953E-002   3.4262378898125001E-002
   6.6783257350382652E-002  -2.0019420126429516E-002   3.3973896166606010E-002
   6.4584527726789076E-002  -1.9340231215150924E-002   3.3857439775235670E-002
   6.2385798103195500E-002  -1.8682309597470161E-002   3.3913009724014440E-002
   6.0187068479601896E-002  -1.8045655273387390E-002   3.4140606012942165E-002
   6.2817515543863028E-002  -1.8766104003205220E-002   3.9596399384231429E-002
   6.0800559135890178E-002  -1.8186903405612229E-002   3.9231160913013111E-002
   5.8783602727917217E-002  -1.7604054483015635E-002   3.9057442532887621E-002
   5.6766646319944311E-002  -1.7017557235415266E-002   3.9075244243854321E-002
   5.4749689911971378E-002  -1.6427411662811281E-002   3.9284566045913460E-002
   5.6575350982876291E-002  -1.6812331675104486E-002   4.4796706453753096E-002
   5.4759661541467511E-002  -1.6354386684794962E-002   4.4379627861437870E-002
   5.2943972100058766E-002  -1.5867877750880319E-002   4.4173563111158172E-002
   5.1128282658650021E-002  -1.5352804873360357E-002   4.4178512202914452E-002
   4.9312593217241199E-002  -1.4809168052235186E-002   4.4394475136706753E-002
   5.0255493291016085E-002  -1.4858559347003752E-002   4.9863300106690711E-002
   4.8660564567114872E-002  -1.4521869963977724E-002   4.9419297011879637E-002
   4.7065635843213688E-002  -1.4131701018744974E-002   4.9205801510047720E-002
   4.5470707119312476E-002  -1.3688052511305386E-002   4.9222813601195237E-002
   4.3875778395411291E-002  -1.3190924441659091E-002   4.9470333285321910E-002
   6.5624728920132658E-002  -1.9663898883963526E-002   2.8962595037792693E-002
   6.3285572976966409E-002  -1.8994146558902469E-002   2.8661916364511736E-002
   6.0946417033800160E-002  -1.8305032822643369E-002   2.8548590977389821E-002
   5.8607261090633897E-002  -1.7596557675186190E-002   2.8622618876427544E-002
   5.6268105147467662E-002  -1.6868721116531205E-002   2.8884000061624504E-002
   6.0187068479601896E-002  -1.8045655273387390E-002   3.4140606012942165E-002
   5.8034462831134184E-002  -1.7413182335778085E-002   3.3855539187024844E-002
   5.5881857182666528E-002  -1.6767804877517924E-002   3.3756219664345527E-002
   5.3729251534198816E-002  -1.6109522898606864E-002   3.3842647444903839E-002
   5.1576645885731159E-002  -1.5438336399045072E-002   3.4114822528699712E-002
   5.4749689911971378E-002  -1.6427411662811281E-002   3.9284566045913460E-002
   5.2782028575280637E-002  -1.5832218112653645E-002   3.9008654176812978E-002
   5.0814367238589918E-002  -1.5230576932392367E-002   3.8916883628028517E-002
   4.8846705901899198E-002  -1.4622488122027596E-002   3.9009254399560336E-002
   4.6879044565208458E-002  -1.4007951681559078E-002   3.9285766491408233E-002
   4.9312593217241199E-002  -1.4809168052235186E-002   4.4394475136706753E-002
   4.7528270209405796E-002  -1.4251253889529233E-002   4.4121261333875665E-002
   4.5743947201570358E-002  -1.3693348987266839E-002   4.4030582868439153E-002
   4.3959624193734927E-002  -1.3135453345448201E-002   4.4122439740397208E-002
   4.2175301185899516E-002  -1.2577566964072959E-002   4.4396831949749568E-002
   4.3875778395411291E-002  -1.3190924441659091E-002   4.9470333285321910E-002
   4.2273187733509562E-002  -1.2670289666404932E-002   4.9193360658213059E-002
   4.0670597071607834E-002  -1.2156121042141380E-002   4.9097317385577127E-002
   3.9068006409706119E-002  -1.1648418568868866E-002   4.9182203467414004E-002
   3.7465415747804404E-002  -1.1147182246587006E-002   4.9448018903723967E-002
   5.6268105147467662E-002  -1.6868721116531205E-002   2.8884000061624504E-002
   5.3928754622050601E-002  -1.6135180041128211E-002   2.8553358359579672E-002
   5.1589404096633512E-002  -1.5409591343427773E-002   2.8393373362455981E-002
   4.9250053571216465E-002  -1.4691955023430233E-002   2.8404045070253250E-002
   4.6910703045799362E-002  -1.3982271081134590E-002   2.8585373482971521E-002
   5.1576645885731159E-002  -1.5438336399045072E-002   3.4114822528699712E-002
   4.9409964199827586E-002  -1.4761432862579887E-002   3.3775339490188100E-002
   4.7243282513924081E-002  -1.4085999772958532E-002   3.3610537425782419E-002
   4.5076600828020515E-002  -1.3412037130181461E-002   3.3620416335482732E-002
   4.2909919142116948E-002  -1.2739544934248059E-002   3.3804976219289185E-002
   4.6879044565208458E-002  -1.4007951681559078E-002   3.9285766491408233E-002
   4.4889055988003412E-002  -1.3387685684031522E-002   3.8943924047288053E-002
   4.2899067410798457E-002  -1.2762408202489410E-002   3.8780786846459032E-002
   4.0909078833593390E-002  -1.2132119236932746E-002   3.8796354888920942E-002
   3.8919090256388456E-002  -1.1496818787361418E-002   3.8990628174674080E-002
   4.2175301185899516E-002  -1.2577566964072959E-002   4.4396831949749568E-002
   4.0366029986578109E-002  -1.2013938505483011E-002   4.4059112030879546E-002
   3.8556758787256722E-002  -1.1438816632020118E-002   4.3904121624485731E-002
   3.6747487587935265E-002  -1.0852201343684004E-002   4.3931860730568026E-002
   3.4938216388613927E-002  -1.0254092640474777E-002   4.4142329349126375E-002
   3.7465415747804404E-002  -1.1147182246587006E-002   4.9448018903723967E-002
   3.5840886195551591E-002  -1.0640191326934778E-002   4.9120903440962760E-002
   3.4216356643298820E-002  -1.0115225061550936E-002   4.8980541759862634E-002
   3.2591827091046056E-002  -9.5722834504354259E-003   4.9026933860423616E-002
   3.0967297538793265E-002  -9.0113664935881910E-003   4.9260079742645846E-002
   4.6910703045799362E-002  -1.3982271081134590E-002   2.8585373482971521E-002
   4.4574881004818545E-002  -1.3265259069056123E-002   2.8142877980913805E-002
   4.2239058963837672E-002  -1.2525638539708228E-002   2.7836405450527790E-002
   3.9903236922856855E-002  -1.1763409493091459E-002   2.7665955891813254E-002
   3.7567414881875982E-002  -1.0978571929205816E-002   2.7631529304769975E-002
   4.2909919142116948E-002  -1.2739544934248059E-002   3.3804976219289185E-002
   4.0716231943958014E-002  -1.2058718500966459E-002   3.3398921325740794E-002
   3.8522544745798942E-002  -1.1359753146144180E-002   3.3141113146164886E-002
   3.6328857547639995E-002  -1.0642648869781543E-002   3.3031551680561488E-002
   3.4135170349480964E-002  -9.9074056718782555E-003   3.3070236928930186E-002
   3.8919090256388456E-002  -1.1496818787361418E-002   3.8990628174674080E-002
   3.6879761643352174E-002  -1.0852177932876877E-002   3.8616544293906541E-002
   3.4840433030315948E-002  -1.0193867752580188E-002   3.8402930869412211E-002
   3.2801104417279736E-002  -9.5218882464714050E-003   3.8349787901191035E-002
   3.0761775804243455E-002  -8.8362394145505285E-003   3.8457115389243179E-002
   3.4938216388613927E-002  -1.0254092640474777E-002   4.4142329349126375E-002
   3.3065470103001308E-002  -9.6456373647872545E-003   4.3795746885411074E-002
   3.1192723817388711E-002  -9.0279823590161123E-003   4.3621858620269849E-002
   2.9319977531776134E-002  -8.4011276231612669E-003   4.3620664553702775E-002
   2.7447231246163495E-002  -7.7650731572229958E-003   4.3792164685710053E-002
   3.0967297538793265E-002  -9.0113664935881910E-003   4.9260079742645846E-002
   2.9273357322905230E-002  -8.4390967966977426E-003   4.8936529100254256E-002
   2.7579417107017196E-002  -7.8620969654519951E-003   4.8797896398737745E-002
   2.5885476891129133E-002  -7.2803669998512018E-003   4.8844181638096076E-002
   2.4191536675241099E-002  -6.6939068998953521E-003   4.9075384818329515E-002
   3.7567414881875982E-002  -1.0978571929205816E-002   2.7631529304769975E-002
   3.5191298606589705E-002  -1.0196767544567942E-002   2.7101090591258259E-002
   3.2815182331303455E-002  -9.4436380356953120E-003   2.6694664865194173E-002
   3.0439066056017178E-002  -8.7191834025875520E-003   2.6412252126577052E-002
   2.8062949780730928E-002  -8.0234036452453417E-003   2.6253852375407560E-002
   3.4135170349480964E-002  -9.9074056718782555E-003   3.3070236928930186E-002
   3.1889157576582366E-002  -9.1726942897191743E-003   3.2580800003119192E-002
   2.9643144803683685E-002  -8.4571854605895863E-003   3.2227557094636122E-002
   2.7397132030785046E-002  -7.7608791844897516E-003   3.2010508203481447E-002
   2.5151119257886434E-002  -7.0837754614190285E-003   3.1929653329654528E-002
   3.0761775804243455E-002  -8.8362394145505285E-003   3.8457115389243179E-002
   2.8658047563613329E-002  -8.1486210348705457E-003   3.8018152573868660E-002
   2.6554319322983078E-002  -7.4707328854843047E-003   3.7727564805702940E-002
   2.4450591082352903E-002  -6.8025749663916182E-003   3.7585352084745990E-002
   2.2346862841722687E-002  -6.1441472775929373E-003   3.7591514410998117E-002
   2.7447231246163495E-002  -7.7650731572229958E-003   4.3792164685710053E-002
   2.5497968567682518E-002  -7.1245477800218476E-003   4.3413148303507398E-002
   2.3548705889201507E-002  -6.4842803103786900E-003   4.3194687998394383E-002
   2.1599443210720552E-002  -5.8442707482938734E-003   4.3136783770371265E-002
   1.9650180532239516E-002  -5.2045190937666241E-003   4.3239435619437362E-002
   2.4191536675241099E-002  -6.6939068998953521E-003   4.9075384818329515E-002
   2.2408920588790127E-002  -6.1004745251730386E-003   4.8765787192035004E-002
   2.0626304502339099E-002  -5.4978277352733251E-003   4.8628926672710571E-002
   1.8843688415888085E-002  -4.8859665301957469E-003   4.8664803260356632E-002
   1.7061072329437071E-002  -4.2648909099405330E-003   4.8873416954972826E-002
   2.8062949780730928E-002  -8.0234036452453417E-003   2.6253852375407560E-002
   2.5715952793459063E-002  -7.3117079323464229E-003   2.5671925703580567E-002
   2.3368955806187169E-002  -6.5395054325696755E-003   2.5036731481681063E-002
   2.1021958818915346E-002  -5.7067961459143016E-003   2.4348269709708686E-002
   1.8674961831643466E-002  -4.8135800723811961E-003   2.3606540387663855E-002
   2.5151119257886434E-002  -7.0837754614190285E-003   3.1929653329654528E-002
   2.2789401347152044E-002  -6.4083505621307379E-003   3.1532023237289986E-002
   2.0427683436417654E-002  -5.7170807573774518E-003   3.1158218848073127E-002
   1.8065965525683285E-002  -5.0099660471588162E-003   3.0808240162003800E-002
   1.5704247614948874E-002  -4.2870064314751710E-003   3.0482087179082074E-002
   2.2346862841722687E-002  -6.1441472775929373E-003   3.7591514410998117E-002
   2.0047517260745940E-002  -5.5049931919150252E-003   3.7333519016682831E-002
   1.7748171679769213E-002  -4.8946560821851032E-003   3.7176442578735383E-002
   1.5448826098792504E-002  -4.3131359484033273E-003   3.7120285097155849E-002
   1.3149480517815754E-002  -3.7604327905692569E-003   3.7165046571943777E-002
   1.9650180532239516E-002  -5.2045190937666241E-003   4.3239435619437362E-002
   1.7490300534240680E-002  -4.6016358216991599E-003   4.3076413041758431E-002
   1.5330420536241901E-002  -4.0722314069929280E-003   4.3091402673667498E-002
   1.3170540538243059E-002  -3.6163058496476181E-003   4.3284404515164562E-002
   1.1010660540244233E-002  -3.2338591496633429E-003   4.3655418566249264E-002
   1.7061072329437071E-002  -4.2648909099405330E-003   4.8873416954972826E-002
   1.5117751167636362E-002  -3.6982784514835165E-003   4.8760705312517194E-002
   1.3174430005835638E-002  -3.2498067318006418E-003   4.8903099132869554E-002
   1.1231108844034922E-002  -2.9194757508922697E-003   4.9300598416029934E-002
   9.2877876822342054E-003  -2.7072855087574288E-003   4.9953203161998805E-002
   1.8674961831643466E-002  -4.8135800723811961E-003   2.3606540387663855E-002
   1.5652411799272459E-002  -4.0801655660281932E-003   2.4393442600000537E-002
   1.2629861766901479E-002  -3.7268609809144315E-003   2.5654216519408135E-002
   9.6073117345304854E-003  -3.7536663170398207E-003   2.7388862145887233E-002
   6.5847617021594917E-003  -4.1605815744046870E-003   2.9597379479436969E-002
   1.5704247614948874E-002  -4.2870064314751710E-003   3.0482087179082074E-002
   1.3137211354346201E-002  -3.7744492345530012E-003   3.1258198743563892E-002
   1.0570175093743514E-002  -3.6985417806197074E-003   3.2471466144511407E-002
   8.0031388331408340E-003  -4.0592840696743807E-003   3.4121889381924259E-002
   5.4361025725380985E-003  -4.8566761017179161E-003   3.6209468455803306E-002
   1.3149480517815754E-002  -3.7604327905692569E-003   3.7165046571943777E-002
   1.1001242158376057E-002  -3.4687329030780867E-003   3.7873827666821375E-002
   8.8530037989363389E-003  -3.6702225803247751E-003   3.8983048727559463E-002
   6.7047654394966176E-003  -4.3649018223090551E-003   4.0492709754157717E-002
   4.5565270800569241E-003  -5.5527706290307566E-003   4.2402810746616088E-002
   1.1010660540244233E-002  -3.2338591496633429E-003   4.3655418566249264E-002
   9.2445042113621090E-003  -3.1630165716030889E-003   4.4240329369773505E-002
   7.4783478824799760E-003  -3.6419033800298914E-003   4.5188964268552970E-002
   5.7121915535978457E-003  -4.6705195749431171E-003   4.6501323262587227E-002
   3.9460352247157153E-003  -6.2488651563439024E-003   4.8177406351876124E-002
   9.2877876822342054E-003  -2.7072855087574288E-003   4.9953203161998805E-002
   7.8669975133043024E-003  -2.8573002401280911E-003   5.0357703852420332E-002
   6.4462073443744550E-003  -3.6135841797351187E-003   5.1089212767491565E-002
   5.0254171754445520E-003  -4.9761373275779563E-003   5.2147729907212337E-002
   3.6046270065147046E-003  -6.9449596836569372E-003   5.3533255271582481E-002
   6.5847617021594917E-003  -4.1605815744046870E-003   2.9597379479436969E-002
   6.0566085173434092E-003  -6.1424863976579092E-003   3.4075666159481988E-002
   5.5284553325274099E-003  -1.0894260431448949E-002   3.9238807485962035E-002
   5.0003021477113413E-003  -1.8415903675778424E-002   4.5086803458876307E-002
   4.4721489628952726E-003  -2.8707416130646202E-002   5.1619654078224997E-002
   5.4361025725380985E-003  -4.8566761017179161E-003   3.6209468455803306E-002
   5.4890339833734703E-003  -6.9906299160138463E-003   3.8349897206177652E-002
   5.5419653942088837E-003  -1.1361057551828702E-002   4.0967640501420266E-002
   5.5948968050443040E-003  -1.7967959009160733E-002   4.4062698341531120E-002
   5.6478282158797244E-003  -2.6811334288011857E-002   4.7635070726510742E-002
   4.5565270800569241E-003  -5.5527706290307566E-003   4.2402810746616088E-002
   4.9830029849775720E-003  -7.8387734343706161E-003   4.2738776956339430E-002
   5.4094788898983517E-003  -1.1827854672208218E-002   4.3344517609365321E-002
   5.8359547948190309E-003  -1.7520014342543650E-002   4.4220032705693628E-002
   6.2624306997397239E-003  -2.4915252445377289E-002   4.5365322245323747E-002
   3.9460352247157153E-003  -6.2488651563439024E-003   4.8177406351876124E-002
   4.5385155221556936E-003  -8.6869169527267476E-003   4.7242305409968377E-002
   5.1309958195956424E-003  -1.2294651792587631E-002   4.6369438809797006E-002
   5.7234761170356458E-003  -1.7072069675926262E-002   4.5558806551361831E-002
   6.3159564144756250E-003  -2.3019170602742722E-002   4.4810408634663124E-002
   3.6046270065147046E-003  -6.9449596836569372E-003   5.3533255271582481E-002
   4.1555715949078142E-003  -9.5350604710832121E-003   5.1860482567063992E-002
   4.7065161833009517E-003  -1.2761448912967294E-002   5.0042404102715932E-002
   5.2574607716940475E-003  -1.6624125009308661E-002   4.8079019878538271E-002
   5.8084053600871988E-003  -2.1123088760108377E-002   4.5970329894529982E-002
   5.0255493291016085E-002  -1.4858559347003752E-002   4.9863300106690711E-002
   4.8660564567114872E-002  -1.4521869963977724E-002   4.9419297011879637E-002
   4.7065635843213688E-002  -1.4131701018744974E-002   4.9205801510047720E-002
   4.5470707119312476E-002  -1.3688052511305386E-002   4.9222813601195237E-002
   4.3875778395411291E-002  -1.3190924441659091E-002   4.9470333285321910E-002
   4.3913813357043419E-002  -1.2987719069191495E-002   5.2921926790589269E-002
   4.2542567744139823E-002  -1.2684339321785920E-002   5.2552486398397630E-002
   4.1171322131236282E-002  -1.2339762060681908E-002   5.2399904635221928E-002
   3.9800076518332700E-002  -1.1953987285879659E-002   5.2464181501062190E-002
   3.8428830905429104E-002  -1.1527014997379015E-002   5.2745316995918334E-002
   3.7606182069719343E-002  -1.1116878791379264E-002   5.5953384863121514E-002
   3.6444970603850074E-002  -1.0846808679594047E-002   5.5646225125040943E-002
   3.5283759137980784E-002  -1.0547823102618883E-002   5.5542275052013076E-002
   3.4122547672111522E-002  -1.0219922060453881E-002   5.5641534644037670E-002
   3.2961336206242239E-002  -9.8631055530989109E-003   5.5944003901114939E-002
   3.1332599429044011E-002  -9.2460385135670065E-003   5.8957674324287605E-002
   3.0367773146245648E-002  -9.0092780374022227E-003   5.8700513191809765E-002
   2.9402946863447271E-002  -8.7558841445557825E-003   5.8632912760421096E-002
   2.8438120580648898E-002  -8.4858568350280449E-003   5.8754873030121807E-002
   2.7473294297850528E-002  -8.1991961088188486E-003   5.9066394000911640E-002
   2.5093065435017325E-002  -7.3751982357547763E-003   6.1934795174087731E-002
   2.4310975371326482E-002  -7.1717473952103428E-003   6.1715350598703977E-002
   2.3528885307635708E-002  -6.9639451864927926E-003   6.1671817760446224E-002
   2.2746795243944885E-002  -6.7517916096023617E-003   6.1804196659314387E-002
   2.1964705180254077E-002  -6.5352866645387309E-003   6.2112487295308272E-002
   4.3875778395411291E-002  -1.3190924441659091E-002   4.9470333285321910E-002
   4.2273187733509562E-002  -1.2670289666404932E-002   4.9193360658213059E-002
   4.0670597071607834E-002  -1.2156121042141380E-002   4.9097317385577127E-002
   3.9068006409706119E-002  -1.1648418568868866E-002   4.9182203467414004E-002
   3.7465415747804404E-002  -1.1147182246587006E-002   4.9448018903723967E-002
   3.8428830905429104E-002  -1.1527014997379015E-002   5.2745316995918334E-002
   3.7011045896745337E-002  -1.1079866058340659E-002   5.2448018276542940E-002
   3.5593260888061549E-002  -1.0633561331925320E-002   5.2339401509130579E-002
   3.4175475879377776E-002  -1.0188100818132855E-002   5.2419466693681069E-002
   3.2757690870693981E-002  -9.7434845169634965E-003   5.2688213830194730E-002
   3.2961336206242239E-002  -9.8631055530989109E-003   5.5944003901114939E-002
   3.1736109448266478E-002  -9.4894424502765529E-003   5.5632001027840786E-002
   3.0510882690290737E-002  -9.1110016217093096E-003   5.5516432704019757E-002
   2.9285655932315000E-002  -8.7277830673970647E-003   5.5597298929651762E-002
   2.8060429174339242E-002  -8.3397867873399589E-003   5.5874599704736849E-002
   2.7473294297850528E-002  -8.1991961088188486E-003   5.9066394000911640E-002
   2.6448378388072930E-002  -7.8990188422123908E-003   5.8745308912106609E-002
   2.5423462478295349E-002  -7.5884419114933301E-003   5.8628410970244765E-002
   2.4398546568517754E-002  -7.2674653166612474E-003   5.8715700175326256E-002
   2.3373630658740173E-002  -6.9360890577165740E-003   5.9007176527350769E-002
   2.1964705180254077E-002  -6.5352866645387309E-003   6.2112487295308272E-002
   2.1147852716164747E-002  -6.3085952341482288E-003   6.1787941929340395E-002
   2.0331000252075425E-002  -6.0658822012772534E-003   6.1675336307805667E-002
   1.9514147787986099E-002  -5.8071475659254058E-003   6.1774670430704268E-002
   1.8697295323896759E-002  -5.5323913280929671E-003   6.2085944298036322E-002
   3.7465415747804404E-002  -1.1147182246587006E-002   4.9448018903723967E-002
   3.5840886195551591E-002  -1.0640191326934778E-002   4.9120903440962760E-002
   3.4216356643298820E-002  -1.0115225061550936E-002   4.8980541759862634E-002
   3.2591827091046056E-002  -9.5722834504354259E-003   4.9026933860423616E-002
   3.0967297538793265E-002  -9.0113664935881910E-003   4.9260079742645846E-002
   3.2757690870693981E-002  -9.7434845169634965E-003   5.2688213830194730E-002
   3.1322009991263805E-002  -9.2920548503592770E-003   5.2389879583962573E-002
   2.9886329111833636E-002  -8.8261542402625071E-003   5.2282488901714691E-002
   2.8450648232403477E-002  -8.3457826866731172E-003   5.2366041783450834E-002
   2.7014967352973290E-002  -7.8509401895910935E-003   5.2640538229170974E-002
   2.8060429174339242E-002  -8.3397867873399589E-003   5.5874599704736849E-002
   2.6817786750054612E-002  -7.9439183737836927E-003   5.5601542272795124E-002
   2.5575144325769964E-002  -7.5370834189739666E-003   5.5523618187160215E-002
   2.4332501901485330E-002  -7.1192819229106419E-003   5.5640827447832233E-002
   2.3089859477200686E-002  -6.6905138855939128E-003   5.5953170054811416E-002
   2.3373630658740173E-002  -6.9360890577165740E-003   5.9007176527350769E-002
   2.2328216471923963E-002  -6.5957818972081500E-003   5.8755891507459926E-002
   2.1282802285107792E-002  -6.2480125976852596E-003   5.8703929616199052E-002
   2.0237388098291623E-002  -5.8927811591484164E-003   5.8851290853567953E-002
   1.9191973911475410E-002  -5.5300875815969402E-003   5.9197975219566976E-002
   1.8697295323896759E-002  -5.5323913280929671E-003   6.2085944298036322E-002
   1.7853299156871935E-002  -5.2476454206325795E-003   6.1852927287957438E-002
   1.7009302989847118E-002  -4.9589417763969829E-003   6.1823423188831383E-002
   1.6165306822822297E-002  -4.6662803953859654E-003   6.1997432000658007E-002
   1.5321310655797477E-002  -4.3696612775996346E-003   6.2374953723437709E-002
   3.0967297538793265E-002  -9.0113664935881910E-003   4.9260079742645846E-002
   2.9273357322905230E-002  -8.4390967966977426E-003   4.8936529100254256E-002
   2.7579417107017196E-002  -7.8620969654519951E-003   4.8797896398737745E-002
   2.5885476891129133E-002  -7.2803669998512018E-003   4.8844181638096076E-002
   2.4191536675241099E-002  -6.6939068998953521E-003   4.9075384818329515E-002
   2.7014967352973290E-002  -7.8509401895910935E-003   5.2640538229170974E-002
   2.5509860992336458E-002  -7.3458767156757976E-003   5.2353476383467407E-002
   2.4004754631699612E-002  -6.8348422315870350E-003   5.2259164307391220E-002
   2.2499648271062760E-002  -6.3178367373241395E-003   5.2357602000942333E-002
   2.0994541910425935E-002  -5.7948602328876664E-003   5.2648789464121160E-002
   2.3089859477200686E-002  -6.6905138855939128E-003   5.5953170054811416E-002
   2.1781418800567366E-002  -6.2526566346541856E-003   5.5703837881614482E-002
   2.0472978123934102E-002  -5.8075874977219569E-003   5.5655087306797323E-002
   1.9164537447300817E-002  -5.3553064747971311E-003   5.5806918330360070E-002
   1.7856096770667518E-002  -4.8958135658798141E-003   5.6159330952302439E-002
   1.9191973911475410E-002  -5.5300875815969402E-003   5.9197975219566976E-002
   1.8088030747598065E-002  -5.1594365536325182E-003   5.8987613594695482E-002
   1.6984087583720723E-002  -4.7803327638570488E-003   5.8985665396956176E-002
   1.5880144419843378E-002  -4.3927762122700957E-003   5.9192130626348989E-002
   1.4776201255966036E-002  -3.9967668988721561E-003   5.9607009282873984E-002
   1.5321310655797477E-002  -4.3696612775996346E-003   6.2374953723437709E-002
   1.4429696833428443E-002  -4.0662164726105732E-003   6.2204803522710517E-002
   1.3538083011059410E-002  -3.7530780299920019E-003   6.2250898577867642E-002
   1.2646469188690376E-002  -3.4302459497430812E-003   6.2513238888909417E-002
   1.1754855366321343E-002  -3.0977202318642760E-003   6.2991824455835621E-002
   2.4191536675241099E-002  -6.6939068998953521E-003   4.9075384818329515E-002
   2.2408920588790127E-002  -6.1004745251730386E-003   4.8765787192035004E-002
   2.0626304502339099E-002  -5.4978277352733251E-003   4.8628926672710571E-002
   1.8843688415888085E-002  -4.8859665301957469E-003   4.8664803260356632E-002
   1.7061072329437071E-002  -4.2648909099405330E-003   4.8873416954972826E-002
   2.0994541910425935E-002  -5.7948602328876664E-003   5.2648789464121160E-002
   1.9392532825976666E-002  -5.2676905059895196E-003   5.2411426282877871E-002
   1.7790523741527481E-002  -4.7381053443421306E-003   5.2362539998668134E-002
   1.6188514657078240E-002  -4.2061047479455202E-003   5.2502130611491532E-002
   1.4586505572629027E-002  -3.6716887167999035E-003   5.2830198121348093E-002
   1.7856096770667518E-002  -4.8958135658798141E-003   5.6159330952302439E-002
   1.6450434478282941E-002  -4.4349064868057231E-003   5.5987403235682603E-002
   1.5044772185898336E-002  -3.9783829534110332E-003   5.6019692206158836E-002
   1.3639109893513742E-002  -3.5262429656955120E-003   5.6256197863731199E-002
   1.2233447601129162E-002  -3.0784865236592740E-003   5.6696920208399448E-002
   1.4776201255966036E-002  -3.9967668988721561E-003   5.9607009282873984E-002
   1.3582625545708882E-002  -3.6021224676220653E-003   5.9493718050449111E-002
   1.2389049835451724E-002  -3.2186605624799428E-003   5.9600383295182871E-002
   1.1195474125194567E-002  -2.8463811834455056E-003   5.9927005017075735E-002
   1.0001898414937415E-002  -2.4852843305187000E-003   6.0473583216127252E-002
   1.1754855366321343E-002  -3.0977202318642760E-003   6.2991824455835621E-002
   1.0789106028254475E-002  -2.7693384484384631E-003   6.2930370727177110E-002
   9.8233566901875929E-003  -2.4589381715488245E-003   6.3104613265740128E-002
   8.8576073521207319E-003  -2.1665194011954089E-003   6.3514552071524871E-002
   7.8918580140538430E-003  -1.8920821373781260E-003   6.4160187144531311E-002
   1.7061072329437071E-002  -4.2648909099405330E-003   4.8873416954972826E-002
   1.5117751167636362E-002  -3.6982784514835165E-003   4.8760705312517194E-002
   1.3174430005835638E-002  -3.2498067318006418E-003   4.8903099132869554E-002
   1.1231108844034922E-002  -2.9194757508922697E-003   4.9300598416029934E-002
   9.2877876822342054E-003  -2.7072855087574288E-003   4.9953203161998805E-002
   1.4586505572629027E-002  -3.6716887167999035E-003   5.2830198121348093E-002
   1.2897613188992352E-002  -3.1941249158590757E-003   5.2721188262589591E-002
   1.1208720805355676E-002  -2.8326810100775812E-003   5.2865930497350888E-002
   9.5198284217190218E-003  -2.5873569994554410E-003   5.3264424825632234E-002
   7.8309360380823534E-003  -2.4581528839920930E-003   5.3916671247433157E-002
   1.2233447601129162E-002  -3.0784865236592740E-003   5.6696920208399448E-002
   1.0797630626368210E-002  -2.6899713802346903E-003   5.6593632976953051E-002
   9.3618136516072335E-003  -2.4155552883542986E-003   5.6742744469738399E-002
   7.9259966768462312E-003  -2.2552382480185013E-003   5.7144254686755061E-002
   6.4901797020852775E-003  -2.2090202592268127E-003   5.7798163628003496E-002
   1.0001898414937415E-002  -2.4852843305187000E-003   6.0473583216127252E-002
   8.8178034797638041E-003  -2.1858178446103327E-003   6.0378039455608358E-002
   7.6337085445902187E-003  -1.9984295666314600E-003   6.0533541050032363E-002
   6.4496136094166542E-003  -1.9231194965818391E-003   6.0940087999399407E-002
   5.2655186742430506E-003  -1.9598876344614491E-003   6.1597680303710101E-002
   7.8918580140538430E-003  -1.8920821373781260E-003   6.4160187144531311E-002
   6.9581317491792943E-003  -1.6816643089859196E-003   6.4074407698554325E-002
   6.0244054843047179E-003  -1.5813038449079275E-003   6.4238320238232116E-002
   5.0906792194301623E-003  -1.5910007451450589E-003   6.4651924763564739E-002
   4.1569529545555928E-003  -1.7107550096961965E-003   6.5315221274552249E-002
   9.2877876822342054E-003  -2.7072855087574288E-003   4.9953203161998805E-002
   7.8669975133043024E-003  -2.8573002401280911E-003   5.0357703852420332E-002
   6.4462073443744550E-003  -3.6135841797351187E-003   5.1089212767491565E-002
   5.0254171754445520E-003  -4.9761373275779563E-003   5.2147729907212337E-002
   3.6046270065147046E-003  -6.9449596836569372E-003   5.3533255271582481E-002
   7.8309360380823534E-003  -2.4581528839920930E-003   5.3916671247433157E-002
   6.7110736117949044E-003  -2.6434879452267301E-003   5.3851572930766256E-002
   5.5912111855074415E-003  -3.3417814646975463E-003   5.4061321874734669E-002
   4.4713487592199855E-003  -4.5530334424043473E-003   5.4545918079338118E-002
   3.3514863329325295E-003  -6.2772438783473827E-003   5.5305361544577214E-002
   6.4901797020852775E-003  -2.2090202592268127E-003   5.7798163628003496E-002
   5.6190840544260018E-003  -2.4296756503255357E-003   5.7356777054248020E-002
   4.7479884067666844E-003  -3.0699787496600850E-003   5.7138076777113800E-002
   3.8768927591073810E-003  -4.1299295572308492E-003   5.7142062796600473E-002
   3.0057971114480914E-003  -5.6095280730377728E-003   5.7368735112708208E-002
   5.2655186742430506E-003  -1.9598876344614491E-003   6.1597680303710101E-002
   4.5910288411976276E-003  -2.2158633554240359E-003   6.0873316222866153E-002
   3.9165390081522151E-003  -2.7981760346224571E-003   6.0319477474629069E-002
   3.2420491751068113E-003  -3.7068256720574067E-003   5.9936164058998598E-002
   2.5675593420614075E-003  -4.9418122677281906E-003   5.9723375975974914E-002
   4.1569529545555928E-003  -1.7107550096961965E-003   6.5315221274552249E-002
   3.6269079721097802E-003  -2.0020510605230357E-003   6.4401190436620182E-002
   3.0968629896639954E-003  -2.5263733195852178E-003   6.3605523967280253E-002
   2.5668180072181898E-003  -3.2837217868838947E-003   6.2928221866533018E-002
   2.0367730247723981E-003  -4.2740964624186084E-003   6.2369284134378145E-002
   3.6046270065147046E-003  -6.9449596836569372E-003   5.3533255271582481E-002
   4.1555715949078142E-003  -9.5350604710832121E-003   5.1860482567063992E-002
   4.7065161833009517E-003  -1.2761448912967294E-002   5.0042404102715932E-002
   5.2574607716940475E-003  -1.6624125009308661E-002   4.8079019878538271E-002
   5.8084053600871988E-003  -2.1123088760108377E-002   4.5970329894529982E-002
   3.3514863329325295E-003  -6.2772438783473827E-003   5.5305361544577214E-002
   3.7746322565850726E-003  -8.5456042616796069E-003   5.2951732841745980E-002
   4.1977781802376296E-003  -1.1389306081553557E-002   5.0487812569263713E-002
   4.6209241038901033E-003  -1.4808349337969436E-002   4.7913600727130051E-002
   5.0440700275427020E-003  -1.8802734030927137E-002   4.5229097315344413E-002
   3.0057971114480914E-003  -5.6095280730377728E-003   5.7368735112708208E-002
   3.3361585605386490E-003  -7.5561480522758351E-003   5.4395196629480058E-002
   3.6665200096292275E-003  -1.0017163250139918E-002   5.1346380766779484E-002
   3.9968814587198233E-003  -1.2992573666629762E-002   4.8222287524605841E-002
   4.3272429078103358E-003  -1.6482379301745897E-002   4.5022916902959564E-002
   2.5675593420614075E-003  -4.9418122677281906E-003   5.9723375975974914E-002
   2.8401505067685504E-003  -6.5666918428721466E-003   5.6190873930265624E-002
   3.1127416714757470E-003  -8.6450204187258975E-003   5.2618108695262247E-002
   3.3853328361828682E-003  -1.1176797995290534E-002   4.9005080270964771E-002
   3.6579240008901143E-003  -1.4162024572564658E-002   4.5351788657373160E-002
   2.0367730247723981E-003  -4.2740964624186084E-003   6.2369284134378145E-002
   2.2866080952747697E-003  -5.5772356334686801E-003   5.8338764744103822E-002
   2.5364431657771830E-003  -7.2728775873127649E-003   5.4302996354714028E-002
   2.7862782362795754E-003  -9.3610223239506962E-003   5.0261978966208987E-002
   3.0361133067819401E-003  -1.1841669843383418E-002   4.6215712578588253E-002
   2.5093065435017325E-002  -7.3751982357547763E-003   6.1934795174087731E-002
   2.4310975371326482E-002  -7.1717473952103428E-003   6.1715350598703977E-002
   2.3528885307635708E-002  -6.9639451864927926E-003   6.1671817760446224E-002
   2.2746795243944885E-002  -6.7517916096023617E-003   6.1804196659314387E-002
   2.1964705180254077E-002  -6.5352866645387309E-003   6.2112487295308272E-002
   1.8857866592331796E-002  -5.5313986750982203E-003   6.3054320076821546E-002
   1.8256590960535321E-002  -5.3788105453626833E-003   6.2818207299453171E-002
   1.7655315328738874E-002  -5.2229588893736995E-003   6.2767811648747784E-002
   1.7054039696942414E-002  -5.0638437071311888E-003   6.2903133124705107E-002
   1.6452764065145939E-002  -4.9014649986351966E-003   6.3224171727325362E-002
   1.2597289405679973E-002  -3.6875991144416920E-003   6.4123526189706070E-002
   1.2186633595314786E-002  -3.5858736955151488E-003   6.3869657368433683E-002
   1.1775977784949595E-002  -3.4819725922546341E-003   6.3811311063361090E-002
   1.1365321974584406E-002  -3.3758958046601825E-003   6.3948487274488111E-002
   1.0954666164219213E-002  -3.2676433327317178E-003   6.4281186001815080E-002
   6.3113338750618638E-003  -1.8437995537851359E-003   6.5142413512741457E-002
   6.1011032756648695E-003  -1.7929368456675795E-003   6.4869700805645400E-002
   5.8908726762678691E-003  -1.7409862951355271E-003   6.4802316004286181E-002
   5.6806420768708843E-003  -1.6879479021891207E-003   6.4940259108663495E-002
   5.4704114774738891E-003  -1.6338216668282390E-003   6.5283530118777494E-002
   4.7743753395224076E-013   6.8713923440100189E-012   6.6110982045927635E-002
   1.5855650126184173E-012   4.1800451988649456E-012   6.5818337611088407E-002
   2.6936994301784978E-012   1.9835105780074969E-012   6.5740826471522879E-002
   3.8018303782916263E-012   2.8196542323222218E-013   6.5878448627231009E-002
   4.9099613264047548E-012  -9.2470475721029288E-013   6.6231204078212591E-002
   2.1964705180254077E-002  -6.5352866645387309E-003   6.2112487295308272E-002
   2.1147852716164747E-002  -6.3085952341482288E-003   6.1787941929340395E-002
   2.0331000252075425E-002  -6.0658822012772534E-003   6.1675336307805667E-002
   1.9514147787986099E-002  -5.8071475659254058E-003   6.1774670430704268E-002
   1.8697295323896759E-002  -5.5323913280929671E-003   6.2085944298036322E-002
   1.6452764065145939E-002  -4.9014649986351966E-003   6.3224171727325362E-002
   1.5845919688371880E-002  -4.7314464260524020E-003   6.2925556820621106E-002
   1.5239075311597794E-002  -4.5494116515497479E-003   6.2835018344113980E-002
   1.4632230934823704E-002  -4.3553606751268147E-003   6.2952556297804080E-002
   1.4025386558049635E-002  -4.1492934967838901E-003   6.3278170681691309E-002
   1.0954666164219213E-002  -3.2676433327317178E-003   6.4281186001815080E-002
   1.0553966560524260E-002  -3.1542976179565752E-003   6.4004496153813914E-002
   1.0153266956829303E-002  -3.0329411018220689E-003   6.3932019421773706E-002
   9.7525673531343449E-003  -2.9035737843281662E-003   6.4063755805694692E-002
   9.3518677494393888E-003  -2.7661956654747855E-003   6.4399705305576690E-002
   5.4704114774738891E-003  -1.6338216668282390E-003   6.5283530118777494E-002
   5.2719933326219335E-003  -1.5771488098607483E-003   6.5024759928918680E-002
   5.0735751877699700E-003  -1.5164705520943657E-003   6.4966339540784929E-002
   4.8751570429180040E-003  -1.4517868935294354E-003   6.5108268954375936E-002
   4.6767388980660509E-003  -1.3830978341656391E-003   6.5450548169691897E-002
   4.9099613264047548E-012  -9.2470475721029288E-013   6.6231204078212591E-002
   4.6648761242717995E-012  -1.7648660310953801E-012   6.5986348145935569E-002
   4.4197839832449404E-012  -2.3668289550471400E-012   6.5937978701147371E-002
   4.1746927095798192E-012  -2.7308849626095366E-012   6.6086095743847995E-002
   3.9296066400851259E-012  -2.8565483312092965E-012   6.6430699274037441E-002
   1.8697295323896759E-002  -5.5323913280929671E-003   6.2085944298036322E-002
   1.7853299156871935E-002  -5.2476454206325795E-003   6.1852927287957438E-002
   1.7009302989847118E-002  -4.9589417763969829E-003   6.1823423188831383E-002
   1.6165306822822297E-002  -4.6662803953859654E-003   6.1997432000658007E-002
   1.5321310655797477E-002  -4.3696612775996346E-003   6.2374953723437709E-002
   1.4025386558049635E-002  -4.1492934967838901E-003   6.3278170681691309E-002
   1.3386774834655342E-002  -3.9357340661833606E-003   6.3048878181212298E-002
   1.2748163111261056E-002  -3.7192063329878206E-003   6.3026841657041352E-002
   1.2109551387866759E-002  -3.4997102971971693E-003   6.3212061109178819E-002
   1.1470939664472463E-002  -3.2772459588111813E-003   6.3604536537624379E-002
   9.3518677494393888E-003  -2.7661956654747855E-003   6.4399705305576690E-002
   8.9223835350310289E-003  -2.6238227117341556E-003   6.4173147880517159E-002
   8.4928993206226776E-003  -2.4794708895787207E-003   6.4157589497121331E-002
   8.0634151062143264E-003  -2.3331401990082639E-003   6.4353030155389082E-002
   7.6339308918059665E-003  -2.1848306400228390E-003   6.4759469855320578E-002
   4.6767388980660509E-003  -1.3830978341656391E-003   6.5450548169691897E-002
   4.4601252579990211E-003  -1.3119113572849714E-003   6.5225736385872021E-002
   4.2435116179319991E-003  -1.2397354461697839E-003   6.5215666709071085E-002
   4.0268979778649745E-003  -1.1665701008195242E-003   6.5420339139289130E-002
   3.8102843377979482E-003  -1.0924153212344412E-003   6.5839753676526475E-002
   3.9296066400851259E-012  -2.8565483312092965E-012   6.6430699274037441E-002
   3.5593090974561647E-012  -2.8357871606488061E-012   6.6206643697276857E-002
   3.1890150242741555E-012  -2.7605140395792205E-012   6.6201073292890600E-002
   2.8187209510921463E-012  -2.6306318234858850E-012   6.6413988060878865E-002
   2.4484234084631851E-012  -2.4459878567029136E-012   6.6845388001241568E-002
   1.5321310655797477E-002  -4.3696612775996346E-003   6.2374953723437709E-002
   1.4429696833428443E-002  -4.0662164726105732E-003   6.2204803522710517E-002
   1.3538083011059410E-002  -3.7530780299920019E-003   6.2250898577867642E-002
   1.2646469188690376E-002  -3.4302459497430812E-003   6.2513238888909417E-002
   1.1754855366321343E-002  -3.0977202318642760E-003   6.2991824455835621E-002
   1.1470939664472463E-002  -3.2772459588111813E-003   6.3604536537624379E-002
   1.0797235647893838E-002  -3.0496623550139434E-003   6.3457895038390583E-002
   1.0123531631315186E-002  -2.8148085229882658E-003   6.3530827894853009E-002
   9.4498276147365542E-003  -2.5726844627346340E-003   6.3823335107011755E-002
   8.7761235981579089E-003  -2.3232901742530343E-003   6.4335416674866586E-002
   7.6339308918059665E-003  -2.1848306400228390E-003   6.4759469855320578E-002
   7.1814657808294963E-003  -2.0331082374168419E-003   6.4633913648178110E-002
   6.7290006698530365E-003  -1.8765390159845435E-003   6.4731260896543907E-002
   6.2765355588765698E-003  -1.7151229757263013E-003   6.5051511600417639E-002
   5.8240704479001065E-003  -1.5488601166419036E-003   6.5594665759799636E-002
   3.8102843377979482E-003  -1.0924153212344412E-003   6.5839753676526475E-002
   3.5823872322354507E-003  -1.0165541198198097E-003   6.5732859352073639E-002
   3.3544901266729403E-003  -9.3826950898098088E-004   6.5852197582940655E-002
   3.1265930211104324E-003  -8.5756148871785585E-004   6.6197768369127538E-002
   2.8986959155479324E-003  -7.7443005903060635E-004   6.6769571710634412E-002
   2.4484234084631851E-012  -2.4459878567029136E-012   6.6845388001241568E-002
   2.1116684789657114E-012  -2.2229995622069509E-012   6.6754732150076490E-002
   1.7749066105743339E-012  -1.9770157733134397E-012   6.6893637954042989E-002
   1.4381464769064323E-012  -1.7095318216586719E-012   6.7262105413141135E-002
   1.1013898126854826E-012  -1.4195311592857252E-012   6.7860134527370941E-002
   1.1754855366321343E-002  -3.0977202318642760E-003   6.2991824455835621E-002
   1.0789106028254475E-002  -2.7693384484384631E-003   6.2930370727177110E-002
   9.8233566901875929E-003  -2.4589381715488245E-003   6.3104613265740128E-002
   8.8576073521207319E-003  -2.1665194011954089E-003   6.3514552071524871E-002
   7.8918580140538430E-003  -1.8920821373781260E-003   6.4160187144531311E-002
   8.7761235981579089E-003  -2.3232901742530343E-003   6.4335416674866586E-002
   8.0475057941233052E-003  -2.0770038366128007E-003   6.4286343012700864E-002
   7.3188879900887016E-003  -1.8442036288829899E-003   6.4475836151377808E-002
   6.5902701860540980E-003  -1.6248895510642819E-003   6.4903896090897709E-002
   5.8616523820194805E-003  -1.4190616031560799E-003   6.5570522831260358E-002
   5.8240704479001065E-003  -1.5488601166419036E-003   6.5594665759799636E-002
   5.3354547115189235E-003  -1.3846692247869996E-003   6.5562467540751956E-002
   4.8468389751377475E-003  -1.2294690862173913E-003   6.5771706656168258E-002
   4.3582232387565627E-003  -1.0832597009331028E-003   6.6222383106048610E-002
   3.8696075023753745E-003  -9.4604106893420026E-004   6.6914496890392999E-002
   2.8986959155479324E-003  -7.7443005903060635E-004   6.6769571710634412E-002
   2.6529527804413280E-003  -6.9233461296110133E-004   6.6758744311330318E-002
   2.4072096453347132E-003  -6.1473454355156359E-004   6.6992224780111381E-002
   2.1614665102281144E-003  -5.4162985080211633E-004   6.7470013116977617E-002
   1.9157233751214940E-003  -4.7302053471223737E-004   6.8192109321928845E-002
   1.1013898126854826E-012  -1.4195311592857252E-012   6.7860134527370941E-002
   8.9050988805183806E-013  -1.1354805984353789E-012   6.7875173324435878E-002
   6.7962996341819348E-013  -8.8601348480210618E-013   6.8137390523207109E-002
   4.6875177350802488E-013  -6.7086614041755865E-013   6.8646786123684689E-002
   2.5787011415090433E-013  -4.9038550997693164E-013   6.9403360125868563E-002
   7.8918580140538430E-003  -1.8920821373781260E-003   6.4160187144531311E-002
   6.9581317491792943E-003  -1.6816643089859196E-003   6.4074407698554325E-002
   6.0244054843047179E-003  -1.5813038449079275E-003   6.4238320238232116E-002
   5.0906792194301623E-003  -1.5910007451450589E-003   6.4651924763564739E-002
   4.1569529545555928E-003  -1.7107550096961965E-003   6.5315221274552249E-002
   5.8616523820194805E-003  -1.4190616031560799E-003   6.5570522831260358E-002
   5.1735529979371128E-003  -1.2612482318252183E-003   6.5422538839031819E-002
   4.4854536138547660E-003  -1.1859778837379487E-003   6.5516116622732962E-002
   3.7973542297724053E-003  -1.1932505588939310E-003   6.5851256182363635E-002
   3.1092548456900515E-003  -1.2830662572940188E-003   6.6427957517923464E-002
   3.8696075023753745E-003  -9.4604106893420026E-004   6.6914496890392999E-002
   3.4190047893599071E-003  -8.4083215466426720E-004   6.6731822692983972E-002
   2.9684020763444258E-003  -7.9065192256720651E-004   6.6782580061778965E-002
   2.5177993633289462E-003  -7.9550037264302861E-004   6.7066768996778409E-002
   2.0671966503134631E-003  -8.5537750489173003E-004   6.7584389497982011E-002
   1.9157233751214940E-003  -4.7302053471223737E-004   6.8192109321928845E-002
   1.6944871234475887E-003  -4.2041607750366305E-004   6.8002259260410175E-002
   1.4732508717736886E-003  -3.9532596139690152E-004   6.8037710555369973E-002
   1.2520146200997897E-003  -3.9775018639190245E-004   6.8298463206808879E-002
   1.0307783684258831E-003  -4.2768875248944127E-004   6.8784517214726795E-002
   2.5787011415090433E-013  -4.9038550997693164E-013   6.9403360125868563E-002
   2.0022178359724307E-013  -3.4261482539932331E-013   6.9233848541310539E-002
   1.4257345304358182E-013  -2.2637447472106942E-013   6.9281508103506195E-002
   8.4928591936872522E-014  -1.4102607970301051E-013   6.9546338812455227E-002
   2.7276791936259315E-014  -8.7263529735537304E-014   7.0028340668158218E-002
   4.1569529545555928E-003  -1.7107550096961965E-003   6.5315221274552249E-002
   3.6269079721097802E-003  -2.0020510605230357E-003   6.4401190436620182E-002
   3.0968629896639954E-003  -2.5263733195852178E-003   6.3605523967280253E-002
   2.5668180072181898E-003  -3.2837217868838947E-003   6.2928221866533018E-002
   2.0367730247723981E-003  -4.2740964624186084E-003   6.2369284134378145E-002
   3.1092548456900515E-003  -1.2830662572940188E-003   6.6427957517923464E-002
   2.7011109510907544E-003  -1.5015382954050582E-003   6.5319205380527157E-002
   2.2929670564914920E-003  -1.8947799896935624E-003   6.4335891050231436E-002
   1.8848231618922053E-003  -2.4627913401610302E-003   6.3478014527036317E-002
   1.4766792672929463E-003  -3.2055723468061847E-003   6.2745575810941534E-002
   2.0671966503134631E-003  -8.5537750489173003E-004   6.7584389497982011E-002
   1.7880272820688069E-003  -1.0010255302870530E-003   6.6339172613179315E-002
   1.5088579138241402E-003  -1.2631866598023789E-003   6.5226466973985375E-002
   1.2296885455794857E-003  -1.6418608934379506E-003   6.4246272580400096E-002
   9.5051917733481733E-004  -2.1370482311937611E-003   6.3398589432423380E-002
   1.0307783684258831E-003  -4.2768875248944127E-004   6.8784517214726795E-002
   8.8765696504392901E-004  -5.0051276516883958E-004   6.7461092134575837E-002
   7.4453556166197751E-004  -6.3159332991095940E-004   6.6277251738541654E-002
   6.0141415828001777E-004  -8.2093044671475643E-004   6.5232996026624163E-002
   4.5829275489807191E-004  -1.0685241155813374E-003   6.4328324998823821E-002
   2.7276791936259315E-014  -8.7263529735537304E-014   7.0028340668158218E-002
   1.6125989432680399E-014  -5.1125770283988459E-014   6.8684963944717015E-002
   4.9647785882456219E-015  -1.9456658506555868E-014   6.7488245343900410E-002
  -6.1877586388092709E-015   8.0144224590128488E-015   6.6438184865708877E-002
  -1.7347234759768071E-014   3.1197266991966899E-014   6.5534782510142331E-002
   2.0367730247723981E-003  -4.2740964624186084E-003   6.2369284134378145E-002
   2.2866080952747697E-003  -5.5772356334686801E-003   5.8338764744103822E-002
   2.5364431657771830E-003  -7.2728775873127649E-003   5.4302996354714028E-002
   2.7862782362795754E-003  -9.3610223239506962E-003   5.0261978966208987E-002
   3.0361133067819401E-003  -1.1841669843383418E-002   4.6215712578588253E-002
   1.4766792672929463E-003  -3.2055723468061847E-003   6.2745575810941534E-002
   1.7069628965521028E-003  -4.1829267250886870E-003   5.8391247711115868E-002
   1.9372465258112453E-003  -5.4546581904668101E-003   5.4003065727919353E-002
   2.1675301550704053E-003  -7.0207667429409287E-003   4.9581029861351766E-002
   2.3978137843295444E-003  -8.8812523825108070E-003   4.5125140111413220E-002
   9.5051917733481733E-004  -2.1370482311937611E-003   6.3398589432423380E-002
   1.1326464810952688E-003  -2.7886178167085829E-003   5.8818578318744597E-002
   1.3147737848557238E-003  -3.6364387936208553E-003   5.4176108437439585E-002
   1.4969010886161632E-003  -4.6805111619307171E-003   4.9471179788507583E-002
   1.6790283923766303E-003  -5.9208349216379741E-003   4.4703792371949991E-002
   4.5829275489807191E-004  -1.0685241155813374E-003   6.4328324998823821E-002
   5.6365884890431303E-004  -1.3943089083286453E-003   5.9620756566990438E-002
   6.6902494291056890E-004  -1.8182193967752336E-003   5.4822124483275211E-002
   7.7439103691681740E-004  -2.3402555809206166E-003   4.9932428747677907E-002
   8.7975713092306590E-004  -2.9604174607652523E-003   4.4951669360199065E-002
  -1.7347234759768071E-014   3.1197266991966899E-014   6.5534782510142331E-002
  -2.0775048348298242E-014   5.1403326040144748E-014   6.0797782455852545E-002
  -2.4192453595972552E-014   7.0915495697931874E-014   5.5941113865425385E-002
  -2.7611593567122839E-014   8.9671325920193112E-014   5.0964776738861045E-002
  -3.1044611326080940E-014   1.0746958878371515E-013   4.5868771076158943E-002
   4.7743753395224076E-013   6.8713923440100189E-012   6.6110982045927635E-002
   1.5855650126184173E-012   4.1800451988649456E-012   6.5818337611088407E-002
   2.6936994301784978E-012   1.9835105780074969E-012   6.5740826471522879E-002
   3.8018303782916263E-012   2.8196542323222218E-013   6.5878448627231009E-002
   4.9099613264047548E-012  -9.2470475721029288E-013   6.6231204078212591E-002
  -6.3113338740059810E-003   1.8437995674158159E-003   6.5142413508617603E-002
  -6.1011032724394565E-003   1.7929368537288604E-003   6.4869700802716174E-002
  -5.8908726708729146E-003   1.7409862987163433E-003   6.4802316002458060E-002
  -5.6806420693063875E-003   1.6879479023782402E-003   6.4940259107843151E-002
  -5.4704114677398483E-003   1.6338216647146520E-003   6.5283530118871502E-002
  -1.2597289404321104E-002   3.6875991279602116E-003   6.4123526181222343E-002
  -1.2186633591926552E-002   3.5858737032777865E-003   6.3869657362438340E-002
  -1.1775977779531975E-002   3.4819725954492384E-003   6.3811311059667031E-002
  -1.1365321967137415E-002   3.3758958044747111E-003   6.3948487272908708E-002
  -1.0954666154742849E-002   3.2676433303540087E-003   6.4281186002163204E-002
  -1.8857866590467936E-002   5.5313986885046212E-003   6.3054320063741814E-002
  -1.8256590956875693E-002   5.3788105528267544E-003   6.2818207290254599E-002
  -1.7655315323283478E-002   5.2229588921822133E-003   6.2767811643149748E-002
  -1.7054039689691255E-002   5.0638437065710839E-003   6.2903133122427429E-002
  -1.6452764056099016E-002   4.9014649959933654E-003   6.3224171728087614E-002
  -2.5093065432446479E-002   7.3751982490490309E-003   6.1934795156176115E-002
  -2.4310975367286963E-002   7.1717474023755556E-003   6.1715350586165008E-002
  -2.3528885302127434E-002   6.9639451889150078E-003   6.1671817752906227E-002
  -2.2746795236967900E-002   6.7517916086674533E-003   6.1804196656399399E-002
  -2.1964705171808378E-002   6.5352866616327221E-003   6.2112487296644758E-002
   4.9099613264047548E-012  -9.2470475721029288E-013   6.6231204078212591E-002
   4.6648761242717995E-012  -1.7648660310953801E-012   6.5986348145935569E-002
   4.4197839832449404E-012  -2.3668289550471400E-012   6.5937978701147371E-002
   4.1746927095798192E-012  -2.7308849626095366E-012   6.6086095743847995E-002
   3.9296066400851259E-012  -2.8565483312092965E-012   6.6430699274037441E-002
  -5.4704114677398483E-003   1.6338216647146520E-003   6.5283530118871502E-002
  -5.2719933233645782E-003   1.5771488062047700E-003   6.5024759929308618E-002
  -5.0735751789892994E-003   1.5164705473282997E-003   6.4966339541497609E-002
  -4.8751570346140241E-003   1.4517868880849528E-003   6.5108268955438448E-002
  -4.6767388902387505E-003   1.3830978284749551E-003   6.5450548171131440E-002
  -1.0954666154742849E-002   3.2676433303540087E-003   6.4281186002163204E-002
  -1.0553966551484092E-002   3.1542976141744894E-003   6.4004496154709462E-002
  -1.0153266948225336E-002   3.0329410970233728E-003   6.3932019423270731E-002
  -9.7525673449665815E-003   2.9035737789006796E-003   6.4063755807847025E-002
  -9.3518677417078252E-003   2.7661956598063753E-003   6.4399705308438498E-002
  -1.6452764056099016E-002   4.9014649959933654E-003   6.3224171728087614E-002
  -1.5845919679693669E-002   4.7314464221441394E-003   6.2925556822138212E-002
  -1.5239075303288321E-002   4.5494116467186402E-003   6.2835018346466959E-002
  -1.4632230926882974E-002   4.3553606697162954E-003   6.2952556301073950E-002
  -1.4025386550477626E-002   4.1492934911378093E-003   6.3278170685958909E-002
  -2.1964705171808378E-002   6.5352866616327221E-003   6.2112487296644758E-002
  -2.1147852707993318E-002   6.3085952301138726E-003   6.1787941931594842E-002
  -2.0331000244178256E-002   6.0658821964135468E-003   6.1675336311086237E-002
  -1.9514147780363190E-002   5.8071475605322095E-003   6.1774670435118806E-002
  -1.8697295316548131E-002   5.5323913224692989E-003   6.2085944303692742E-002
   3.9296066400851259E-012  -2.8565483312092965E-012   6.6430699274037441E-002
   3.5593090974561647E-012  -2.8357871606488061E-012   6.6206643697276857E-002
   3.1890150242741555E-012  -2.7605140395792205E-012   6.6201073292890600E-002
   2.8187209510921463E-012  -2.6306318234858850E-012   6.6413988060878865E-002
   2.4484234084631851E-012  -2.4459878567029136E-012   6.6845388001241568E-002
  -4.6767388902387505E-003   1.3830978284749551E-003   6.5450548171131440E-002
  -4.4601252509201654E-003   1.3119113516311398E-003   6.5225736387361372E-002
  -4.2435116116015768E-003   1.2397354406862432E-003   6.5215666710594727E-002
  -4.0268979722829874E-003   1.1665700956405879E-003   6.5420339140831257E-002
  -3.8102843329644032E-003   1.0924153164940109E-003   6.5839753678071267E-002
  -9.3518677417078252E-003   2.7661956598063753E-003   6.4399705308438498E-002
  -8.9223835280714467E-003   2.6238227060980390E-003   6.4173147883503492E-002
  -8.4928993144350769E-003   2.4794708841332225E-003   6.4157589500200757E-002
  -8.0634151007987088E-003   2.3331401939118077E-003   6.4353030158530292E-002
  -7.6339308871623268E-003   2.1848306354339819E-003   6.4759469858492083E-002
  -1.4025386550477626E-002   4.1492934911378093E-003   6.3278170685958909E-002
  -1.3386774827894557E-002   3.9357340605650354E-003   6.3048878185703483E-002
  -1.2748163105311501E-002   3.7192063275800907E-003   6.3026841661709104E-002
  -1.2109551382728428E-002   3.4997102921829719E-003   6.3212061113975870E-002
  -1.1470939660145368E-002   3.2772459543739668E-003   6.3604536542503781E-002
  -1.8697295316548131E-002   5.5323913224692989E-003   6.2085944303692742E-002
  -1.7853299150389475E-002   5.2476454150319207E-003   6.1852927293961080E-002
  -1.7009302984230819E-002   4.9589417710270145E-003   6.1823423195119465E-002
  -1.6165306818072159E-002   4.6662803904542055E-003   6.1997432007167924E-002
  -1.5321310651913507E-002   4.3696612733139517E-003   6.2374953730106375E-002
   2.4484234084631851E-012  -2.4459878567029136E-012   6.6845388001241568E-002
   2.1116684789657114E-012  -2.2229995622069509E-012   6.6754732150076490E-002
   1.7749066105743339E-012  -1.9770157733134397E-012   6.6893637954042989E-002
   1.4381464769064323E-012  -1.7095318216586719E-012   6.7262105413141135E-002
   1.1013898126854826E-012  -1.4195311592857252E-012   6.7860134527370941E-002
  -3.8102843329644032E-003   1.0924153164940109E-003   6.5839753678071267E-002
  -3.5823872280786040E-003   1.0165541155937319E-003   6.5732859353520107E-002
  -3.3544901231928066E-003   9.3826950528749786E-004   6.5852197584282318E-002
  -3.1265930183070100E-003   8.5756148557485784E-004   6.6197768370357984E-002
  -2.8986959134212030E-003   7.7443005645599916E-004   6.6769571711747300E-002
  -7.6339308871623268E-003   2.1848306354339819E-003   6.4759469858492083E-002
  -7.1814657768721315E-003   2.0331082334104633E-003   6.4633913651126251E-002
  -6.7290006665819370E-003   1.8765390125521711E-003   6.4731260899255572E-002
  -6.2765355562917555E-003   1.7151229728592458E-003   6.5051511602880335E-002
  -5.8240704460015471E-003   1.5488601143315295E-003   6.5594665762000348E-002
  -1.1470939660145368E-002   3.2772459543739668E-003   6.3604536542503781E-002
  -1.0797235644268936E-002   3.0496623512271392E-003   6.3457895042894646E-002
  -1.0123531628392499E-002   2.8148085198169866E-003   6.3530827898962583E-002
  -9.4498276125160631E-003   2.5726844601436346E-003   6.3823335110707730E-002
  -8.7761235966396216E-003   2.3232901722068378E-003   6.4335416678130072E-002
  -1.5321310651913507E-002   4.3696612733139517E-003   6.2374953730106375E-002
  -1.4429696830268984E-002   4.0662164690438152E-003   6.2204803528825514E-002
  -1.3538083008624479E-002   3.7530780270816910E-003   6.2250898583403602E-002
  -1.2646469186979972E-002   3.4302459474279956E-003   6.2513238893840611E-002
  -1.1754855365335451E-002   3.0977202300824791E-003   6.2991824460136736E-002
   1.1013898126854826E-012  -1.4195311592857252E-012   6.7860134527370941E-002
   8.9050988805183806E-013  -1.1354805984353789E-012   6.7875173324435878E-002
   6.7962996341819348E-013  -8.8601348480210618E-013   6.8137390523207109E-002
   4.6875177350802488E-013  -6.7086614041755865E-013   6.8646786123684689E-002
   2.5787011415090433E-013  -4.9038550997693164E-013   6.9403360125868563E-002
  -2.8986959134212030E-003   7.7443005645599916E-004   6.6769571711747300E-002
  -2.6529527787234851E-003   6.9233461092765847E-004   6.6758744312233054E-002
  -2.4072096440257585E-003   6.1473454198647526E-004   6.6992224780829834E-002
  -2.1614665093280380E-003   5.4162984963207830E-004   6.7470013117537378E-002
  -1.9157233746303001E-003   4.7302053386488740E-004   6.8192109322356032E-002
  -5.8240704460015471E-003   1.5488601143315295E-003   6.5594665762000348E-002
  -5.3354547099906183E-003   1.3846692229905477E-003   6.5562467542528466E-002
  -4.8468389739796964E-003   1.2294690848584089E-003   6.5771706657572204E-002
  -4.3582232379687606E-003   1.0832596999349117E-003   6.6222383107131341E-002
  -3.8696075019578457E-003   9.4604106822021583E-004   6.6914496891206099E-002
  -8.7761235966396216E-003   2.3232901722068378E-003   6.4335416678130072E-002
  -8.0475057929108966E-003   2.0770038350535619E-003   6.4286343015322364E-002
  -7.3188879891821620E-003   1.8442036277306201E-003   6.4475836153434718E-002
  -6.5902701854534352E-003   1.6248895502379117E-003   6.4903896092467120E-002
  -5.8616523817247024E-003   1.4190616025752389E-003   6.5570522832419653E-002
  -1.1754855365335451E-002   3.0977202300824791E-003   6.2991824460136736E-002
  -1.0789106027484313E-002   2.7693384471165206E-003   6.2930370730614582E-002
  -9.8233566896331753E-003   2.4589381706028313E-003   6.3104613268417042E-002
  -8.8576073517820410E-003   2.1665194005408561E-003   6.3514552073544367E-002
  -7.8918580139308997E-003   1.8920821369308172E-003   6.4160187145996361E-002
   2.5787011415090433E-013  -4.9038550997693164E-013   6.9403360125868563E-002
   2.0022178359724307E-013  -3.4261482539932331E-013   6.9233848541310539E-002
   1.4257345304358182E-013  -2.2637447472106942E-013   6.9281508103506195E-002
   8.4928591936872522E-014  -1.4102607970301051E-013   6.9546338812455227E-002
   2.7276791936259315E-014  -8.7263529735537304E-014   7.0028340668158218E-002
  -1.9157233746303001E-003   4.7302053386488740E-004   6.8192109322356032E-002
  -1.6944871230675125E-003   4.2041607691534200E-004   6.8002259260733722E-002
  -1.4732508715047197E-003   3.9532596101346518E-004   6.8037710555598874E-002
  -1.2520146199419286E-003   3.9775018616009655E-004   6.8298463206951349E-002
  -1.0307783683791254E-003   4.2768875235421611E-004   6.8784517214790897E-002
  -3.8696075019578457E-003   9.4604106822021583E-004   6.6914496891206099E-002
  -3.4190047890409001E-003   8.4083215417329882E-004   6.6731822693599063E-002
  -2.9684020761239762E-003   7.9065192225341585E-004   6.6782580062212993E-002
  -2.5177993632070550E-003   7.9550037246099714E-004   6.7066768997048054E-002
  -2.0671966502901207E-003   8.5537750479558472E-004   6.7584389498103831E-002
  -5.8616523817247024E-003   1.4190616025752389E-003   6.5570522832419653E-002
  -5.1735529977199515E-003   1.2612482314312556E-003   6.5422538839906952E-002
  -4.4854536137152092E-003   1.1859778834934775E-003   6.5516116623348802E-002
  -3.7973542297104691E-003   1.1932505587622308E-003   6.5851256182745482E-002
  -3.1092548457057161E-003   1.2830662572370644E-003   6.6427957518096381E-002
  -7.8918580139308997E-003   1.8920821369308172E-003   6.4160187145996361E-002
  -6.9581317491046457E-003   1.6816643086891014E-003   6.4074407699657110E-002
  -6.0244054842784021E-003   1.5813038447332894E-003   6.4238320239006219E-002
  -5.0906792194521516E-003   1.5910007450629857E-003   6.4651924764043578E-002
  -4.1569529546259046E-003   1.7107550096783219E-003   6.5315221274769408E-002
   2.7276791936259315E-014  -8.7263529735537304E-014   7.0028340668158218E-002
   1.6125989432680399E-014  -5.1125770283988459E-014   6.8684963944717015E-002
   4.9647785882456219E-015  -1.9456658506555868E-014   6.7488245343900410E-002
  -6.1877586388092709E-015   8.0144224590128488E-015   6.6438184865708877E-002
  -1.7347234759768071E-014   3.1197266991966899E-014   6.5534782510142331E-002
  -1.0307783683791254E-003   4.2768875235421611E-004   6.8784517214790897E-002
  -8.8765696501758376E-004   5.0051276509910370E-004   6.7461092134617484E-002
  -7.4453556165605776E-004   6.3159332989731753E-004   6.6277251738564441E-002
  -6.0141415829451615E-004   8.2093044674898252E-004   6.5232996026631976E-002
  -4.5829275493299015E-004   1.0685241156536129E-003   6.4328324998820241E-002
  -2.0671966502901207E-003   8.5537750479558472E-004   6.7584389498103831E-002
  -1.7880272820601914E-003   1.0010255302493609E-003   6.6339172613255726E-002
  -1.5088579138302543E-003   1.2631866598139946E-003   6.5226466974023803E-002
  -1.2296885456003315E-003   1.6418608934896210E-003   6.4246272580407993E-002
  -9.5051917737038784E-004   2.1370482312759731E-003   6.3398589432408586E-002
  -3.1092548457057161E-003   1.2830662572370644E-003   6.6427957518096381E-002
  -2.7011109511116821E-003   1.5015382953993822E-003   6.5319205380631504E-002
  -2.2929670565176611E-003   1.8947799897304426E-003   6.4335891050278149E-002
  -1.8848231619236202E-003   2.4627913402303133E-003   6.3478014527036927E-002
  -1.4766792673296066E-003   3.2055723468985831E-003   6.2745575810907367E-002
  -4.1569529546259046E-003   1.7107550096783219E-003   6.5315221274769408E-002
  -3.6269079721720707E-003   2.0020510605497366E-003   6.4401190436744971E-002
  -3.0968629897182437E-003   2.5263733196473626E-003   6.3605523967328104E-002
  -2.5668180072644098E-003   3.2837217869710403E-003   6.2928221866518891E-002
  -2.0367730248105828E-003   4.2740964625209710E-003   6.2369284134317304E-002
  -1.7347234759768071E-014   3.1197266991966899E-014   6.5534782510142331E-002
  -2.0775048348298242E-014   5.1403326040144748E-014   6.0797782455852545E-002
  -2.4192453595972552E-014   7.0915495697931874E-014   5.5941113865425385E-002
  -2.7611593567122839E-014   8.9671325920193112E-014   5.0964776738861045E-002
  -3.1044611326080940E-014   1.0746958878371515E-013   4.5868771076158943E-002
  -4.5829275493299015E-004   1.0685241156536129E-003   6.4328324998820241E-002
  -5.6365884894590129E-004   1.3943089084344495E-003   5.9620756566985678E-002
  -6.6902494295882631E-004   1.8182193969150662E-003   5.4822124483269952E-002
  -7.7439103697174872E-004   2.3402555810955461E-003   4.9932428747672730E-002
  -8.7975713098467634E-004   2.9604174609754175E-003   4.4951669360193680E-002
  -9.5051917737038784E-004   2.1370482312759731E-003   6.3398589432408586E-002
  -1.1326464811369820E-003   2.7886178168178843E-003   5.8818578318730247E-002
  -1.3147737849035805E-003   3.6364387937598969E-003   5.4176108437426221E-002
  -1.4969010886701621E-003   4.6805111621015354E-003   4.9471179788496904E-002
  -1.6790283924367592E-003   5.9208349218431433E-003   4.4703792371940776E-002
  -1.4766792673296066E-003   3.2055723468985831E-003   6.2745575810907367E-002
  -1.7069628965940126E-003   4.1829267252013469E-003   5.8391247711085378E-002
  -1.9372465258584391E-003   5.4546581906043876E-003   5.4003065727893415E-002
  -2.1675301551228620E-003   7.0207667431071343E-003   4.9581029861331651E-002
  -2.3978137843872578E-003   8.8812523827108691E-003   4.5125140111399537E-002
  -2.0367730248105828E-003   4.2740964625209710E-003   6.2369284134317304E-002
  -2.2866080953170068E-003   5.5772356335845874E-003   5.8338764744051863E-002
  -2.5364431658234203E-003   7.2728775874489338E-003   5.4302996354672284E-002
  -2.7862782363298078E-003   9.3610223241133578E-003   5.0261978966178456E-002
  -3.0361133068362578E-003   1.1841669843578817E-002   4.6215712578570933E-002
  -2.5093065432446479E-002   7.3751982490490309E-003   6.1934795156176115E-002
  -2.4310975367286963E-002   7.1717474023755556E-003   6.1715350586165008E-002
  -2.3528885302127434E-002   6.9639451889150078E-003   6.1671817752906227E-002
  -2.2746795236967900E-002   6.7517916086674533E-003   6.1804196656399399E-002
  -2.1964705171808378E-002   6.5352866616327221E-003   6.2112487296644758E-002
  -3.1332599426374105E-002   9.2460385257894795E-003   5.8957674303177415E-002
  -3.0367773142295655E-002   9.0092780445608645E-003   5.8700513176002306E-002
  -2.9402946858217253E-002   8.7558841475905563E-003   5.8632912749912794E-002
  -2.8438120574138807E-002   8.4858568348782602E-003   5.8754873024909109E-002
  -2.7473294290060363E-002   8.1991961064241392E-003   5.9066394000991090E-002
  -3.7606182068368188E-002   1.1116878802529956E-002   5.5953384840101053E-002
  -3.6444970601037276E-002   1.0846808686746270E-002   5.5646225106807043E-002
  -3.5283759133706342E-002   1.0547823106266029E-002   5.5542275038932200E-002
  -3.4122547666375388E-002   1.0219922061089069E-002   5.5641534636476808E-002
  -3.2961336199044483E-002   9.8631055512155563E-003   5.5944003899440542E-002
  -4.3913813358428797E-002   1.2987719079270418E-002   5.2921926766947069E-002
  -4.2542567743511790E-002   1.2684339328931725E-002   5.2552486378579275E-002
  -4.1171322128594742E-002   1.2339762064941567E-002   5.2399904619964480E-002
  -3.9800076513677729E-002   1.1953987287299878E-002   5.2464181491102400E-002
  -3.8428830898760667E-002   1.1527014996007029E-002   5.2745316991993328E-002
  -5.0255493296555903E-002   1.4858559356010881E-002   4.9863300083715312E-002
  -4.8660564569719178E-002   1.4521869971117041E-002   4.9419296991319028E-002
  -4.7065635842882425E-002   1.4131701023616994E-002   4.9205801493009349E-002
  -4.5470707116045672E-002   1.3688052513510671E-002   4.9222813588785996E-002
  -4.3875778389208961E-002   1.3190924440798391E-002   4.9470333278649248E-002
  -2.1964705171808378E-002   6.5352866616327221E-003   6.2112487296644758E-002
  -2.1147852707993318E-002   6.3085952301138726E-003   6.1787941931594842E-002
  -2.0331000244178256E-002   6.0658821964135468E-003   6.1675336311086237E-002
  -1.9514147780363190E-002   5.8071475605322095E-003   6.1774670435118806E-002
  -1.8697295316548131E-002   5.5323913224692989E-003   6.2085944303692742E-002
  -2.7473294290060363E-002   8.1991961064241392E-003   5.9066394000991090E-002
  -2.6448378380460724E-002   7.8990188382700305E-003   5.8745308913532676E-002
  -2.5423462470861073E-002   7.5884419064578060E-003   5.8628410973102216E-002
  -2.4398546561261444E-002   7.2674653109875715E-003   5.8715700179699633E-002
  -2.3373630651661780E-002   6.9360890518592178E-003   5.9007176533325045E-002
  -3.2961336199044483E-002   9.8631055512155563E-003   5.5944003899440542E-002
  -3.1736109441173596E-002   9.4894424464263133E-003   5.5632001028096907E-002
  -3.0510882683302720E-002   9.1110016165021207E-003   5.5516432706267868E-002
  -2.9285655925431840E-002   8.7277830614431000E-003   5.5597298933953272E-002
  -2.8060429167560949E-002   8.3397867812491366E-003   5.5874599711153328E-002
  -3.8428830898760667E-002   1.1527014996007029E-002   5.2745316991993328E-002
  -3.7011045890131912E-002   1.1079866054582645E-002   5.2448018275287583E-002
  -3.5593260881503185E-002   1.0633561326546491E-002   5.2339401510583153E-002
  -3.4175475872874443E-002   1.0188100811898601E-002   5.2419466697879787E-002
  -3.2757690864245695E-002   9.7434845106391110E-003   5.2688213837177686E-002
  -4.3875778389208961E-002   1.3190924440798391E-002   4.9470333278649248E-002
  -4.2273187727335723E-002   1.2670289662738754E-002   4.9193360655104740E-002
  -4.0670597065462465E-002   1.2156121036590667E-002   4.9097317386048001E-002
  -3.9068006403589220E-002   1.1648418562354039E-002   4.9182203471479086E-002
  -3.7465415741715968E-002   1.1147182240028974E-002   4.9448018911398051E-002
  -1.8697295316548131E-002   5.5323913224692989E-003   6.2085944303692742E-002
  -1.7853299150389475E-002   5.2476454150319207E-003   6.1852927293961080E-002
  -1.7009302984230819E-002   4.9589417710270145E-003   6.1823423195119465E-002
  -1.6165306818072159E-002   4.6662803904542055E-003   6.1997432007167924E-002
  -1.5321310651913507E-002   4.3696612733139517E-003   6.2374953730106375E-002
  -2.3373630651661780E-002   6.9360890518592178E-003   5.9007176533325045E-002
  -2.2328216465780606E-002   6.5957818915061694E-003   5.8755891513960851E-002
  -2.1282802279899444E-002   6.2480125923621704E-003   5.8703929623151657E-002
  -2.0237388094018267E-002   5.8927811544272311E-003   5.8851290860897534E-002
  -1.9191973908137108E-002   5.5300875777007930E-003   5.9197975227198329E-002
  -2.8060429167560949E-002   8.3397867812491366E-003   5.5874599711153328E-002
  -2.6817786744292374E-002   7.9439183679805014E-003   5.5601542279933275E-002
  -2.5575144321023761E-002   7.5370834136974374E-003   5.5523618194933233E-002
  -2.4332501897755175E-002   7.1192819183997016E-003   5.5640827456153064E-002
  -2.3089859474486572E-002   6.6905138820877452E-003   5.5953170063592711E-002
  -3.2757690864245695E-002   9.7434845106391110E-003   5.2688213837177686E-002
  -3.1322009985924736E-002   9.2920548444547363E-003   5.2389879591878394E-002
  -2.9886329107603762E-002   8.8261542350327599E-003   5.2282488910463935E-002
  -2.8450648229282803E-002   8.3457826823726163E-003   5.2366041792934262E-002
  -2.7014967350961826E-002   7.8509401864746975E-003   5.2640538239289422E-002
  -3.7465415741715968E-002   1.1147182240028974E-002   4.9448018911398051E-002
  -3.5840886190677740E-002   1.0640191320928999E-002   4.9120903449796138E-002
  -3.4216356639639470E-002   1.0115225056367888E-002   4.8980541769743924E-002
  -3.2591827088601213E-002   9.5722834463451770E-003   4.9026933871241490E-002
  -3.0967297537562971E-002   9.0113664908615387E-003   4.9260079754288699E-002
  -1.5321310651913507E-002   4.3696612733139517E-003   6.2374953730106375E-002
  -1.4429696830268984E-002   4.0662164690438152E-003   6.2204803528825514E-002
  -1.3538083008624479E-002   3.7530780270816910E-003   6.2250898583403602E-002
  -1.2646469186979972E-002   3.4302459474279956E-003   6.2513238893840611E-002
  -1.1754855365335451E-002   3.0977202300824791E-003   6.2991824460136736E-002
  -1.9191973908137108E-002   5.5300875777007930E-003   5.9197975227198329E-002
  -1.8088030745002110E-002   5.1594365506099915E-003   5.8987613601608008E-002
  -1.6984087581867098E-002   4.7803327615808799E-003   5.8985665403139709E-002
  -1.5880144418732107E-002   4.3927762106133264E-003   5.9192130631793349E-002
  -1.4776201255597088E-002   3.9967668977076709E-003   5.9607009287568957E-002
  -2.3089859474486572E-002   6.6905138820877452E-003   5.5953170063592711E-002
  -2.1781418798598115E-002   6.2526566321761679E-003   5.5703837889446578E-002
  -2.0472978122709616E-002   5.8075874960797358E-003   5.5655087313685389E-002
  -1.9164537446821134E-002   5.3553064737987682E-003   5.5806918336309255E-002
  -1.7856096770932691E-002   4.8958135653331403E-003   5.6159330957317899E-002
  -2.7014967350961826E-002   7.8509401864746975E-003   5.2640538239289422E-002
  -2.5509860991056895E-002   7.3458767137422887E-003   5.2353476392341176E-002
  -2.4004754631151978E-002   6.8348422305786471E-003   5.2259164315040726E-002
  -2.2499648271247050E-002   6.3178367369840990E-003   5.2357602007388412E-002
  -2.0994541911342125E-002   5.7948602329583598E-003   5.2648789469383950E-002
  -3.0967297537562971E-002   9.0113664908615387E-003   4.9260079754288699E-002
  -2.9273357322378610E-002   8.4390967953085205E-003   4.8936529110291727E-002
  -2.7579417107194248E-002   7.8620969650777806E-003   4.8797896407205665E-002
  -2.5885476892009887E-002   7.2803670001695409E-003   4.8844181645030654E-002
  -2.4191536676825526E-002   6.6939069005839125E-003   4.9075384823766388E-002
  -1.1754855365335451E-002   3.0977202300824791E-003   6.2991824460136736E-002
  -1.0789106027484313E-002   2.7693384471165206E-003   6.2930370730614582E-002
  -9.8233566896331753E-003   2.4589381706028313E-003   6.3104613268417042E-002
  -8.8576073517820410E-003   2.1665194005408561E-003   6.3514552073544367E-002
  -7.8918580139308997E-003   1.8920821369308172E-003   6.4160187145996361E-002
  -1.4776201255597088E-002   3.9967668977076709E-003   5.9607009287568957E-002
  -1.3582625545451511E-002   3.6021224668437157E-003   5.9493718054179412E-002
  -1.2389049835305956E-002   3.2186605620013187E-003   5.9600383298054005E-002
  -1.1195474125160382E-002   2.8463811831806324E-003   5.9927005019192556E-002
  -1.0001898415014823E-002   2.4852843303815320E-003   6.0473583217595606E-002
  -1.7856096770932691E-002   4.8958135653331403E-003   5.6159330957317899E-002
  -1.6450434478553197E-002   4.4349064865708276E-003   5.5987403239630640E-002
  -1.5044772186173743E-002   3.9783829533999171E-003   5.6019692209147071E-002
  -1.3639109893794285E-002   3.5262429658205752E-003   5.6256197865866997E-002
  -1.2233447601414798E-002   3.0784865238324688E-003   5.6696920209790752E-002
  -2.0994541911342125E-002   5.7948602329583598E-003   5.2648789469383950E-002
  -1.9392532826789308E-002   5.2676905062978147E-003   5.2411426286968724E-002
  -1.7790523742236511E-002   4.7381053447985155E-003   5.2362540001696767E-002
  -1.6188514657683735E-002   4.2061047484603237E-003   5.2502130613567656E-002
  -1.4586505573130898E-002   3.6716887172834611E-003   5.2830198122581960E-002
  -2.4191536676825526E-002   6.6939069005839125E-003   4.9075384823766388E-002
  -2.2408920590159920E-002   6.1004745260250237E-003   4.8765787196193233E-002
  -2.0626304503494300E-002   5.4978277361971140E-003   4.8628926675702511E-002
  -1.8843688416828680E-002   4.8859665311002110E-003   4.8664803262294359E-002
  -1.7061072330163074E-002   4.2648909107342314E-003   4.8873416955968807E-002
  -7.8918580139308997E-003   1.8920821369308172E-003   6.4160187145996361E-002
  -6.9581317491046457E-003   1.6816643086891014E-003   6.4074407699657110E-002
  -6.0244054842784021E-003   1.5813038447332894E-003   6.4238320239006219E-002
  -5.0906792194521516E-003   1.5910007450629857E-003   6.4651924764043578E-002
  -4.1569529546259046E-003   1.7107550096783219E-003   6.5315221274769408E-002
  -1.0001898415014823E-002   2.4852843303815320E-003   6.0473583217595606E-002
  -8.8178034798518552E-003   2.1858178445490761E-003   6.0378039456687072E-002
  -7.6337085446889011E-003   1.9984295666278795E-003   6.0533541050763584E-002
  -6.4496136095259435E-003   1.9231194966176923E-003   6.0940087999825365E-002
  -5.2655186743629789E-003   1.9598876345194860E-003   6.1597680303871694E-002
  -1.2233447601414798E-002   3.0784865238324688E-003   5.6696920209790752E-002
  -1.0797630626618418E-002   2.6899713804086622E-003   5.6593632977938735E-002
  -9.3618136518220131E-003   2.4155552885221504E-003   5.6742744470368547E-002
  -7.9259966770256207E-003   2.2552382481726245E-003   5.7144254687080197E-002
  -6.4901797022292283E-003   2.2090202593604835E-003   5.7798163628073579E-002
  -1.4586505573130898E-002   3.6716887172834611E-003   5.2830198122581960E-002
  -1.2897613189404333E-002   3.1941249162682206E-003   5.2721188263412155E-002
  -1.1208720805677794E-002   2.8326810104165254E-003   5.2865930497821012E-002
  -9.5198284219512284E-003   2.5873569997274439E-003   5.3264424825808461E-002
  -7.8309360382246909E-003   2.4581528842015643E-003   5.3916671247374474E-002
  -1.7061072330163074E-002   4.2648909107342314E-003   4.8873416955968807E-002
  -1.5117751168209598E-002   3.6982784521282785E-003   4.8760705313107389E-002
  -1.3174430006256177E-002   3.2498067323109281E-003   4.8903099133121020E-002
  -1.1231108844302722E-002   2.9194757512820205E-003   4.9300598416009977E-002
  -9.2877876823492800E-003   2.7072855090425341E-003   4.9953203161774318E-002
  -4.1569529546259046E-003   1.7107550096783219E-003   6.5315221274769408E-002
  -3.6269079721720707E-003   2.0020510605497366E-003   6.4401190436744971E-002
  -3.0968629897182437E-003   2.5263733196473626E-003   6.3605523967328104E-002
  -2.5668180072644098E-003   3.2837217869710403E-003   6.2928221866518891E-002
  -2.0367730248105828E-003   4.2740964625209710E-003   6.2369284134317304E-002
  -5.2655186743629789E-003   1.9598876345194860E-003   6.1597680303871694E-002
  -4.5910288412974280E-003   2.2158633554940632E-003   6.0873316222952889E-002
  -3.9165390082318841E-003   2.7981760347041140E-003   6.0319477474649830E-002
  -3.2420491751663384E-003   3.7068256721495552E-003   5.9936164058962738E-002
  -2.5675593421007926E-003   4.9418122678295262E-003   5.9723375975891058E-002
  -6.4901797022292283E-003   2.2090202593604835E-003   5.7798163628073579E-002
  -5.6190840545438346E-003   2.4296756504387784E-003   5.7356777054269309E-002
  -4.7479884068584409E-003   3.0699787497611847E-003   5.7138076777088667E-002
  -3.8768927591730611E-003   4.1299295573275115E-003   5.7142062796531924E-002
  -3.0057971114876552E-003   5.6095280731379704E-003   5.7368735112599434E-002
  -7.8309360382246909E-003   2.4581528842015643E-003   5.3916671247374474E-002
  -6.7110736119112757E-003   2.6434879453834104E-003   5.3851572930693314E-002
  -5.5912111855979454E-003   3.3417814648182068E-003   5.4061321874644200E-002
  -4.4713487592845580E-003   4.5530334425057471E-003   5.4545918079227228E-002
  -3.3514863329711995E-003   6.2772438784462481E-003   5.5305361544442419E-002
  -9.2877876823492800E-003   2.7072855090425341E-003   4.9953203161774318E-002
  -7.8669975133998232E-003   2.8573002403280423E-003   5.0357703852225488E-002
  -6.4462073444503387E-003   3.6135841798748958E-003   5.1089212767316705E-002
  -5.0254171755008681E-003   4.9761373276841769E-003   5.2147729907048135E-002
  -3.6046270065513975E-003   6.9449596837548588E-003   5.3533255271419722E-002
  -2.0367730248105828E-003   4.2740964625209710E-003   6.2369284134317304E-002
  -2.2866080953170068E-003   5.5772356335845874E-003   5.8338764744051863E-002
  -2.5364431658234203E-003   7.2728775874489338E-003   5.4302996354672284E-002
  -2.7862782363298078E-003   9.3610223241133578E-003   5.0261978966178456E-002
  -3.0361133068362578E-003   1.1841669843578817E-002   4.6215712578570933E-002
  -2.5675593421007926E-003   4.9418122678295262E-003   5.9723375975891058E-002
  -2.8401505068106868E-003   6.5666918429850840E-003   5.6190873930197616E-002
  -3.1127416715205514E-003   8.6450204188559532E-003   5.2618108695211163E-002
  -3.3853328362304829E-003   1.1176797995441967E-002   4.9005080270931617E-002
  -3.6579240009403102E-003   1.4162024572743404E-002   4.5351788657359560E-002
  -3.0057971114876552E-003   5.6095280731379704E-003   5.7368735112599434E-002
  -3.3361585605797914E-003   7.5561480523854696E-003   5.4395196629392323E-002
  -3.6665200096718835E-003   1.0017163250262834E-002   5.1346380766713773E-002
  -3.9968814587640032E-003   1.2992573666770403E-002   4.8222287524563576E-002
  -4.3272429078561395E-003   1.6482379301907990E-002   4.5022916902941690E-002
  -3.3514863329711995E-003   6.2772438784462481E-003   5.5305361544442419E-002
  -3.7746322566243420E-003   8.5456042617854666E-003   5.2951732841636831E-002
  -4.1977781802774554E-003   1.1389306081670006E-002   5.0487812569180564E-002
  -4.6209241039306048E-003   1.4808349338099037E-002   4.7913600727073985E-002
  -5.0440700275836848E-003   1.8802734031072577E-002   4.5229097315317490E-002
  -3.6046270065513975E-003   6.9449596837548588E-003   5.3533255271419722E-002
  -4.1555715949443128E-003   9.5350604711860187E-003   5.1860482566930211E-002
  -4.7065161833372005E-003   1.2761448913076928E-002   5.0042404102611682E-002
  -5.2574607717300603E-003   1.6624125009427497E-002   4.8079019878464052E-002
  -5.8084053601230035E-003   2.1123088760237163E-002   4.5970329894486905E-002
  -5.0255493296555903E-002   1.4858559356010881E-002   4.9863300083715312E-002
  -4.8660564569719178E-002   1.4521869971117041E-002   4.9419296991319028E-002
  -4.7065635842882425E-002   1.4131701023616994E-002   4.9205801493009349E-002
  -4.5470707116045672E-002   1.3688052513510671E-002   4.9222813588785996E-002
  -4.3875778389208961E-002   1.3190924440798391E-002   4.9470333278649248E-002
  -5.6575350991646053E-002   1.6812331696956562E-002   4.4796706420888011E-002
  -5.4759661546631949E-002   1.6354386698472362E-002   4.4379627834386953E-002
  -5.2943972101617866E-002   1.5867877757922214E-002   4.4173563090153967E-002
  -5.1128282656603824E-002   1.5352804875305926E-002   4.4178512188189245E-002
  -4.9312593211589734E-002   1.4809168050623739E-002   4.4394475128492705E-002
  -6.2817515552595821E-002   1.8766104037902187E-002   3.9596399334200449E-002
  -6.0800559141222690E-002   1.8186903425827794E-002   3.9231160874134738E-002
  -5.8783602729849518E-002   1.7604054492227378E-002   3.9057442504518577E-002
  -5.6766646318476444E-002   1.7017557237101071E-002   3.9075244225352482E-002
  -5.4749689907103299E-002   1.6427411660448921E-002   3.9284566036636270E-002
  -6.8981986979405219E-002   2.0719876378847812E-002   3.4262378823652406E-002
  -6.6783257353491374E-002   2.0019420153183115E-002   3.3973896110561966E-002
  -6.4584527727577501E-002   1.9340231226532542E-002   3.3857439736103050E-002
  -6.2385798101663600E-002   1.8682309598896298E-002   3.3913009700275665E-002
  -6.0187068475749748E-002   1.8045655270274241E-002   3.4140606003080116E-002
  -7.5068765272074234E-002   2.2673648719793493E-002   2.8794644889244103E-002
  -7.2707756183437972E-002   2.1851936880538547E-002   2.8607833543669137E-002
  -7.0346747094801598E-002   2.1076407960837762E-002   2.8573554784907473E-002
  -6.7985738006165253E-002   2.0347061960691443E-002   2.8691808612959058E-002
  -6.5624728917528991E-002   1.9663898880099395E-002   2.8962595027823945E-002
  -4.3875778389208961E-002   1.3190924440798391E-002   4.9470333278649248E-002
  -4.2273187727335723E-002   1.2670289662738754E-002   4.9193360655104740E-002
  -4.0670597065462465E-002   1.2156121036590667E-002   4.9097317386048001E-002
  -3.9068006403589220E-002   1.1648418562354039E-002   4.9182203471479086E-002
  -3.7465415741715968E-002   1.1147182240028974E-002   4.9448018911398051E-002
  -4.9312593211589734E-002   1.4809168050623739E-002   4.4394475128492705E-002
  -4.7528270203824011E-002   1.4251253885530030E-002   4.4121261329797407E-002
  -4.5743947196058267E-002   1.3693348981679600E-002   4.4030582868399157E-002
  -4.3959624188292537E-002   1.3135453339072409E-002   4.4122439744297998E-002
  -4.2175301180526800E-002   1.2577566957708397E-002   4.4396831957494082E-002
  -5.4749689907103299E-002   1.6427411660448921E-002   3.9284566036636270E-002
  -5.2782028570635811E-002   1.5832218108321250E-002   3.9008654172121827E-002
  -5.0814367234168330E-002   1.5230576926768533E-002   3.8916883627713797E-002
  -4.8846705897700862E-002   1.4622488115790668E-002   3.9009254403412193E-002
  -4.6879044561233374E-002   1.4007951675387764E-002   3.9285766499216973E-002
  -6.0187068475749748E-002   1.8045655270274241E-002   3.4140606003080116E-002
  -5.8034462827771152E-002   1.7413182331112470E-002   3.3855539182078113E-002
  -5.5881857179792632E-002   1.6767804871857410E-002   3.3756219663991990E-002
  -5.3729251531814022E-002   1.6109522892508818E-002   3.3842647448821581E-002
  -5.1576645883835467E-002   1.5438336393067020E-002   3.4114822536566787E-002
  -6.5624728917528991E-002   1.9663898880099395E-002   2.8962595027823945E-002
  -6.3285572975230076E-002   1.8994146553903718E-002   2.8661916359666251E-002
  -6.0946417032931147E-002   1.8305032816946287E-002   2.8548590977233695E-002
  -5.8607261090632197E-002   1.7596557669227159E-002   2.8622618880526043E-002
  -5.6268105148333303E-002   1.6868721110746498E-002   2.8884000069543558E-002
  -3.7465415741715968E-002   1.1147182240028974E-002   4.9448018911398051E-002
  -3.5840886190677740E-002   1.0640191320928999E-002   4.9120903449796138E-002
  -3.4216356639639470E-002   1.0115225056367888E-002   4.8980541769743924E-002
  -3.2591827088601213E-002   9.5722834463451770E-003   4.9026933871241490E-002
  -3.0967297537562971E-002   9.0113664908615387E-003   4.9260079754288699E-002
  -4.2175301180526800E-002   1.2577566957708397E-002   4.4396831957494082E-002
  -4.0366029982433202E-002   1.2013938499679411E-002   4.4059112039484871E-002
  -3.8556758784339583E-002   1.1438816627077408E-002   4.3904121634036633E-002
  -3.6747487586245992E-002   1.0852201339902126E-002   4.3931860741149430E-002
  -3.4938216388152379E-002   1.0254092638153689E-002   4.4142329360823296E-002
  -4.6879044561233374E-002   1.4007951675387764E-002   3.9285766499216973E-002
  -4.4889055985073117E-002   1.3387685678429753E-002   3.8943924055688639E-002
  -4.2899067408912903E-002   1.2762408197786748E-002   3.8780786855732566E-002
  -4.0909078832752688E-002   1.2132119233458794E-002   3.8796354899348615E-002
  -3.8919090256592431E-002   1.1496818785445839E-002   3.8990628186536980E-002
  -5.1576645883835467E-002   1.5438336393067020E-002   3.4114822536566787E-002
  -4.9409964198597445E-002   1.4761432857180075E-002   3.3775339498407525E-002
  -4.7243282513359353E-002   1.4085999768496289E-002   3.3610537434831708E-002
  -4.5076600828121316E-002   1.3412037127015492E-002   3.3620416345839406E-002
  -4.2909919142883238E-002   1.2739544932737878E-002   3.3804976231430667E-002
  -5.6268105148333303E-002   1.6868721110746498E-002   2.8884000069543558E-002
  -5.3928754623006198E-002   1.6135180035930480E-002   2.8553358367641335E-002
  -5.1589404097679009E-002   1.5409591339205594E-002   2.8393373371334046E-002
  -4.9250053572351862E-002   1.4691955020572297E-002   2.8404045080621262E-002
  -4.6910703047024715E-002   1.3982271080030140E-002   2.8585373495503386E-002
  -3.0967297537562971E-002   9.0113664908615387E-003   4.9260079754288699E-002
  -2.9273357322378610E-002   8.4390967953085205E-003   4.8936529110291727E-002
  -2.7579417107194248E-002   7.8620969650777806E-003   4.8797896407205665E-002
  -2.5885476892009887E-002   7.2803670001695409E-003   4.8844181645030654E-002
  -2.4191536676825526E-002   6.6939069005839125E-003   4.9075384823766388E-002
  -3.4938216388152379E-002   1.0254092638153689E-002   4.4142329360823296E-002
  -3.3065470103202696E-002   9.6456373638987847E-003   4.3795746895271215E-002
  -3.1192723818252957E-002   9.0279823592038788E-003   4.3621858628339089E-002
  -2.9319977533303239E-002   8.4011276240691934E-003   4.3620664560026612E-002
  -2.7447231248353535E-002   7.7650731584945065E-003   4.3792164690333868E-002
  -3.8919090256592431E-002   1.1496818785445839E-002   3.8990628186536980E-002
  -3.6879761644168563E-002   1.0852177932489160E-002   3.8616544303667677E-002
  -3.4840433031744715E-002   1.0193867753330088E-002   3.8402930877126901E-002
  -3.2801104419320840E-002   9.5218882479687350E-003   3.8349787906914803E-002
  -3.0761775806896999E-002   8.8362394164050451E-003   3.8457115393031149E-002
  -4.2909919142883238E-002   1.2739544932737878E-002   3.3804976231430667E-002
  -4.0716231945276397E-002   1.2058718501079424E-002   3.3398921335481377E-002
  -3.8522544747669495E-002   1.1359753147456353E-002   3.3141113153569546E-002
  -3.6328857550062627E-002   1.0642648871868332E-002   3.3031551685695160E-002
  -3.4135170352455751E-002   9.9074056743156114E-003   3.3070236931858329E-002
  -4.6910703047024715E-002   1.3982271080030140E-002   2.8585373495503386E-002
  -4.4574881006526040E-002   1.3265259069669855E-002   2.8142877990711856E-002
  -4.2239058966027310E-002   1.2525638541582451E-002   2.7836405457666635E-002
  -3.9903236925528593E-002   1.1763409495767888E-002   2.7665955896367694E-002
  -3.7567414885029932E-002   1.0978571932226289E-002   2.7631529306815006E-002
  -2.4191536676825526E-002   6.6939069005839125E-003   4.9075384823766388E-002
  -2.2408920590159920E-002   6.1004745260250237E-003   4.8765787196193233E-002
  -2.0626304503494300E-002   5.4978277361971140E-003   4.8628926675702511E-002
  -1.8843688416828680E-002   4.8859665311002110E-003   4.8664803262294359E-002
  -1.7061072330163074E-002   4.2648909107342314E-003   4.8873416955968807E-002
  -2.7447231248353535E-002   7.7650731584945065E-003   4.3792164690333868E-002
  -2.5497968569542999E-002   7.1245477814134706E-003   4.3413148306886917E-002
  -2.3548705890732401E-002   6.4842803117597103E-003   4.3194688000647186E-002
  -2.1599443211921848E-002   5.8442707495338017E-003   4.3136783771615006E-002
  -1.9650180533111267E-002   5.2045190947348496E-003   4.3239435619789990E-002
  -3.0761775806896999E-002   8.8362394164050451E-003   3.8457115393031149E-002
  -2.8658047565816604E-002   8.1486210368019729E-003   3.8018152576406894E-002
  -2.6554319324736224E-002   7.4707328873227508E-003   3.7727564807114616E-002
  -2.4450591083655829E-002   6.8025749679670594E-003   3.7585352085154622E-002
  -2.2346862842575442E-002   6.1441472787351903E-003   3.7591514410526855E-002
  -3.4135170352455751E-002   9.9074056743156114E-003   3.3070236931858329E-002
  -3.1889157578980705E-002   9.1726942921903920E-003   3.2580800004752559E-002
  -2.9643144805505679E-002   8.4571854628855692E-003   3.2227557095104151E-002
  -2.7397132032030636E-002   7.7608791864005391E-003   3.2010508202912916E-002
  -2.5151119258555600E-002   7.0837754627356142E-003   3.1929653328178466E-002
  -3.7567414885029932E-002   1.0978571932226289E-002   2.7631529306815006E-002
  -3.5191298609035387E-002   1.0196767547578922E-002   2.7101090591924781E-002
  -3.2815182333040857E-002   9.4436380384482765E-003   2.6694664864616358E-002
  -3.0439066057046348E-002   8.7191834048338801E-003   2.6412252124890123E-002
  -2.8062949781051810E-002   8.0234036467361491E-003   2.6253852372745357E-002
  -1.7061072330163074E-002   4.2648909107342314E-003   4.8873416955968807E-002
  -1.5117751168209598E-002   3.6982784521282785E-003   4.8760705313107389E-002
  -1.3174430006256177E-002   3.2498067323109281E-003   4.8903099133121020E-002
  -1.1231108844302722E-002   2.9194757512820205E-003   4.9300598416009977E-002
  -9.2877876823492800E-003   2.7072855090425341E-003   4.9953203161774318E-002
  -1.9650180533111267E-002   5.2045190947348496E-003   4.3239435619789990E-002
  -1.7490300534910790E-002   4.6016358223661125E-003   4.3076413041895523E-002
  -1.5330420536710264E-002   4.0722314074307930E-003   4.3091402673619800E-002
  -1.3170540538509780E-002   3.6163058499288775E-003   4.3284404514962863E-002
  -1.1010660540309261E-002   3.2338591498599634E-003   4.3655418565924919E-002
  -2.2346862842575442E-002   6.1441472787351903E-003   3.7591514410526855E-002
  -2.0047517261384269E-002   5.5049931926039186E-003   3.7333519016243488E-002
  -1.7748171680193072E-002   4.8946560825506441E-003   3.7176442578322824E-002
  -1.5448826099001957E-002   4.3131359485751759E-003   3.7120285096764592E-002
  -1.3149480517810702E-002   3.7604327906776702E-003   3.7165046571568716E-002
  -2.5151119258555600E-002   7.0837754627356142E-003   3.1929653328178466E-002
  -2.2789401347630217E-002   6.4083505628417942E-003   3.1532023236151271E-002
  -2.0427683436704702E-002   5.7170807576707242E-003   3.1158218847230138E-002
  -1.8065965525779226E-002   5.0099660472216426E-003   3.0808240161415090E-002
  -1.5704247614853749E-002   4.2870064314950718E-003   3.0482087178706208E-002
  -2.8062949781051810E-002   8.0234036467361491E-003   2.6253852372745357E-002
  -2.5715952793648411E-002   7.3117079330796142E-003   2.5671925701618803E-002
  -2.3368955806245026E-002   6.5395054327903879E-003   2.5036731480341690E-002
  -2.1021958818841606E-002   5.7067961458683383E-003   2.4348269708914294E-002
  -1.8674961831438242E-002   4.8135800723128064E-003   2.3606540387336783E-002
  -9.2877876823492800E-003   2.7072855090425341E-003   4.9953203161774318E-002
  -7.8669975133998232E-003   2.8573002403280423E-003   5.0357703852225488E-002
  -6.4462073444503387E-003   3.6135841798748958E-003   5.1089212767316705E-002
  -5.0254171755008681E-003   4.9761373276841769E-003   5.2147729907048135E-002
  -3.6046270065513975E-003   6.9449596837548588E-003   5.3533255271419722E-002
  -1.1010660540309261E-002   3.2338591498599634E-003   4.3655418565924919E-002
  -9.2445042114198406E-003   3.1630165717569936E-003   4.4240329369514109E-002
  -7.4783478825304200E-003   3.6419033801521616E-003   4.5188964268343290E-002
  -5.7121915536410064E-003   4.6705195750454190E-003   4.6501323262411798E-002
  -3.9460352247515790E-003   6.2488651564367448E-003   4.8177406351720187E-002
  -1.3149480517810702E-002   3.7604327906776702E-003   3.7165046571568716E-002
  -1.1001242158381823E-002   3.4687329031862779E-003   3.7873827666532633E-002
  -8.8530037989529367E-003   3.6702225804290944E-003   3.8983048727335601E-002
  -6.7047654395240505E-003   4.3649018224066610E-003   4.0492709753977937E-002
  -4.5565270800951713E-003   5.5527706291186862E-003   4.2402810746459546E-002
  -1.5704247614853749E-002   4.2870064314950718E-003   3.0482087178706208E-002
  -1.3137211354285803E-002   3.7744492346152847E-003   3.1258198743280792E-002
  -1.0570175093717884E-002   3.6985417807064158E-003   3.2471466144294324E-002
  -8.0031388331499777E-003   4.0592840697679031E-003   3.4121889381746560E-002
  -5.4361025725820182E-003   4.8566761018005999E-003   3.6209468455637779E-002
  -1.8674961831438242E-002   4.8135800723128064E-003   2.3606540387336783E-002
  -1.5652411799131738E-002   4.0801655660445135E-003   2.4393442599758730E-002
  -1.2629861766825262E-002   3.7268609809831543E-003   2.5654216519218953E-002
  -9.6073117345187725E-003   3.7536663171292214E-003   2.7388862145717618E-002
  -6.5847617022122829E-003   4.1605815744826247E-003   2.9597379479254449E-002
  -3.6046270065513975E-003   6.9449596837548588E-003   5.3533255271419722E-002
  -4.1555715949443128E-003   9.5350604711860187E-003   5.1860482566930211E-002
  -4.7065161833372005E-003   1.2761448913076928E-002   5.0042404102611682E-002
  -5.2574607717300603E-003   1.6624125009427497E-002   4.8079019878464052E-002
  -5.8084053601230035E-003   2.1123088760237163E-002   4.5970329894486905E-002
  -3.9460352247515790E-003   6.2488651564367448E-003   4.8177406351720187E-002
  -4.5385155221893403E-003   8.6869169528169254E-003   4.7242305409841534E-002
  -5.1309958196271085E-003   1.2294651792677441E-002   4.6369438809702124E-002
  -5.7234761170648872E-003   1.7072069676018160E-002   4.5558806551302400E-002
  -6.3159564145027491E-003   2.3019170602838646E-002   4.4810408634641696E-002
  -4.5565270800951713E-003   5.5527706291186862E-003   4.2402810746459546E-002
  -4.9830029850092203E-003   7.8387734344478877E-003   4.2738776956211894E-002
  -5.4094788899234081E-003   1.1827854672278190E-002   4.3344517609272507E-002
  -5.8359547948373391E-003   1.7520014342608883E-002   4.4220032705640948E-002
  -6.2624306997515894E-003   2.4915252445439906E-002   4.5365322245317641E-002
  -5.4361025725820182E-003   4.8566761018005999E-003   3.6209468455637779E-002
  -5.4890339834038279E-003   6.9906299160789331E-003   3.8349897206042129E-002
  -5.5419653942256897E-003   1.1361057551878710E-002   4.0967640501322636E-002
  -5.5948968050475514E-003   1.7967959009199355E-002   4.4062698341480147E-002
  -5.6478282158694722E-003   2.6811334288041277E-002   4.7635070726514128E-002
  -6.5847617022122829E-003   4.1605815744826247E-003   2.9597379479254449E-002
  -6.0566085173733297E-003   6.1424863977098676E-003   3.4075666159331330E-002
  -5.5284553325343488E-003   1.0894260431479591E-002   3.9238807485852900E-002
  -5.0003021476953818E-003   1.8415903675790470E-002   4.5086803458819963E-002
  -4.4721489628564148E-003   2.8707416130642649E-002   5.1619654078231658E-002
  -7.5068765272074234E-002   2.2673648719793493E-002   2.8794644889244103E-002
  -7.2707756183437972E-002   2.1851936880538547E-002   2.8607833543669137E-002
  -7.0346747094801598E-002   2.1076407960837762E-002   2.8573554784907473E-002
  -6.7985738006165253E-002   2.0347061960691443E-002   2.8691808612959058E-002
  -6.5624728917528991E-002   1.9663898880099395E-002   2.8962595027823945E-002
  -8.1120720002050256E-002   2.4407429474256337E-002   2.1748030931612261E-002
  -7.8605303469680837E-002   2.3614094988349044E-002   2.1584685945099574E-002
  -7.6089886937311321E-002   2.2833852604681321E-002   2.1577623259239953E-002
  -7.3574470404941833E-002   2.2066702323253064E-002   2.1726842874033467E-002
  -7.1059053872572386E-002   2.1312644144064252E-002   2.2032344789480018E-002
  -8.7180720740781065E-002   2.6141210228719236E-002   1.4746339735985603E-002
  -8.4507147050838505E-002   2.5376253096159873E-002   1.4573370291220314E-002
  -8.1833573360896028E-002   2.4591297248524824E-002   1.4560432860948005E-002
  -7.9159999670953524E-002   2.3786342685814796E-002   1.4707527445168497E-002
  -7.6486425981011047E-002   2.2961389408029137E-002   1.5014654043881970E-002
  -9.3248767488266132E-002   2.7874990983182024E-002   7.7895713023640734E-003
  -9.0413286926910794E-002   2.7138411203970481E-002   7.5738865820315845E-003
  -8.7577806365555580E-002   2.6348741892368466E-002   7.5219835900315959E-003
  -8.4742325804200366E-002   2.5505983048376361E-002   7.6338623263643556E-003
  -8.1906845242845042E-002   2.4610134671994008E-002   7.9095227910296155E-003
  -9.9324860244505819E-002   2.9608771737644979E-002   8.7772563074794974E-004
  -9.6323723097897940E-002   2.8900569311781199E-002   5.8623481753300455E-004
  -9.3322585951290171E-002   2.8106186536212052E-002   4.6227544649068975E-004
  -9.0321448804682347E-002   2.7225623410938107E-002   5.0584751762067226E-004
  -8.7320311658074523E-002   2.6258879935958879E-002   7.1695103092306312E-004
  -6.5624728917528991E-002   1.9663898880099395E-002   2.8962595027823945E-002
  -6.3285572975230076E-002   1.8994146553903718E-002   2.8661916359666251E-002
  -6.0946417032931147E-002   1.8305032816946287E-002   2.8548590977233695E-002
  -5.8607261090632197E-002   1.7596557669227159E-002   2.8622618880526043E-002
  -5.6268105148333303E-002   1.6868721110746498E-002   2.8884000069543558E-002
  -7.1059053872572386E-002   2.1312644144064252E-002   2.2032344789480018E-002
  -6.8532363908715255E-002   2.0561917773809169E-002   2.1725904756193293E-002
  -6.6005673944858206E-002   1.9804762919181734E-002   2.1607179480297709E-002
  -6.3478983981001130E-002   1.9041179580182151E-002   2.1676168961793557E-002
  -6.0952294017144026E-002   1.8271167756810369E-002   2.1932873200680603E-002
  -7.6486425981011047E-002   2.2961389408029137E-002   1.5014654043881970E-002
  -7.3771840523929572E-002   2.2129688993714633E-002   1.4715385571855338E-002
  -7.1057255066848013E-002   2.1304493021417126E-002   1.4604193328886420E-002
  -6.8342669609766440E-002   2.0485801491137087E-002   1.4681077314974977E-002
  -6.5628084152684993E-002   1.9673614402874268E-002   1.4946037530121484E-002
  -8.1906845242845042E-002   2.4610134671994008E-002   7.9095227910296155E-003
  -7.9004002820872832E-002   2.3697460213619868E-002   7.6303588066526790E-003
  -7.6101160398900622E-002   2.2804223123652545E-002   7.5396325230000574E-003
  -7.3198317976928440E-002   2.1930423402091719E-002   7.6373439400709876E-003
  -7.0295475554956216E-002   2.1076061048937986E-002   7.9234930578659900E-003
  -8.7320311658074523E-002   2.6258879935958879E-002   7.1695103092306312E-004
  -8.4228850799545341E-002   2.5265231433525548E-002   4.7082446058543947E-004
  -8.1137389941016047E-002   2.4303953225887881E-002   4.1349706263824060E-004
  -7.8045929082486754E-002   2.3375045313047162E-002   5.4496883708107097E-004
  -7.4954468223957571E-002   2.2478507695002148E-002   8.6523978391395140E-004
  -5.6268105148333303E-002   1.6868721110746498E-002   2.8884000069543558E-002
  -5.3928754623006198E-002   1.6135180035930480E-002   2.8553358367641335E-002
  -5.1589404097679009E-002   1.5409591339205594E-002   2.8393373371334046E-002
  -4.9250053572351862E-002   1.4691955020572297E-002   2.8404045080621262E-002
  -4.6910703047024715E-002   1.3982271080030140E-002   2.8585373495503386E-002
  -6.0952294017144026E-002   1.8271167756810369E-002   2.1932873200680603E-002
  -5.8440156875538982E-002   1.7499370515928397E-002   2.1618165156453067E-002
  -5.5928019733933951E-002   1.6730430924398174E-002   2.1478373639186796E-002
  -5.3415882592328885E-002   1.5964348982220208E-002   2.1513498648881253E-002
  -5.0903745450723875E-002   1.5201124689393997E-002   2.1723540185536960E-002
  -6.5628084152684993E-002   1.9673614402874268E-002   1.4946037530121484E-002
  -6.2938900573435666E-002   1.8863560995926384E-002   1.4642168414829126E-002
  -6.0249716994186360E-002   1.8051270509590871E-002   1.4517475647864334E-002
  -5.7560533414937040E-002   1.7236742943868177E-002   1.4571959229226796E-002
  -5.4871349835687727E-002   1.6419978298757854E-002   1.4805619158917094E-002
  -7.0295475554956216E-002   2.1076061048937986E-002   7.9234930578659900E-003
  -6.7424985716696195E-002   2.0227751475924170E-002   7.6253681427693142E-003
  -6.4554495878436202E-002   1.9372110094783564E-002   7.5106793973668765E-003
  -6.1684006040176209E-002   1.8509136905515727E-002   7.5794268216580465E-003
  -5.8813516201916209E-002   1.7638831908121710E-002   7.8316104156435709E-003
  -7.4954468223957571E-002   2.2478507695002148E-002   8.6523978391395140E-004
  -7.1898412305320458E-002   2.1591941955921956E-002   5.6776434027422384E-004
  -6.8842356386683456E-002   2.0692949679976341E-002   4.5798488769463463E-004
  -6.5786300468046344E-002   1.9781530867163992E-002   5.3590142617498254E-004
  -6.2730244549409342E-002   1.8857685517485789E-002   8.0151395571614881E-004
  -4.6910703047024715E-002   1.3982271080030140E-002   2.8585373495503386E-002
  -4.4574881006526040E-002   1.3265259069669855E-002   2.8142877990711856E-002
  -4.2239058966027310E-002   1.2525638541582451E-002   2.7836405457666635E-002
  -3.9903236925528593E-002   1.1763409495767888E-002   2.7665955896367694E-002
  -3.7567414885029932E-002   1.0978571932226289E-002   2.7631529306815006E-002
  -5.0903745450723875E-002   1.5201124689393997E-002   2.1723540185536960E-002
  -4.8425528997600692E-002   1.4434760521601753E-002   2.1296981181853553E-002
  -4.5947312544477481E-002   1.3659258954525563E-002   2.1019188031672853E-002
  -4.3469096091354333E-002   1.2874619988165439E-002   2.0890160734994861E-002
  -4.0990879638231087E-002   1.2080843622521487E-002   2.0909899291819745E-002
  -5.4871349835687727E-002   1.6419978298757854E-002   1.4805619158917094E-002
  -5.2237996088183573E-002   1.5604261973533734E-002   1.4408467774784856E-002
  -4.9604642340679378E-002   1.4792879367468453E-002   1.4172825125911878E-002
  -4.6971288593175238E-002   1.3985830480562657E-002   1.4098691212297926E-002
  -4.4337934845671036E-002   1.3183115312816407E-002   1.4186066033943567E-002
  -5.8813516201916209E-002   1.7638831908121710E-002   7.8316104156435709E-003
  -5.6012282278274553E-002   1.6773763425465618E-002   7.4773377695056577E-003
  -5.3211048354632945E-002   1.5926499780411843E-002   7.2973167403835582E-003
  -5.0409814430991323E-002   1.5097040972960264E-002   7.2915473282772359E-003
  -4.7608580507349681E-002   1.4285387003111466E-002   7.4600295331865227E-003
  -6.2730244549409342E-002   1.8857685517485789E-002   8.0151395571614881E-004
  -5.9748387567873817E-002   1.7943264877397724E-002   5.0359116601622622E-004
  -5.6766530586338182E-002   1.7060120193354289E-002   3.9266287508829545E-004
  -5.3784673604802602E-002   1.6208251465357662E-002   4.6872908293248833E-004
  -5.0802816623267022E-002   1.5387658693406525E-002   7.3178978954901996E-004
  -3.7567414885029932E-002   1.0978571932226289E-002   2.7631529306815006E-002
  -3.5191298609035387E-002   1.0196767547578922E-002   2.7101090591924781E-002
  -3.2815182333040857E-002   9.4436380384482765E-003   2.6694664864616358E-002
  -3.0439066057046348E-002   8.7191834048338801E-003   2.6412252124890123E-002
  -2.8062949781051810E-002   8.0234036467361491E-003   2.6253852372745357E-002
  -4.0990879638231087E-002   1.2080843622521487E-002   2.0909899291819745E-002
  -3.8499763191251729E-002   1.1290054295748808E-002   2.0468750482365572E-002
  -3.6008646744272343E-002   1.0514376446003754E-002   2.0133589027299031E-002
  -3.3517530297292999E-002   9.7538100732863023E-003   1.9904414926620609E-002
  -3.1026413850313600E-002   9.0083551775960169E-003   1.9781228180329680E-002
  -4.4337934845671036E-002   1.3183115312816407E-002   1.4186066033943567E-002
  -4.1749843860900963E-002   1.2383341043918916E-002   1.3820643731436461E-002
  -3.9161752876130801E-002   1.1585114853559453E-002   1.3543183150123123E-002
  -3.6573661891360701E-002   1.0788436741739002E-002   1.3353684290003408E-002
  -3.3985570906590608E-002   9.9933067084563287E-003   1.3252147151077226E-002
  -4.7608580507349681E-002   1.4285387003111466E-002   7.4600295331865227E-003
  -4.4941540617982986E-002   1.3476627792088469E-002   7.1567703391377732E-003
  -4.2274500728616285E-002   1.2655853261114930E-002   6.9234472330883395E-003
  -3.9607460839249611E-002   1.1823063410191063E-002   6.7600602150387906E-003
  -3.6940420949882889E-002   1.0978258239316530E-002   6.6666092849883077E-003
  -5.0802816623267022E-002   1.5387658693406525E-002   7.3178978954901996E-004
  -4.8074853462497957E-002   1.4569914540258688E-002   4.7713030546947532E-004
  -4.5346890301728726E-002   1.3726591668670407E-002   2.7438127619483499E-004
  -4.2618927140959550E-002   1.2857690078643735E-002   1.2354270172601489E-004
  -3.9890963980190430E-002   1.1963209770176730E-002   2.4614582062487678E-005
  -2.8062949781051810E-002   8.0234036467361491E-003   2.6253852372745357E-002
  -2.5715952793648411E-002   7.3117079330796142E-003   2.5671925701618803E-002
  -2.3368955806245026E-002   6.5395054327903879E-003   2.5036731480341690E-002
  -2.1021958818841606E-002   5.7067961458683383E-003   2.4348269708914294E-002
  -1.8674961831438242E-002   4.8135800723128064E-003   2.3606540387336783E-002
  -3.1026413850313600E-002   9.0083551775960169E-003   1.9781228180329680E-002
  -2.8714768953511105E-002   8.2676464477411948E-003   1.9188461015742064E-002
  -2.6403124056708707E-002   7.5213185725289400E-003   1.8578257220102729E-002
  -2.4091479159906247E-002   6.7693715519598976E-003   1.7950616793411908E-002
  -2.1779834263103759E-002   6.0118053860338527E-003   1.7305539735669451E-002
  -3.3985570906590608E-002   9.9933067084563287E-003   1.3252147151077226E-002
  -3.1673447181290379E-002   9.2235849624024147E-003   1.2703427134304890E-002
  -2.9361323455990160E-002   8.5031317122677003E-003   1.2173101405579187E-002
  -2.7049199730689991E-002   7.8319469580518976E-003   1.1661169964900721E-002
  -2.4737076005389824E-002   7.2100306997548991E-003   1.1167632812269401E-002
  -3.6940420949882889E-002   1.0978258239316530E-002   6.6666092849883077E-003
  -3.4591987476986261E-002   1.0179523477064092E-002   6.2168240573064679E-003
  -3.2243554004089570E-002   9.4849448520069116E-003   5.8212640367705341E-003
  -2.9895120531192920E-002   8.8945223641437882E-003   5.4799292233806054E-003
  -2.7546687058296260E-002   8.4082560134759454E-003   5.1928196171363711E-003
  -3.9890963980190430E-002   1.1963209770176730E-002   2.4614582062487678E-005
  -3.7470389840598584E-002   1.1135461991725659E-002  -2.7134821525220953E-004
  -3.5049815701006848E-002   1.0466757991744791E-002  -4.7725488632213708E-004
  -3.2629241561415057E-002   9.9570977702359564E-003  -5.9310543114838438E-004
  -3.0208667421823265E-002   9.6064813271972138E-003  -6.1889984972984813E-004
  -1.8674961831438242E-002   4.8135800723128064E-003   2.3606540387336783E-002
  -1.5652411799131738E-002   4.0801655660445135E-003   2.4393442599758730E-002
  -1.2629861766825262E-002   3.7268609809831543E-003   2.5654216519218953E-002
  -9.6073117345187725E-003   3.7536663171292214E-003   2.7388862145717618E-002
  -6.5847617022122829E-003   4.1605815744826247E-003   2.9597379479254449E-002
  -2.1779834263103759E-002   6.0118053860338527E-003   1.7305539735669451E-002
  -1.8552888682292282E-002   5.3433942585788263E-003   1.8252616050690784E-002
  -1.5325943101480902E-002   4.8589123534232836E-003   1.9134611755683761E-002
  -1.2098997520669411E-002   4.5583596705676688E-003   1.9951526850648327E-002
  -8.8720519398579334E-003   4.4417362100109825E-003   2.0703361335584147E-002
  -2.4737076005389824E-002   7.2100306997548991E-003   1.1167632812269401E-002
  -2.1844687193140158E-002   6.6066229511135832E-003   1.2078702530982421E-002
  -1.8952298380890541E-002   5.9909637258636489E-003   1.2385739322600411E-002
  -1.6059909568640948E-002   5.3630530240063416E-003   1.2088743187123240E-002
  -1.3167520756391313E-002   4.7228908455399510E-003   1.1187714124550691E-002
  -2.7546687058296260E-002   8.4082560134759454E-003   5.1928196171363711E-003
  -2.5527807331675263E-002   7.8698516436475074E-003   5.8717020406337389E-003
  -2.3508927605054207E-002   7.1230150983041182E-003   5.4075992199692884E-003
  -2.1490047878433189E-002   6.1677463774441246E-003   3.8005111551427228E-003
  -1.9471168151812154E-002   5.0040454810687252E-003   1.0504378461542938E-003
  -3.0208667421823265E-002   9.6064813271972138E-003  -6.1889984972984813E-004
  -2.9602249097897659E-002   9.1330803361825419E-003  -3.6838542035572130E-004
  -2.8995830773971942E-002   8.2550664707437549E-003  -1.7998085522103469E-003
  -2.8389412450046253E-002   6.9724397308830316E-003  -4.9131692452939885E-003
  -2.7782994126120619E-002   5.2852001165972773E-003  -9.7084674996061882E-003
  -6.5847617022122829E-003   4.1605815744826247E-003   2.9597379479254449E-002
  -6.0566085173733297E-003   6.1424863977098676E-003   3.4075666159331330E-002
  -5.5284553325343488E-003   1.0894260431479591E-002   3.9238807485852900E-002
  -5.0003021476953818E-003   1.8415903675790470E-002   4.5086803458819963E-002
  -4.4721489628564148E-003   2.8707416130642649E-002   5.1619654078231658E-002
  -8.8720519398579334E-003   4.4417362100109825E-003   2.0703361335584147E-002
  -7.5865336541510869E-003   5.6588028414969460E-003   2.5872639977359668E-002
  -6.3010153684441711E-003   9.3593204347677816E-003   3.1871794174425705E-002
  -5.0154970827371442E-003   1.5543288989823670E-002   3.8700823926782424E-002
  -3.7299787970304088E-003   2.4210708506664291E-002   4.6359729234430436E-002
  -1.3167520756391313E-002   4.7228908455399510E-003   1.1187714124550691E-002
  -1.0979616460970690E-002   5.1751192852843020E-003   1.6761566479268103E-002
  -8.7917121655499766E-003   7.8243804380565135E-003   2.3310315298121845E-002
  -6.6038078701293919E-003   1.2670674303857255E-002   3.0833960581112228E-002
  -4.4159035747087516E-003   1.9714000882685934E-002   3.9332502328238927E-002
  -1.9471168151812154E-002   5.0040454810687252E-003   1.0504378461542938E-003
  -1.6235856937832072E-002   4.6914357290711861E-003   6.7424456650563083E-003
  -1.3000545723851934E-002   6.2894404413450858E-003   1.3554370856940921E-002
  -9.7652345098717952E-003   9.7980596178906480E-003   2.1486213421807995E-002
  -6.5299232958917139E-003   1.5217293258707576E-002   3.0537973359656939E-002
  -2.7782994126120619E-002   5.2852001165972773E-003  -9.7084674996061882E-003
  -2.3355255084735349E-002   4.2077521728580702E-003  -4.1847224652752368E-003
  -1.8927516043350023E-002   4.7545004446341022E-003   2.6039608508833245E-003
  -1.4499777001964698E-002   6.9254449319245404E-003   1.0657582448869801E-002
  -1.0072037960579427E-002   1.0720585634729218E-002   1.9976142328685054E-002
 </DataArray>
 </PointData>
 </Piece>
 </UnstructuredGrid>
 </VTKFile>
