 <VTKFile type="UnstructuredGrid"  version="0.1"   >
 <UnstructuredGrid>
 <Piece  NumberOfPoints="          1600 "  NumberOfCells="         1024 ">
 <Points>
 <DataArray  type="Float64" NumberOfComponents="3"  format="ascii" >
   0.0000000000000000        0.0000000000000000        0.0000000000000000     
   3.1250000000000000E-002   0.0000000000000000        0.0000000000000000     
   6.2500000000000000E-002   0.0000000000000000        0.0000000000000000     
   9.3750000000000000E-002   0.0000000000000000        0.0000000000000000     
  0.12500000000000000        0.0000000000000000        0.0000000000000000     
   0.0000000000000000        3.1250000000000000E-002   0.0000000000000000     
   3.1250000000000000E-002   3.1250000000000000E-002   0.0000000000000000     
   6.2500000000000000E-002   3.1250000000000000E-002   0.0000000000000000     
   9.3750000000000000E-002   3.1250000000000000E-002   0.0000000000000000     
  0.12500000000000000        3.1250000000000000E-002   0.0000000000000000     
   0.0000000000000000        6.2500000000000000E-002   0.0000000000000000     
   3.1250000000000000E-002   6.2500000000000000E-002   0.0000000000000000     
   6.2500000000000000E-002   6.2500000000000000E-002   0.0000000000000000     
   9.3750000000000000E-002   6.2500000000000000E-002   0.0000000000000000     
  0.12500000000000000        6.2500000000000000E-002   0.0000000000000000     
   0.0000000000000000        9.3750000000000000E-002   0.0000000000000000     
   3.1250000000000000E-002   9.3750000000000000E-002   0.0000000000000000     
   6.2500000000000000E-002   9.3750000000000000E-002   0.0000000000000000     
   9.3750000000000000E-002   9.3750000000000000E-002   0.0000000000000000     
  0.12500000000000000        9.3750000000000000E-002   0.0000000000000000     
   0.0000000000000000       0.12500000000000000        0.0000000000000000     
   3.1250000000000000E-002  0.12500000000000000        0.0000000000000000     
   6.2500000000000000E-002  0.12500000000000000        0.0000000000000000     
   9.3750000000000000E-002  0.12500000000000000        0.0000000000000000     
  0.12500000000000000       0.12500000000000000        0.0000000000000000     
  0.12500000000000000        0.0000000000000000        0.0000000000000000     
  0.15625000000000000        0.0000000000000000        0.0000000000000000     
  0.18750000000000000        0.0000000000000000        0.0000000000000000     
  0.21875000000000000        0.0000000000000000        0.0000000000000000     
  0.25000000000000000        0.0000000000000000        0.0000000000000000     
  0.12500000000000000        3.1250000000000000E-002   0.0000000000000000     
  0.15625000000000000        3.1250000000000000E-002   0.0000000000000000     
  0.18750000000000000        3.1250000000000000E-002   0.0000000000000000     
  0.21875000000000000        3.1250000000000000E-002   0.0000000000000000     
  0.25000000000000000        3.1250000000000000E-002   0.0000000000000000     
  0.12500000000000000        6.2500000000000000E-002   0.0000000000000000     
  0.15625000000000000        6.2500000000000000E-002   0.0000000000000000     
  0.18750000000000000        6.2500000000000000E-002   0.0000000000000000     
  0.21875000000000000        6.2500000000000000E-002   0.0000000000000000     
  0.25000000000000000        6.2500000000000000E-002   0.0000000000000000     
  0.12500000000000000        9.3750000000000000E-002   0.0000000000000000     
  0.15625000000000000        9.3750000000000000E-002   0.0000000000000000     
  0.18750000000000000        9.3750000000000000E-002   0.0000000000000000     
  0.21875000000000000        9.3750000000000000E-002   0.0000000000000000     
  0.25000000000000000        9.3750000000000000E-002   0.0000000000000000     
  0.12500000000000000       0.12500000000000000        0.0000000000000000     
  0.15625000000000000       0.12500000000000000        0.0000000000000000     
  0.18750000000000000       0.12500000000000000        0.0000000000000000     
  0.21875000000000000       0.12500000000000000        0.0000000000000000     
  0.25000000000000000       0.12500000000000000        0.0000000000000000     
  0.25000000000000000        0.0000000000000000        0.0000000000000000     
  0.28125000000000000        0.0000000000000000        0.0000000000000000     
  0.31250000000000000        0.0000000000000000        0.0000000000000000     
  0.34375000000000000        0.0000000000000000        0.0000000000000000     
  0.37500000000000000        0.0000000000000000        0.0000000000000000     
  0.25000000000000000        3.1250000000000000E-002   0.0000000000000000     
  0.28125000000000000        3.1250000000000000E-002   0.0000000000000000     
  0.31250000000000000        3.1250000000000000E-002   0.0000000000000000     
  0.34375000000000000        3.1250000000000000E-002   0.0000000000000000     
  0.37500000000000000        3.1250000000000000E-002   0.0000000000000000     
  0.25000000000000000        6.2500000000000000E-002   0.0000000000000000     
  0.28125000000000000        6.2500000000000000E-002   0.0000000000000000     
  0.31250000000000000        6.2500000000000000E-002   0.0000000000000000     
  0.34375000000000000        6.2500000000000000E-002   0.0000000000000000     
  0.37500000000000000        6.2500000000000000E-002   0.0000000000000000     
  0.25000000000000000        9.3750000000000000E-002   0.0000000000000000     
  0.28125000000000000        9.3750000000000000E-002   0.0000000000000000     
  0.31250000000000000        9.3750000000000000E-002   0.0000000000000000     
  0.34375000000000000        9.3750000000000000E-002   0.0000000000000000     
  0.37500000000000000        9.3750000000000000E-002   0.0000000000000000     
  0.25000000000000000       0.12500000000000000        0.0000000000000000     
  0.28125000000000000       0.12500000000000000        0.0000000000000000     
  0.31250000000000000       0.12500000000000000        0.0000000000000000     
  0.34375000000000000       0.12500000000000000        0.0000000000000000     
  0.37500000000000000       0.12500000000000000        0.0000000000000000     
  0.37500000000000000        0.0000000000000000        0.0000000000000000     
  0.40625000000000000        0.0000000000000000        0.0000000000000000     
  0.43750000000000000        0.0000000000000000        0.0000000000000000     
  0.46875000000000000        0.0000000000000000        0.0000000000000000     
  0.50000000000000000        0.0000000000000000        0.0000000000000000     
  0.37500000000000000        3.1250000000000000E-002   0.0000000000000000     
  0.40625000000000000        3.1250000000000000E-002   0.0000000000000000     
  0.43750000000000000        3.1250000000000000E-002   0.0000000000000000     
  0.46875000000000000        3.1250000000000000E-002   0.0000000000000000     
  0.50000000000000000        3.1250000000000000E-002   0.0000000000000000     
  0.37500000000000000        6.2500000000000000E-002   0.0000000000000000     
  0.40625000000000000        6.2500000000000000E-002   0.0000000000000000     
  0.43750000000000000        6.2500000000000000E-002   0.0000000000000000     
  0.46875000000000000        6.2500000000000000E-002   0.0000000000000000     
  0.50000000000000000        6.2500000000000000E-002   0.0000000000000000     
  0.37500000000000000        9.3750000000000000E-002   0.0000000000000000     
  0.40625000000000000        9.3750000000000000E-002   0.0000000000000000     
  0.43750000000000000        9.3750000000000000E-002   0.0000000000000000     
  0.46875000000000000        9.3750000000000000E-002   0.0000000000000000     
  0.50000000000000000        9.3750000000000000E-002   0.0000000000000000     
  0.37500000000000000       0.12500000000000000        0.0000000000000000     
  0.40625000000000000       0.12500000000000000        0.0000000000000000     
  0.43750000000000000       0.12500000000000000        0.0000000000000000     
  0.46875000000000000       0.12500000000000000        0.0000000000000000     
  0.50000000000000000       0.12500000000000000        0.0000000000000000     
  0.50000000000000000        0.0000000000000000        0.0000000000000000     
  0.53125000000000000        0.0000000000000000        0.0000000000000000     
  0.56250000000000000        0.0000000000000000        0.0000000000000000     
  0.59375000000000000        0.0000000000000000        0.0000000000000000     
  0.62500000000000000        0.0000000000000000        0.0000000000000000     
  0.50000000000000000        3.1250000000000000E-002   0.0000000000000000     
  0.53125000000000000        3.1250000000000000E-002   0.0000000000000000     
  0.56250000000000000        3.1250000000000000E-002   0.0000000000000000     
  0.59375000000000000        3.1250000000000000E-002   0.0000000000000000     
  0.62500000000000000        3.1250000000000000E-002   0.0000000000000000     
  0.50000000000000000        6.2500000000000000E-002   0.0000000000000000     
  0.53125000000000000        6.2500000000000000E-002   0.0000000000000000     
  0.56250000000000000        6.2500000000000000E-002   0.0000000000000000     
  0.59375000000000000        6.2500000000000000E-002   0.0000000000000000     
  0.62500000000000000        6.2500000000000000E-002   0.0000000000000000     
  0.50000000000000000        9.3750000000000000E-002   0.0000000000000000     
  0.53125000000000000        9.3750000000000000E-002   0.0000000000000000     
  0.56250000000000000        9.3750000000000000E-002   0.0000000000000000     
  0.59375000000000000        9.3750000000000000E-002   0.0000000000000000     
  0.62500000000000000        9.3750000000000000E-002   0.0000000000000000     
  0.50000000000000000       0.12500000000000000        0.0000000000000000     
  0.53125000000000000       0.12500000000000000        0.0000000000000000     
  0.56250000000000000       0.12500000000000000        0.0000000000000000     
  0.59375000000000000       0.12500000000000000        0.0000000000000000     
  0.62500000000000000       0.12500000000000000        0.0000000000000000     
  0.62500000000000000        0.0000000000000000        0.0000000000000000     
  0.65625000000000000        0.0000000000000000        0.0000000000000000     
  0.68750000000000000        0.0000000000000000        0.0000000000000000     
  0.71875000000000000        0.0000000000000000        0.0000000000000000     
  0.75000000000000000        0.0000000000000000        0.0000000000000000     
  0.62500000000000000        3.1250000000000000E-002   0.0000000000000000     
  0.65625000000000000        3.1250000000000000E-002   0.0000000000000000     
  0.68750000000000000        3.1250000000000000E-002   0.0000000000000000     
  0.71875000000000000        3.1250000000000000E-002   0.0000000000000000     
  0.75000000000000000        3.1250000000000000E-002   0.0000000000000000     
  0.62500000000000000        6.2500000000000000E-002   0.0000000000000000     
  0.65625000000000000        6.2500000000000000E-002   0.0000000000000000     
  0.68750000000000000        6.2500000000000000E-002   0.0000000000000000     
  0.71875000000000000        6.2500000000000000E-002   0.0000000000000000     
  0.75000000000000000        6.2500000000000000E-002   0.0000000000000000     
  0.62500000000000000        9.3750000000000000E-002   0.0000000000000000     
  0.65625000000000000        9.3750000000000000E-002   0.0000000000000000     
  0.68750000000000000        9.3750000000000000E-002   0.0000000000000000     
  0.71875000000000000        9.3750000000000000E-002   0.0000000000000000     
  0.75000000000000000        9.3750000000000000E-002   0.0000000000000000     
  0.62500000000000000       0.12500000000000000        0.0000000000000000     
  0.65625000000000000       0.12500000000000000        0.0000000000000000     
  0.68750000000000000       0.12500000000000000        0.0000000000000000     
  0.71875000000000000       0.12500000000000000        0.0000000000000000     
  0.75000000000000000       0.12500000000000000        0.0000000000000000     
  0.75000000000000000        0.0000000000000000        0.0000000000000000     
  0.78125000000000000        0.0000000000000000        0.0000000000000000     
  0.81250000000000000        0.0000000000000000        0.0000000000000000     
  0.84375000000000000        0.0000000000000000        0.0000000000000000     
  0.87500000000000000        0.0000000000000000        0.0000000000000000     
  0.75000000000000000        3.1250000000000000E-002   0.0000000000000000     
  0.78125000000000000        3.1250000000000000E-002   0.0000000000000000     
  0.81250000000000000        3.1250000000000000E-002   0.0000000000000000     
  0.84375000000000000        3.1250000000000000E-002   0.0000000000000000     
  0.87500000000000000        3.1250000000000000E-002   0.0000000000000000     
  0.75000000000000000        6.2500000000000000E-002   0.0000000000000000     
  0.78125000000000000        6.2500000000000000E-002   0.0000000000000000     
  0.81250000000000000        6.2500000000000000E-002   0.0000000000000000     
  0.84375000000000000        6.2500000000000000E-002   0.0000000000000000     
  0.87500000000000000        6.2500000000000000E-002   0.0000000000000000     
  0.75000000000000000        9.3750000000000000E-002   0.0000000000000000     
  0.78125000000000000        9.3750000000000000E-002   0.0000000000000000     
  0.81250000000000000        9.3750000000000000E-002   0.0000000000000000     
  0.84375000000000000        9.3750000000000000E-002   0.0000000000000000     
  0.87500000000000000        9.3750000000000000E-002   0.0000000000000000     
  0.75000000000000000       0.12500000000000000        0.0000000000000000     
  0.78125000000000000       0.12500000000000000        0.0000000000000000     
  0.81250000000000000       0.12500000000000000        0.0000000000000000     
  0.84375000000000000       0.12500000000000000        0.0000000000000000     
  0.87500000000000000       0.12500000000000000        0.0000000000000000     
  0.87500000000000000        0.0000000000000000        0.0000000000000000     
  0.90625000000000000        0.0000000000000000        0.0000000000000000     
  0.93750000000000000        0.0000000000000000        0.0000000000000000     
  0.96875000000000000        0.0000000000000000        0.0000000000000000     
   1.0000000000000000        0.0000000000000000        0.0000000000000000     
  0.87500000000000000        3.1250000000000000E-002   0.0000000000000000     
  0.90625000000000000        3.1250000000000000E-002   0.0000000000000000     
  0.93750000000000000        3.1250000000000000E-002   0.0000000000000000     
  0.96875000000000000        3.1250000000000000E-002   0.0000000000000000     
   1.0000000000000000        3.1250000000000000E-002   0.0000000000000000     
  0.87500000000000000        6.2500000000000000E-002   0.0000000000000000     
  0.90625000000000000        6.2500000000000000E-002   0.0000000000000000     
  0.93750000000000000        6.2500000000000000E-002   0.0000000000000000     
  0.96875000000000000        6.2500000000000000E-002   0.0000000000000000     
   1.0000000000000000        6.2500000000000000E-002   0.0000000000000000     
  0.87500000000000000        9.3750000000000000E-002   0.0000000000000000     
  0.90625000000000000        9.3750000000000000E-002   0.0000000000000000     
  0.93750000000000000        9.3750000000000000E-002   0.0000000000000000     
  0.96875000000000000        9.3750000000000000E-002   0.0000000000000000     
   1.0000000000000000        9.3750000000000000E-002   0.0000000000000000     
  0.87500000000000000       0.12500000000000000        0.0000000000000000     
  0.90625000000000000       0.12500000000000000        0.0000000000000000     
  0.93750000000000000       0.12500000000000000        0.0000000000000000     
  0.96875000000000000       0.12500000000000000        0.0000000000000000     
   1.0000000000000000       0.12500000000000000        0.0000000000000000     
   0.0000000000000000       0.12500000000000000        0.0000000000000000     
   3.1250000000000000E-002  0.12500000000000000        0.0000000000000000     
   6.2500000000000000E-002  0.12500000000000000        0.0000000000000000     
   9.3750000000000000E-002  0.12500000000000000        0.0000000000000000     
  0.12500000000000000       0.12500000000000000        0.0000000000000000     
   0.0000000000000000       0.15625000000000000        0.0000000000000000     
   3.1250000000000000E-002  0.15625000000000000        0.0000000000000000     
   6.2500000000000000E-002  0.15625000000000000        0.0000000000000000     
   9.3750000000000000E-002  0.15625000000000000        0.0000000000000000     
  0.12500000000000000       0.15625000000000000        0.0000000000000000     
   0.0000000000000000       0.18750000000000000        0.0000000000000000     
   3.1250000000000000E-002  0.18750000000000000        0.0000000000000000     
   6.2500000000000000E-002  0.18750000000000000        0.0000000000000000     
   9.3750000000000000E-002  0.18750000000000000        0.0000000000000000     
  0.12500000000000000       0.18750000000000000        0.0000000000000000     
   0.0000000000000000       0.21875000000000000        0.0000000000000000     
   3.1250000000000000E-002  0.21875000000000000        0.0000000000000000     
   6.2500000000000000E-002  0.21875000000000000        0.0000000000000000     
   9.3750000000000000E-002  0.21875000000000000        0.0000000000000000     
  0.12500000000000000       0.21875000000000000        0.0000000000000000     
   0.0000000000000000       0.25000000000000000        0.0000000000000000     
   3.1250000000000000E-002  0.25000000000000000        0.0000000000000000     
   6.2500000000000000E-002  0.25000000000000000        0.0000000000000000     
   9.3750000000000000E-002  0.25000000000000000        0.0000000000000000     
  0.12500000000000000       0.25000000000000000        0.0000000000000000     
  0.12500000000000000       0.12500000000000000        0.0000000000000000     
  0.15625000000000000       0.12500000000000000        0.0000000000000000     
  0.18750000000000000       0.12500000000000000        0.0000000000000000     
  0.21875000000000000       0.12500000000000000        0.0000000000000000     
  0.25000000000000000       0.12500000000000000        0.0000000000000000     
  0.12500000000000000       0.15625000000000000        0.0000000000000000     
  0.15625000000000000       0.15625000000000000        0.0000000000000000     
  0.18750000000000000       0.15625000000000000        0.0000000000000000     
  0.21875000000000000       0.15625000000000000        0.0000000000000000     
  0.25000000000000000       0.15625000000000000        0.0000000000000000     
  0.12500000000000000       0.18750000000000000        0.0000000000000000     
  0.15625000000000000       0.18750000000000000        0.0000000000000000     
  0.18750000000000000       0.18750000000000000        0.0000000000000000     
  0.21875000000000000       0.18750000000000000        0.0000000000000000     
  0.25000000000000000       0.18750000000000000        0.0000000000000000     
  0.12500000000000000       0.21875000000000000        0.0000000000000000     
  0.15625000000000000       0.21875000000000000        0.0000000000000000     
  0.18750000000000000       0.21875000000000000        0.0000000000000000     
  0.21875000000000000       0.21875000000000000        0.0000000000000000     
  0.25000000000000000       0.21875000000000000        0.0000000000000000     
  0.12500000000000000       0.25000000000000000        0.0000000000000000     
  0.15625000000000000       0.25000000000000000        0.0000000000000000     
  0.18750000000000000       0.25000000000000000        0.0000000000000000     
  0.21875000000000000       0.25000000000000000        0.0000000000000000     
  0.25000000000000000       0.25000000000000000        0.0000000000000000     
  0.25000000000000000       0.12500000000000000        0.0000000000000000     
  0.28125000000000000       0.12500000000000000        0.0000000000000000     
  0.31250000000000000       0.12500000000000000        0.0000000000000000     
  0.34375000000000000       0.12500000000000000        0.0000000000000000     
  0.37500000000000000       0.12500000000000000        0.0000000000000000     
  0.25000000000000000       0.15625000000000000        0.0000000000000000     
  0.28125000000000000       0.15625000000000000        0.0000000000000000     
  0.31250000000000000       0.15625000000000000        0.0000000000000000     
  0.34375000000000000       0.15625000000000000        0.0000000000000000     
  0.37500000000000000       0.15625000000000000        0.0000000000000000     
  0.25000000000000000       0.18750000000000000        0.0000000000000000     
  0.28125000000000000       0.18750000000000000        0.0000000000000000     
  0.31250000000000000       0.18750000000000000        0.0000000000000000     
  0.34375000000000000       0.18750000000000000        0.0000000000000000     
  0.37500000000000000       0.18750000000000000        0.0000000000000000     
  0.25000000000000000       0.21875000000000000        0.0000000000000000     
  0.28125000000000000       0.21875000000000000        0.0000000000000000     
  0.31250000000000000       0.21875000000000000        0.0000000000000000     
  0.34375000000000000       0.21875000000000000        0.0000000000000000     
  0.37500000000000000       0.21875000000000000        0.0000000000000000     
  0.25000000000000000       0.25000000000000000        0.0000000000000000     
  0.28125000000000000       0.25000000000000000        0.0000000000000000     
  0.31250000000000000       0.25000000000000000        0.0000000000000000     
  0.34375000000000000       0.25000000000000000        0.0000000000000000     
  0.37500000000000000       0.25000000000000000        0.0000000000000000     
  0.37500000000000000       0.12500000000000000        0.0000000000000000     
  0.40625000000000000       0.12500000000000000        0.0000000000000000     
  0.43750000000000000       0.12500000000000000        0.0000000000000000     
  0.46875000000000000       0.12500000000000000        0.0000000000000000     
  0.50000000000000000       0.12500000000000000        0.0000000000000000     
  0.37500000000000000       0.15625000000000000        0.0000000000000000     
  0.40625000000000000       0.15625000000000000        0.0000000000000000     
  0.43750000000000000       0.15625000000000000        0.0000000000000000     
  0.46875000000000000       0.15625000000000000        0.0000000000000000     
  0.50000000000000000       0.15625000000000000        0.0000000000000000     
  0.37500000000000000       0.18750000000000000        0.0000000000000000     
  0.40625000000000000       0.18750000000000000        0.0000000000000000     
  0.43750000000000000       0.18750000000000000        0.0000000000000000     
  0.46875000000000000       0.18750000000000000        0.0000000000000000     
  0.50000000000000000       0.18750000000000000        0.0000000000000000     
  0.37500000000000000       0.21875000000000000        0.0000000000000000     
  0.40625000000000000       0.21875000000000000        0.0000000000000000     
  0.43750000000000000       0.21875000000000000        0.0000000000000000     
  0.46875000000000000       0.21875000000000000        0.0000000000000000     
  0.50000000000000000       0.21875000000000000        0.0000000000000000     
  0.37500000000000000       0.25000000000000000        0.0000000000000000     
  0.40625000000000000       0.25000000000000000        0.0000000000000000     
  0.43750000000000000       0.25000000000000000        0.0000000000000000     
  0.46875000000000000       0.25000000000000000        0.0000000000000000     
  0.50000000000000000       0.25000000000000000        0.0000000000000000     
  0.50000000000000000       0.12500000000000000        0.0000000000000000     
  0.53125000000000000       0.12500000000000000        0.0000000000000000     
  0.56250000000000000       0.12500000000000000        0.0000000000000000     
  0.59375000000000000       0.12500000000000000        0.0000000000000000     
  0.62500000000000000       0.12500000000000000        0.0000000000000000     
  0.50000000000000000       0.15625000000000000        0.0000000000000000     
  0.53125000000000000       0.15625000000000000        0.0000000000000000     
  0.56250000000000000       0.15625000000000000        0.0000000000000000     
  0.59375000000000000       0.15625000000000000        0.0000000000000000     
  0.62500000000000000       0.15625000000000000        0.0000000000000000     
  0.50000000000000000       0.18750000000000000        0.0000000000000000     
  0.53125000000000000       0.18750000000000000        0.0000000000000000     
  0.56250000000000000       0.18750000000000000        0.0000000000000000     
  0.59375000000000000       0.18750000000000000        0.0000000000000000     
  0.62500000000000000       0.18750000000000000        0.0000000000000000     
  0.50000000000000000       0.21875000000000000        0.0000000000000000     
  0.53125000000000000       0.21875000000000000        0.0000000000000000     
  0.56250000000000000       0.21875000000000000        0.0000000000000000     
  0.59375000000000000       0.21875000000000000        0.0000000000000000     
  0.62500000000000000       0.21875000000000000        0.0000000000000000     
  0.50000000000000000       0.25000000000000000        0.0000000000000000     
  0.53125000000000000       0.25000000000000000        0.0000000000000000     
  0.56250000000000000       0.25000000000000000        0.0000000000000000     
  0.59375000000000000       0.25000000000000000        0.0000000000000000     
  0.62500000000000000       0.25000000000000000        0.0000000000000000     
  0.62500000000000000       0.12500000000000000        0.0000000000000000     
  0.65625000000000000       0.12500000000000000        0.0000000000000000     
  0.68750000000000000       0.12500000000000000        0.0000000000000000     
  0.71875000000000000       0.12500000000000000        0.0000000000000000     
  0.75000000000000000       0.12500000000000000        0.0000000000000000     
  0.62500000000000000       0.15625000000000000        0.0000000000000000     
  0.65625000000000000       0.15625000000000000        0.0000000000000000     
  0.68750000000000000       0.15625000000000000        0.0000000000000000     
  0.71875000000000000       0.15625000000000000        0.0000000000000000     
  0.75000000000000000       0.15625000000000000        0.0000000000000000     
  0.62500000000000000       0.18750000000000000        0.0000000000000000     
  0.65625000000000000       0.18750000000000000        0.0000000000000000     
  0.68750000000000000       0.18750000000000000        0.0000000000000000     
  0.71875000000000000       0.18750000000000000        0.0000000000000000     
  0.75000000000000000       0.18750000000000000        0.0000000000000000     
  0.62500000000000000       0.21875000000000000        0.0000000000000000     
  0.65625000000000000       0.21875000000000000        0.0000000000000000     
  0.68750000000000000       0.21875000000000000        0.0000000000000000     
  0.71875000000000000       0.21875000000000000        0.0000000000000000     
  0.75000000000000000       0.21875000000000000        0.0000000000000000     
  0.62500000000000000       0.25000000000000000        0.0000000000000000     
  0.65625000000000000       0.25000000000000000        0.0000000000000000     
  0.68750000000000000       0.25000000000000000        0.0000000000000000     
  0.71875000000000000       0.25000000000000000        0.0000000000000000     
  0.75000000000000000       0.25000000000000000        0.0000000000000000     
  0.75000000000000000       0.12500000000000000        0.0000000000000000     
  0.78125000000000000       0.12500000000000000        0.0000000000000000     
  0.81250000000000000       0.12500000000000000        0.0000000000000000     
  0.84375000000000000       0.12500000000000000        0.0000000000000000     
  0.87500000000000000       0.12500000000000000        0.0000000000000000     
  0.75000000000000000       0.15625000000000000        0.0000000000000000     
  0.78125000000000000       0.15625000000000000        0.0000000000000000     
  0.81250000000000000       0.15625000000000000        0.0000000000000000     
  0.84375000000000000       0.15625000000000000        0.0000000000000000     
  0.87500000000000000       0.15625000000000000        0.0000000000000000     
  0.75000000000000000       0.18750000000000000        0.0000000000000000     
  0.78125000000000000       0.18750000000000000        0.0000000000000000     
  0.81250000000000000       0.18750000000000000        0.0000000000000000     
  0.84375000000000000       0.18750000000000000        0.0000000000000000     
  0.87500000000000000       0.18750000000000000        0.0000000000000000     
  0.75000000000000000       0.21875000000000000        0.0000000000000000     
  0.78125000000000000       0.21875000000000000        0.0000000000000000     
  0.81250000000000000       0.21875000000000000        0.0000000000000000     
  0.84375000000000000       0.21875000000000000        0.0000000000000000     
  0.87500000000000000       0.21875000000000000        0.0000000000000000     
  0.75000000000000000       0.25000000000000000        0.0000000000000000     
  0.78125000000000000       0.25000000000000000        0.0000000000000000     
  0.81250000000000000       0.25000000000000000        0.0000000000000000     
  0.84375000000000000       0.25000000000000000        0.0000000000000000     
  0.87500000000000000       0.25000000000000000        0.0000000000000000     
  0.87500000000000000       0.12500000000000000        0.0000000000000000     
  0.90625000000000000       0.12500000000000000        0.0000000000000000     
  0.93750000000000000       0.12500000000000000        0.0000000000000000     
  0.96875000000000000       0.12500000000000000        0.0000000000000000     
   1.0000000000000000       0.12500000000000000        0.0000000000000000     
  0.87500000000000000       0.15625000000000000        0.0000000000000000     
  0.90625000000000000       0.15625000000000000        0.0000000000000000     
  0.93750000000000000       0.15625000000000000        0.0000000000000000     
  0.96875000000000000       0.15625000000000000        0.0000000000000000     
   1.0000000000000000       0.15625000000000000        0.0000000000000000     
  0.87500000000000000       0.18750000000000000        0.0000000000000000     
  0.90625000000000000       0.18750000000000000        0.0000000000000000     
  0.93750000000000000       0.18750000000000000        0.0000000000000000     
  0.96875000000000000       0.18750000000000000        0.0000000000000000     
   1.0000000000000000       0.18750000000000000        0.0000000000000000     
  0.87500000000000000       0.21875000000000000        0.0000000000000000     
  0.90625000000000000       0.21875000000000000        0.0000000000000000     
  0.93750000000000000       0.21875000000000000        0.0000000000000000     
  0.96875000000000000       0.21875000000000000        0.0000000000000000     
   1.0000000000000000       0.21875000000000000        0.0000000000000000     
  0.87500000000000000       0.25000000000000000        0.0000000000000000     
  0.90625000000000000       0.25000000000000000        0.0000000000000000     
  0.93750000000000000       0.25000000000000000        0.0000000000000000     
  0.96875000000000000       0.25000000000000000        0.0000000000000000     
   1.0000000000000000       0.25000000000000000        0.0000000000000000     
   0.0000000000000000       0.25000000000000000        0.0000000000000000     
   3.1250000000000000E-002  0.25000000000000000        0.0000000000000000     
   6.2500000000000000E-002  0.25000000000000000        0.0000000000000000     
   9.3750000000000000E-002  0.25000000000000000        0.0000000000000000     
  0.12500000000000000       0.25000000000000000        0.0000000000000000     
   0.0000000000000000       0.28125000000000000        0.0000000000000000     
   3.1250000000000000E-002  0.28125000000000000        0.0000000000000000     
   6.2500000000000000E-002  0.28125000000000000        0.0000000000000000     
   9.3750000000000000E-002  0.28125000000000000        0.0000000000000000     
  0.12500000000000000       0.28125000000000000        0.0000000000000000     
   0.0000000000000000       0.31250000000000000        0.0000000000000000     
   3.1250000000000000E-002  0.31250000000000000        0.0000000000000000     
   6.2500000000000000E-002  0.31250000000000000        0.0000000000000000     
   9.3750000000000000E-002  0.31250000000000000        0.0000000000000000     
  0.12500000000000000       0.31250000000000000        0.0000000000000000     
   0.0000000000000000       0.34375000000000000        0.0000000000000000     
   3.1250000000000000E-002  0.34375000000000000        0.0000000000000000     
   6.2500000000000000E-002  0.34375000000000000        0.0000000000000000     
   9.3750000000000000E-002  0.34375000000000000        0.0000000000000000     
  0.12500000000000000       0.34375000000000000        0.0000000000000000     
   0.0000000000000000       0.37500000000000000        0.0000000000000000     
   3.1250000000000000E-002  0.37500000000000000        0.0000000000000000     
   6.2500000000000000E-002  0.37500000000000000        0.0000000000000000     
   9.3750000000000000E-002  0.37500000000000000        0.0000000000000000     
  0.12500000000000000       0.37500000000000000        0.0000000000000000     
  0.12500000000000000       0.25000000000000000        0.0000000000000000     
  0.15625000000000000       0.25000000000000000        0.0000000000000000     
  0.18750000000000000       0.25000000000000000        0.0000000000000000     
  0.21875000000000000       0.25000000000000000        0.0000000000000000     
  0.25000000000000000       0.25000000000000000        0.0000000000000000     
  0.12500000000000000       0.28125000000000000        0.0000000000000000     
  0.15625000000000000       0.28125000000000000        0.0000000000000000     
  0.18750000000000000       0.28125000000000000        0.0000000000000000     
  0.21875000000000000       0.28125000000000000        0.0000000000000000     
  0.25000000000000000       0.28125000000000000        0.0000000000000000     
  0.12500000000000000       0.31250000000000000        0.0000000000000000     
  0.15625000000000000       0.31250000000000000        0.0000000000000000     
  0.18750000000000000       0.31250000000000000        0.0000000000000000     
  0.21875000000000000       0.31250000000000000        0.0000000000000000     
  0.25000000000000000       0.31250000000000000        0.0000000000000000     
  0.12500000000000000       0.34375000000000000        0.0000000000000000     
  0.15625000000000000       0.34375000000000000        0.0000000000000000     
  0.18750000000000000       0.34375000000000000        0.0000000000000000     
  0.21875000000000000       0.34375000000000000        0.0000000000000000     
  0.25000000000000000       0.34375000000000000        0.0000000000000000     
  0.12500000000000000       0.37500000000000000        0.0000000000000000     
  0.15625000000000000       0.37500000000000000        0.0000000000000000     
  0.18750000000000000       0.37500000000000000        0.0000000000000000     
  0.21875000000000000       0.37500000000000000        0.0000000000000000     
  0.25000000000000000       0.37500000000000000        0.0000000000000000     
  0.25000000000000000       0.25000000000000000        0.0000000000000000     
  0.28125000000000000       0.25000000000000000        0.0000000000000000     
  0.31250000000000000       0.25000000000000000        0.0000000000000000     
  0.34375000000000000       0.25000000000000000        0.0000000000000000     
  0.37500000000000000       0.25000000000000000        0.0000000000000000     
  0.25000000000000000       0.28125000000000000        0.0000000000000000     
  0.28125000000000000       0.28125000000000000        0.0000000000000000     
  0.31250000000000000       0.28125000000000000        0.0000000000000000     
  0.34375000000000000       0.28125000000000000        0.0000000000000000     
  0.37500000000000000       0.28125000000000000        0.0000000000000000     
  0.25000000000000000       0.31250000000000000        0.0000000000000000     
  0.28125000000000000       0.31250000000000000        0.0000000000000000     
  0.31250000000000000       0.31250000000000000        0.0000000000000000     
  0.34375000000000000       0.31250000000000000        0.0000000000000000     
  0.37500000000000000       0.31250000000000000        0.0000000000000000     
  0.25000000000000000       0.34375000000000000        0.0000000000000000     
  0.28125000000000000       0.34375000000000000        0.0000000000000000     
  0.31250000000000000       0.34375000000000000        0.0000000000000000     
  0.34375000000000000       0.34375000000000000        0.0000000000000000     
  0.37500000000000000       0.34375000000000000        0.0000000000000000     
  0.25000000000000000       0.37500000000000000        0.0000000000000000     
  0.28125000000000000       0.37500000000000000        0.0000000000000000     
  0.31250000000000000       0.37500000000000000        0.0000000000000000     
  0.34375000000000000       0.37500000000000000        0.0000000000000000     
  0.37500000000000000       0.37500000000000000        0.0000000000000000     
  0.37500000000000000       0.25000000000000000        0.0000000000000000     
  0.40625000000000000       0.25000000000000000        0.0000000000000000     
  0.43750000000000000       0.25000000000000000        0.0000000000000000     
  0.46875000000000000       0.25000000000000000        0.0000000000000000     
  0.50000000000000000       0.25000000000000000        0.0000000000000000     
  0.37500000000000000       0.28125000000000000        0.0000000000000000     
  0.40625000000000000       0.28125000000000000        0.0000000000000000     
  0.43750000000000000       0.28125000000000000        0.0000000000000000     
  0.46875000000000000       0.28125000000000000        0.0000000000000000     
  0.50000000000000000       0.28125000000000000        0.0000000000000000     
  0.37500000000000000       0.31250000000000000        0.0000000000000000     
  0.40625000000000000       0.31250000000000000        0.0000000000000000     
  0.43750000000000000       0.31250000000000000        0.0000000000000000     
  0.46875000000000000       0.31250000000000000        0.0000000000000000     
  0.50000000000000000       0.31250000000000000        0.0000000000000000     
  0.37500000000000000       0.34375000000000000        0.0000000000000000     
  0.40625000000000000       0.34375000000000000        0.0000000000000000     
  0.43750000000000000       0.34375000000000000        0.0000000000000000     
  0.46875000000000000       0.34375000000000000        0.0000000000000000     
  0.50000000000000000       0.34375000000000000        0.0000000000000000     
  0.37500000000000000       0.37500000000000000        0.0000000000000000     
  0.40625000000000000       0.37500000000000000        0.0000000000000000     
  0.43750000000000000       0.37500000000000000        0.0000000000000000     
  0.46875000000000000       0.37500000000000000        0.0000000000000000     
  0.50000000000000000       0.37500000000000000        0.0000000000000000     
  0.50000000000000000       0.25000000000000000        0.0000000000000000     
  0.53125000000000000       0.25000000000000000        0.0000000000000000     
  0.56250000000000000       0.25000000000000000        0.0000000000000000     
  0.59375000000000000       0.25000000000000000        0.0000000000000000     
  0.62500000000000000       0.25000000000000000        0.0000000000000000     
  0.50000000000000000       0.28125000000000000        0.0000000000000000     
  0.53125000000000000       0.28125000000000000        0.0000000000000000     
  0.56250000000000000       0.28125000000000000        0.0000000000000000     
  0.59375000000000000       0.28125000000000000        0.0000000000000000     
  0.62500000000000000       0.28125000000000000        0.0000000000000000     
  0.50000000000000000       0.31250000000000000        0.0000000000000000     
  0.53125000000000000       0.31250000000000000        0.0000000000000000     
  0.56250000000000000       0.31250000000000000        0.0000000000000000     
  0.59375000000000000       0.31250000000000000        0.0000000000000000     
  0.62500000000000000       0.31250000000000000        0.0000000000000000     
  0.50000000000000000       0.34375000000000000        0.0000000000000000     
  0.53125000000000000       0.34375000000000000        0.0000000000000000     
  0.56250000000000000       0.34375000000000000        0.0000000000000000     
  0.59375000000000000       0.34375000000000000        0.0000000000000000     
  0.62500000000000000       0.34375000000000000        0.0000000000000000     
  0.50000000000000000       0.37500000000000000        0.0000000000000000     
  0.53125000000000000       0.37500000000000000        0.0000000000000000     
  0.56250000000000000       0.37500000000000000        0.0000000000000000     
  0.59375000000000000       0.37500000000000000        0.0000000000000000     
  0.62500000000000000       0.37500000000000000        0.0000000000000000     
  0.62500000000000000       0.25000000000000000        0.0000000000000000     
  0.65625000000000000       0.25000000000000000        0.0000000000000000     
  0.68750000000000000       0.25000000000000000        0.0000000000000000     
  0.71875000000000000       0.25000000000000000        0.0000000000000000     
  0.75000000000000000       0.25000000000000000        0.0000000000000000     
  0.62500000000000000       0.28125000000000000        0.0000000000000000     
  0.65625000000000000       0.28125000000000000        0.0000000000000000     
  0.68750000000000000       0.28125000000000000        0.0000000000000000     
  0.71875000000000000       0.28125000000000000        0.0000000000000000     
  0.75000000000000000       0.28125000000000000        0.0000000000000000     
  0.62500000000000000       0.31250000000000000        0.0000000000000000     
  0.65625000000000000       0.31250000000000000        0.0000000000000000     
  0.68750000000000000       0.31250000000000000        0.0000000000000000     
  0.71875000000000000       0.31250000000000000        0.0000000000000000     
  0.75000000000000000       0.31250000000000000        0.0000000000000000     
  0.62500000000000000       0.34375000000000000        0.0000000000000000     
  0.65625000000000000       0.34375000000000000        0.0000000000000000     
  0.68750000000000000       0.34375000000000000        0.0000000000000000     
  0.71875000000000000       0.34375000000000000        0.0000000000000000     
  0.75000000000000000       0.34375000000000000        0.0000000000000000     
  0.62500000000000000       0.37500000000000000        0.0000000000000000     
  0.65625000000000000       0.37500000000000000        0.0000000000000000     
  0.68750000000000000       0.37500000000000000        0.0000000000000000     
  0.71875000000000000       0.37500000000000000        0.0000000000000000     
  0.75000000000000000       0.37500000000000000        0.0000000000000000     
  0.75000000000000000       0.25000000000000000        0.0000000000000000     
  0.78125000000000000       0.25000000000000000        0.0000000000000000     
  0.81250000000000000       0.25000000000000000        0.0000000000000000     
  0.84375000000000000       0.25000000000000000        0.0000000000000000     
  0.87500000000000000       0.25000000000000000        0.0000000000000000     
  0.75000000000000000       0.28125000000000000        0.0000000000000000     
  0.78125000000000000       0.28125000000000000        0.0000000000000000     
  0.81250000000000000       0.28125000000000000        0.0000000000000000     
  0.84375000000000000       0.28125000000000000        0.0000000000000000     
  0.87500000000000000       0.28125000000000000        0.0000000000000000     
  0.75000000000000000       0.31250000000000000        0.0000000000000000     
  0.78125000000000000       0.31250000000000000        0.0000000000000000     
  0.81250000000000000       0.31250000000000000        0.0000000000000000     
  0.84375000000000000       0.31250000000000000        0.0000000000000000     
  0.87500000000000000       0.31250000000000000        0.0000000000000000     
  0.75000000000000000       0.34375000000000000        0.0000000000000000     
  0.78125000000000000       0.34375000000000000        0.0000000000000000     
  0.81250000000000000       0.34375000000000000        0.0000000000000000     
  0.84375000000000000       0.34375000000000000        0.0000000000000000     
  0.87500000000000000       0.34375000000000000        0.0000000000000000     
  0.75000000000000000       0.37500000000000000        0.0000000000000000     
  0.78125000000000000       0.37500000000000000        0.0000000000000000     
  0.81250000000000000       0.37500000000000000        0.0000000000000000     
  0.84375000000000000       0.37500000000000000        0.0000000000000000     
  0.87500000000000000       0.37500000000000000        0.0000000000000000     
  0.87500000000000000       0.25000000000000000        0.0000000000000000     
  0.90625000000000000       0.25000000000000000        0.0000000000000000     
  0.93750000000000000       0.25000000000000000        0.0000000000000000     
  0.96875000000000000       0.25000000000000000        0.0000000000000000     
   1.0000000000000000       0.25000000000000000        0.0000000000000000     
  0.87500000000000000       0.28125000000000000        0.0000000000000000     
  0.90625000000000000       0.28125000000000000        0.0000000000000000     
  0.93750000000000000       0.28125000000000000        0.0000000000000000     
  0.96875000000000000       0.28125000000000000        0.0000000000000000     
   1.0000000000000000       0.28125000000000000        0.0000000000000000     
  0.87500000000000000       0.31250000000000000        0.0000000000000000     
  0.90625000000000000       0.31250000000000000        0.0000000000000000     
  0.93750000000000000       0.31250000000000000        0.0000000000000000     
  0.96875000000000000       0.31250000000000000        0.0000000000000000     
   1.0000000000000000       0.31250000000000000        0.0000000000000000     
  0.87500000000000000       0.34375000000000000        0.0000000000000000     
  0.90625000000000000       0.34375000000000000        0.0000000000000000     
  0.93750000000000000       0.34375000000000000        0.0000000000000000     
  0.96875000000000000       0.34375000000000000        0.0000000000000000     
   1.0000000000000000       0.34375000000000000        0.0000000000000000     
  0.87500000000000000       0.37500000000000000        0.0000000000000000     
  0.90625000000000000       0.37500000000000000        0.0000000000000000     
  0.93750000000000000       0.37500000000000000        0.0000000000000000     
  0.96875000000000000       0.37500000000000000        0.0000000000000000     
   1.0000000000000000       0.37500000000000000        0.0000000000000000     
   0.0000000000000000       0.37500000000000000        0.0000000000000000     
   3.1250000000000000E-002  0.37500000000000000        0.0000000000000000     
   6.2500000000000000E-002  0.37500000000000000        0.0000000000000000     
   9.3750000000000000E-002  0.37500000000000000        0.0000000000000000     
  0.12500000000000000       0.37500000000000000        0.0000000000000000     
   0.0000000000000000       0.40625000000000000        0.0000000000000000     
   3.1250000000000000E-002  0.40625000000000000        0.0000000000000000     
   6.2500000000000000E-002  0.40625000000000000        0.0000000000000000     
   9.3750000000000000E-002  0.40625000000000000        0.0000000000000000     
  0.12500000000000000       0.40625000000000000        0.0000000000000000     
   0.0000000000000000       0.43750000000000000        0.0000000000000000     
   3.1250000000000000E-002  0.43750000000000000        0.0000000000000000     
   6.2500000000000000E-002  0.43750000000000000        0.0000000000000000     
   9.3750000000000000E-002  0.43750000000000000        0.0000000000000000     
  0.12500000000000000       0.43750000000000000        0.0000000000000000     
   0.0000000000000000       0.46875000000000000        0.0000000000000000     
   3.1250000000000000E-002  0.46875000000000000        0.0000000000000000     
   6.2500000000000000E-002  0.46875000000000000        0.0000000000000000     
   9.3750000000000000E-002  0.46875000000000000        0.0000000000000000     
  0.12500000000000000       0.46875000000000000        0.0000000000000000     
   0.0000000000000000       0.50000000000000000        0.0000000000000000     
   3.1250000000000000E-002  0.50000000000000000        0.0000000000000000     
   6.2500000000000000E-002  0.50000000000000000        0.0000000000000000     
   9.3750000000000000E-002  0.50000000000000000        0.0000000000000000     
  0.12500000000000000       0.50000000000000000        0.0000000000000000     
  0.12500000000000000       0.37500000000000000        0.0000000000000000     
  0.15625000000000000       0.37500000000000000        0.0000000000000000     
  0.18750000000000000       0.37500000000000000        0.0000000000000000     
  0.21875000000000000       0.37500000000000000        0.0000000000000000     
  0.25000000000000000       0.37500000000000000        0.0000000000000000     
  0.12500000000000000       0.40625000000000000        0.0000000000000000     
  0.15625000000000000       0.40625000000000000        0.0000000000000000     
  0.18750000000000000       0.40625000000000000        0.0000000000000000     
  0.21875000000000000       0.40625000000000000        0.0000000000000000     
  0.25000000000000000       0.40625000000000000        0.0000000000000000     
  0.12500000000000000       0.43750000000000000        0.0000000000000000     
  0.15625000000000000       0.43750000000000000        0.0000000000000000     
  0.18750000000000000       0.43750000000000000        0.0000000000000000     
  0.21875000000000000       0.43750000000000000        0.0000000000000000     
  0.25000000000000000       0.43750000000000000        0.0000000000000000     
  0.12500000000000000       0.46875000000000000        0.0000000000000000     
  0.15625000000000000       0.46875000000000000        0.0000000000000000     
  0.18750000000000000       0.46875000000000000        0.0000000000000000     
  0.21875000000000000       0.46875000000000000        0.0000000000000000     
  0.25000000000000000       0.46875000000000000        0.0000000000000000     
  0.12500000000000000       0.50000000000000000        0.0000000000000000     
  0.15625000000000000       0.50000000000000000        0.0000000000000000     
  0.18750000000000000       0.50000000000000000        0.0000000000000000     
  0.21875000000000000       0.50000000000000000        0.0000000000000000     
  0.25000000000000000       0.50000000000000000        0.0000000000000000     
  0.25000000000000000       0.37500000000000000        0.0000000000000000     
  0.28125000000000000       0.37500000000000000        0.0000000000000000     
  0.31250000000000000       0.37500000000000000        0.0000000000000000     
  0.34375000000000000       0.37500000000000000        0.0000000000000000     
  0.37500000000000000       0.37500000000000000        0.0000000000000000     
  0.25000000000000000       0.40625000000000000        0.0000000000000000     
  0.28125000000000000       0.40625000000000000        0.0000000000000000     
  0.31250000000000000       0.40625000000000000        0.0000000000000000     
  0.34375000000000000       0.40625000000000000        0.0000000000000000     
  0.37500000000000000       0.40625000000000000        0.0000000000000000     
  0.25000000000000000       0.43750000000000000        0.0000000000000000     
  0.28125000000000000       0.43750000000000000        0.0000000000000000     
  0.31250000000000000       0.43750000000000000        0.0000000000000000     
  0.34375000000000000       0.43750000000000000        0.0000000000000000     
  0.37500000000000000       0.43750000000000000        0.0000000000000000     
  0.25000000000000000       0.46875000000000000        0.0000000000000000     
  0.28125000000000000       0.46875000000000000        0.0000000000000000     
  0.31250000000000000       0.46875000000000000        0.0000000000000000     
  0.34375000000000000       0.46875000000000000        0.0000000000000000     
  0.37500000000000000       0.46875000000000000        0.0000000000000000     
  0.25000000000000000       0.50000000000000000        0.0000000000000000     
  0.28125000000000000       0.50000000000000000        0.0000000000000000     
  0.31250000000000000       0.50000000000000000        0.0000000000000000     
  0.34375000000000000       0.50000000000000000        0.0000000000000000     
  0.37500000000000000       0.50000000000000000        0.0000000000000000     
  0.37500000000000000       0.37500000000000000        0.0000000000000000     
  0.40625000000000000       0.37500000000000000        0.0000000000000000     
  0.43750000000000000       0.37500000000000000        0.0000000000000000     
  0.46875000000000000       0.37500000000000000        0.0000000000000000     
  0.50000000000000000       0.37500000000000000        0.0000000000000000     
  0.37500000000000000       0.40625000000000000        0.0000000000000000     
  0.40625000000000000       0.40625000000000000        0.0000000000000000     
  0.43750000000000000       0.40625000000000000        0.0000000000000000     
  0.46875000000000000       0.40625000000000000        0.0000000000000000     
  0.50000000000000000       0.40625000000000000        0.0000000000000000     
  0.37500000000000000       0.43750000000000000        0.0000000000000000     
  0.40625000000000000       0.43750000000000000        0.0000000000000000     
  0.43750000000000000       0.43750000000000000        0.0000000000000000     
  0.46875000000000000       0.43750000000000000        0.0000000000000000     
  0.50000000000000000       0.43750000000000000        0.0000000000000000     
  0.37500000000000000       0.46875000000000000        0.0000000000000000     
  0.40625000000000000       0.46875000000000000        0.0000000000000000     
  0.43750000000000000       0.46875000000000000        0.0000000000000000     
  0.46875000000000000       0.46875000000000000        0.0000000000000000     
  0.50000000000000000       0.46875000000000000        0.0000000000000000     
  0.37500000000000000       0.50000000000000000        0.0000000000000000     
  0.40625000000000000       0.50000000000000000        0.0000000000000000     
  0.43750000000000000       0.50000000000000000        0.0000000000000000     
  0.46875000000000000       0.50000000000000000        0.0000000000000000     
  0.50000000000000000       0.50000000000000000        0.0000000000000000     
  0.50000000000000000       0.37500000000000000        0.0000000000000000     
  0.53125000000000000       0.37500000000000000        0.0000000000000000     
  0.56250000000000000       0.37500000000000000        0.0000000000000000     
  0.59375000000000000       0.37500000000000000        0.0000000000000000     
  0.62500000000000000       0.37500000000000000        0.0000000000000000     
  0.50000000000000000       0.40625000000000000        0.0000000000000000     
  0.53125000000000000       0.40625000000000000        0.0000000000000000     
  0.56250000000000000       0.40625000000000000        0.0000000000000000     
  0.59375000000000000       0.40625000000000000        0.0000000000000000     
  0.62500000000000000       0.40625000000000000        0.0000000000000000     
  0.50000000000000000       0.43750000000000000        0.0000000000000000     
  0.53125000000000000       0.43750000000000000        0.0000000000000000     
  0.56250000000000000       0.43750000000000000        0.0000000000000000     
  0.59375000000000000       0.43750000000000000        0.0000000000000000     
  0.62500000000000000       0.43750000000000000        0.0000000000000000     
  0.50000000000000000       0.46875000000000000        0.0000000000000000     
  0.53125000000000000       0.46875000000000000        0.0000000000000000     
  0.56250000000000000       0.46875000000000000        0.0000000000000000     
  0.59375000000000000       0.46875000000000000        0.0000000000000000     
  0.62500000000000000       0.46875000000000000        0.0000000000000000     
  0.50000000000000000       0.50000000000000000        0.0000000000000000     
  0.53125000000000000       0.50000000000000000        0.0000000000000000     
  0.56250000000000000       0.50000000000000000        0.0000000000000000     
  0.59375000000000000       0.50000000000000000        0.0000000000000000     
  0.62500000000000000       0.50000000000000000        0.0000000000000000     
  0.62500000000000000       0.37500000000000000        0.0000000000000000     
  0.65625000000000000       0.37500000000000000        0.0000000000000000     
  0.68750000000000000       0.37500000000000000        0.0000000000000000     
  0.71875000000000000       0.37500000000000000        0.0000000000000000     
  0.75000000000000000       0.37500000000000000        0.0000000000000000     
  0.62500000000000000       0.40625000000000000        0.0000000000000000     
  0.65625000000000000       0.40625000000000000        0.0000000000000000     
  0.68750000000000000       0.40625000000000000        0.0000000000000000     
  0.71875000000000000       0.40625000000000000        0.0000000000000000     
  0.75000000000000000       0.40625000000000000        0.0000000000000000     
  0.62500000000000000       0.43750000000000000        0.0000000000000000     
  0.65625000000000000       0.43750000000000000        0.0000000000000000     
  0.68750000000000000       0.43750000000000000        0.0000000000000000     
  0.71875000000000000       0.43750000000000000        0.0000000000000000     
  0.75000000000000000       0.43750000000000000        0.0000000000000000     
  0.62500000000000000       0.46875000000000000        0.0000000000000000     
  0.65625000000000000       0.46875000000000000        0.0000000000000000     
  0.68750000000000000       0.46875000000000000        0.0000000000000000     
  0.71875000000000000       0.46875000000000000        0.0000000000000000     
  0.75000000000000000       0.46875000000000000        0.0000000000000000     
  0.62500000000000000       0.50000000000000000        0.0000000000000000     
  0.65625000000000000       0.50000000000000000        0.0000000000000000     
  0.68750000000000000       0.50000000000000000        0.0000000000000000     
  0.71875000000000000       0.50000000000000000        0.0000000000000000     
  0.75000000000000000       0.50000000000000000        0.0000000000000000     
  0.75000000000000000       0.37500000000000000        0.0000000000000000     
  0.78125000000000000       0.37500000000000000        0.0000000000000000     
  0.81250000000000000       0.37500000000000000        0.0000000000000000     
  0.84375000000000000       0.37500000000000000        0.0000000000000000     
  0.87500000000000000       0.37500000000000000        0.0000000000000000     
  0.75000000000000000       0.40625000000000000        0.0000000000000000     
  0.78125000000000000       0.40625000000000000        0.0000000000000000     
  0.81250000000000000       0.40625000000000000        0.0000000000000000     
  0.84375000000000000       0.40625000000000000        0.0000000000000000     
  0.87500000000000000       0.40625000000000000        0.0000000000000000     
  0.75000000000000000       0.43750000000000000        0.0000000000000000     
  0.78125000000000000       0.43750000000000000        0.0000000000000000     
  0.81250000000000000       0.43750000000000000        0.0000000000000000     
  0.84375000000000000       0.43750000000000000        0.0000000000000000     
  0.87500000000000000       0.43750000000000000        0.0000000000000000     
  0.75000000000000000       0.46875000000000000        0.0000000000000000     
  0.78125000000000000       0.46875000000000000        0.0000000000000000     
  0.81250000000000000       0.46875000000000000        0.0000000000000000     
  0.84375000000000000       0.46875000000000000        0.0000000000000000     
  0.87500000000000000       0.46875000000000000        0.0000000000000000     
  0.75000000000000000       0.50000000000000000        0.0000000000000000     
  0.78125000000000000       0.50000000000000000        0.0000000000000000     
  0.81250000000000000       0.50000000000000000        0.0000000000000000     
  0.84375000000000000       0.50000000000000000        0.0000000000000000     
  0.87500000000000000       0.50000000000000000        0.0000000000000000     
  0.87500000000000000       0.37500000000000000        0.0000000000000000     
  0.90625000000000000       0.37500000000000000        0.0000000000000000     
  0.93750000000000000       0.37500000000000000        0.0000000000000000     
  0.96875000000000000       0.37500000000000000        0.0000000000000000     
   1.0000000000000000       0.37500000000000000        0.0000000000000000     
  0.87500000000000000       0.40625000000000000        0.0000000000000000     
  0.90625000000000000       0.40625000000000000        0.0000000000000000     
  0.93750000000000000       0.40625000000000000        0.0000000000000000     
  0.96875000000000000       0.40625000000000000        0.0000000000000000     
   1.0000000000000000       0.40625000000000000        0.0000000000000000     
  0.87500000000000000       0.43750000000000000        0.0000000000000000     
  0.90625000000000000       0.43750000000000000        0.0000000000000000     
  0.93750000000000000       0.43750000000000000        0.0000000000000000     
  0.96875000000000000       0.43750000000000000        0.0000000000000000     
   1.0000000000000000       0.43750000000000000        0.0000000000000000     
  0.87500000000000000       0.46875000000000000        0.0000000000000000     
  0.90625000000000000       0.46875000000000000        0.0000000000000000     
  0.93750000000000000       0.46875000000000000        0.0000000000000000     
  0.96875000000000000       0.46875000000000000        0.0000000000000000     
   1.0000000000000000       0.46875000000000000        0.0000000000000000     
  0.87500000000000000       0.50000000000000000        0.0000000000000000     
  0.90625000000000000       0.50000000000000000        0.0000000000000000     
  0.93750000000000000       0.50000000000000000        0.0000000000000000     
  0.96875000000000000       0.50000000000000000        0.0000000000000000     
   1.0000000000000000       0.50000000000000000        0.0000000000000000     
   0.0000000000000000       0.50000000000000000        0.0000000000000000     
   3.1250000000000000E-002  0.50000000000000000        0.0000000000000000     
   6.2500000000000000E-002  0.50000000000000000        0.0000000000000000     
   9.3750000000000000E-002  0.50000000000000000        0.0000000000000000     
  0.12500000000000000       0.50000000000000000        0.0000000000000000     
   0.0000000000000000       0.53125000000000000        0.0000000000000000     
   3.1250000000000000E-002  0.53125000000000000        0.0000000000000000     
   6.2500000000000000E-002  0.53125000000000000        0.0000000000000000     
   9.3750000000000000E-002  0.53125000000000000        0.0000000000000000     
  0.12500000000000000       0.53125000000000000        0.0000000000000000     
   0.0000000000000000       0.56250000000000000        0.0000000000000000     
   3.1250000000000000E-002  0.56250000000000000        0.0000000000000000     
   6.2500000000000000E-002  0.56250000000000000        0.0000000000000000     
   9.3750000000000000E-002  0.56250000000000000        0.0000000000000000     
  0.12500000000000000       0.56250000000000000        0.0000000000000000     
   0.0000000000000000       0.59375000000000000        0.0000000000000000     
   3.1250000000000000E-002  0.59375000000000000        0.0000000000000000     
   6.2500000000000000E-002  0.59375000000000000        0.0000000000000000     
   9.3750000000000000E-002  0.59375000000000000        0.0000000000000000     
  0.12500000000000000       0.59375000000000000        0.0000000000000000     
   0.0000000000000000       0.62500000000000000        0.0000000000000000     
   3.1250000000000000E-002  0.62500000000000000        0.0000000000000000     
   6.2500000000000000E-002  0.62500000000000000        0.0000000000000000     
   9.3750000000000000E-002  0.62500000000000000        0.0000000000000000     
  0.12500000000000000       0.62500000000000000        0.0000000000000000     
  0.12500000000000000       0.50000000000000000        0.0000000000000000     
  0.15625000000000000       0.50000000000000000        0.0000000000000000     
  0.18750000000000000       0.50000000000000000        0.0000000000000000     
  0.21875000000000000       0.50000000000000000        0.0000000000000000     
  0.25000000000000000       0.50000000000000000        0.0000000000000000     
  0.12500000000000000       0.53125000000000000        0.0000000000000000     
  0.15625000000000000       0.53125000000000000        0.0000000000000000     
  0.18750000000000000       0.53125000000000000        0.0000000000000000     
  0.21875000000000000       0.53125000000000000        0.0000000000000000     
  0.25000000000000000       0.53125000000000000        0.0000000000000000     
  0.12500000000000000       0.56250000000000000        0.0000000000000000     
  0.15625000000000000       0.56250000000000000        0.0000000000000000     
  0.18750000000000000       0.56250000000000000        0.0000000000000000     
  0.21875000000000000       0.56250000000000000        0.0000000000000000     
  0.25000000000000000       0.56250000000000000        0.0000000000000000     
  0.12500000000000000       0.59375000000000000        0.0000000000000000     
  0.15625000000000000       0.59375000000000000        0.0000000000000000     
  0.18750000000000000       0.59375000000000000        0.0000000000000000     
  0.21875000000000000       0.59375000000000000        0.0000000000000000     
  0.25000000000000000       0.59375000000000000        0.0000000000000000     
  0.12500000000000000       0.62500000000000000        0.0000000000000000     
  0.15625000000000000       0.62500000000000000        0.0000000000000000     
  0.18750000000000000       0.62500000000000000        0.0000000000000000     
  0.21875000000000000       0.62500000000000000        0.0000000000000000     
  0.25000000000000000       0.62500000000000000        0.0000000000000000     
  0.25000000000000000       0.50000000000000000        0.0000000000000000     
  0.28125000000000000       0.50000000000000000        0.0000000000000000     
  0.31250000000000000       0.50000000000000000        0.0000000000000000     
  0.34375000000000000       0.50000000000000000        0.0000000000000000     
  0.37500000000000000       0.50000000000000000        0.0000000000000000     
  0.25000000000000000       0.53125000000000000        0.0000000000000000     
  0.28125000000000000       0.53125000000000000        0.0000000000000000     
  0.31250000000000000       0.53125000000000000        0.0000000000000000     
  0.34375000000000000       0.53125000000000000        0.0000000000000000     
  0.37500000000000000       0.53125000000000000        0.0000000000000000     
  0.25000000000000000       0.56250000000000000        0.0000000000000000     
  0.28125000000000000       0.56250000000000000        0.0000000000000000     
  0.31250000000000000       0.56250000000000000        0.0000000000000000     
  0.34375000000000000       0.56250000000000000        0.0000000000000000     
  0.37500000000000000       0.56250000000000000        0.0000000000000000     
  0.25000000000000000       0.59375000000000000        0.0000000000000000     
  0.28125000000000000       0.59375000000000000        0.0000000000000000     
  0.31250000000000000       0.59375000000000000        0.0000000000000000     
  0.34375000000000000       0.59375000000000000        0.0000000000000000     
  0.37500000000000000       0.59375000000000000        0.0000000000000000     
  0.25000000000000000       0.62500000000000000        0.0000000000000000     
  0.28125000000000000       0.62500000000000000        0.0000000000000000     
  0.31250000000000000       0.62500000000000000        0.0000000000000000     
  0.34375000000000000       0.62500000000000000        0.0000000000000000     
  0.37500000000000000       0.62500000000000000        0.0000000000000000     
  0.37500000000000000       0.50000000000000000        0.0000000000000000     
  0.40625000000000000       0.50000000000000000        0.0000000000000000     
  0.43750000000000000       0.50000000000000000        0.0000000000000000     
  0.46875000000000000       0.50000000000000000        0.0000000000000000     
  0.50000000000000000       0.50000000000000000        0.0000000000000000     
  0.37500000000000000       0.53125000000000000        0.0000000000000000     
  0.40625000000000000       0.53125000000000000        0.0000000000000000     
  0.43750000000000000       0.53125000000000000        0.0000000000000000     
  0.46875000000000000       0.53125000000000000        0.0000000000000000     
  0.50000000000000000       0.53125000000000000        0.0000000000000000     
  0.37500000000000000       0.56250000000000000        0.0000000000000000     
  0.40625000000000000       0.56250000000000000        0.0000000000000000     
  0.43750000000000000       0.56250000000000000        0.0000000000000000     
  0.46875000000000000       0.56250000000000000        0.0000000000000000     
  0.50000000000000000       0.56250000000000000        0.0000000000000000     
  0.37500000000000000       0.59375000000000000        0.0000000000000000     
  0.40625000000000000       0.59375000000000000        0.0000000000000000     
  0.43750000000000000       0.59375000000000000        0.0000000000000000     
  0.46875000000000000       0.59375000000000000        0.0000000000000000     
  0.50000000000000000       0.59375000000000000        0.0000000000000000     
  0.37500000000000000       0.62500000000000000        0.0000000000000000     
  0.40625000000000000       0.62500000000000000        0.0000000000000000     
  0.43750000000000000       0.62500000000000000        0.0000000000000000     
  0.46875000000000000       0.62500000000000000        0.0000000000000000     
  0.50000000000000000       0.62500000000000000        0.0000000000000000     
  0.50000000000000000       0.50000000000000000        0.0000000000000000     
  0.53125000000000000       0.50000000000000000        0.0000000000000000     
  0.56250000000000000       0.50000000000000000        0.0000000000000000     
  0.59375000000000000       0.50000000000000000        0.0000000000000000     
  0.62500000000000000       0.50000000000000000        0.0000000000000000     
  0.50000000000000000       0.53125000000000000        0.0000000000000000     
  0.53125000000000000       0.53125000000000000        0.0000000000000000     
  0.56250000000000000       0.53125000000000000        0.0000000000000000     
  0.59375000000000000       0.53125000000000000        0.0000000000000000     
  0.62500000000000000       0.53125000000000000        0.0000000000000000     
  0.50000000000000000       0.56250000000000000        0.0000000000000000     
  0.53125000000000000       0.56250000000000000        0.0000000000000000     
  0.56250000000000000       0.56250000000000000        0.0000000000000000     
  0.59375000000000000       0.56250000000000000        0.0000000000000000     
  0.62500000000000000       0.56250000000000000        0.0000000000000000     
  0.50000000000000000       0.59375000000000000        0.0000000000000000     
  0.53125000000000000       0.59375000000000000        0.0000000000000000     
  0.56250000000000000       0.59375000000000000        0.0000000000000000     
  0.59375000000000000       0.59375000000000000        0.0000000000000000     
  0.62500000000000000       0.59375000000000000        0.0000000000000000     
  0.50000000000000000       0.62500000000000000        0.0000000000000000     
  0.53125000000000000       0.62500000000000000        0.0000000000000000     
  0.56250000000000000       0.62500000000000000        0.0000000000000000     
  0.59375000000000000       0.62500000000000000        0.0000000000000000     
  0.62500000000000000       0.62500000000000000        0.0000000000000000     
  0.62500000000000000       0.50000000000000000        0.0000000000000000     
  0.65625000000000000       0.50000000000000000        0.0000000000000000     
  0.68750000000000000       0.50000000000000000        0.0000000000000000     
  0.71875000000000000       0.50000000000000000        0.0000000000000000     
  0.75000000000000000       0.50000000000000000        0.0000000000000000     
  0.62500000000000000       0.53125000000000000        0.0000000000000000     
  0.65625000000000000       0.53125000000000000        0.0000000000000000     
  0.68750000000000000       0.53125000000000000        0.0000000000000000     
  0.71875000000000000       0.53125000000000000        0.0000000000000000     
  0.75000000000000000       0.53125000000000000        0.0000000000000000     
  0.62500000000000000       0.56250000000000000        0.0000000000000000     
  0.65625000000000000       0.56250000000000000        0.0000000000000000     
  0.68750000000000000       0.56250000000000000        0.0000000000000000     
  0.71875000000000000       0.56250000000000000        0.0000000000000000     
  0.75000000000000000       0.56250000000000000        0.0000000000000000     
  0.62500000000000000       0.59375000000000000        0.0000000000000000     
  0.65625000000000000       0.59375000000000000        0.0000000000000000     
  0.68750000000000000       0.59375000000000000        0.0000000000000000     
  0.71875000000000000       0.59375000000000000        0.0000000000000000     
  0.75000000000000000       0.59375000000000000        0.0000000000000000     
  0.62500000000000000       0.62500000000000000        0.0000000000000000     
  0.65625000000000000       0.62500000000000000        0.0000000000000000     
  0.68750000000000000       0.62500000000000000        0.0000000000000000     
  0.71875000000000000       0.62500000000000000        0.0000000000000000     
  0.75000000000000000       0.62500000000000000        0.0000000000000000     
  0.75000000000000000       0.50000000000000000        0.0000000000000000     
  0.78125000000000000       0.50000000000000000        0.0000000000000000     
  0.81250000000000000       0.50000000000000000        0.0000000000000000     
  0.84375000000000000       0.50000000000000000        0.0000000000000000     
  0.87500000000000000       0.50000000000000000        0.0000000000000000     
  0.75000000000000000       0.53125000000000000        0.0000000000000000     
  0.78125000000000000       0.53125000000000000        0.0000000000000000     
  0.81250000000000000       0.53125000000000000        0.0000000000000000     
  0.84375000000000000       0.53125000000000000        0.0000000000000000     
  0.87500000000000000       0.53125000000000000        0.0000000000000000     
  0.75000000000000000       0.56250000000000000        0.0000000000000000     
  0.78125000000000000       0.56250000000000000        0.0000000000000000     
  0.81250000000000000       0.56250000000000000        0.0000000000000000     
  0.84375000000000000       0.56250000000000000        0.0000000000000000     
  0.87500000000000000       0.56250000000000000        0.0000000000000000     
  0.75000000000000000       0.59375000000000000        0.0000000000000000     
  0.78125000000000000       0.59375000000000000        0.0000000000000000     
  0.81250000000000000       0.59375000000000000        0.0000000000000000     
  0.84375000000000000       0.59375000000000000        0.0000000000000000     
  0.87500000000000000       0.59375000000000000        0.0000000000000000     
  0.75000000000000000       0.62500000000000000        0.0000000000000000     
  0.78125000000000000       0.62500000000000000        0.0000000000000000     
  0.81250000000000000       0.62500000000000000        0.0000000000000000     
  0.84375000000000000       0.62500000000000000        0.0000000000000000     
  0.87500000000000000       0.62500000000000000        0.0000000000000000     
  0.87500000000000000       0.50000000000000000        0.0000000000000000     
  0.90625000000000000       0.50000000000000000        0.0000000000000000     
  0.93750000000000000       0.50000000000000000        0.0000000000000000     
  0.96875000000000000       0.50000000000000000        0.0000000000000000     
   1.0000000000000000       0.50000000000000000        0.0000000000000000     
  0.87500000000000000       0.53125000000000000        0.0000000000000000     
  0.90625000000000000       0.53125000000000000        0.0000000000000000     
  0.93750000000000000       0.53125000000000000        0.0000000000000000     
  0.96875000000000000       0.53125000000000000        0.0000000000000000     
   1.0000000000000000       0.53125000000000000        0.0000000000000000     
  0.87500000000000000       0.56250000000000000        0.0000000000000000     
  0.90625000000000000       0.56250000000000000        0.0000000000000000     
  0.93750000000000000       0.56250000000000000        0.0000000000000000     
  0.96875000000000000       0.56250000000000000        0.0000000000000000     
   1.0000000000000000       0.56250000000000000        0.0000000000000000     
  0.87500000000000000       0.59375000000000000        0.0000000000000000     
  0.90625000000000000       0.59375000000000000        0.0000000000000000     
  0.93750000000000000       0.59375000000000000        0.0000000000000000     
  0.96875000000000000       0.59375000000000000        0.0000000000000000     
   1.0000000000000000       0.59375000000000000        0.0000000000000000     
  0.87500000000000000       0.62500000000000000        0.0000000000000000     
  0.90625000000000000       0.62500000000000000        0.0000000000000000     
  0.93750000000000000       0.62500000000000000        0.0000000000000000     
  0.96875000000000000       0.62500000000000000        0.0000000000000000     
   1.0000000000000000       0.62500000000000000        0.0000000000000000     
   0.0000000000000000       0.62500000000000000        0.0000000000000000     
   3.1250000000000000E-002  0.62500000000000000        0.0000000000000000     
   6.2500000000000000E-002  0.62500000000000000        0.0000000000000000     
   9.3750000000000000E-002  0.62500000000000000        0.0000000000000000     
  0.12500000000000000       0.62500000000000000        0.0000000000000000     
   0.0000000000000000       0.65625000000000000        0.0000000000000000     
   3.1250000000000000E-002  0.65625000000000000        0.0000000000000000     
   6.2500000000000000E-002  0.65625000000000000        0.0000000000000000     
   9.3750000000000000E-002  0.65625000000000000        0.0000000000000000     
  0.12500000000000000       0.65625000000000000        0.0000000000000000     
   0.0000000000000000       0.68750000000000000        0.0000000000000000     
   3.1250000000000000E-002  0.68750000000000000        0.0000000000000000     
   6.2500000000000000E-002  0.68750000000000000        0.0000000000000000     
   9.3750000000000000E-002  0.68750000000000000        0.0000000000000000     
  0.12500000000000000       0.68750000000000000        0.0000000000000000     
   0.0000000000000000       0.71875000000000000        0.0000000000000000     
   3.1250000000000000E-002  0.71875000000000000        0.0000000000000000     
   6.2500000000000000E-002  0.71875000000000000        0.0000000000000000     
   9.3750000000000000E-002  0.71875000000000000        0.0000000000000000     
  0.12500000000000000       0.71875000000000000        0.0000000000000000     
   0.0000000000000000       0.75000000000000000        0.0000000000000000     
   3.1250000000000000E-002  0.75000000000000000        0.0000000000000000     
   6.2500000000000000E-002  0.75000000000000000        0.0000000000000000     
   9.3750000000000000E-002  0.75000000000000000        0.0000000000000000     
  0.12500000000000000       0.75000000000000000        0.0000000000000000     
  0.12500000000000000       0.62500000000000000        0.0000000000000000     
  0.15625000000000000       0.62500000000000000        0.0000000000000000     
  0.18750000000000000       0.62500000000000000        0.0000000000000000     
  0.21875000000000000       0.62500000000000000        0.0000000000000000     
  0.25000000000000000       0.62500000000000000        0.0000000000000000     
  0.12500000000000000       0.65625000000000000        0.0000000000000000     
  0.15625000000000000       0.65625000000000000        0.0000000000000000     
  0.18750000000000000       0.65625000000000000        0.0000000000000000     
  0.21875000000000000       0.65625000000000000        0.0000000000000000     
  0.25000000000000000       0.65625000000000000        0.0000000000000000     
  0.12500000000000000       0.68750000000000000        0.0000000000000000     
  0.15625000000000000       0.68750000000000000        0.0000000000000000     
  0.18750000000000000       0.68750000000000000        0.0000000000000000     
  0.21875000000000000       0.68750000000000000        0.0000000000000000     
  0.25000000000000000       0.68750000000000000        0.0000000000000000     
  0.12500000000000000       0.71875000000000000        0.0000000000000000     
  0.15625000000000000       0.71875000000000000        0.0000000000000000     
  0.18750000000000000       0.71875000000000000        0.0000000000000000     
  0.21875000000000000       0.71875000000000000        0.0000000000000000     
  0.25000000000000000       0.71875000000000000        0.0000000000000000     
  0.12500000000000000       0.75000000000000000        0.0000000000000000     
  0.15625000000000000       0.75000000000000000        0.0000000000000000     
  0.18750000000000000       0.75000000000000000        0.0000000000000000     
  0.21875000000000000       0.75000000000000000        0.0000000000000000     
  0.25000000000000000       0.75000000000000000        0.0000000000000000     
  0.25000000000000000       0.62500000000000000        0.0000000000000000     
  0.28125000000000000       0.62500000000000000        0.0000000000000000     
  0.31250000000000000       0.62500000000000000        0.0000000000000000     
  0.34375000000000000       0.62500000000000000        0.0000000000000000     
  0.37500000000000000       0.62500000000000000        0.0000000000000000     
  0.25000000000000000       0.65625000000000000        0.0000000000000000     
  0.28125000000000000       0.65625000000000000        0.0000000000000000     
  0.31250000000000000       0.65625000000000000        0.0000000000000000     
  0.34375000000000000       0.65625000000000000        0.0000000000000000     
  0.37500000000000000       0.65625000000000000        0.0000000000000000     
  0.25000000000000000       0.68750000000000000        0.0000000000000000     
  0.28125000000000000       0.68750000000000000        0.0000000000000000     
  0.31250000000000000       0.68750000000000000        0.0000000000000000     
  0.34375000000000000       0.68750000000000000        0.0000000000000000     
  0.37500000000000000       0.68750000000000000        0.0000000000000000     
  0.25000000000000000       0.71875000000000000        0.0000000000000000     
  0.28125000000000000       0.71875000000000000        0.0000000000000000     
  0.31250000000000000       0.71875000000000000        0.0000000000000000     
  0.34375000000000000       0.71875000000000000        0.0000000000000000     
  0.37500000000000000       0.71875000000000000        0.0000000000000000     
  0.25000000000000000       0.75000000000000000        0.0000000000000000     
  0.28125000000000000       0.75000000000000000        0.0000000000000000     
  0.31250000000000000       0.75000000000000000        0.0000000000000000     
  0.34375000000000000       0.75000000000000000        0.0000000000000000     
  0.37500000000000000       0.75000000000000000        0.0000000000000000     
  0.37500000000000000       0.62500000000000000        0.0000000000000000     
  0.40625000000000000       0.62500000000000000        0.0000000000000000     
  0.43750000000000000       0.62500000000000000        0.0000000000000000     
  0.46875000000000000       0.62500000000000000        0.0000000000000000     
  0.50000000000000000       0.62500000000000000        0.0000000000000000     
  0.37500000000000000       0.65625000000000000        0.0000000000000000     
  0.40625000000000000       0.65625000000000000        0.0000000000000000     
  0.43750000000000000       0.65625000000000000        0.0000000000000000     
  0.46875000000000000       0.65625000000000000        0.0000000000000000     
  0.50000000000000000       0.65625000000000000        0.0000000000000000     
  0.37500000000000000       0.68750000000000000        0.0000000000000000     
  0.40625000000000000       0.68750000000000000        0.0000000000000000     
  0.43750000000000000       0.68750000000000000        0.0000000000000000     
  0.46875000000000000       0.68750000000000000        0.0000000000000000     
  0.50000000000000000       0.68750000000000000        0.0000000000000000     
  0.37500000000000000       0.71875000000000000        0.0000000000000000     
  0.40625000000000000       0.71875000000000000        0.0000000000000000     
  0.43750000000000000       0.71875000000000000        0.0000000000000000     
  0.46875000000000000       0.71875000000000000        0.0000000000000000     
  0.50000000000000000       0.71875000000000000        0.0000000000000000     
  0.37500000000000000       0.75000000000000000        0.0000000000000000     
  0.40625000000000000       0.75000000000000000        0.0000000000000000     
  0.43750000000000000       0.75000000000000000        0.0000000000000000     
  0.46875000000000000       0.75000000000000000        0.0000000000000000     
  0.50000000000000000       0.75000000000000000        0.0000000000000000     
  0.50000000000000000       0.62500000000000000        0.0000000000000000     
  0.53125000000000000       0.62500000000000000        0.0000000000000000     
  0.56250000000000000       0.62500000000000000        0.0000000000000000     
  0.59375000000000000       0.62500000000000000        0.0000000000000000     
  0.62500000000000000       0.62500000000000000        0.0000000000000000     
  0.50000000000000000       0.65625000000000000        0.0000000000000000     
  0.53125000000000000       0.65625000000000000        0.0000000000000000     
  0.56250000000000000       0.65625000000000000        0.0000000000000000     
  0.59375000000000000       0.65625000000000000        0.0000000000000000     
  0.62500000000000000       0.65625000000000000        0.0000000000000000     
  0.50000000000000000       0.68750000000000000        0.0000000000000000     
  0.53125000000000000       0.68750000000000000        0.0000000000000000     
  0.56250000000000000       0.68750000000000000        0.0000000000000000     
  0.59375000000000000       0.68750000000000000        0.0000000000000000     
  0.62500000000000000       0.68750000000000000        0.0000000000000000     
  0.50000000000000000       0.71875000000000000        0.0000000000000000     
  0.53125000000000000       0.71875000000000000        0.0000000000000000     
  0.56250000000000000       0.71875000000000000        0.0000000000000000     
  0.59375000000000000       0.71875000000000000        0.0000000000000000     
  0.62500000000000000       0.71875000000000000        0.0000000000000000     
  0.50000000000000000       0.75000000000000000        0.0000000000000000     
  0.53125000000000000       0.75000000000000000        0.0000000000000000     
  0.56250000000000000       0.75000000000000000        0.0000000000000000     
  0.59375000000000000       0.75000000000000000        0.0000000000000000     
  0.62500000000000000       0.75000000000000000        0.0000000000000000     
  0.62500000000000000       0.62500000000000000        0.0000000000000000     
  0.65625000000000000       0.62500000000000000        0.0000000000000000     
  0.68750000000000000       0.62500000000000000        0.0000000000000000     
  0.71875000000000000       0.62500000000000000        0.0000000000000000     
  0.75000000000000000       0.62500000000000000        0.0000000000000000     
  0.62500000000000000       0.65625000000000000        0.0000000000000000     
  0.65625000000000000       0.65625000000000000        0.0000000000000000     
  0.68750000000000000       0.65625000000000000        0.0000000000000000     
  0.71875000000000000       0.65625000000000000        0.0000000000000000     
  0.75000000000000000       0.65625000000000000        0.0000000000000000     
  0.62500000000000000       0.68750000000000000        0.0000000000000000     
  0.65625000000000000       0.68750000000000000        0.0000000000000000     
  0.68750000000000000       0.68750000000000000        0.0000000000000000     
  0.71875000000000000       0.68750000000000000        0.0000000000000000     
  0.75000000000000000       0.68750000000000000        0.0000000000000000     
  0.62500000000000000       0.71875000000000000        0.0000000000000000     
  0.65625000000000000       0.71875000000000000        0.0000000000000000     
  0.68750000000000000       0.71875000000000000        0.0000000000000000     
  0.71875000000000000       0.71875000000000000        0.0000000000000000     
  0.75000000000000000       0.71875000000000000        0.0000000000000000     
  0.62500000000000000       0.75000000000000000        0.0000000000000000     
  0.65625000000000000       0.75000000000000000        0.0000000000000000     
  0.68750000000000000       0.75000000000000000        0.0000000000000000     
  0.71875000000000000       0.75000000000000000        0.0000000000000000     
  0.75000000000000000       0.75000000000000000        0.0000000000000000     
  0.75000000000000000       0.62500000000000000        0.0000000000000000     
  0.78125000000000000       0.62500000000000000        0.0000000000000000     
  0.81250000000000000       0.62500000000000000        0.0000000000000000     
  0.84375000000000000       0.62500000000000000        0.0000000000000000     
  0.87500000000000000       0.62500000000000000        0.0000000000000000     
  0.75000000000000000       0.65625000000000000        0.0000000000000000     
  0.78125000000000000       0.65625000000000000        0.0000000000000000     
  0.81250000000000000       0.65625000000000000        0.0000000000000000     
  0.84375000000000000       0.65625000000000000        0.0000000000000000     
  0.87500000000000000       0.65625000000000000        0.0000000000000000     
  0.75000000000000000       0.68750000000000000        0.0000000000000000     
  0.78125000000000000       0.68750000000000000        0.0000000000000000     
  0.81250000000000000       0.68750000000000000        0.0000000000000000     
  0.84375000000000000       0.68750000000000000        0.0000000000000000     
  0.87500000000000000       0.68750000000000000        0.0000000000000000     
  0.75000000000000000       0.71875000000000000        0.0000000000000000     
  0.78125000000000000       0.71875000000000000        0.0000000000000000     
  0.81250000000000000       0.71875000000000000        0.0000000000000000     
  0.84375000000000000       0.71875000000000000        0.0000000000000000     
  0.87500000000000000       0.71875000000000000        0.0000000000000000     
  0.75000000000000000       0.75000000000000000        0.0000000000000000     
  0.78125000000000000       0.75000000000000000        0.0000000000000000     
  0.81250000000000000       0.75000000000000000        0.0000000000000000     
  0.84375000000000000       0.75000000000000000        0.0000000000000000     
  0.87500000000000000       0.75000000000000000        0.0000000000000000     
  0.87500000000000000       0.62500000000000000        0.0000000000000000     
  0.90625000000000000       0.62500000000000000        0.0000000000000000     
  0.93750000000000000       0.62500000000000000        0.0000000000000000     
  0.96875000000000000       0.62500000000000000        0.0000000000000000     
   1.0000000000000000       0.62500000000000000        0.0000000000000000     
  0.87500000000000000       0.65625000000000000        0.0000000000000000     
  0.90625000000000000       0.65625000000000000        0.0000000000000000     
  0.93750000000000000       0.65625000000000000        0.0000000000000000     
  0.96875000000000000       0.65625000000000000        0.0000000000000000     
   1.0000000000000000       0.65625000000000000        0.0000000000000000     
  0.87500000000000000       0.68750000000000000        0.0000000000000000     
  0.90625000000000000       0.68750000000000000        0.0000000000000000     
  0.93750000000000000       0.68750000000000000        0.0000000000000000     
  0.96875000000000000       0.68750000000000000        0.0000000000000000     
   1.0000000000000000       0.68750000000000000        0.0000000000000000     
  0.87500000000000000       0.71875000000000000        0.0000000000000000     
  0.90625000000000000       0.71875000000000000        0.0000000000000000     
  0.93750000000000000       0.71875000000000000        0.0000000000000000     
  0.96875000000000000       0.71875000000000000        0.0000000000000000     
   1.0000000000000000       0.71875000000000000        0.0000000000000000     
  0.87500000000000000       0.75000000000000000        0.0000000000000000     
  0.90625000000000000       0.75000000000000000        0.0000000000000000     
  0.93750000000000000       0.75000000000000000        0.0000000000000000     
  0.96875000000000000       0.75000000000000000        0.0000000000000000     
   1.0000000000000000       0.75000000000000000        0.0000000000000000     
   0.0000000000000000       0.75000000000000000        0.0000000000000000     
   3.1250000000000000E-002  0.75000000000000000        0.0000000000000000     
   6.2500000000000000E-002  0.75000000000000000        0.0000000000000000     
   9.3750000000000000E-002  0.75000000000000000        0.0000000000000000     
  0.12500000000000000       0.75000000000000000        0.0000000000000000     
   0.0000000000000000       0.78125000000000000        0.0000000000000000     
   3.1250000000000000E-002  0.78125000000000000        0.0000000000000000     
   6.2500000000000000E-002  0.78125000000000000        0.0000000000000000     
   9.3750000000000000E-002  0.78125000000000000        0.0000000000000000     
  0.12500000000000000       0.78125000000000000        0.0000000000000000     
   0.0000000000000000       0.81250000000000000        0.0000000000000000     
   3.1250000000000000E-002  0.81250000000000000        0.0000000000000000     
   6.2500000000000000E-002  0.81250000000000000        0.0000000000000000     
   9.3750000000000000E-002  0.81250000000000000        0.0000000000000000     
  0.12500000000000000       0.81250000000000000        0.0000000000000000     
   0.0000000000000000       0.84375000000000000        0.0000000000000000     
   3.1250000000000000E-002  0.84375000000000000        0.0000000000000000     
   6.2500000000000000E-002  0.84375000000000000        0.0000000000000000     
   9.3750000000000000E-002  0.84375000000000000        0.0000000000000000     
  0.12500000000000000       0.84375000000000000        0.0000000000000000     
   0.0000000000000000       0.87500000000000000        0.0000000000000000     
   3.1250000000000000E-002  0.87500000000000000        0.0000000000000000     
   6.2500000000000000E-002  0.87500000000000000        0.0000000000000000     
   9.3750000000000000E-002  0.87500000000000000        0.0000000000000000     
  0.12500000000000000       0.87500000000000000        0.0000000000000000     
  0.12500000000000000       0.75000000000000000        0.0000000000000000     
  0.15625000000000000       0.75000000000000000        0.0000000000000000     
  0.18750000000000000       0.75000000000000000        0.0000000000000000     
  0.21875000000000000       0.75000000000000000        0.0000000000000000     
  0.25000000000000000       0.75000000000000000        0.0000000000000000     
  0.12500000000000000       0.78125000000000000        0.0000000000000000     
  0.15625000000000000       0.78125000000000000        0.0000000000000000     
  0.18750000000000000       0.78125000000000000        0.0000000000000000     
  0.21875000000000000       0.78125000000000000        0.0000000000000000     
  0.25000000000000000       0.78125000000000000        0.0000000000000000     
  0.12500000000000000       0.81250000000000000        0.0000000000000000     
  0.15625000000000000       0.81250000000000000        0.0000000000000000     
  0.18750000000000000       0.81250000000000000        0.0000000000000000     
  0.21875000000000000       0.81250000000000000        0.0000000000000000     
  0.25000000000000000       0.81250000000000000        0.0000000000000000     
  0.12500000000000000       0.84375000000000000        0.0000000000000000     
  0.15625000000000000       0.84375000000000000        0.0000000000000000     
  0.18750000000000000       0.84375000000000000        0.0000000000000000     
  0.21875000000000000       0.84375000000000000        0.0000000000000000     
  0.25000000000000000       0.84375000000000000        0.0000000000000000     
  0.12500000000000000       0.87500000000000000        0.0000000000000000     
  0.15625000000000000       0.87500000000000000        0.0000000000000000     
  0.18750000000000000       0.87500000000000000        0.0000000000000000     
  0.21875000000000000       0.87500000000000000        0.0000000000000000     
  0.25000000000000000       0.87500000000000000        0.0000000000000000     
  0.25000000000000000       0.75000000000000000        0.0000000000000000     
  0.28125000000000000       0.75000000000000000        0.0000000000000000     
  0.31250000000000000       0.75000000000000000        0.0000000000000000     
  0.34375000000000000       0.75000000000000000        0.0000000000000000     
  0.37500000000000000       0.75000000000000000        0.0000000000000000     
  0.25000000000000000       0.78125000000000000        0.0000000000000000     
  0.28125000000000000       0.78125000000000000        0.0000000000000000     
  0.31250000000000000       0.78125000000000000        0.0000000000000000     
  0.34375000000000000       0.78125000000000000        0.0000000000000000     
  0.37500000000000000       0.78125000000000000        0.0000000000000000     
  0.25000000000000000       0.81250000000000000        0.0000000000000000     
  0.28125000000000000       0.81250000000000000        0.0000000000000000     
  0.31250000000000000       0.81250000000000000        0.0000000000000000     
  0.34375000000000000       0.81250000000000000        0.0000000000000000     
  0.37500000000000000       0.81250000000000000        0.0000000000000000     
  0.25000000000000000       0.84375000000000000        0.0000000000000000     
  0.28125000000000000       0.84375000000000000        0.0000000000000000     
  0.31250000000000000       0.84375000000000000        0.0000000000000000     
  0.34375000000000000       0.84375000000000000        0.0000000000000000     
  0.37500000000000000       0.84375000000000000        0.0000000000000000     
  0.25000000000000000       0.87500000000000000        0.0000000000000000     
  0.28125000000000000       0.87500000000000000        0.0000000000000000     
  0.31250000000000000       0.87500000000000000        0.0000000000000000     
  0.34375000000000000       0.87500000000000000        0.0000000000000000     
  0.37500000000000000       0.87500000000000000        0.0000000000000000     
  0.37500000000000000       0.75000000000000000        0.0000000000000000     
  0.40625000000000000       0.75000000000000000        0.0000000000000000     
  0.43750000000000000       0.75000000000000000        0.0000000000000000     
  0.46875000000000000       0.75000000000000000        0.0000000000000000     
  0.50000000000000000       0.75000000000000000        0.0000000000000000     
  0.37500000000000000       0.78125000000000000        0.0000000000000000     
  0.40625000000000000       0.78125000000000000        0.0000000000000000     
  0.43750000000000000       0.78125000000000000        0.0000000000000000     
  0.46875000000000000       0.78125000000000000        0.0000000000000000     
  0.50000000000000000       0.78125000000000000        0.0000000000000000     
  0.37500000000000000       0.81250000000000000        0.0000000000000000     
  0.40625000000000000       0.81250000000000000        0.0000000000000000     
  0.43750000000000000       0.81250000000000000        0.0000000000000000     
  0.46875000000000000       0.81250000000000000        0.0000000000000000     
  0.50000000000000000       0.81250000000000000        0.0000000000000000     
  0.37500000000000000       0.84375000000000000        0.0000000000000000     
  0.40625000000000000       0.84375000000000000        0.0000000000000000     
  0.43750000000000000       0.84375000000000000        0.0000000000000000     
  0.46875000000000000       0.84375000000000000        0.0000000000000000     
  0.50000000000000000       0.84375000000000000        0.0000000000000000     
  0.37500000000000000       0.87500000000000000        0.0000000000000000     
  0.40625000000000000       0.87500000000000000        0.0000000000000000     
  0.43750000000000000       0.87500000000000000        0.0000000000000000     
  0.46875000000000000       0.87500000000000000        0.0000000000000000     
  0.50000000000000000       0.87500000000000000        0.0000000000000000     
  0.50000000000000000       0.75000000000000000        0.0000000000000000     
  0.53125000000000000       0.75000000000000000        0.0000000000000000     
  0.56250000000000000       0.75000000000000000        0.0000000000000000     
  0.59375000000000000       0.75000000000000000        0.0000000000000000     
  0.62500000000000000       0.75000000000000000        0.0000000000000000     
  0.50000000000000000       0.78125000000000000        0.0000000000000000     
  0.53125000000000000       0.78125000000000000        0.0000000000000000     
  0.56250000000000000       0.78125000000000000        0.0000000000000000     
  0.59375000000000000       0.78125000000000000        0.0000000000000000     
  0.62500000000000000       0.78125000000000000        0.0000000000000000     
  0.50000000000000000       0.81250000000000000        0.0000000000000000     
  0.53125000000000000       0.81250000000000000        0.0000000000000000     
  0.56250000000000000       0.81250000000000000        0.0000000000000000     
  0.59375000000000000       0.81250000000000000        0.0000000000000000     
  0.62500000000000000       0.81250000000000000        0.0000000000000000     
  0.50000000000000000       0.84375000000000000        0.0000000000000000     
  0.53125000000000000       0.84375000000000000        0.0000000000000000     
  0.56250000000000000       0.84375000000000000        0.0000000000000000     
  0.59375000000000000       0.84375000000000000        0.0000000000000000     
  0.62500000000000000       0.84375000000000000        0.0000000000000000     
  0.50000000000000000       0.87500000000000000        0.0000000000000000     
  0.53125000000000000       0.87500000000000000        0.0000000000000000     
  0.56250000000000000       0.87500000000000000        0.0000000000000000     
  0.59375000000000000       0.87500000000000000        0.0000000000000000     
  0.62500000000000000       0.87500000000000000        0.0000000000000000     
  0.62500000000000000       0.75000000000000000        0.0000000000000000     
  0.65625000000000000       0.75000000000000000        0.0000000000000000     
  0.68750000000000000       0.75000000000000000        0.0000000000000000     
  0.71875000000000000       0.75000000000000000        0.0000000000000000     
  0.75000000000000000       0.75000000000000000        0.0000000000000000     
  0.62500000000000000       0.78125000000000000        0.0000000000000000     
  0.65625000000000000       0.78125000000000000        0.0000000000000000     
  0.68750000000000000       0.78125000000000000        0.0000000000000000     
  0.71875000000000000       0.78125000000000000        0.0000000000000000     
  0.75000000000000000       0.78125000000000000        0.0000000000000000     
  0.62500000000000000       0.81250000000000000        0.0000000000000000     
  0.65625000000000000       0.81250000000000000        0.0000000000000000     
  0.68750000000000000       0.81250000000000000        0.0000000000000000     
  0.71875000000000000       0.81250000000000000        0.0000000000000000     
  0.75000000000000000       0.81250000000000000        0.0000000000000000     
  0.62500000000000000       0.84375000000000000        0.0000000000000000     
  0.65625000000000000       0.84375000000000000        0.0000000000000000     
  0.68750000000000000       0.84375000000000000        0.0000000000000000     
  0.71875000000000000       0.84375000000000000        0.0000000000000000     
  0.75000000000000000       0.84375000000000000        0.0000000000000000     
  0.62500000000000000       0.87500000000000000        0.0000000000000000     
  0.65625000000000000       0.87500000000000000        0.0000000000000000     
  0.68750000000000000       0.87500000000000000        0.0000000000000000     
  0.71875000000000000       0.87500000000000000        0.0000000000000000     
  0.75000000000000000       0.87500000000000000        0.0000000000000000     
  0.75000000000000000       0.75000000000000000        0.0000000000000000     
  0.78125000000000000       0.75000000000000000        0.0000000000000000     
  0.81250000000000000       0.75000000000000000        0.0000000000000000     
  0.84375000000000000       0.75000000000000000        0.0000000000000000     
  0.87500000000000000       0.75000000000000000        0.0000000000000000     
  0.75000000000000000       0.78125000000000000        0.0000000000000000     
  0.78125000000000000       0.78125000000000000        0.0000000000000000     
  0.81250000000000000       0.78125000000000000        0.0000000000000000     
  0.84375000000000000       0.78125000000000000        0.0000000000000000     
  0.87500000000000000       0.78125000000000000        0.0000000000000000     
  0.75000000000000000       0.81250000000000000        0.0000000000000000     
  0.78125000000000000       0.81250000000000000        0.0000000000000000     
  0.81250000000000000       0.81250000000000000        0.0000000000000000     
  0.84375000000000000       0.81250000000000000        0.0000000000000000     
  0.87500000000000000       0.81250000000000000        0.0000000000000000     
  0.75000000000000000       0.84375000000000000        0.0000000000000000     
  0.78125000000000000       0.84375000000000000        0.0000000000000000     
  0.81250000000000000       0.84375000000000000        0.0000000000000000     
  0.84375000000000000       0.84375000000000000        0.0000000000000000     
  0.87500000000000000       0.84375000000000000        0.0000000000000000     
  0.75000000000000000       0.87500000000000000        0.0000000000000000     
  0.78125000000000000       0.87500000000000000        0.0000000000000000     
  0.81250000000000000       0.87500000000000000        0.0000000000000000     
  0.84375000000000000       0.87500000000000000        0.0000000000000000     
  0.87500000000000000       0.87500000000000000        0.0000000000000000     
  0.87500000000000000       0.75000000000000000        0.0000000000000000     
  0.90625000000000000       0.75000000000000000        0.0000000000000000     
  0.93750000000000000       0.75000000000000000        0.0000000000000000     
  0.96875000000000000       0.75000000000000000        0.0000000000000000     
   1.0000000000000000       0.75000000000000000        0.0000000000000000     
  0.87500000000000000       0.78125000000000000        0.0000000000000000     
  0.90625000000000000       0.78125000000000000        0.0000000000000000     
  0.93750000000000000       0.78125000000000000        0.0000000000000000     
  0.96875000000000000       0.78125000000000000        0.0000000000000000     
   1.0000000000000000       0.78125000000000000        0.0000000000000000     
  0.87500000000000000       0.81250000000000000        0.0000000000000000     
  0.90625000000000000       0.81250000000000000        0.0000000000000000     
  0.93750000000000000       0.81250000000000000        0.0000000000000000     
  0.96875000000000000       0.81250000000000000        0.0000000000000000     
   1.0000000000000000       0.81250000000000000        0.0000000000000000     
  0.87500000000000000       0.84375000000000000        0.0000000000000000     
  0.90625000000000000       0.84375000000000000        0.0000000000000000     
  0.93750000000000000       0.84375000000000000        0.0000000000000000     
  0.96875000000000000       0.84375000000000000        0.0000000000000000     
   1.0000000000000000       0.84375000000000000        0.0000000000000000     
  0.87500000000000000       0.87500000000000000        0.0000000000000000     
  0.90625000000000000       0.87500000000000000        0.0000000000000000     
  0.93750000000000000       0.87500000000000000        0.0000000000000000     
  0.96875000000000000       0.87500000000000000        0.0000000000000000     
   1.0000000000000000       0.87500000000000000        0.0000000000000000     
   0.0000000000000000       0.87500000000000000        0.0000000000000000     
   3.1250000000000000E-002  0.87500000000000000        0.0000000000000000     
   6.2500000000000000E-002  0.87500000000000000        0.0000000000000000     
   9.3750000000000000E-002  0.87500000000000000        0.0000000000000000     
  0.12500000000000000       0.87500000000000000        0.0000000000000000     
   0.0000000000000000       0.90625000000000000        0.0000000000000000     
   3.1250000000000000E-002  0.90625000000000000        0.0000000000000000     
   6.2500000000000000E-002  0.90625000000000000        0.0000000000000000     
   9.3750000000000000E-002  0.90625000000000000        0.0000000000000000     
  0.12500000000000000       0.90625000000000000        0.0000000000000000     
   0.0000000000000000       0.93750000000000000        0.0000000000000000     
   3.1250000000000000E-002  0.93750000000000000        0.0000000000000000     
   6.2500000000000000E-002  0.93750000000000000        0.0000000000000000     
   9.3750000000000000E-002  0.93750000000000000        0.0000000000000000     
  0.12500000000000000       0.93750000000000000        0.0000000000000000     
   0.0000000000000000       0.96875000000000000        0.0000000000000000     
   3.1250000000000000E-002  0.96875000000000000        0.0000000000000000     
   6.2500000000000000E-002  0.96875000000000000        0.0000000000000000     
   9.3750000000000000E-002  0.96875000000000000        0.0000000000000000     
  0.12500000000000000       0.96875000000000000        0.0000000000000000     
   0.0000000000000000        1.0000000000000000        0.0000000000000000     
   3.1250000000000000E-002   1.0000000000000000        0.0000000000000000     
   6.2500000000000000E-002   1.0000000000000000        0.0000000000000000     
   9.3750000000000000E-002   1.0000000000000000        0.0000000000000000     
  0.12500000000000000        1.0000000000000000        0.0000000000000000     
  0.12500000000000000       0.87500000000000000        0.0000000000000000     
  0.15625000000000000       0.87500000000000000        0.0000000000000000     
  0.18750000000000000       0.87500000000000000        0.0000000000000000     
  0.21875000000000000       0.87500000000000000        0.0000000000000000     
  0.25000000000000000       0.87500000000000000        0.0000000000000000     
  0.12500000000000000       0.90625000000000000        0.0000000000000000     
  0.15625000000000000       0.90625000000000000        0.0000000000000000     
  0.18750000000000000       0.90625000000000000        0.0000000000000000     
  0.21875000000000000       0.90625000000000000        0.0000000000000000     
  0.25000000000000000       0.90625000000000000        0.0000000000000000     
  0.12500000000000000       0.93750000000000000        0.0000000000000000     
  0.15625000000000000       0.93750000000000000        0.0000000000000000     
  0.18750000000000000       0.93750000000000000        0.0000000000000000     
  0.21875000000000000       0.93750000000000000        0.0000000000000000     
  0.25000000000000000       0.93750000000000000        0.0000000000000000     
  0.12500000000000000       0.96875000000000000        0.0000000000000000     
  0.15625000000000000       0.96875000000000000        0.0000000000000000     
  0.18750000000000000       0.96875000000000000        0.0000000000000000     
  0.21875000000000000       0.96875000000000000        0.0000000000000000     
  0.25000000000000000       0.96875000000000000        0.0000000000000000     
  0.12500000000000000        1.0000000000000000        0.0000000000000000     
  0.15625000000000000        1.0000000000000000        0.0000000000000000     
  0.18750000000000000        1.0000000000000000        0.0000000000000000     
  0.21875000000000000        1.0000000000000000        0.0000000000000000     
  0.25000000000000000        1.0000000000000000        0.0000000000000000     
  0.25000000000000000       0.87500000000000000        0.0000000000000000     
  0.28125000000000000       0.87500000000000000        0.0000000000000000     
  0.31250000000000000       0.87500000000000000        0.0000000000000000     
  0.34375000000000000       0.87500000000000000        0.0000000000000000     
  0.37500000000000000       0.87500000000000000        0.0000000000000000     
  0.25000000000000000       0.90625000000000000        0.0000000000000000     
  0.28125000000000000       0.90625000000000000        0.0000000000000000     
  0.31250000000000000       0.90625000000000000        0.0000000000000000     
  0.34375000000000000       0.90625000000000000        0.0000000000000000     
  0.37500000000000000       0.90625000000000000        0.0000000000000000     
  0.25000000000000000       0.93750000000000000        0.0000000000000000     
  0.28125000000000000       0.93750000000000000        0.0000000000000000     
  0.31250000000000000       0.93750000000000000        0.0000000000000000     
  0.34375000000000000       0.93750000000000000        0.0000000000000000     
  0.37500000000000000       0.93750000000000000        0.0000000000000000     
  0.25000000000000000       0.96875000000000000        0.0000000000000000     
  0.28125000000000000       0.96875000000000000        0.0000000000000000     
  0.31250000000000000       0.96875000000000000        0.0000000000000000     
  0.34375000000000000       0.96875000000000000        0.0000000000000000     
  0.37500000000000000       0.96875000000000000        0.0000000000000000     
  0.25000000000000000        1.0000000000000000        0.0000000000000000     
  0.28125000000000000        1.0000000000000000        0.0000000000000000     
  0.31250000000000000        1.0000000000000000        0.0000000000000000     
  0.34375000000000000        1.0000000000000000        0.0000000000000000     
  0.37500000000000000        1.0000000000000000        0.0000000000000000     
  0.37500000000000000       0.87500000000000000        0.0000000000000000     
  0.40625000000000000       0.87500000000000000        0.0000000000000000     
  0.43750000000000000       0.87500000000000000        0.0000000000000000     
  0.46875000000000000       0.87500000000000000        0.0000000000000000     
  0.50000000000000000       0.87500000000000000        0.0000000000000000     
  0.37500000000000000       0.90625000000000000        0.0000000000000000     
  0.40625000000000000       0.90625000000000000        0.0000000000000000     
  0.43750000000000000       0.90625000000000000        0.0000000000000000     
  0.46875000000000000       0.90625000000000000        0.0000000000000000     
  0.50000000000000000       0.90625000000000000        0.0000000000000000     
  0.37500000000000000       0.93750000000000000        0.0000000000000000     
  0.40625000000000000       0.93750000000000000        0.0000000000000000     
  0.43750000000000000       0.93750000000000000        0.0000000000000000     
  0.46875000000000000       0.93750000000000000        0.0000000000000000     
  0.50000000000000000       0.93750000000000000        0.0000000000000000     
  0.37500000000000000       0.96875000000000000        0.0000000000000000     
  0.40625000000000000       0.96875000000000000        0.0000000000000000     
  0.43750000000000000       0.96875000000000000        0.0000000000000000     
  0.46875000000000000       0.96875000000000000        0.0000000000000000     
  0.50000000000000000       0.96875000000000000        0.0000000000000000     
  0.37500000000000000        1.0000000000000000        0.0000000000000000     
  0.40625000000000000        1.0000000000000000        0.0000000000000000     
  0.43750000000000000        1.0000000000000000        0.0000000000000000     
  0.46875000000000000        1.0000000000000000        0.0000000000000000     
  0.50000000000000000        1.0000000000000000        0.0000000000000000     
  0.50000000000000000       0.87500000000000000        0.0000000000000000     
  0.53125000000000000       0.87500000000000000        0.0000000000000000     
  0.56250000000000000       0.87500000000000000        0.0000000000000000     
  0.59375000000000000       0.87500000000000000        0.0000000000000000     
  0.62500000000000000       0.87500000000000000        0.0000000000000000     
  0.50000000000000000       0.90625000000000000        0.0000000000000000     
  0.53125000000000000       0.90625000000000000        0.0000000000000000     
  0.56250000000000000       0.90625000000000000        0.0000000000000000     
  0.59375000000000000       0.90625000000000000        0.0000000000000000     
  0.62500000000000000       0.90625000000000000        0.0000000000000000     
  0.50000000000000000       0.93750000000000000        0.0000000000000000     
  0.53125000000000000       0.93750000000000000        0.0000000000000000     
  0.56250000000000000       0.93750000000000000        0.0000000000000000     
  0.59375000000000000       0.93750000000000000        0.0000000000000000     
  0.62500000000000000       0.93750000000000000        0.0000000000000000     
  0.50000000000000000       0.96875000000000000        0.0000000000000000     
  0.53125000000000000       0.96875000000000000        0.0000000000000000     
  0.56250000000000000       0.96875000000000000        0.0000000000000000     
  0.59375000000000000       0.96875000000000000        0.0000000000000000     
  0.62500000000000000       0.96875000000000000        0.0000000000000000     
  0.50000000000000000        1.0000000000000000        0.0000000000000000     
  0.53125000000000000        1.0000000000000000        0.0000000000000000     
  0.56250000000000000        1.0000000000000000        0.0000000000000000     
  0.59375000000000000        1.0000000000000000        0.0000000000000000     
  0.62500000000000000        1.0000000000000000        0.0000000000000000     
  0.62500000000000000       0.87500000000000000        0.0000000000000000     
  0.65625000000000000       0.87500000000000000        0.0000000000000000     
  0.68750000000000000       0.87500000000000000        0.0000000000000000     
  0.71875000000000000       0.87500000000000000        0.0000000000000000     
  0.75000000000000000       0.87500000000000000        0.0000000000000000     
  0.62500000000000000       0.90625000000000000        0.0000000000000000     
  0.65625000000000000       0.90625000000000000        0.0000000000000000     
  0.68750000000000000       0.90625000000000000        0.0000000000000000     
  0.71875000000000000       0.90625000000000000        0.0000000000000000     
  0.75000000000000000       0.90625000000000000        0.0000000000000000     
  0.62500000000000000       0.93750000000000000        0.0000000000000000     
  0.65625000000000000       0.93750000000000000        0.0000000000000000     
  0.68750000000000000       0.93750000000000000        0.0000000000000000     
  0.71875000000000000       0.93750000000000000        0.0000000000000000     
  0.75000000000000000       0.93750000000000000        0.0000000000000000     
  0.62500000000000000       0.96875000000000000        0.0000000000000000     
  0.65625000000000000       0.96875000000000000        0.0000000000000000     
  0.68750000000000000       0.96875000000000000        0.0000000000000000     
  0.71875000000000000       0.96875000000000000        0.0000000000000000     
  0.75000000000000000       0.96875000000000000        0.0000000000000000     
  0.62500000000000000        1.0000000000000000        0.0000000000000000     
  0.65625000000000000        1.0000000000000000        0.0000000000000000     
  0.68750000000000000        1.0000000000000000        0.0000000000000000     
  0.71875000000000000        1.0000000000000000        0.0000000000000000     
  0.75000000000000000        1.0000000000000000        0.0000000000000000     
  0.75000000000000000       0.87500000000000000        0.0000000000000000     
  0.78125000000000000       0.87500000000000000        0.0000000000000000     
  0.81250000000000000       0.87500000000000000        0.0000000000000000     
  0.84375000000000000       0.87500000000000000        0.0000000000000000     
  0.87500000000000000       0.87500000000000000        0.0000000000000000     
  0.75000000000000000       0.90625000000000000        0.0000000000000000     
  0.78125000000000000       0.90625000000000000        0.0000000000000000     
  0.81250000000000000       0.90625000000000000        0.0000000000000000     
  0.84375000000000000       0.90625000000000000        0.0000000000000000     
  0.87500000000000000       0.90625000000000000        0.0000000000000000     
  0.75000000000000000       0.93750000000000000        0.0000000000000000     
  0.78125000000000000       0.93750000000000000        0.0000000000000000     
  0.81250000000000000       0.93750000000000000        0.0000000000000000     
  0.84375000000000000       0.93750000000000000        0.0000000000000000     
  0.87500000000000000       0.93750000000000000        0.0000000000000000     
  0.75000000000000000       0.96875000000000000        0.0000000000000000     
  0.78125000000000000       0.96875000000000000        0.0000000000000000     
  0.81250000000000000       0.96875000000000000        0.0000000000000000     
  0.84375000000000000       0.96875000000000000        0.0000000000000000     
  0.87500000000000000       0.96875000000000000        0.0000000000000000     
  0.75000000000000000        1.0000000000000000        0.0000000000000000     
  0.78125000000000000        1.0000000000000000        0.0000000000000000     
  0.81250000000000000        1.0000000000000000        0.0000000000000000     
  0.84375000000000000        1.0000000000000000        0.0000000000000000     
  0.87500000000000000        1.0000000000000000        0.0000000000000000     
  0.87500000000000000       0.87500000000000000        0.0000000000000000     
  0.90625000000000000       0.87500000000000000        0.0000000000000000     
  0.93750000000000000       0.87500000000000000        0.0000000000000000     
  0.96875000000000000       0.87500000000000000        0.0000000000000000     
   1.0000000000000000       0.87500000000000000        0.0000000000000000     
  0.87500000000000000       0.90625000000000000        0.0000000000000000     
  0.90625000000000000       0.90625000000000000        0.0000000000000000     
  0.93750000000000000       0.90625000000000000        0.0000000000000000     
  0.96875000000000000       0.90625000000000000        0.0000000000000000     
   1.0000000000000000       0.90625000000000000        0.0000000000000000     
  0.87500000000000000       0.93750000000000000        0.0000000000000000     
  0.90625000000000000       0.93750000000000000        0.0000000000000000     
  0.93750000000000000       0.93750000000000000        0.0000000000000000     
  0.96875000000000000       0.93750000000000000        0.0000000000000000     
   1.0000000000000000       0.93750000000000000        0.0000000000000000     
  0.87500000000000000       0.96875000000000000        0.0000000000000000     
  0.90625000000000000       0.96875000000000000        0.0000000000000000     
  0.93750000000000000       0.96875000000000000        0.0000000000000000     
  0.96875000000000000       0.96875000000000000        0.0000000000000000     
   1.0000000000000000       0.96875000000000000        0.0000000000000000     
  0.87500000000000000        1.0000000000000000        0.0000000000000000     
  0.90625000000000000        1.0000000000000000        0.0000000000000000     
  0.93750000000000000        1.0000000000000000        0.0000000000000000     
  0.96875000000000000        1.0000000000000000        0.0000000000000000     
   1.0000000000000000        1.0000000000000000        0.0000000000000000     
 </DataArray>
 </Points>
 <Cells>
 <DataArray  type="Int32"  Name="connectivity"  format="ascii">
           0           1           6           5
           1           2           7           6
           2           3           8           7
           3           4           9           8
           5           6          11          10
           6           7          12          11
           7           8          13          12
           8           9          14          13
          10          11          16          15
          11          12          17          16
          12          13          18          17
          13          14          19          18
          15          16          21          20
          16          17          22          21
          17          18          23          22
          18          19          24          23
          25          26          31          30
          26          27          32          31
          27          28          33          32
          28          29          34          33
          30          31          36          35
          31          32          37          36
          32          33          38          37
          33          34          39          38
          35          36          41          40
          36          37          42          41
          37          38          43          42
          38          39          44          43
          40          41          46          45
          41          42          47          46
          42          43          48          47
          43          44          49          48
          50          51          56          55
          51          52          57          56
          52          53          58          57
          53          54          59          58
          55          56          61          60
          56          57          62          61
          57          58          63          62
          58          59          64          63
          60          61          66          65
          61          62          67          66
          62          63          68          67
          63          64          69          68
          65          66          71          70
          66          67          72          71
          67          68          73          72
          68          69          74          73
          75          76          81          80
          76          77          82          81
          77          78          83          82
          78          79          84          83
          80          81          86          85
          81          82          87          86
          82          83          88          87
          83          84          89          88
          85          86          91          90
          86          87          92          91
          87          88          93          92
          88          89          94          93
          90          91          96          95
          91          92          97          96
          92          93          98          97
          93          94          99          98
         100         101         106         105
         101         102         107         106
         102         103         108         107
         103         104         109         108
         105         106         111         110
         106         107         112         111
         107         108         113         112
         108         109         114         113
         110         111         116         115
         111         112         117         116
         112         113         118         117
         113         114         119         118
         115         116         121         120
         116         117         122         121
         117         118         123         122
         118         119         124         123
         125         126         131         130
         126         127         132         131
         127         128         133         132
         128         129         134         133
         130         131         136         135
         131         132         137         136
         132         133         138         137
         133         134         139         138
         135         136         141         140
         136         137         142         141
         137         138         143         142
         138         139         144         143
         140         141         146         145
         141         142         147         146
         142         143         148         147
         143         144         149         148
         150         151         156         155
         151         152         157         156
         152         153         158         157
         153         154         159         158
         155         156         161         160
         156         157         162         161
         157         158         163         162
         158         159         164         163
         160         161         166         165
         161         162         167         166
         162         163         168         167
         163         164         169         168
         165         166         171         170
         166         167         172         171
         167         168         173         172
         168         169         174         173
         175         176         181         180
         176         177         182         181
         177         178         183         182
         178         179         184         183
         180         181         186         185
         181         182         187         186
         182         183         188         187
         183         184         189         188
         185         186         191         190
         186         187         192         191
         187         188         193         192
         188         189         194         193
         190         191         196         195
         191         192         197         196
         192         193         198         197
         193         194         199         198
         200         201         206         205
         201         202         207         206
         202         203         208         207
         203         204         209         208
         205         206         211         210
         206         207         212         211
         207         208         213         212
         208         209         214         213
         210         211         216         215
         211         212         217         216
         212         213         218         217
         213         214         219         218
         215         216         221         220
         216         217         222         221
         217         218         223         222
         218         219         224         223
         225         226         231         230
         226         227         232         231
         227         228         233         232
         228         229         234         233
         230         231         236         235
         231         232         237         236
         232         233         238         237
         233         234         239         238
         235         236         241         240
         236         237         242         241
         237         238         243         242
         238         239         244         243
         240         241         246         245
         241         242         247         246
         242         243         248         247
         243         244         249         248
         250         251         256         255
         251         252         257         256
         252         253         258         257
         253         254         259         258
         255         256         261         260
         256         257         262         261
         257         258         263         262
         258         259         264         263
         260         261         266         265
         261         262         267         266
         262         263         268         267
         263         264         269         268
         265         266         271         270
         266         267         272         271
         267         268         273         272
         268         269         274         273
         275         276         281         280
         276         277         282         281
         277         278         283         282
         278         279         284         283
         280         281         286         285
         281         282         287         286
         282         283         288         287
         283         284         289         288
         285         286         291         290
         286         287         292         291
         287         288         293         292
         288         289         294         293
         290         291         296         295
         291         292         297         296
         292         293         298         297
         293         294         299         298
         300         301         306         305
         301         302         307         306
         302         303         308         307
         303         304         309         308
         305         306         311         310
         306         307         312         311
         307         308         313         312
         308         309         314         313
         310         311         316         315
         311         312         317         316
         312         313         318         317
         313         314         319         318
         315         316         321         320
         316         317         322         321
         317         318         323         322
         318         319         324         323
         325         326         331         330
         326         327         332         331
         327         328         333         332
         328         329         334         333
         330         331         336         335
         331         332         337         336
         332         333         338         337
         333         334         339         338
         335         336         341         340
         336         337         342         341
         337         338         343         342
         338         339         344         343
         340         341         346         345
         341         342         347         346
         342         343         348         347
         343         344         349         348
         350         351         356         355
         351         352         357         356
         352         353         358         357
         353         354         359         358
         355         356         361         360
         356         357         362         361
         357         358         363         362
         358         359         364         363
         360         361         366         365
         361         362         367         366
         362         363         368         367
         363         364         369         368
         365         366         371         370
         366         367         372         371
         367         368         373         372
         368         369         374         373
         375         376         381         380
         376         377         382         381
         377         378         383         382
         378         379         384         383
         380         381         386         385
         381         382         387         386
         382         383         388         387
         383         384         389         388
         385         386         391         390
         386         387         392         391
         387         388         393         392
         388         389         394         393
         390         391         396         395
         391         392         397         396
         392         393         398         397
         393         394         399         398
         400         401         406         405
         401         402         407         406
         402         403         408         407
         403         404         409         408
         405         406         411         410
         406         407         412         411
         407         408         413         412
         408         409         414         413
         410         411         416         415
         411         412         417         416
         412         413         418         417
         413         414         419         418
         415         416         421         420
         416         417         422         421
         417         418         423         422
         418         419         424         423
         425         426         431         430
         426         427         432         431
         427         428         433         432
         428         429         434         433
         430         431         436         435
         431         432         437         436
         432         433         438         437
         433         434         439         438
         435         436         441         440
         436         437         442         441
         437         438         443         442
         438         439         444         443
         440         441         446         445
         441         442         447         446
         442         443         448         447
         443         444         449         448
         450         451         456         455
         451         452         457         456
         452         453         458         457
         453         454         459         458
         455         456         461         460
         456         457         462         461
         457         458         463         462
         458         459         464         463
         460         461         466         465
         461         462         467         466
         462         463         468         467
         463         464         469         468
         465         466         471         470
         466         467         472         471
         467         468         473         472
         468         469         474         473
         475         476         481         480
         476         477         482         481
         477         478         483         482
         478         479         484         483
         480         481         486         485
         481         482         487         486
         482         483         488         487
         483         484         489         488
         485         486         491         490
         486         487         492         491
         487         488         493         492
         488         489         494         493
         490         491         496         495
         491         492         497         496
         492         493         498         497
         493         494         499         498
         500         501         506         505
         501         502         507         506
         502         503         508         507
         503         504         509         508
         505         506         511         510
         506         507         512         511
         507         508         513         512
         508         509         514         513
         510         511         516         515
         511         512         517         516
         512         513         518         517
         513         514         519         518
         515         516         521         520
         516         517         522         521
         517         518         523         522
         518         519         524         523
         525         526         531         530
         526         527         532         531
         527         528         533         532
         528         529         534         533
         530         531         536         535
         531         532         537         536
         532         533         538         537
         533         534         539         538
         535         536         541         540
         536         537         542         541
         537         538         543         542
         538         539         544         543
         540         541         546         545
         541         542         547         546
         542         543         548         547
         543         544         549         548
         550         551         556         555
         551         552         557         556
         552         553         558         557
         553         554         559         558
         555         556         561         560
         556         557         562         561
         557         558         563         562
         558         559         564         563
         560         561         566         565
         561         562         567         566
         562         563         568         567
         563         564         569         568
         565         566         571         570
         566         567         572         571
         567         568         573         572
         568         569         574         573
         575         576         581         580
         576         577         582         581
         577         578         583         582
         578         579         584         583
         580         581         586         585
         581         582         587         586
         582         583         588         587
         583         584         589         588
         585         586         591         590
         586         587         592         591
         587         588         593         592
         588         589         594         593
         590         591         596         595
         591         592         597         596
         592         593         598         597
         593         594         599         598
         600         601         606         605
         601         602         607         606
         602         603         608         607
         603         604         609         608
         605         606         611         610
         606         607         612         611
         607         608         613         612
         608         609         614         613
         610         611         616         615
         611         612         617         616
         612         613         618         617
         613         614         619         618
         615         616         621         620
         616         617         622         621
         617         618         623         622
         618         619         624         623
         625         626         631         630
         626         627         632         631
         627         628         633         632
         628         629         634         633
         630         631         636         635
         631         632         637         636
         632         633         638         637
         633         634         639         638
         635         636         641         640
         636         637         642         641
         637         638         643         642
         638         639         644         643
         640         641         646         645
         641         642         647         646
         642         643         648         647
         643         644         649         648
         650         651         656         655
         651         652         657         656
         652         653         658         657
         653         654         659         658
         655         656         661         660
         656         657         662         661
         657         658         663         662
         658         659         664         663
         660         661         666         665
         661         662         667         666
         662         663         668         667
         663         664         669         668
         665         666         671         670
         666         667         672         671
         667         668         673         672
         668         669         674         673
         675         676         681         680
         676         677         682         681
         677         678         683         682
         678         679         684         683
         680         681         686         685
         681         682         687         686
         682         683         688         687
         683         684         689         688
         685         686         691         690
         686         687         692         691
         687         688         693         692
         688         689         694         693
         690         691         696         695
         691         692         697         696
         692         693         698         697
         693         694         699         698
         700         701         706         705
         701         702         707         706
         702         703         708         707
         703         704         709         708
         705         706         711         710
         706         707         712         711
         707         708         713         712
         708         709         714         713
         710         711         716         715
         711         712         717         716
         712         713         718         717
         713         714         719         718
         715         716         721         720
         716         717         722         721
         717         718         723         722
         718         719         724         723
         725         726         731         730
         726         727         732         731
         727         728         733         732
         728         729         734         733
         730         731         736         735
         731         732         737         736
         732         733         738         737
         733         734         739         738
         735         736         741         740
         736         737         742         741
         737         738         743         742
         738         739         744         743
         740         741         746         745
         741         742         747         746
         742         743         748         747
         743         744         749         748
         750         751         756         755
         751         752         757         756
         752         753         758         757
         753         754         759         758
         755         756         761         760
         756         757         762         761
         757         758         763         762
         758         759         764         763
         760         761         766         765
         761         762         767         766
         762         763         768         767
         763         764         769         768
         765         766         771         770
         766         767         772         771
         767         768         773         772
         768         769         774         773
         775         776         781         780
         776         777         782         781
         777         778         783         782
         778         779         784         783
         780         781         786         785
         781         782         787         786
         782         783         788         787
         783         784         789         788
         785         786         791         790
         786         787         792         791
         787         788         793         792
         788         789         794         793
         790         791         796         795
         791         792         797         796
         792         793         798         797
         793         794         799         798
         800         801         806         805
         801         802         807         806
         802         803         808         807
         803         804         809         808
         805         806         811         810
         806         807         812         811
         807         808         813         812
         808         809         814         813
         810         811         816         815
         811         812         817         816
         812         813         818         817
         813         814         819         818
         815         816         821         820
         816         817         822         821
         817         818         823         822
         818         819         824         823
         825         826         831         830
         826         827         832         831
         827         828         833         832
         828         829         834         833
         830         831         836         835
         831         832         837         836
         832         833         838         837
         833         834         839         838
         835         836         841         840
         836         837         842         841
         837         838         843         842
         838         839         844         843
         840         841         846         845
         841         842         847         846
         842         843         848         847
         843         844         849         848
         850         851         856         855
         851         852         857         856
         852         853         858         857
         853         854         859         858
         855         856         861         860
         856         857         862         861
         857         858         863         862
         858         859         864         863
         860         861         866         865
         861         862         867         866
         862         863         868         867
         863         864         869         868
         865         866         871         870
         866         867         872         871
         867         868         873         872
         868         869         874         873
         875         876         881         880
         876         877         882         881
         877         878         883         882
         878         879         884         883
         880         881         886         885
         881         882         887         886
         882         883         888         887
         883         884         889         888
         885         886         891         890
         886         887         892         891
         887         888         893         892
         888         889         894         893
         890         891         896         895
         891         892         897         896
         892         893         898         897
         893         894         899         898
         900         901         906         905
         901         902         907         906
         902         903         908         907
         903         904         909         908
         905         906         911         910
         906         907         912         911
         907         908         913         912
         908         909         914         913
         910         911         916         915
         911         912         917         916
         912         913         918         917
         913         914         919         918
         915         916         921         920
         916         917         922         921
         917         918         923         922
         918         919         924         923
         925         926         931         930
         926         927         932         931
         927         928         933         932
         928         929         934         933
         930         931         936         935
         931         932         937         936
         932         933         938         937
         933         934         939         938
         935         936         941         940
         936         937         942         941
         937         938         943         942
         938         939         944         943
         940         941         946         945
         941         942         947         946
         942         943         948         947
         943         944         949         948
         950         951         956         955
         951         952         957         956
         952         953         958         957
         953         954         959         958
         955         956         961         960
         956         957         962         961
         957         958         963         962
         958         959         964         963
         960         961         966         965
         961         962         967         966
         962         963         968         967
         963         964         969         968
         965         966         971         970
         966         967         972         971
         967         968         973         972
         968         969         974         973
         975         976         981         980
         976         977         982         981
         977         978         983         982
         978         979         984         983
         980         981         986         985
         981         982         987         986
         982         983         988         987
         983         984         989         988
         985         986         991         990
         986         987         992         991
         987         988         993         992
         988         989         994         993
         990         991         996         995
         991         992         997         996
         992         993         998         997
         993         994         999         998
        1000        1001        1006        1005
        1001        1002        1007        1006
        1002        1003        1008        1007
        1003        1004        1009        1008
        1005        1006        1011        1010
        1006        1007        1012        1011
        1007        1008        1013        1012
        1008        1009        1014        1013
        1010        1011        1016        1015
        1011        1012        1017        1016
        1012        1013        1018        1017
        1013        1014        1019        1018
        1015        1016        1021        1020
        1016        1017        1022        1021
        1017        1018        1023        1022
        1018        1019        1024        1023
        1025        1026        1031        1030
        1026        1027        1032        1031
        1027        1028        1033        1032
        1028        1029        1034        1033
        1030        1031        1036        1035
        1031        1032        1037        1036
        1032        1033        1038        1037
        1033        1034        1039        1038
        1035        1036        1041        1040
        1036        1037        1042        1041
        1037        1038        1043        1042
        1038        1039        1044        1043
        1040        1041        1046        1045
        1041        1042        1047        1046
        1042        1043        1048        1047
        1043        1044        1049        1048
        1050        1051        1056        1055
        1051        1052        1057        1056
        1052        1053        1058        1057
        1053        1054        1059        1058
        1055        1056        1061        1060
        1056        1057        1062        1061
        1057        1058        1063        1062
        1058        1059        1064        1063
        1060        1061        1066        1065
        1061        1062        1067        1066
        1062        1063        1068        1067
        1063        1064        1069        1068
        1065        1066        1071        1070
        1066        1067        1072        1071
        1067        1068        1073        1072
        1068        1069        1074        1073
        1075        1076        1081        1080
        1076        1077        1082        1081
        1077        1078        1083        1082
        1078        1079        1084        1083
        1080        1081        1086        1085
        1081        1082        1087        1086
        1082        1083        1088        1087
        1083        1084        1089        1088
        1085        1086        1091        1090
        1086        1087        1092        1091
        1087        1088        1093        1092
        1088        1089        1094        1093
        1090        1091        1096        1095
        1091        1092        1097        1096
        1092        1093        1098        1097
        1093        1094        1099        1098
        1100        1101        1106        1105
        1101        1102        1107        1106
        1102        1103        1108        1107
        1103        1104        1109        1108
        1105        1106        1111        1110
        1106        1107        1112        1111
        1107        1108        1113        1112
        1108        1109        1114        1113
        1110        1111        1116        1115
        1111        1112        1117        1116
        1112        1113        1118        1117
        1113        1114        1119        1118
        1115        1116        1121        1120
        1116        1117        1122        1121
        1117        1118        1123        1122
        1118        1119        1124        1123
        1125        1126        1131        1130
        1126        1127        1132        1131
        1127        1128        1133        1132
        1128        1129        1134        1133
        1130        1131        1136        1135
        1131        1132        1137        1136
        1132        1133        1138        1137
        1133        1134        1139        1138
        1135        1136        1141        1140
        1136        1137        1142        1141
        1137        1138        1143        1142
        1138        1139        1144        1143
        1140        1141        1146        1145
        1141        1142        1147        1146
        1142        1143        1148        1147
        1143        1144        1149        1148
        1150        1151        1156        1155
        1151        1152        1157        1156
        1152        1153        1158        1157
        1153        1154        1159        1158
        1155        1156        1161        1160
        1156        1157        1162        1161
        1157        1158        1163        1162
        1158        1159        1164        1163
        1160        1161        1166        1165
        1161        1162        1167        1166
        1162        1163        1168        1167
        1163        1164        1169        1168
        1165        1166        1171        1170
        1166        1167        1172        1171
        1167        1168        1173        1172
        1168        1169        1174        1173
        1175        1176        1181        1180
        1176        1177        1182        1181
        1177        1178        1183        1182
        1178        1179        1184        1183
        1180        1181        1186        1185
        1181        1182        1187        1186
        1182        1183        1188        1187
        1183        1184        1189        1188
        1185        1186        1191        1190
        1186        1187        1192        1191
        1187        1188        1193        1192
        1188        1189        1194        1193
        1190        1191        1196        1195
        1191        1192        1197        1196
        1192        1193        1198        1197
        1193        1194        1199        1198
        1200        1201        1206        1205
        1201        1202        1207        1206
        1202        1203        1208        1207
        1203        1204        1209        1208
        1205        1206        1211        1210
        1206        1207        1212        1211
        1207        1208        1213        1212
        1208        1209        1214        1213
        1210        1211        1216        1215
        1211        1212        1217        1216
        1212        1213        1218        1217
        1213        1214        1219        1218
        1215        1216        1221        1220
        1216        1217        1222        1221
        1217        1218        1223        1222
        1218        1219        1224        1223
        1225        1226        1231        1230
        1226        1227        1232        1231
        1227        1228        1233        1232
        1228        1229        1234        1233
        1230        1231        1236        1235
        1231        1232        1237        1236
        1232        1233        1238        1237
        1233        1234        1239        1238
        1235        1236        1241        1240
        1236        1237        1242        1241
        1237        1238        1243        1242
        1238        1239        1244        1243
        1240        1241        1246        1245
        1241        1242        1247        1246
        1242        1243        1248        1247
        1243        1244        1249        1248
        1250        1251        1256        1255
        1251        1252        1257        1256
        1252        1253        1258        1257
        1253        1254        1259        1258
        1255        1256        1261        1260
        1256        1257        1262        1261
        1257        1258        1263        1262
        1258        1259        1264        1263
        1260        1261        1266        1265
        1261        1262        1267        1266
        1262        1263        1268        1267
        1263        1264        1269        1268
        1265        1266        1271        1270
        1266        1267        1272        1271
        1267        1268        1273        1272
        1268        1269        1274        1273
        1275        1276        1281        1280
        1276        1277        1282        1281
        1277        1278        1283        1282
        1278        1279        1284        1283
        1280        1281        1286        1285
        1281        1282        1287        1286
        1282        1283        1288        1287
        1283        1284        1289        1288
        1285        1286        1291        1290
        1286        1287        1292        1291
        1287        1288        1293        1292
        1288        1289        1294        1293
        1290        1291        1296        1295
        1291        1292        1297        1296
        1292        1293        1298        1297
        1293        1294        1299        1298
        1300        1301        1306        1305
        1301        1302        1307        1306
        1302        1303        1308        1307
        1303        1304        1309        1308
        1305        1306        1311        1310
        1306        1307        1312        1311
        1307        1308        1313        1312
        1308        1309        1314        1313
        1310        1311        1316        1315
        1311        1312        1317        1316
        1312        1313        1318        1317
        1313        1314        1319        1318
        1315        1316        1321        1320
        1316        1317        1322        1321
        1317        1318        1323        1322
        1318        1319        1324        1323
        1325        1326        1331        1330
        1326        1327        1332        1331
        1327        1328        1333        1332
        1328        1329        1334        1333
        1330        1331        1336        1335
        1331        1332        1337        1336
        1332        1333        1338        1337
        1333        1334        1339        1338
        1335        1336        1341        1340
        1336        1337        1342        1341
        1337        1338        1343        1342
        1338        1339        1344        1343
        1340        1341        1346        1345
        1341        1342        1347        1346
        1342        1343        1348        1347
        1343        1344        1349        1348
        1350        1351        1356        1355
        1351        1352        1357        1356
        1352        1353        1358        1357
        1353        1354        1359        1358
        1355        1356        1361        1360
        1356        1357        1362        1361
        1357        1358        1363        1362
        1358        1359        1364        1363
        1360        1361        1366        1365
        1361        1362        1367        1366
        1362        1363        1368        1367
        1363        1364        1369        1368
        1365        1366        1371        1370
        1366        1367        1372        1371
        1367        1368        1373        1372
        1368        1369        1374        1373
        1375        1376        1381        1380
        1376        1377        1382        1381
        1377        1378        1383        1382
        1378        1379        1384        1383
        1380        1381        1386        1385
        1381        1382        1387        1386
        1382        1383        1388        1387
        1383        1384        1389        1388
        1385        1386        1391        1390
        1386        1387        1392        1391
        1387        1388        1393        1392
        1388        1389        1394        1393
        1390        1391        1396        1395
        1391        1392        1397        1396
        1392        1393        1398        1397
        1393        1394        1399        1398
        1400        1401        1406        1405
        1401        1402        1407        1406
        1402        1403        1408        1407
        1403        1404        1409        1408
        1405        1406        1411        1410
        1406        1407        1412        1411
        1407        1408        1413        1412
        1408        1409        1414        1413
        1410        1411        1416        1415
        1411        1412        1417        1416
        1412        1413        1418        1417
        1413        1414        1419        1418
        1415        1416        1421        1420
        1416        1417        1422        1421
        1417        1418        1423        1422
        1418        1419        1424        1423
        1425        1426        1431        1430
        1426        1427        1432        1431
        1427        1428        1433        1432
        1428        1429        1434        1433
        1430        1431        1436        1435
        1431        1432        1437        1436
        1432        1433        1438        1437
        1433        1434        1439        1438
        1435        1436        1441        1440
        1436        1437        1442        1441
        1437        1438        1443        1442
        1438        1439        1444        1443
        1440        1441        1446        1445
        1441        1442        1447        1446
        1442        1443        1448        1447
        1443        1444        1449        1448
        1450        1451        1456        1455
        1451        1452        1457        1456
        1452        1453        1458        1457
        1453        1454        1459        1458
        1455        1456        1461        1460
        1456        1457        1462        1461
        1457        1458        1463        1462
        1458        1459        1464        1463
        1460        1461        1466        1465
        1461        1462        1467        1466
        1462        1463        1468        1467
        1463        1464        1469        1468
        1465        1466        1471        1470
        1466        1467        1472        1471
        1467        1468        1473        1472
        1468        1469        1474        1473
        1475        1476        1481        1480
        1476        1477        1482        1481
        1477        1478        1483        1482
        1478        1479        1484        1483
        1480        1481        1486        1485
        1481        1482        1487        1486
        1482        1483        1488        1487
        1483        1484        1489        1488
        1485        1486        1491        1490
        1486        1487        1492        1491
        1487        1488        1493        1492
        1488        1489        1494        1493
        1490        1491        1496        1495
        1491        1492        1497        1496
        1492        1493        1498        1497
        1493        1494        1499        1498
        1500        1501        1506        1505
        1501        1502        1507        1506
        1502        1503        1508        1507
        1503        1504        1509        1508
        1505        1506        1511        1510
        1506        1507        1512        1511
        1507        1508        1513        1512
        1508        1509        1514        1513
        1510        1511        1516        1515
        1511        1512        1517        1516
        1512        1513        1518        1517
        1513        1514        1519        1518
        1515        1516        1521        1520
        1516        1517        1522        1521
        1517        1518        1523        1522
        1518        1519        1524        1523
        1525        1526        1531        1530
        1526        1527        1532        1531
        1527        1528        1533        1532
        1528        1529        1534        1533
        1530        1531        1536        1535
        1531        1532        1537        1536
        1532        1533        1538        1537
        1533        1534        1539        1538
        1535        1536        1541        1540
        1536        1537        1542        1541
        1537        1538        1543        1542
        1538        1539        1544        1543
        1540        1541        1546        1545
        1541        1542        1547        1546
        1542        1543        1548        1547
        1543        1544        1549        1548
        1550        1551        1556        1555
        1551        1552        1557        1556
        1552        1553        1558        1557
        1553        1554        1559        1558
        1555        1556        1561        1560
        1556        1557        1562        1561
        1557        1558        1563        1562
        1558        1559        1564        1563
        1560        1561        1566        1565
        1561        1562        1567        1566
        1562        1563        1568        1567
        1563        1564        1569        1568
        1565        1566        1571        1570
        1566        1567        1572        1571
        1567        1568        1573        1572
        1568        1569        1574        1573
        1575        1576        1581        1580
        1576        1577        1582        1581
        1577        1578        1583        1582
        1578        1579        1584        1583
        1580        1581        1586        1585
        1581        1582        1587        1586
        1582        1583        1588        1587
        1583        1584        1589        1588
        1585        1586        1591        1590
        1586        1587        1592        1591
        1587        1588        1593        1592
        1588        1589        1594        1593
        1590        1591        1596        1595
        1591        1592        1597        1596
        1592        1593        1598        1597
        1593        1594        1599        1598
 </DataArray>
 <DataArray  type="Int32"  Name="offsets"  format="ascii"> 
           4
           8
          12
          16
          20
          24
          28
          32
          36
          40
          44
          48
          52
          56
          60
          64
          68
          72
          76
          80
          84
          88
          92
          96
         100
         104
         108
         112
         116
         120
         124
         128
         132
         136
         140
         144
         148
         152
         156
         160
         164
         168
         172
         176
         180
         184
         188
         192
         196
         200
         204
         208
         212
         216
         220
         224
         228
         232
         236
         240
         244
         248
         252
         256
         260
         264
         268
         272
         276
         280
         284
         288
         292
         296
         300
         304
         308
         312
         316
         320
         324
         328
         332
         336
         340
         344
         348
         352
         356
         360
         364
         368
         372
         376
         380
         384
         388
         392
         396
         400
         404
         408
         412
         416
         420
         424
         428
         432
         436
         440
         444
         448
         452
         456
         460
         464
         468
         472
         476
         480
         484
         488
         492
         496
         500
         504
         508
         512
         516
         520
         524
         528
         532
         536
         540
         544
         548
         552
         556
         560
         564
         568
         572
         576
         580
         584
         588
         592
         596
         600
         604
         608
         612
         616
         620
         624
         628
         632
         636
         640
         644
         648
         652
         656
         660
         664
         668
         672
         676
         680
         684
         688
         692
         696
         700
         704
         708
         712
         716
         720
         724
         728
         732
         736
         740
         744
         748
         752
         756
         760
         764
         768
         772
         776
         780
         784
         788
         792
         796
         800
         804
         808
         812
         816
         820
         824
         828
         832
         836
         840
         844
         848
         852
         856
         860
         864
         868
         872
         876
         880
         884
         888
         892
         896
         900
         904
         908
         912
         916
         920
         924
         928
         932
         936
         940
         944
         948
         952
         956
         960
         964
         968
         972
         976
         980
         984
         988
         992
         996
        1000
        1004
        1008
        1012
        1016
        1020
        1024
        1028
        1032
        1036
        1040
        1044
        1048
        1052
        1056
        1060
        1064
        1068
        1072
        1076
        1080
        1084
        1088
        1092
        1096
        1100
        1104
        1108
        1112
        1116
        1120
        1124
        1128
        1132
        1136
        1140
        1144
        1148
        1152
        1156
        1160
        1164
        1168
        1172
        1176
        1180
        1184
        1188
        1192
        1196
        1200
        1204
        1208
        1212
        1216
        1220
        1224
        1228
        1232
        1236
        1240
        1244
        1248
        1252
        1256
        1260
        1264
        1268
        1272
        1276
        1280
        1284
        1288
        1292
        1296
        1300
        1304
        1308
        1312
        1316
        1320
        1324
        1328
        1332
        1336
        1340
        1344
        1348
        1352
        1356
        1360
        1364
        1368
        1372
        1376
        1380
        1384
        1388
        1392
        1396
        1400
        1404
        1408
        1412
        1416
        1420
        1424
        1428
        1432
        1436
        1440
        1444
        1448
        1452
        1456
        1460
        1464
        1468
        1472
        1476
        1480
        1484
        1488
        1492
        1496
        1500
        1504
        1508
        1512
        1516
        1520
        1524
        1528
        1532
        1536
        1540
        1544
        1548
        1552
        1556
        1560
        1564
        1568
        1572
        1576
        1580
        1584
        1588
        1592
        1596
        1600
        1604
        1608
        1612
        1616
        1620
        1624
        1628
        1632
        1636
        1640
        1644
        1648
        1652
        1656
        1660
        1664
        1668
        1672
        1676
        1680
        1684
        1688
        1692
        1696
        1700
        1704
        1708
        1712
        1716
        1720
        1724
        1728
        1732
        1736
        1740
        1744
        1748
        1752
        1756
        1760
        1764
        1768
        1772
        1776
        1780
        1784
        1788
        1792
        1796
        1800
        1804
        1808
        1812
        1816
        1820
        1824
        1828
        1832
        1836
        1840
        1844
        1848
        1852
        1856
        1860
        1864
        1868
        1872
        1876
        1880
        1884
        1888
        1892
        1896
        1900
        1904
        1908
        1912
        1916
        1920
        1924
        1928
        1932
        1936
        1940
        1944
        1948
        1952
        1956
        1960
        1964
        1968
        1972
        1976
        1980
        1984
        1988
        1992
        1996
        2000
        2004
        2008
        2012
        2016
        2020
        2024
        2028
        2032
        2036
        2040
        2044
        2048
        2052
        2056
        2060
        2064
        2068
        2072
        2076
        2080
        2084
        2088
        2092
        2096
        2100
        2104
        2108
        2112
        2116
        2120
        2124
        2128
        2132
        2136
        2140
        2144
        2148
        2152
        2156
        2160
        2164
        2168
        2172
        2176
        2180
        2184
        2188
        2192
        2196
        2200
        2204
        2208
        2212
        2216
        2220
        2224
        2228
        2232
        2236
        2240
        2244
        2248
        2252
        2256
        2260
        2264
        2268
        2272
        2276
        2280
        2284
        2288
        2292
        2296
        2300
        2304
        2308
        2312
        2316
        2320
        2324
        2328
        2332
        2336
        2340
        2344
        2348
        2352
        2356
        2360
        2364
        2368
        2372
        2376
        2380
        2384
        2388
        2392
        2396
        2400
        2404
        2408
        2412
        2416
        2420
        2424
        2428
        2432
        2436
        2440
        2444
        2448
        2452
        2456
        2460
        2464
        2468
        2472
        2476
        2480
        2484
        2488
        2492
        2496
        2500
        2504
        2508
        2512
        2516
        2520
        2524
        2528
        2532
        2536
        2540
        2544
        2548
        2552
        2556
        2560
        2564
        2568
        2572
        2576
        2580
        2584
        2588
        2592
        2596
        2600
        2604
        2608
        2612
        2616
        2620
        2624
        2628
        2632
        2636
        2640
        2644
        2648
        2652
        2656
        2660
        2664
        2668
        2672
        2676
        2680
        2684
        2688
        2692
        2696
        2700
        2704
        2708
        2712
        2716
        2720
        2724
        2728
        2732
        2736
        2740
        2744
        2748
        2752
        2756
        2760
        2764
        2768
        2772
        2776
        2780
        2784
        2788
        2792
        2796
        2800
        2804
        2808
        2812
        2816
        2820
        2824
        2828
        2832
        2836
        2840
        2844
        2848
        2852
        2856
        2860
        2864
        2868
        2872
        2876
        2880
        2884
        2888
        2892
        2896
        2900
        2904
        2908
        2912
        2916
        2920
        2924
        2928
        2932
        2936
        2940
        2944
        2948
        2952
        2956
        2960
        2964
        2968
        2972
        2976
        2980
        2984
        2988
        2992
        2996
        3000
        3004
        3008
        3012
        3016
        3020
        3024
        3028
        3032
        3036
        3040
        3044
        3048
        3052
        3056
        3060
        3064
        3068
        3072
        3076
        3080
        3084
        3088
        3092
        3096
        3100
        3104
        3108
        3112
        3116
        3120
        3124
        3128
        3132
        3136
        3140
        3144
        3148
        3152
        3156
        3160
        3164
        3168
        3172
        3176
        3180
        3184
        3188
        3192
        3196
        3200
        3204
        3208
        3212
        3216
        3220
        3224
        3228
        3232
        3236
        3240
        3244
        3248
        3252
        3256
        3260
        3264
        3268
        3272
        3276
        3280
        3284
        3288
        3292
        3296
        3300
        3304
        3308
        3312
        3316
        3320
        3324
        3328
        3332
        3336
        3340
        3344
        3348
        3352
        3356
        3360
        3364
        3368
        3372
        3376
        3380
        3384
        3388
        3392
        3396
        3400
        3404
        3408
        3412
        3416
        3420
        3424
        3428
        3432
        3436
        3440
        3444
        3448
        3452
        3456
        3460
        3464
        3468
        3472
        3476
        3480
        3484
        3488
        3492
        3496
        3500
        3504
        3508
        3512
        3516
        3520
        3524
        3528
        3532
        3536
        3540
        3544
        3548
        3552
        3556
        3560
        3564
        3568
        3572
        3576
        3580
        3584
        3588
        3592
        3596
        3600
        3604
        3608
        3612
        3616
        3620
        3624
        3628
        3632
        3636
        3640
        3644
        3648
        3652
        3656
        3660
        3664
        3668
        3672
        3676
        3680
        3684
        3688
        3692
        3696
        3700
        3704
        3708
        3712
        3716
        3720
        3724
        3728
        3732
        3736
        3740
        3744
        3748
        3752
        3756
        3760
        3764
        3768
        3772
        3776
        3780
        3784
        3788
        3792
        3796
        3800
        3804
        3808
        3812
        3816
        3820
        3824
        3828
        3832
        3836
        3840
        3844
        3848
        3852
        3856
        3860
        3864
        3868
        3872
        3876
        3880
        3884
        3888
        3892
        3896
        3900
        3904
        3908
        3912
        3916
        3920
        3924
        3928
        3932
        3936
        3940
        3944
        3948
        3952
        3956
        3960
        3964
        3968
        3972
        3976
        3980
        3984
        3988
        3992
        3996
        4000
        4004
        4008
        4012
        4016
        4020
        4024
        4028
        4032
        4036
        4040
        4044
        4048
        4052
        4056
        4060
        4064
        4068
        4072
        4076
        4080
        4084
        4088
        4092
        4096
 </DataArray>
 <DataArray  type="UInt8"  Name="types"  format="ascii">
 9
 9
 9
 9
 9
 9
 9
 9
 9
 9
 9
 9
 9
 9
 9
 9
 9
 9
 9
 9
 9
 9
 9
 9
 9
 9
 9
 9
 9
 9
 9
 9
 9
 9
 9
 9
 9
 9
 9
 9
 9
 9
 9
 9
 9
 9
 9
 9
 9
 9
 9
 9
 9
 9
 9
 9
 9
 9
 9
 9
 9
 9
 9
 9
 9
 9
 9
 9
 9
 9
 9
 9
 9
 9
 9
 9
 9
 9
 9
 9
 9
 9
 9
 9
 9
 9
 9
 9
 9
 9
 9
 9
 9
 9
 9
 9
 9
 9
 9
 9
 9
 9
 9
 9
 9
 9
 9
 9
 9
 9
 9
 9
 9
 9
 9
 9
 9
 9
 9
 9
 9
 9
 9
 9
 9
 9
 9
 9
 9
 9
 9
 9
 9
 9
 9
 9
 9
 9
 9
 9
 9
 9
 9
 9
 9
 9
 9
 9
 9
 9
 9
 9
 9
 9
 9
 9
 9
 9
 9
 9
 9
 9
 9
 9
 9
 9
 9
 9
 9
 9
 9
 9
 9
 9
 9
 9
 9
 9
 9
 9
 9
 9
 9
 9
 9
 9
 9
 9
 9
 9
 9
 9
 9
 9
 9
 9
 9
 9
 9
 9
 9
 9
 9
 9
 9
 9
 9
 9
 9
 9
 9
 9
 9
 9
 9
 9
 9
 9
 9
 9
 9
 9
 9
 9
 9
 9
 9
 9
 9
 9
 9
 9
 9
 9
 9
 9
 9
 9
 9
 9
 9
 9
 9
 9
 9
 9
 9
 9
 9
 9
 9
 9
 9
 9
 9
 9
 9
 9
 9
 9
 9
 9
 9
 9
 9
 9
 9
 9
 9
 9
 9
 9
 9
 9
 9
 9
 9
 9
 9
 9
 9
 9
 9
 9
 9
 9
 9
 9
 9
 9
 9
 9
 9
 9
 9
 9
 9
 9
 9
 9
 9
 9
 9
 9
 9
 9
 9
 9
 9
 9
 9
 9
 9
 9
 9
 9
 9
 9
 9
 9
 9
 9
 9
 9
 9
 9
 9
 9
 9
 9
 9
 9
 9
 9
 9
 9
 9
 9
 9
 9
 9
 9
 9
 9
 9
 9
 9
 9
 9
 9
 9
 9
 9
 9
 9
 9
 9
 9
 9
 9
 9
 9
 9
 9
 9
 9
 9
 9
 9
 9
 9
 9
 9
 9
 9
 9
 9
 9
 9
 9
 9
 9
 9
 9
 9
 9
 9
 9
 9
 9
 9
 9
 9
 9
 9
 9
 9
 9
 9
 9
 9
 9
 9
 9
 9
 9
 9
 9
 9
 9
 9
 9
 9
 9
 9
 9
 9
 9
 9
 9
 9
 9
 9
 9
 9
 9
 9
 9
 9
 9
 9
 9
 9
 9
 9
 9
 9
 9
 9
 9
 9
 9
 9
 9
 9
 9
 9
 9
 9
 9
 9
 9
 9
 9
 9
 9
 9
 9
 9
 9
 9
 9
 9
 9
 9
 9
 9
 9
 9
 9
 9
 9
 9
 9
 9
 9
 9
 9
 9
 9
 9
 9
 9
 9
 9
 9
 9
 9
 9
 9
 9
 9
 9
 9
 9
 9
 9
 9
 9
 9
 9
 9
 9
 9
 9
 9
 9
 9
 9
 9
 9
 9
 9
 9
 9
 9
 9
 9
 9
 9
 9
 9
 9
 9
 9
 9
 9
 9
 9
 9
 9
 9
 9
 9
 9
 9
 9
 9
 9
 9
 9
 9
 9
 9
 9
 9
 9
 9
 9
 9
 9
 9
 9
 9
 9
 9
 9
 9
 9
 9
 9
 9
 9
 9
 9
 9
 9
 9
 9
 9
 9
 9
 9
 9
 9
 9
 9
 9
 9
 9
 9
 9
 9
 9
 9
 9
 9
 9
 9
 9
 9
 9
 9
 9
 9
 9
 9
 9
 9
 9
 9
 9
 9
 9
 9
 9
 9
 9
 9
 9
 9
 9
 9
 9
 9
 9
 9
 9
 9
 9
 9
 9
 9
 9
 9
 9
 9
 9
 9
 9
 9
 9
 9
 9
 9
 9
 9
 9
 9
 9
 9
 9
 9
 9
 9
 9
 9
 9
 9
 9
 9
 9
 9
 9
 9
 9
 9
 9
 9
 9
 9
 9
 9
 9
 9
 9
 9
 9
 9
 9
 9
 9
 9
 9
 9
 9
 9
 9
 9
 9
 9
 9
 9
 9
 9
 9
 9
 9
 9
 9
 9
 9
 9
 9
 9
 9
 9
 9
 9
 9
 9
 9
 9
 9
 9
 9
 9
 9
 9
 9
 9
 9
 9
 9
 9
 9
 9
 9
 9
 9
 9
 9
 9
 9
 9
 9
 9
 9
 9
 9
 9
 9
 9
 9
 9
 9
 9
 9
 9
 9
 9
 9
 9
 9
 9
 9
 9
 9
 9
 9
 9
 9
 9
 9
 9
 9
 9
 9
 9
 9
 9
 9
 9
 9
 9
 9
 9
 9
 9
 9
 9
 9
 9
 9
 9
 9
 9
 9
 9
 9
 9
 9
 9
 9
 9
 9
 9
 9
 9
 9
 9
 9
 9
 9
 9
 9
 9
 9
 9
 9
 9
 9
 9
 9
 9
 9
 9
 9
 9
 9
 9
 9
 9
 9
 9
 9
 9
 9
 9
 9
 9
 9
 9
 9
 9
 9
 9
 9
 9
 9
 9
 9
 9
 9
 9
 9
 9
 9
 9
 9
 9
 9
 9
 9
 9
 9
 9
 9
 9
 9
 9
 9
 9
 9
 9
 9
 9
 9
 9
 9
 9
 9
 9
 9
 9
 9
 9
 9
 9
 9
 9
 9
 9
 9
 9
 9
 9
 9
 9
 9
 9
 9
 9
 9
 9
 9
 9
 9
 9
 9
 9
 9
 9
 9
 9
 9
 9
 9
 9
 9
 9
 9
 9
 9
 9
 9
 9
 9
 9
 9
 9
 9
 9
 9
 9
 9
 9
 9
 9
 9
 9
 9
 9
 9
 9
 9
 9
 9
 9
 9
 9
 9
 9
 9
 9
 9
 9
 9
 9
 9
 9
 9
 9
 9
 9
 9
 9
 9
 9
 9
 9
 9
 9
 9
 9
 9
 9
 9
 9
 9
 9
 9
 9
 9
 9
 9
 9
 9
 9
 9
 9
 9
 9
 9
 9
 9
 9
 9
 9
 9
 9
 9
 9
 9
 9
 9
 9
 9
 9
 9
 9
 9
 9
 9
 9
 9
 9
 9
 9
 9
 9
 9
 9
 9
 9
 9
 9
 9
 9
 9
 9
 9
 9
 9
 9
 9
 9
 9
 9
 9
 9
 9
 9
 9
 </DataArray>
 </Cells> 
 <PointData>
 <DataArray  type="Float64" Name="disp" NumberOfComponents="3" format="ascii">
   0.0000000000000000        0.0000000000000000        0.0000000000000000     
   6.0963785109924545E-003   3.7881927777354526E-003   0.0000000000000000     
   1.1668443489960462E-002   7.3195480104359060E-003   0.0000000000000000     
   1.6716194936904023E-002   1.0594065698101363E-002   0.0000000000000000     
   2.1239632851823141E-002   1.3611745840731821E-002   0.0000000000000000     
   0.0000000000000000        0.0000000000000000        0.0000000000000000     
   4.8928717715917246E-003   3.0198934792808356E-003   0.0000000000000000     
   9.5777948367520623E-003   6.0559309432125369E-003   0.0000000000000000     
   1.4054769195481015E-002   9.1081123917951031E-003   0.0000000000000000     
   1.8323794847778581E-002   1.2176437825028533E-002   0.0000000000000000     
   0.0000000000000000        0.0000000000000000        0.0000000000000000     
   3.9559684499603240E-003   2.4226723649509651E-003   0.0000000000000000     
   7.9156020825577895E-003   5.0578171812149207E-003   0.0000000000000000     
   1.1878900897792397E-002   7.9054344487918659E-003   0.0000000000000000     
   1.5845864895664148E-002   1.0965524167681803E-002   0.0000000000000000     
   0.0000000000000000        0.0000000000000000        0.0000000000000000     
   3.2856685460982537E-003   1.9965294347458404E-003   0.0000000000000000     
   6.6818652273776431E-003   4.3252067244430566E-003   0.0000000000000000     
   1.0188590043838170E-002   6.9860318690916513E-003   0.0000000000000000     
   1.3805842995479831E-002   9.9790048686916218E-003   0.0000000000000000     
   0.0000000000000000        0.0000000000000000        0.0000000000000000     
   2.8819720600055132E-003   1.7414646886654609E-003   0.0000000000000000     
   5.8765842712116250E-003   3.8580995728969476E-003   0.0000000000000000     
   8.9838366336183334E-003   6.3499046526944609E-003   0.0000000000000000     
   1.2203729147225641E-002   9.2168799280580010E-003   0.0000000000000000     
   2.1239632851823141E-002   1.3611745840731821E-002   0.0000000000000000     
   2.5450523910340753E-002   1.6603450762314131E-002   0.0000000000000000     
   2.9560634788079809E-002   1.9800042786835139E-002   0.0000000000000000     
   3.3569965485040300E-002   2.3201521914294847E-002   0.0000000000000000     
   3.7478516001222234E-002   2.6807888144693252E-002   0.0000000000000000     
   1.8323794847778581E-002   1.2176437825028533E-002   0.0000000000000000     
   2.2422931832515237E-002   1.5329927970724976E-002   0.0000000000000000     
   2.6390240188561453E-002   1.8637603556696580E-002   0.0000000000000000     
   3.0225719915917229E-002   2.2099464582943342E-002   0.0000000000000000     
   3.3929371014582557E-002   2.5715511049465265E-002   0.0000000000000000     
   1.5845864895664148E-002   1.0965524167681803E-002   0.0000000000000000     
   1.9745056740493074E-002   1.4197720962979285E-002   0.0000000000000000     
   2.3505039096599213E-002   1.7561659459778882E-002   0.0000000000000000     
   2.7125811963982560E-002   2.1057339658080584E-002   0.0000000000000000     
   3.0607375342643125E-002   2.4684761557884401E-002   0.0000000000000000     
   1.3805842995479831E-002   9.9790048686916218E-003   0.0000000000000000     
   1.7416898634274262E-002   1.3206829739077058E-002   0.0000000000000000     
   2.0905031512193077E-002   1.6572210496082040E-002   0.0000000000000000     
   2.4270241629236296E-002   2.0075147139706574E-002   0.0000000000000000     
   2.7512528985403909E-002   2.3715639669950651E-002   0.0000000000000000     
   1.2203729147225641E-002   9.2168799280580010E-003   0.0000000000000000     
   1.5438457513858800E-002   1.2357254299018289E-002   0.0000000000000000     
   1.8590217435343070E-002   1.5669256665606059E-002   0.0000000000000000     
   2.1659008911678448E-002   1.9152887027821301E-002   0.0000000000000000     
   2.4644831942864931E-002   2.2808145385664023E-002   0.0000000000000000     
   3.7478516001222234E-002   2.6807888144693252E-002   0.0000000000000000     
   4.1292337274961011E-002   3.0613940411607310E-002   0.0000000000000000     
   4.5017480244592012E-002   3.4614477648613973E-002   0.0000000000000000     
   4.8653944910115259E-002   3.8809499855713255E-002   0.0000000000000000     
   5.2201731271530744E-002   4.3199007032905141E-002   0.0000000000000000     
   3.3929371014582557E-002   2.5715511049465265E-002   0.0000000000000000     
   3.7524393665270120E-002   2.9513385014972283E-002   0.0000000000000000     
   4.1033988048692585E-002   3.3520728538174338E-002   0.0000000000000000     
   4.4458154164849932E-002   3.7737541619071412E-002   0.0000000000000000     
   4.7796892013742188E-002   4.2163824257663525E-002   0.0000000000000000     
   3.0607375342643125E-002   2.4684761557884401E-002   0.0000000000000000     
   3.3978529510045333E-002   2.8487134883722873E-002   0.0000000000000000     
   3.7268074743653658E-002   3.2507669360128569E-002   0.0000000000000000     
   4.0476011043468069E-002   3.6746364987101474E-002   0.0000000000000000     
   4.3602338409488593E-002   4.1203221764641598E-002   0.0000000000000000     
   2.7512528985403909E-002   2.3715639669950651E-002   0.0000000000000000     
   3.0654744809286642E-002   2.7535190017859087E-002   0.0000000000000000     
   3.3719740329475223E-002   3.1575300114476679E-002   0.0000000000000000     
   3.6707515545969668E-002   3.5835969959803440E-002   0.0000000000000000     
   3.9618070458769951E-002   4.0317199553839354E-002   0.0000000000000000     
   2.4644831942864931E-002   2.2808145385664023E-002   0.0000000000000000     
   2.7553039562994045E-002   2.6657550417380913E-002   0.0000000000000000     
   3.0388984806157301E-002   3.0723620801218671E-002   0.0000000000000000     
   3.3152667672354717E-002   3.5006356537177298E-002   0.0000000000000000     
   3.5844088161586268E-002   3.9505757625256793E-002   0.0000000000000000     
   5.2201731271530744E-002   4.3199007032905141E-002   0.0000000000000000     
   5.5656121539315019E-002   4.7790712013291131E-002   0.0000000000000000     
   5.9012397923944679E-002   5.2592327629972728E-002   0.0000000000000000     
   6.2270560425419688E-002   5.7603853882949932E-002   0.0000000000000000     
   6.5430609043740096E-002   6.2825290772222722E-002   0.0000000000000000     
   4.7796892013742188E-002   4.2163824257663525E-002   0.0000000000000000     
   5.1046966820048140E-002   4.6796625830241294E-002   0.0000000000000000     
   5.4205143808446599E-002   5.1632995713095334E-002   0.0000000000000000     
   5.7271422978937551E-002   5.6672933906225652E-002   0.0000000000000000     
   6.0245804331521026E-002   6.1916440409632234E-002   0.0000000000000000     
   4.3602338409488593E-002   4.1203221764641598E-002   0.0000000000000000     
   4.6644097376407484E-002   4.5869027104507222E-002   0.0000000000000000     
   4.9598328478917021E-002   5.0734568418456624E-002   0.0000000000000000     
   5.2465031717017205E-002   5.5799845706489819E-002   0.0000000000000000     
   5.5244207090708035E-002   6.1064858968606785E-002   0.0000000000000000     
   3.9618070458769951E-002   4.0317199553839354E-002   0.0000000000000000     
   4.2447513208393059E-002   4.5007915836088909E-002   0.0000000000000000     
   4.5191951935355960E-002   4.9897045746056599E-002   0.0000000000000000     
   4.7851386639658641E-002   5.4984589283742412E-002   0.0000000000000000     
   5.0425817321301129E-002   6.0270546449146353E-002   0.0000000000000000     
   3.5844088161586268E-002   3.9505757625256793E-002   0.0000000000000000     
   3.8457214316004865E-002   4.4213292024986382E-002   0.0000000000000000     
   4.0986014177763402E-002   4.9120427695895266E-002   0.0000000000000000     
   4.3430487746861882E-002   5.4227164637983466E-002   0.0000000000000000     
   4.5790635023300295E-002   5.9533502851250968E-002   0.0000000000000000     
   6.5430609043740096E-002   6.2825290772222722E-002   0.0000000000000000     
   6.8495685969409414E-002   6.8240187205986763E-002   0.0000000000000000     
   7.1468933392931228E-002   7.3832092092437684E-002   0.0000000000000000     
   7.4350351314305521E-002   7.9601005431575486E-002   0.0000000000000000     
   7.7139939733532309E-002   8.5546927223400168E-002   0.0000000000000000     
   6.0245804331521026E-002   6.1916440409632234E-002   0.0000000000000000     
   6.3130298130633533E-002   6.7352514392393675E-002   0.0000000000000000     
   6.5926914640711598E-002   7.2970155023588543E-002   0.0000000000000000     
   6.8635653861755241E-002   7.8769362303216822E-002   0.0000000000000000     
   7.1256515793764449E-002   8.4750136231278556E-002   0.0000000000000000     
   5.5244207090708035E-002   6.1064858968606785E-002   0.0000000000000000     
   5.7939713606117008E-002   6.6521864078476364E-002   0.0000000000000000     
   6.0555410269371605E-002   7.2163116909767427E-002   0.0000000000000000     
   6.3091297080471842E-002   7.7988617462479939E-002   0.0000000000000000     
   6.5547374039417738E-002   8.3998365736613914E-002   0.0000000000000000     
   5.0425817321301129E-002   6.0270546449146353E-002   0.0000000000000000     
   5.2923932395859852E-002   6.5748236264234858E-002   0.0000000000000000     
   5.5354420278911257E-002   7.1410977750974367E-002   0.0000000000000000     
   5.7717280970455365E-002   7.7258770909364824E-002   0.0000000000000000     
   6.0012514470492169E-002   8.3291615739406286E-002   0.0000000000000000     
   4.5790635023300295E-002   5.9533502851250968E-002   0.0000000000000000     
   4.8082954499862052E-002   6.5031630949669128E-002   0.0000000000000000     
   5.0323944669330538E-002   7.0713737547209291E-002   0.0000000000000000     
   5.2513605531705768E-002   7.6579822643871462E-002   0.0000000000000000     
   5.4651937086987720E-002   8.2629886239655642E-002   0.0000000000000000     
   7.7139939733532309E-002   8.5546927223400168E-002   0.0000000000000000     
   7.9837012846378758E-002   9.1653200062096596E-002   0.0000000000000000     
   8.2440884848612048E-002   9.7903166541849676E-002   0.0000000000000000     
   8.4951555740232207E-002  0.10429682666265934        0.0000000000000000     
   8.7369025521239208E-002  0.11083418042452567        0.0000000000000000     
   7.1256515793764449E-002   8.4750136231278556E-002   0.0000000000000000     
   7.3787003005306107E-002   9.0891643584185111E-002   0.0000000000000000     
   7.6224618064947042E-002   9.7173051138347982E-002   0.0000000000000000     
   7.8569360972687283E-002  0.10359435889376711        0.0000000000000000     
   8.0821231728526843E-002  0.11015556685044256        0.0000000000000000     
   6.5547374039417738E-002   8.3998365736613914E-002   0.0000000000000000     
   6.7917856801405663E-002   9.0170165257780460E-002   0.0000000000000000     
   7.0196961021632032E-002   9.6481819551590728E-002   0.0000000000000000     
   7.2384686700096859E-002  0.10293332861804470        0.0000000000000000     
   7.4481033836800131E-002  0.10952469245714241        0.0000000000000000     
   6.0012514470492169E-002   8.3291615739406286E-002   0.0000000000000000     
   6.2229574234677454E-002   8.9488765082882685E-002   0.0000000000000000     
   6.4357913718667045E-002   9.5829471781577955E-002   0.0000000000000000     
   6.6397532922460936E-002  0.10231373583549215        0.0000000000000000     
   6.8348431846059099E-002  0.10894155724462523        0.0000000000000000     
   5.4651937086987720E-002   8.2629886239655642E-002   0.0000000000000000     
   5.6722155305121466E-002   8.8847443059491743E-002   0.0000000000000000     
   5.8707476156052055E-002   9.5216007828309690E-002   0.0000000000000000     
   6.0607899639779479E-002  0.10173558054610943        0.0000000000000000     
   6.2423425756303746E-002  0.10840616121289104        0.0000000000000000     
   8.7369025521239208E-002  0.11083418042452567        0.0000000000000000     
   8.9683574014347400E-002  0.11752839480707013        0.0000000000000000     
   9.1885481042271136E-002  0.12439263678991419        0.0000000000000000     
   9.3974746605010401E-002  0.13142690637305787        0.0000000000000000     
   9.5951370702565209E-002  0.13863120355650119        0.0000000000000000     
   8.0821231728526843E-002  0.11015556685044256        0.0000000000000000     
   8.2982781087407573E-002  0.11687136045740872        0.0000000000000000     
   8.5056559804271403E-002  0.12375642516370003        0.0000000000000000     
   8.7042567879118307E-002  0.13081076096931651        0.0000000000000000     
   8.8940805311948326E-002  0.13803436787425816        0.0000000000000000     
   7.4481033836800131E-002  0.10952469245714241        0.0000000000000000     
   7.6491836303527794E-002  0.11626735620667798        0.0000000000000000     
   7.8422927972065792E-002  0.12317276500444559        0.0000000000000000     
   8.0274308842414141E-002  0.13024091885044520        0.0000000000000000     
   8.2045978914572812E-002  0.13747181774467684        0.0000000000000000     
   6.8348431846059099E-002  0.10894155724462523        0.0000000000000000     
   7.0210739662708063E-002  0.11571638205487789        0.0000000000000000     
   7.1984585545654331E-002  0.12264165631215078        0.0000000000000000     
   7.3669969494897874E-002  0.12971738001644392        0.0000000000000000     
   7.5266891510438722E-002  0.13694355316775733        0.0000000000000000     
   6.2423425756303746E-002  0.10840616121289104        0.0000000000000000     
   6.4139491164948409E-002  0.11521843800200844        0.0000000000000000     
   6.5741532525037019E-002  0.12216309908681568        0.0000000000000000     
   6.7229549836569563E-002  0.12924014446731269        0.0000000000000000     
   6.8603543099546055E-002  0.13644957414349954        0.0000000000000000     
   9.5951370702565209E-002  0.13863120355650119        0.0000000000000000     
   9.7848889560317273E-002  0.14594856306976461        0.0000000000000000     
   9.9700839403648253E-002  0.15332201964236858        0.0000000000000000     
  0.10150722023255822       0.16075157327431314        0.0000000000000000     
  0.10326803204704710       0.16823722396559823        0.0000000000000000     
   8.8940805311948326E-002  0.13803436787425816        0.0000000000000000     
   9.0751029192155358E-002  0.14537674901239572        0.0000000000000000     
   9.2472996609133370E-002  0.15278740751760003        0.0000000000000000     
   9.4106707562882377E-002  0.16026634338987100        0.0000000000000000     
   9.5652162053402379E-002  0.16781355662920872        0.0000000000000000     
   8.2045978914572812E-002  0.13747181774467684        0.0000000000000000     
   8.3738012224653657E-002  0.14482818336062567        0.0000000000000000     
   8.5350482808768474E-002  0.15227273737177674        0.0000000000000000     
   8.6883390666917262E-002  0.15980547977813003        0.0000000000000000     
   8.8336735799100022E-002  0.16742641057968560        0.0000000000000000     
   7.5266891510438722E-002  0.13694355316775733        0.0000000000000000     
   7.6809838657812185E-002  0.14430286611445445        0.0000000000000000     
   7.8333298002553536E-002  0.15177800920489870        0.0000000000000000     
   7.9837269544662859E-002  0.15936898243909023        0.0000000000000000     
   8.1321753284140055E-002  0.16707578581702887        0.0000000000000000     
   6.8603543099546055E-002  0.13644957414349954        0.0000000000000000     
   6.9966508491630913E-002  0.14380079727388201        0.0000000000000000     
   7.1421442190488613E-002  0.15130322301696605        0.0000000000000000     
   7.2968344196119125E-002  0.15895685137275153        0.0000000000000000     
   7.4607214508522451E-002  0.16676168234123856        0.0000000000000000     
   0.0000000000000000        0.0000000000000000        0.0000000000000000     
   2.8819720600055132E-003   1.7414646886654609E-003   0.0000000000000000     
   5.8765842712116250E-003   3.8580995728969476E-003   0.0000000000000000     
   8.9838366336183334E-003   6.3499046526944609E-003   0.0000000000000000     
   1.2203729147225641E-002   9.2168799280580010E-003   0.0000000000000000     
   0.0000000000000000        0.0000000000000000        0.0000000000000000     
   2.6114136002934312E-003   1.5850394611342691E-003   0.0000000000000000     
   5.2922718902460092E-003   3.5494635623884181E-003   0.0000000000000000     
   8.0425748698577330E-003   5.8932723037624464E-003   0.0000000000000000     
   1.0862322539128605E-002   8.6164656852563554E-003   0.0000000000000000     
   0.0000000000000000        0.0000000000000000        0.0000000000000000     
   2.3405277755733358E-003   1.4548150865767062E-003   0.0000000000000000     
   4.7214407606670731E-003   3.2922665287292933E-003   0.0000000000000000     
   7.1427389552812135E-003   5.5123543264577607E-003   0.0000000000000000     
   9.6044223594157589E-003   8.1150784797621080E-003   0.0000000000000000     
   0.0000000000000000        0.0000000000000000        0.0000000000000000     
   2.0693145858452270E-003   1.3507915649927727E-003   0.0000000000000000     
   4.1640908824748194E-003   3.0865084719195741E-003   0.0000000000000000     
   6.2843288898887786E-003   5.2071507207804039E-003   0.0000000000000000     
   8.4300286080871006E-003   7.7127183115752616E-003   0.0000000000000000     
   0.0000000000000000        0.0000000000000000        0.0000000000000000     
   1.7977740311091051E-003   1.2729688963824684E-003   0.0000000000000000     
   3.6202222556692455E-003   2.9321893919592602E-003   0.0000000000000000     
   5.4673446736804212E-003   4.9776614867303752E-003   0.0000000000000000     
   7.3391412851426330E-003   7.4093851806958143E-003   0.0000000000000000     
   1.2203729147225641E-002   9.2168799280580010E-003   0.0000000000000000     
   1.5438457513858800E-002   1.2357254299018289E-002   0.0000000000000000     
   1.8590217435343070E-002   1.5669256665606059E-002   0.0000000000000000     
   2.1659008911678448E-002   1.9152887027821301E-002   0.0000000000000000     
   2.4644831942864931E-002   2.2808145385664023E-002   0.0000000000000000     
   1.0862322539128605E-002   8.6164656852563554E-003   0.0000000000000000     
   1.3697596537100554E-002   1.1636636878117761E-002   0.0000000000000000     
   1.6494478502815515E-002   1.4871379053594288E-002   0.0000000000000000     
   1.9252968436273495E-002   1.8320692211685925E-002   0.0000000000000000     
   2.1973066337474478E-002   2.1984576352392687E-002   0.0000000000000000     
   9.6044223594157589E-003   8.1150784797621080E-003   0.0000000000000000     
   1.2082178861853385E-002   1.1032619711690244E-002   0.0000000000000000     
   1.4551696351376773E-002   1.4197158745290076E-002   0.0000000000000000     
   1.7012974827985930E-002   1.7608695580561603E-002   0.0000000000000000     
   1.9466014291680846E-002   2.1267230217504821E-002   0.0000000000000000     
   8.4300286080871006E-003   7.7127183115752616E-003   0.0000000000000000     
   1.0592204488117287E-002   1.0545202799735741E-002   0.0000000000000000     
   1.2761870981026839E-002   1.3646595740693429E-002   0.0000000000000000     
   1.4939028086815756E-002   1.7016897134448327E-002   0.0000000000000000     
   1.7123675805484039E-002   2.0656106981000434E-002   0.0000000000000000     
   7.3391412851426330E-003   7.4093851806958143E-003   0.0000000000000000     
   9.2276734158922673E-003   1.0174386142254245E-002   0.0000000000000000     
   1.1125002391765714E-002   1.3219690039804341E-002   0.0000000000000000     
   1.3031128212762972E-002   1.6545296873346098E-002   0.0000000000000000     
   1.4946050878884039E-002   2.0151206642879515E-002   0.0000000000000000     
   2.4644831942864931E-002   2.2808145385664023E-002   0.0000000000000000     
   2.7553039562994045E-002   2.6657550417380913E-002   0.0000000000000000     
   3.0388984806157301E-002   3.0723620801218671E-002   0.0000000000000000     
   3.3152667672354717E-002   3.5006356537177298E-002   0.0000000000000000     
   3.5844088161586268E-002   3.9505757625256793E-002   0.0000000000000000     
   2.1973066337474478E-002   2.1984576352392687E-002   0.0000000000000000     
   2.4640842066052004E-002   2.5861723842807768E-002   0.0000000000000000     
   2.7242365481639573E-002   2.9950827050024380E-002   0.0000000000000000     
   2.9777636584237197E-002   3.4251885974042509E-002   0.0000000000000000     
   3.2246655373844871E-002   3.8764900614862180E-002   0.0000000000000000     
   1.9466014291680846E-002   2.1267230217504821E-002   0.0000000000000000     
   2.1885580613344967E-002   2.5155218054659062E-002   0.0000000000000000     
   2.4246439663861710E-002   2.9255114490563627E-002   0.0000000000000000     
   2.6548591443231084E-002   3.3566919525218529E-002   0.0000000000000000     
   2.8792035951453084E-002   3.8090633158623752E-002   0.0000000000000000     
   1.7123675805484039E-002   2.0656106981000434E-002   0.0000000000000000     
   1.9287255204872934E-002   2.4538033052934786E-002   0.0000000000000000     
   2.1401207352823713E-002   2.8636483122836422E-002   0.0000000000000000     
   2.3465532249336372E-002   3.2951457190705344E-002   0.0000000000000000     
   2.5480229894410910E-002   3.7482955256541536E-002   0.0000000000000000     
   1.4946050878884039E-002   2.0151206642879515E-002   0.0000000000000000     
   1.6845865840635917E-002   2.4010168837634953E-002   0.0000000000000000     
   1.8706668548525592E-002   2.8094932946842767E-002   0.0000000000000000     
   2.0528459002553071E-002   3.2405498970502954E-002   0.0000000000000000     
   2.2311237202718350E-002   3.6941866908615513E-002   0.0000000000000000     
   3.5844088161586268E-002   3.9505757625256793E-002   0.0000000000000000     
   3.8457214316004865E-002   4.4213292024986382E-002   0.0000000000000000     
   4.0986014177763402E-002   4.9120427695895266E-002   0.0000000000000000     
   4.3430487746861882E-002   5.4227164637983466E-002   0.0000000000000000     
   4.5790635023300295E-002   5.9533502851250968E-002   0.0000000000000000     
   3.2246655373844871E-002   3.8764900614862180E-002   0.0000000000000000     
   3.4641294944816041E-002   4.3484808822284629E-002   0.0000000000000000     
   3.6953428391504166E-002   4.8406548446111149E-002   0.0000000000000000     
   3.9183055713909232E-002   5.3530119486341711E-002   0.0000000000000000     
   4.1330176912031252E-002   5.8855521942976330E-002   0.0000000000000000     
   2.8792035951453084E-002   3.8090633158623752E-002   0.0000000000000000     
   3.0967849340399735E-002   4.2822119379068706E-002   0.0000000000000000     
   3.3067107761943056E-002   4.7757242174842757E-002   0.0000000000000000     
   3.5089811216083032E-002   5.2896001545945925E-002   0.0000000000000000     
   3.7035959702819685E-002   5.8238397492378184E-002   0.0000000000000000     
   2.5480229894410910E-002   3.7482955256541536E-002   0.0000000000000000     
   2.7436877502755933E-002   4.2225223695338598E-002   0.0000000000000000     
   2.9327052289080058E-002   4.7172508882090125E-002   0.0000000000000000     
   3.1150754253383279E-002   5.2324810816796088E-002   0.0000000000000000     
   3.2907983395665599E-002   5.7682129499456537E-002   0.0000000000000000     
   2.2311237202718350E-002   3.6941866908615513E-002   0.0000000000000000     
   2.4048379431884648E-002   4.1694121771094314E-002   0.0000000000000000     
   2.5733261972915193E-002   4.6652348567853219E-002   0.0000000000000000     
   2.7365884825809969E-002   5.1816547298892249E-002   0.0000000000000000     
   2.8946247990568989E-002   5.7186717964211368E-002   0.0000000000000000     
   4.5790635023300295E-002   5.9533502851250968E-002   0.0000000000000000     
   4.8082954499862052E-002   6.5031630949669128E-002   0.0000000000000000     
   5.0323944669330538E-002   7.0713737547209291E-002   0.0000000000000000     
   5.2513605531705768E-002   7.6579822643871462E-002   0.0000000000000000     
   5.4651937086987720E-002   8.2629886239655642E-002   0.0000000000000000     
   4.1330176912031252E-002   5.8855521942976330E-002   0.0000000000000000     
   4.3417762695259501E-002   6.4373018145636146E-002   0.0000000000000000     
   4.5468783772983225E-002   7.0072870423942307E-002   0.0000000000000000     
   4.7483240145202464E-002   7.5955078777894813E-002   0.0000000000000000     
   4.9461131811917185E-002   8.2019643207493664E-002   0.0000000000000000     
   3.7035959702819685E-002   5.8238397492378184E-002   0.0000000000000000     
   3.8929339759188025E-002   6.3773367862992911E-002   0.0000000000000000     
   4.0793737922223086E-002   6.9489850506643455E-002   0.0000000000000000     
   4.2629154191924860E-002   7.5387845423329825E-002   0.0000000000000000     
   4.4435588568293355E-002   8.1467352613052005E-002   0.0000000000000000     
   3.2907983395665599E-002   5.7682129499456537E-002   0.0000000000000000     
   3.4617685691647665E-002   6.3232680101739408E-002   0.0000000000000000     
   3.6298807117050115E-002   6.8964677795312734E-002   0.0000000000000000     
   3.7951347671872963E-002   7.4878122580176482E-002   0.0000000000000000     
   3.9575307356116196E-002   8.0973014456330664E-002   0.0000000000000000     
   2.8946247990568989E-002   5.7186717964211368E-002   0.0000000000000000     
   3.0482800492638393E-002   6.2750954861875638E-002   0.0000000000000000     
   3.1983991357464325E-002   6.8497352289950117E-002   0.0000000000000000     
   3.3449820585046766E-002   7.4425910248434785E-002   0.0000000000000000     
   3.4880288175385736E-002   8.0536628737329641E-002   0.0000000000000000     
   5.4651937086987720E-002   8.2629886239655642E-002   0.0000000000000000     
   5.6722155305121466E-002   8.8847443059491743E-002   0.0000000000000000     
   5.8707476156052055E-002   9.5216007828309690E-002   0.0000000000000000     
   6.0607899639779479E-002  0.10173558054610943        0.0000000000000000     
   6.2423425756303746E-002  0.10840616121289104        0.0000000000000000     
   4.9461131811917185E-002   8.2019643207493664E-002   0.0000000000000000     
   5.1380952285032790E-002   8.8254833399894955E-002   0.0000000000000000     
   5.3221195076454619E-002   9.4648919042254712E-002   0.0000000000000000     
   5.4981860186182688E-002  0.10120190013457302        0.0000000000000000     
   5.6662947614216988E-002  0.10791377667684979        0.0000000000000000     
   4.4435588568293355E-002   8.1467352613052005E-002   0.0000000000000000     
   4.6191317446706515E-002   8.7719570316379530E-002   0.0000000000000000     
   4.7874617222542291E-002   9.4135696773881949E-002   0.0000000000000000     
   4.9485487895800706E-002  0.10071573198555925        0.0000000000000000     
   5.1023929466481752E-002  0.10745967595141144        0.0000000000000000     
   3.9575307356116196E-002   8.0973014456330664E-002   0.0000000000000000     
   4.1153250790142634E-002   8.7241653808945566E-002   0.0000000000000000     
   4.2667742594315085E-002   9.3676341023191390E-002   0.0000000000000000     
   4.4118782768633548E-002  0.10027707609906825        0.0000000000000000     
   4.5506371313098010E-002  0.10704385903657601        0.0000000000000000     
   3.4880288175385736E-002   8.0536628737329641E-002   0.0000000000000000     
   3.6266752315341162E-002   8.6821083877592978E-002   0.0000000000000000     
   3.7600571191772986E-002   9.3270851790183074E-002   0.0000000000000000     
   3.8881744804681186E-002   9.9885932475099914E-002   0.0000000000000000     
   4.0110273154065790E-002  0.10666632593234351        0.0000000000000000     
   6.2423425756303746E-002  0.10840616121289104        0.0000000000000000     
   6.4139491164948409E-002  0.11521843800200844        0.0000000000000000     
   6.5741532525037019E-002  0.12216309908681568        0.0000000000000000     
   6.7229549836569563E-002  0.12924014446731269        0.0000000000000000     
   6.8603543099546055E-002  0.13644957414349954        0.0000000000000000     
   5.6662947614216988E-002  0.10791377667684979        0.0000000000000000     
   5.8235475923855987E-002  0.11476298216458393        0.0000000000000000     
   5.9670463678398115E-002  0.12172795009327435        0.0000000000000000     
   6.0967910877843375E-002  0.12880868046292099        0.0000000000000000     
   6.2127817522191771E-002  0.13600517327352393        0.0000000000000000     
   5.1023929466481752E-002  0.10745967595141144        0.0000000000000000     
   5.2456079053037959E-002  0.11433947265911863        0.0000000000000000     
   5.3748073773921878E-002  0.12132706609636094        0.0000000000000000     
   5.4899913629133525E-002  0.12842245626313839        0.0000000000000000     
   5.5911598618672884E-002  0.13562564315945097        0.0000000000000000     
   4.5506371313098010E-002  0.10704385903657601        0.0000000000000000     
   4.6801300552494332E-002  0.11394790948561249        0.0000000000000000     
   4.7974362811608336E-002  0.12096044709607542        0.0000000000000000     
   4.9025558090440020E-002  0.12808147186796479        0.0000000000000000     
   4.9954886388989379E-002  0.13531098380128059        0.0000000000000000     
   4.0110273154065790E-002  0.10666632593234351        0.0000000000000000     
   4.1271140422225100E-002  0.11358829264406559        0.0000000000000000     
   4.2349330791457446E-002  0.12062809309241783        0.0000000000000000     
   4.3344844261762841E-002  0.12778572727740026        0.0000000000000000     
   4.4257680833141272E-002  0.13506119519901286        0.0000000000000000     
   6.8603543099546055E-002  0.13644957414349954        0.0000000000000000     
   6.9966508491630913E-002  0.14380079727388201        0.0000000000000000     
   7.1421442190488613E-002  0.15130322301696605        0.0000000000000000     
   7.2968344196119125E-002  0.15895685137275153        0.0000000000000000     
   7.4607214508522451E-002  0.16676168234123856        0.0000000000000000     
   6.2127817522191771E-002  0.13600517327352393        0.0000000000000000     
   6.3315095580899372E-002  0.14334966161726503        0.0000000000000000     
   6.4694657023422281E-002  0.15087437858632613        0.0000000000000000     
   6.6266501849760490E-002  0.15857932418070730        0.0000000000000000     
   6.8030630059913971E-002  0.16646449840040856        0.0000000000000000     
   5.5911598618672884E-002  0.13562564315945097        0.0000000000000000     
   5.6962673780407071E-002  0.14297714392295990        0.0000000000000000     
   5.8232684152203208E-002  0.15051747569132656        0.0000000000000000     
   5.9721629734061296E-002  0.15824663846455084        0.0000000000000000     
   6.1429510525981335E-002  0.16616463224263273        0.0000000000000000     
   4.9954886388989379E-002  0.13531098380128059        0.0000000000000000     
   5.0909243090153988E-002  0.14268324419096678        0.0000000000000000     
   5.2035523576831381E-002  0.15023251433196727        0.0000000000000000     
   5.3333727849021580E-002  0.15795879422428200        0.0000000000000000     
   5.4803855906724562E-002  0.16586208386791110        0.0000000000000000     
   4.4257680833141272E-002  0.13506119519901286        0.0000000000000000     
   4.5154803510140125E-002  0.14246796242128557        0.0000000000000000     
   4.6103175297306807E-002  0.15001949450824828        0.0000000000000000     
   4.7102796194641312E-002  0.15771579145990097        0.0000000000000000     
   4.8153666202143647E-002  0.16555685327624364        0.0000000000000000     
   0.0000000000000000        0.0000000000000000        0.0000000000000000     
   1.7977740311091051E-003   1.2729688963824684E-003   0.0000000000000000     
   3.6202222556692455E-003   2.9321893919592602E-003   0.0000000000000000     
   5.4673446736804212E-003   4.9776614867303752E-003   0.0000000000000000     
   7.3391412851426330E-003   7.4093851806958143E-003   0.0000000000000000     
   0.0000000000000000        0.0000000000000000        0.0000000000000000     
   1.5340926982358206E-003   1.2141646587801611E-003   0.0000000000000000     
   3.0971726781325410E-003   2.8147266653051326E-003   0.0000000000000000     
   4.6892399396901603E-003   4.8016860195749132E-003   0.0000000000000000     
   6.3102944829086785E-003   7.1750427215895064E-003   0.0000000000000000     
   0.0000000000000000        0.0000000000000000        0.0000000000000000     
   1.2864571740962244E-003   1.1671964302202194E-003   0.0000000000000000     
   2.6022799477468926E-003   2.7195376684139719E-003   0.0000000000000000     
   3.9474683209520054E-003   4.6570237145812576E-003   0.0000000000000000     
   5.3220222937115621E-003   6.9796545687220773E-003   0.0000000000000000     
   0.0000000000000000        0.0000000000000000        0.0000000000000000     
   1.0548674586903161E-003   1.1320642107026425E-003   0.0000000000000000     
   2.1355440645123005E-003   2.6466224012857776E-003   0.0000000000000000     
   3.2420298174659556E-003   4.5436745717494058E-003   0.0000000000000000     
   4.3743247175512786E-003   6.8232207220935261E-003   0.0000000000000000     
   0.0000000000000000        0.0000000000000000        0.0000000000000000     
   8.3932355201809541E-004   1.1087680002274313E-003   0.0000000000000000     
   1.6969650284287662E-003   2.5959808639205509E-003   0.0000000000000000     
   2.5729244292320118E-003   4.4616385910793586E-003   0.0000000000000000     
   3.4672017544278328E-003   6.7057411817038528E-003   0.0000000000000000     
   7.3391412851426330E-003   7.4093851806958143E-003   0.0000000000000000     
   9.2276734158922673E-003   1.0174386142254245E-002   0.0000000000000000     
   1.1125002391765714E-002   1.3219690039804341E-002   0.0000000000000000     
   1.3031128212762972E-002   1.6545296873346098E-002   0.0000000000000000     
   1.4946050878884039E-002   2.0151206642879515E-002   0.0000000000000000     
   6.3102944829086785E-003   7.1750427215895064E-003   0.0000000000000000     
   7.9477937138320923E-003   9.8847704294780687E-003   0.0000000000000000     
   9.5891950385043889E-003   1.2880842801369767E-002   0.0000000000000000     
   1.1234498456925573E-002   1.6163259837264597E-002   0.0000000000000000     
   1.2883703969095640E-002   1.9732021537162560E-002   0.0000000000000000     
   5.3220222937115621E-003   6.9796545687220773E-003   0.0000000000000000     
   6.7117734505905240E-003   9.6409563516395170E-003   0.0000000000000000     
   8.1025533761538530E-003   1.2594455184136660E-002   0.0000000000000000     
   9.4943620704015519E-003   1.5840151066213514E-002   0.0000000000000000     
   1.0887199533333615E-002   1.9378043997870076E-002   0.0000000000000000     
   4.3743247175512786E-003   6.8232207220935261E-003   0.0000000000000000     
   5.5196126261675658E-003   9.4429439087385814E-003   0.0000000000000000     
   6.6650774047141070E-003   1.2360527188105024E-002   0.0000000000000000     
   7.8107190531909064E-003   1.5575970560192843E-002   0.0000000000000000     
   8.9565375715979605E-003   1.9089274025002045E-002   0.0000000000000000     
   3.4672017544278328E-003   6.7057411817038528E-003   0.0000000000000000     
   4.3713112405632162E-003   9.2907331007752725E-003   0.0000000000000000     
   5.2767671241851534E-003   1.2179058813274852E-002   0.0000000000000000     
   6.1835694052936405E-003   1.5370718319202590E-002   0.0000000000000000     
   7.0917180838886811E-003   1.8865711618558486E-002   0.0000000000000000     
   1.4946050878884039E-002   2.0151206642879515E-002   0.0000000000000000     
   1.6845865840635917E-002   2.4010168837634953E-002   0.0000000000000000     
   1.8706668548525592E-002   2.8094932946842767E-002   0.0000000000000000     
   2.0528459002553071E-002   3.2405498970502954E-002   0.0000000000000000     
   2.2311237202718350E-002   3.6941866908615513E-002   0.0000000000000000     
   1.2883703969095640E-002   1.9732021537162560E-002   0.0000000000000000     
   1.4520497982567276E-002   2.3562016192349905E-002   0.0000000000000000     
   1.6128566904893154E-002   2.7628132094112863E-002   0.0000000000000000     
   1.7707910736073279E-002   3.1930369242451441E-002   0.0000000000000000     
   1.9258529476107646E-002   3.6468727637365632E-002   0.0000000000000000     
   1.0887199533333615E-002   1.9378043997870076E-002   0.0000000000000000     
   1.2270237092600389E-002   2.3183965900669998E-002   0.0000000000000000     
   1.3632646075852220E-002   2.7233748696176931E-002   0.0000000000000000     
   1.4974426483089104E-002   3.1527392384390888E-002   0.0000000000000000     
   1.6295578314311044E-002   3.6064896965311857E-002   0.0000000000000000     
   8.9565375715979605E-003   1.9089274025002045E-002   0.0000000000000000     
   1.0095083170735260E-002   2.2876017962595231E-002   0.0000000000000000     
   1.1218906061402790E-002   2.6911782753034984E-002   0.0000000000000000     
   1.2328006243600557E-002   3.1196568396321296E-002   0.0000000000000000     
   1.3422383717328549E-002   3.5730374892454196E-002   0.0000000000000000     
   7.0917180838886811E-003   1.8865711618558486E-002   0.0000000000000000     
   7.9950362169718837E-003   2.2638172378125605E-002   0.0000000000000000     
   8.8873468615448658E-003   2.6662234264686994E-002   0.0000000000000000     
   9.7686500176076205E-003   3.0937897278242674E-002   0.0000000000000000     
   1.0638945685160153E-002   3.5465161418792621E-002   0.0000000000000000     
   2.2311237202718350E-002   3.6941866908615513E-002   0.0000000000000000     
   2.4048379431884648E-002   4.1694121771094314E-002   0.0000000000000000     
   2.5733261972915193E-002   4.6652348567853219E-002   0.0000000000000000     
   2.7365884825809969E-002   5.1816547298892249E-002   0.0000000000000000     
   2.8946247990568989E-002   5.7186717964211368E-002   0.0000000000000000     
   1.9258529476107646E-002   3.6468727637365632E-002   0.0000000000000000     
   2.0775678924577042E-002   4.1228649552583152E-002   0.0000000000000000     
   2.2254614881062253E-002   4.6195577261831697E-002   0.0000000000000000     
   2.3695337345563276E-002   5.1369510765111294E-002   0.0000000000000000     
   2.5097846318080111E-002   5.6750450062421902E-002   0.0000000000000000     
   1.6295578314311044E-002   3.6064896965311857E-002   0.0000000000000000     
   1.7592099777624281E-002   4.0828642986052432E-002   0.0000000000000000     
   1.8859989081135054E-002   4.5801010993725202E-002   0.0000000000000000     
   2.0099246224843357E-002   5.0982000988330167E-002   0.0000000000000000     
   2.1309871208749196E-002   5.6371612969867341E-002   0.0000000000000000     
   1.3422383717328549E-002   3.5730374892454196E-002   0.0000000000000000     
   1.4497641991026364E-002   4.0494102071502162E-002   0.0000000000000000     
   1.5549384573133585E-002   4.5468649763533729E-002   0.0000000000000000     
   1.6577611463650214E-002   5.0654017968548910E-002   0.0000000000000000     
   1.7582322662576252E-002   5.6050206686547678E-002   0.0000000000000000     
   1.0638945685160153E-002   3.5465161418792621E-002   0.0000000000000000     
   1.1492305564783289E-002   4.0225026808932342E-002   0.0000000000000000     
   1.2322801357057855E-002   4.5198493571257284E-002   0.0000000000000000     
   1.3130433061983846E-002   5.0385561705767488E-002   0.0000000000000000     
   1.3915200679561271E-002   5.5786231212462928E-002   0.0000000000000000     
   2.8946247990568989E-002   5.7186717964211368E-002   0.0000000000000000     
   3.0482800492638393E-002   6.2750954861875638E-002   0.0000000000000000     
   3.1983991357464325E-002   6.8497352289950117E-002   0.0000000000000000     
   3.3449820585046766E-002   7.4425910248434785E-002   0.0000000000000000     
   3.4880288175385736E-002   8.0536628737329641E-002   0.0000000000000000     
   2.5097846318080111E-002   5.6750450062421902E-002   0.0000000000000000     
   2.6460004805988833E-002   6.2326322064650164E-002   0.0000000000000000     
   2.7779675816665513E-002   6.8085053682682695E-002   0.0000000000000000     
   2.9056859350110147E-002   7.4026644916519502E-002   0.0000000000000000     
   3.0291555406322748E-002   8.0151095766160599E-002   0.0000000000000000     
   2.1309871208749196E-002   5.6371612969867341E-002   0.0000000000000000     
   2.2484619275527581E-002   6.1956911631311520E-002   0.0000000000000000     
   2.3616245667853506E-002   6.7724961665637545E-002   0.0000000000000000     
   2.4704750385726983E-002   7.3675763072845415E-002   0.0000000000000000     
   2.5750133429148003E-002   7.9809315852935131E-002   0.0000000000000000     
   1.7582322662576252E-002   5.6050206686547678E-002   0.0000000000000000     
   1.8556643901254631E-002   6.1642723561859701E-002   0.0000000000000000     
   1.9493700911028308E-002   6.7417076238814641E-002   0.0000000000000000     
   2.0393493691897264E-002   7.3373264717412498E-002   0.0000000000000000     
   2.1256022243861514E-002   7.9511288997653237E-002   0.0000000000000000     
   1.3915200679561271E-002   5.5786231212462928E-002   0.0000000000000000     
   1.4676078683170002E-002   6.1383757856294720E-002   0.0000000000000000     
   1.5412041546189911E-002   6.7161397402213996E-002   0.0000000000000000     
   1.6123089268621001E-002   7.3119149850220749E-002   0.0000000000000000     
   1.6809221850463272E-002   7.9257015200314973E-002   0.0000000000000000     
   3.4880288175385736E-002   8.0536628737329641E-002   0.0000000000000000     
   3.6266752315341162E-002   8.6821083877592978E-002   0.0000000000000000     
   3.7600571191772986E-002   9.3270851790183074E-002   0.0000000000000000     
   3.8881744804681186E-002   9.9885932475099914E-002   0.0000000000000000     
   4.0110273154065790E-002  0.10666632593234351        0.0000000000000000     
   3.0291555406322748E-002   8.0151095766160599E-002   0.0000000000000000     
   3.1484107616929866E-002   8.6448943979802018E-002   0.0000000000000000     
   3.2634859613558061E-002   9.2910727305639915E-002   0.0000000000000000     
   3.3743811396207329E-002   9.9536445743674221E-002   0.0000000000000000     
   3.4810962964877679E-002  0.10632609929390502        0.0000000000000000     
   2.5750133429148003E-002   7.9809315852935131E-002   0.0000000000000000     
   2.6757602289536497E-002   8.6116317573052881E-002   0.0000000000000000     
   2.7732364458312380E-002   9.2587465800344868E-002   0.0000000000000000     
   2.8674419935475648E-002   9.9222760534811147E-002   0.0000000000000000     
   2.9583768721026308E-002  0.10602220177645165        0.0000000000000000     
   2.1256022243861514E-002   7.9511288997653237E-002   0.0000000000000000     
   2.2087236333161068E-002   8.5823204657345539E-002   0.0000000000000000     
   2.2893085726035944E-002   9.2301067274298002E-002   0.0000000000000000     
   2.3673570422486138E-002   9.8944876848510596E-002   0.0000000000000000     
   2.4428690422511657E-002  0.10575463337998336        0.0000000000000000     
   1.6809221850463272E-002   7.9257015200314973E-002   0.0000000000000000     
   1.7473009747803570E-002   8.5569605232680021E-002   0.0000000000000000     
   1.8117023416728748E-002   9.2051531727499233E-002   0.0000000000000000     
   1.8741262857238802E-002   9.8702794684772638E-002   0.0000000000000000     
   1.9345728069333733E-002  0.10552339410450021        0.0000000000000000     
   4.0110273154065790E-002  0.10666632593234351        0.0000000000000000     
   4.1271140422225100E-002  0.11358829264406559        0.0000000000000000     
   4.2349330791457446E-002  0.12062809309241783        0.0000000000000000     
   4.3344844261762841E-002  0.12778572727740026        0.0000000000000000     
   4.4257680833141272E-002  0.13506119519901286        0.0000000000000000     
   3.4810962964877679E-002  0.10632609929390502        0.0000000000000000     
   3.5835946380965079E-002  0.11326173139759393        0.0000000000000000     
   3.6818393705865468E-002  0.12032538549600263        0.0000000000000000     
   3.7758304939578852E-002  0.12751706158913115        0.0000000000000000     
   3.8655680082105244E-002  0.13483675967697945        0.0000000000000000     
   2.9583768721026308E-002  0.10602220177645165        0.0000000000000000     
   3.0466066147449056E-002  0.11296933500931364        0.0000000000000000     
   3.1326967547228586E-002  0.12004770571744436        0.0000000000000000     
   3.2166472920364904E-002  0.12725731390084377        0.0000000000000000     
   3.2984582266858006E-002  0.13459815955951193        0.0000000000000000     
   2.4428690422511657E-002  0.10575463337998336        0.0000000000000000     
   2.5161499721677031E-002  0.11271110347922469        0.0000000000000000     
   2.5875052315546813E-002  0.11979505375674296        0.0000000000000000     
   2.6569348204120984E-002  0.12700648421253821        0.0000000000000000     
   2.7244387387399555E-002  0.13434539484661037        0.0000000000000000     
   1.9345728069333733E-002  0.10552339410450021        0.0000000000000000     
   1.9922247103649020E-002  0.11248703680732711        0.0000000000000000     
   2.0462648010820143E-002  0.11956742961389850        0.0000000000000000     
   2.0966930790847101E-002  0.12676457252421439        0.0000000000000000     
   2.1435095443729898E-002  0.13407846553827479        0.0000000000000000     
   4.4257680833141272E-002  0.13506119519901286        0.0000000000000000     
   4.5154803510140125E-002  0.14246796242128557        0.0000000000000000     
   4.6103175297306807E-002  0.15001949450824828        0.0000000000000000     
   4.7102796194641312E-002  0.15771579145990097        0.0000000000000000     
   4.8153666202143647E-002  0.16555685327624364        0.0000000000000000     
   3.8655680082105244E-002  0.13483675967697945        0.0000000000000000     
   3.9499334242292794E-002  0.14227812782284835        0.0000000000000000     
   4.0278082528989678E-002  0.14983481409003876        0.0000000000000000     
   4.0991924942195890E-002  0.15750681847855066        0.0000000000000000     
   4.1640861481911443E-002  0.16529414098838394        0.0000000000000000     
   3.2984582266858006E-002  0.13459815955951193        0.0000000000000000     
   3.3742814488539302E-002  0.14206056960458716        0.0000000000000000     
   3.4402688487240200E-002  0.14963487094720787        0.0000000000000000     
   3.4964204262960707E-002  0.15732106358737399        0.0000000000000000     
   3.5427361815700817E-002  0.16511914752508558        0.0000000000000000     
   2.7244387387399555E-002  0.13434539484661037        0.0000000000000000     
   2.7885244248879646E-002  0.14181528776650201        0.0000000000000000     
   2.8476993172058380E-002  0.14941966507975554        0.0000000000000000     
   2.9019634156935755E-002  0.15715852678637110        0.0000000000000000     
   2.9513167203511773E-002  0.16503187288634852        0.0000000000000000     
   2.1435095443729898E-002  0.13407846553827479        0.0000000000000000     
   2.1926623523313832E-002  0.14154228230859286        0.0000000000000000     
   2.2500996583444208E-002  0.14918919648768189        0.0000000000000000     
   2.3158214624121036E-002  0.15701920807554190        0.0000000000000000     
   2.3898277645344308E-002  0.16503231707217281        0.0000000000000000     
   0.0000000000000000        0.0000000000000000        0.0000000000000000     
   8.3932355201809541E-004   1.1087680002274313E-003   0.0000000000000000     
   1.6969650284287662E-003   2.5959808639205509E-003   0.0000000000000000     
   2.5729244292320118E-003   4.4616385910793586E-003   0.0000000000000000     
   3.4672017544278328E-003   6.7057411817038528E-003   0.0000000000000000     
   0.0000000000000000        0.0000000000000000        0.0000000000000000     
   6.3108896139585867E-004   1.0936616756418078E-003   0.0000000000000000     
   1.2722190931329651E-003   2.5616164293276607E-003   0.0000000000000000     
   1.9233903952113193E-003   4.4038642610575588E-003   0.0000000000000000     
   2.5846028676309212E-003   6.6204051708315019E-003   0.0000000000000000     
   0.0000000000000000        0.0000000000000000        0.0000000000000000     
   4.2142719413990092E-004   1.0830991137929943E-003   0.0000000000000000     
   8.4698251226157520E-004   2.5375324705164777E-003   0.0000000000000000     
   1.2766659543650230E-003   4.3633000701704498E-003   0.0000000000000000     
   1.7104775204502438E-003   6.5604019127549120E-003   0.0000000000000000     
   0.0000000000000000        0.0000000000000000        0.0000000000000000     
   2.1033825025022250E-004   1.0770803146809903E-003   0.0000000000000000     
   4.2125528581459675E-004   2.5237289874870004E-003   0.0000000000000000     
   6.3275110669312263E-004   4.3399460184180318E-003   0.0000000000000000     
   8.4482571288580042E-004   6.5257314074740821E-003   0.0000000000000000     
   0.0000000000000000        0.0000000000000000        0.0000000000000000     
  -2.1778702731768088E-006   1.0756052783057958E-003   0.0000000000000000     
  -4.9625862079706313E-006   2.5202059802392303E-003   0.0000000000000000     
  -8.3541478043813321E-006   4.3338021058003029E-003   0.0000000000000000     
  -1.2352555062409128E-005   6.5163936549890149E-003   0.0000000000000000     
   3.4672017544278328E-003   6.7057411817038528E-003   0.0000000000000000     
   4.3713112405632162E-003   9.2907331007752725E-003   0.0000000000000000     
   5.2767671241851534E-003   1.2179058813274852E-002   0.0000000000000000     
   6.1835694052936405E-003   1.5370718319202590E-002   0.0000000000000000     
   7.0917180838886811E-003   1.8865711618558486E-002   0.0000000000000000     
   2.5846028676309212E-003   6.6204051708315019E-003   0.0000000000000000     
   3.2522574919208198E-003   9.1781106717163836E-003   0.0000000000000000     
   3.9227552496100635E-003   1.2043852276779102E-002   0.0000000000000000     
   4.5960961406986533E-003   1.5217629986019655E-002   0.0000000000000000     
   5.2722801651865882E-003   1.8699443799438043E-002   0.0000000000000000     
   1.7104775204502438E-003   6.5604019127549120E-003   0.0000000000000000     
   2.1478395783837150E-003   9.0988633655287188E-003   0.0000000000000000     
   2.5881744960319147E-003   1.1948709795750733E-002   0.0000000000000000     
   3.0314822733948413E-003   1.5109941203420948E-002   0.0000000000000000     
   3.4777629104724957E-003   1.8582557588539370E-002   0.0000000000000000     
   8.4482571288580042E-004   6.5257314074740821E-003   0.0000000000000000     
   1.0580574999519031E-003   9.0529911822122781E-003   0.0000000000000000     
   1.2730248634507048E-003   1.1893631370189742E-002   0.0000000000000000     
   1.4897278033822049E-003   1.5047651971406471E-002   0.0000000000000000     
   1.7081663197464042E-003   1.8515052985862476E-002   0.0000000000000000     
  -1.2352555062409128E-005   6.5163936549890149E-003   0.0000000000000000     
  -1.7088743374616078E-005   9.0404941217670561E-003   0.0000000000000000     
  -2.2693648133564709E-005   1.1878617000096129E-002   0.0000000000000000     
  -2.9167269339255035E-005   1.5030762289976225E-002   0.0000000000000000     
  -3.6509606991686622E-005   1.8496929991407347E-002   0.0000000000000000     
   7.0917180838886811E-003   1.8865711618558486E-002   0.0000000000000000     
   7.9950362169718837E-003   2.2638172378125605E-002   0.0000000000000000     
   8.8873468615448658E-003   2.6662234264686994E-002   0.0000000000000000     
   9.7686500176076205E-003   3.0937897278242674E-002   0.0000000000000000     
   1.0638945685160153E-002   3.5465161418792621E-002   0.0000000000000000     
   5.2722801651865882E-003   1.8699443799438043E-002   0.0000000000000000     
   5.9456049196362753E-003   2.2461728728911806E-002   0.0000000000000000     
   6.6103680006101215E-003   2.6476919786318494E-002   0.0000000000000000     
   7.2665694081081259E-003   3.0745016971658105E-002   0.0000000000000000     
   7.9142091421302921E-003   3.5266020284930637E-002   0.0000000000000000     
   3.4777629104724957E-003   1.8582557588539370E-002   0.0000000000000000     
   3.9222979670544408E-003   2.2337986596604534E-002   0.0000000000000000     
   4.3603690029302387E-003   2.6347655873114977E-002   0.0000000000000000     
   4.7919760180998895E-003   3.0611565418070696E-002   0.0000000000000000     
   5.2171190125633931E-003   3.5129715231471688E-002   0.0000000000000000     
   1.7081663197464042E-003   1.8515052985862476E-002   0.0000000000000000     
   1.9251153592263813E-003   2.2266945981203781E-002   0.0000000000000000     
   2.1373498685052154E-003   2.6274442525076436E-002   0.0000000000000000     
   2.3448698475829069E-003   3.0537542617480446E-002   0.0000000000000000     
   2.5476752964594565E-003   3.5056246258415795E-002   0.0000000000000000     
  -3.6509606991686622E-005   1.8496929991407347E-002   0.0000000000000000     
  -4.5942903847903248E-005   2.2248606882709552E-002   0.0000000000000000     
  -5.8689402664946532E-005   2.6257279742202884E-002   0.0000000000000000     
  -7.4749103442817556E-005   3.0522948569887357E-002   0.0000000000000000     
  -9.4122006181516105E-005   3.5045613365762951E-002   0.0000000000000000     
   1.0638945685160153E-002   3.5465161418792621E-002   0.0000000000000000     
   1.1492305564783289E-002   4.0225026808932342E-002   0.0000000000000000     
   1.2322801357057855E-002   4.5198493571257284E-002   0.0000000000000000     
   1.3130433061983846E-002   5.0385561705767488E-002   0.0000000000000000     
   1.3915200679561271E-002   5.5786231212462928E-002   0.0000000000000000     
   7.9142091421302921E-003   3.5266020284930637E-002   0.0000000000000000     
   8.5460097003067399E-003   4.0021288123358860E-002   0.0000000000000000     
   9.1546935802675946E-003   4.4992178884165561E-002   0.0000000000000000     
   9.7402607820128578E-003   5.0178692567350733E-002   0.0000000000000000     
   1.0302711305542530E-002   5.5580829172914396E-002   0.0000000000000000     
   5.2171190125633931E-003   3.5129715231471688E-002   0.0000000000000000     
   5.6286735990083965E-003   3.9882756939797641E-002   0.0000000000000000     
   6.0195153901225467E-003   4.4851342169528255E-002   0.0000000000000000     
   6.3896443859058471E-003   5.0035470920663502E-002   0.0000000000000000     
   6.7390605863582934E-003   5.5435143193203404E-002   0.0000000000000000     
   2.5476752964594565E-003   3.5056246258415795E-002   0.0000000000000000     
   2.7402972608882590E-003   3.9809433258248698E-002   0.0000000000000000     
   2.9172667866227118E-003   4.4775983427345366E-002   0.0000000000000000     
   3.0785838736628129E-003   4.9955896765705776E-002   0.0000000000000000     
   3.2242485220085638E-003   5.5349173273329964E-002   0.0000000000000000     
  -9.4122006181516105E-005   3.5045613365762951E-002   0.0000000000000000     
  -1.1911931405367239E-004   3.9801317078712026E-002   0.0000000000000000     
  -1.5205223023191401E-004   4.4766102657616900E-002   0.0000000000000000     
  -1.9292075471624313E-004   4.9939970102477575E-002   0.0000000000000000     
  -2.4172488750665889E-004   5.5322919413294064E-002   0.0000000000000000     
   1.3915200679561271E-002   5.5786231212462928E-002   0.0000000000000000     
   1.4676078683170002E-002   6.1383757856294720E-002   0.0000000000000000     
   1.5412041546189911E-002   6.7161397402213996E-002   0.0000000000000000     
   1.6123089268621001E-002   7.3119149850220749E-002   0.0000000000000000     
   1.6809221850463272E-002   7.9257015200314973E-002   0.0000000000000000     
   1.0302711305542530E-002   5.5580829172914396E-002   0.0000000000000000     
   1.0848260381769706E-002   6.1180330359754322E-002   0.0000000000000000     
   1.1383123241607482E-002   6.6958937786768313E-002   0.0000000000000000     
   1.1907299885055863E-002   7.2916651453956413E-002   0.0000000000000000     
   1.2420790312114845E-002   7.9053471361318586E-002   0.0000000000000000     
   6.7390605863582934E-003   5.5435143193203404E-002   0.0000000000000000     
   7.0785257575497777E-003   6.1032756917376259E-002   0.0000000000000000     
   7.4188016655501905E-003   6.6810710023410366E-002   0.0000000000000000     
   7.7598883103595310E-003   7.2769002511305719E-002   0.0000000000000000     
   8.1017856919778017E-003   7.8907634381062339E-002   0.0000000000000000     
   3.2242485220085638E-003   5.5349173273329964E-002   0.0000000000000000     
   3.3668748105102199E-003   6.0941037529160531E-002   0.0000000000000000     
   3.5190768180180338E-003   6.6716714112140099E-002   0.0000000000000000     
   3.6808545445320084E-003   7.2676203022268682E-002   0.0000000000000000     
   3.8522079900521417E-003   7.8819504259546286E-002   0.0000000000000000     
  -2.4172488750665889E-004   5.5322919413294064E-002   0.0000000000000000     
  -2.8669245934897060E-004   6.0905172195107118E-002   0.0000000000000000     
  -3.1605130098898702E-004   6.6676950052957526E-002   0.0000000000000000     
  -3.2980141242670911E-004   7.2638252986845286E-002   0.0000000000000000     
  -3.2794279366213548E-004   7.8789080996770372E-002   0.0000000000000000     
   1.6809221850463272E-002   7.9257015200314973E-002   0.0000000000000000     
   1.7473009747803570E-002   8.5569605232680021E-002   0.0000000000000000     
   1.8117023416728748E-002   9.2051531727499233E-002   0.0000000000000000     
   1.8741262857238802E-002   9.8702794684772638E-002   0.0000000000000000     
   1.9345728069333733E-002  0.10552339410450021        0.0000000000000000     
   1.2420790312114845E-002   7.9053471361318586E-002   0.0000000000000000     
   1.2921105093019726E-002   8.5365921228249000E-002   0.0000000000000000     
   1.3405754798005808E-002   9.1850524774141865E-002   0.0000000000000000     
   1.3874739427073086E-002   9.8507281998997179E-002   0.0000000000000000     
   1.4328058980221561E-002  0.10533619290281494        0.0000000000000000     
   8.1017856919778017E-003   7.8907634381062339E-002   0.0000000000000000     
   8.4377049283652500E-003   8.5222554573245152E-002   0.0000000000000000     
   8.7608571374821250E-003   9.1709712028419113E-002   0.0000000000000000     
   9.0712423193284267E-003   9.8369106746584195E-002   0.0000000000000000     
   9.3688604739041569E-003  0.10520073872774041        0.0000000000000000     
   3.8522079900521417E-003   7.8819504259546286E-002   0.0000000000000000     
   4.0228092538401377E-003   8.5139505267668489E-002   0.0000000000000000     
   4.1823304351577004E-003   9.1629093490330951E-002   0.0000000000000000     
   4.3307715340048297E-003   9.8288268927533645E-002   0.0000000000000000     
   4.4681325503815247E-003  0.10511703157927661        0.0000000000000000     
  -3.2794279366213548E-004   7.8789080996770372E-002   0.0000000000000000     
  -3.2358193055560857E-004   8.5116773311519012E-002   0.0000000000000000     
  -3.2982530896746463E-004   9.1608669159877407E-002   0.0000000000000000     
  -3.4667292889770877E-004   9.8264768541845571E-002   0.0000000000000000     
  -3.7412479034633610E-004  0.10508507145742350        0.0000000000000000     
   1.9345728069333733E-002  0.10552339410450021        0.0000000000000000     
   1.9922247103649020E-002  0.11248703680732711        0.0000000000000000     
   2.0462648010820143E-002  0.11956742961389850        0.0000000000000000     
   2.0966930790847101E-002  0.12676457252421439        0.0000000000000000     
   2.1435095443729898E-002  0.13407846553827479        0.0000000000000000     
   1.4328058980221561E-002  0.10533619290281494        0.0000000000000000     
   1.4745085722768609E-002  0.11230412913129291        0.0000000000000000     
   1.5105191920031610E-002  0.11937796233012886        0.0000000000000000     
   1.5408377572010560E-002  0.12655769249932272        0.0000000000000000     
   1.5654642678705460E-002  0.13384331963887458        0.0000000000000000     
   9.3688604739041569E-003  0.10520073872774041        0.0000000000000000     
   9.6267930084393983E-003  0.11216937458879421        0.0000000000000000     
   9.8181213301642319E-003  0.11923978094665191        0.0000000000000000     
   9.9428454390786628E-003  0.12641195780131359        0.0000000000000000     
   1.0000965335182686E-002  0.13368590515277926        0.0000000000000000     
   4.4681325503815247E-003  0.10511703157927661        0.0000000000000000     
   4.5673689606613877E-003  0.11208277317983091        0.0000000000000000     
   4.6014362412180147E-003  0.11915288546346772        0.0000000000000000     
   4.5703343920514092E-003  0.12632736843018702        0.0000000000000000     
   4.4740634131615687E-003  0.13360622207998885        0.0000000000000000     
  -3.7412479034633610E-004  0.10508507145742350        0.0000000000000000     
  -4.3318642056542440E-004  0.11204432490440309        0.0000000000000000     
  -5.4486334680704449E-004  0.11911727588057625        0.0000000000000000     
  -7.0915556907119994E-004  0.12630392438594298        0.0000000000000000     
  -9.2606308735788652E-004  0.13360427042050330        0.0000000000000000     
   2.1435095443729898E-002  0.13407846553827479        0.0000000000000000     
   2.1926623523313832E-002  0.14154228230859286        0.0000000000000000     
   2.2500996583444208E-002  0.14918919648768189        0.0000000000000000     
   2.3158214624121036E-002  0.15701920807554190        0.0000000000000000     
   2.3898277645344308E-002  0.16503231707217281        0.0000000000000000     
   1.5654642678705460E-002  0.13384331963887458        0.0000000000000000     
   1.5975486331078759E-002  0.14129443868306973        0.0000000000000000     
   1.6502407620092897E-002  0.14897064456619372        0.0000000000000000     
   1.7235406545747879E-002  0.15687193728824644        0.0000000000000000     
   1.8174483108043704E-002  0.16499831684922789        0.0000000000000000     
   1.0000965335182686E-002  0.13368590515277926        0.0000000000000000     
   1.0140366691411336E-002  0.14112464234214273        0.0000000000000000     
   1.0508935180699645E-002  0.14879118871049787        0.0000000000000000     
   1.1106670803047615E-002  0.15668554425784476        0.0000000000000000     
   1.1933573558455247E-002  0.16480770898418326        0.0000000000000000     
   4.4740634131615687E-003  0.13360622207998885        0.0000000000000000     
   4.4212646043115620E-003  0.14103289328581173        0.0000000000000000     
   4.5205792652644539E-003  0.14865082892059445        0.0000000000000000     
   4.7720073960202461E-003  0.15646002898433678        0.0000000000000000     
   5.1755489965789412E-003  0.16446049347703887        0.0000000000000000     
  -9.2606308735788652E-004  0.13360427042050330        0.0000000000000000     
  -1.1818199302205601E-003  0.14101919151407682        0.0000000000000000     
  -1.4626601262126744E-003  0.14854956519648327        0.0000000000000000     
  -1.7685836753342267E-003  0.15619539146772260        0.0000000000000000     
  -2.0995905775852194E-003  0.16395667032779482        0.0000000000000000     
   0.0000000000000000        0.0000000000000000        0.0000000000000000     
  -2.1778702731768088E-006   1.0756052783057958E-003   0.0000000000000000     
  -4.9625862079706313E-006   2.5202059802392303E-003   0.0000000000000000     
  -8.3541478043813321E-006   4.3338021058003029E-003   0.0000000000000000     
  -1.2352555062409128E-005   6.5163936549890149E-003   0.0000000000000000     
   0.0000000000000000        0.0000000000000000        0.0000000000000000     
  -2.1459093922178700E-004   1.0785837034875505E-003   0.0000000000000000     
  -4.3092191818896346E-004   2.5267545897241415E-003   0.0000000000000000     
  -6.4899293690152949E-004   4.3445126587097725E-003   0.0000000000000000     
  -8.6880399535948496E-004   6.5318579104444449E-003   0.0000000000000000     
   0.0000000000000000        0.0000000000000000        0.0000000000000000     
  -4.2537072838709803E-004   1.0859252890463935E-003   0.0000000000000000     
  -8.5587352451121880E-004   2.5431659568927092E-003   0.0000000000000000     
  -1.2915083883723621E-003   4.3717220035389484E-003   0.0000000000000000     
  -1.7322753199705281E-003   6.5715934289851084E-003   0.0000000000000000     
   0.0000000000000000        0.0000000000000000        0.0000000000000000     
  -6.3451723776910998E-004   1.0976300349823248E-003   0.0000000000000000     
  -1.2798174051747361E-003   2.5694400817449334E-003   0.0000000000000000     
  -1.9359005022168787E-003   4.4154301402878279E-003   0.0000000000000000     
  -2.6027665288955379E-003   6.6356002106110054E-003   0.0000000000000000     
   0.0000000000000000        0.0000000000000000        0.0000000000000000     
  -8.4203046736782273E-004   1.1136979412953441E-003   0.0000000000000000     
  -1.7027535601795160E-003   2.6055769642808146E-003   0.0000000000000000     
  -2.5821692784350797E-003   4.4756370689564120E-003   0.0000000000000000     
  -3.4802776221345144E-003   6.7238782553221375E-003   0.0000000000000000     
  -1.2352555062409128E-005   6.5163936549890149E-003   0.0000000000000000     
  -1.7088743374616078E-005   9.0404941217670561E-003   0.0000000000000000     
  -2.2693648133564709E-005   1.1878617000096129E-002   0.0000000000000000     
  -2.9167269339255035E-005   1.5030762289976225E-002   0.0000000000000000     
  -3.6509606991686622E-005   1.8496929991407347E-002   0.0000000000000000     
  -8.6880399535948496E-004   6.5318579104444449E-003   0.0000000000000000     
  -1.0911883426201838E-003   9.0606624371869903E-003   0.0000000000000000     
  -1.3169792277409789E-003   1.1902798331196245E-002   0.0000000000000000     
  -1.5461766507218699E-003   1.5058265592472203E-002   0.0000000000000000     
  -1.7787806115628583E-003   1.8527064221014869E-002   0.0000000000000000     
  -1.7322753199705281E-003   6.5715934289851084E-003   0.0000000000000000     
  -2.1778304888091394E-003   9.1127863814660006E-003   0.0000000000000000     
  -2.6278300643916212E-003   1.1965307009216426E-002   0.0000000000000000     
  -3.0822740467179718E-003   1.5129155312236395E-002   0.0000000000000000     
  -3.5411624357881925E-003   1.8604331290525897E-002   0.0000000000000000     
  -2.6027665288955379E-003   6.6356002106110054E-003   0.0000000000000000     
  -3.2770151819414848E-003   9.1968659546040870E-003   0.0000000000000000     
  -3.9552461580854934E-003   1.2066143034156688E-002   0.0000000000000000     
  -4.6374594573275604E-003   1.5243431449268806E-002   0.0000000000000000     
  -5.3236550796676892E-003   1.8728731199940448E-002   0.0000000000000000     
  -3.4802776221345144E-003   6.7238782553221375E-003   0.0000000000000000     
  -4.3887424220172191E-003   9.3129011566012512E-003   0.0000000000000000     
  -5.2992275088225927E-003   1.2205306406017016E-002   0.0000000000000000     
  -6.2117328825506352E-003   1.5401094003569435E-002   0.0000000000000000     
  -7.1262585432013475E-003   1.8900263949258509E-002   0.0000000000000000     
  -3.6509606991686622E-005   1.8496929991407347E-002   0.0000000000000000     
  -4.5942903847903248E-005   2.2248606882709552E-002   0.0000000000000000     
  -5.8689402664946532E-005   2.6257279742202884E-002   0.0000000000000000     
  -7.4749103442817556E-005   3.0522948569887357E-002   0.0000000000000000     
  -9.4122006181516105E-005   3.5045613365762951E-002   0.0000000000000000     
  -1.7787806115628583E-003   1.8527064221014869E-002   0.0000000000000000     
  -2.0138036360434568E-003   2.2281468008701833E-002   0.0000000000000000     
  -2.2502582499431814E-003   2.6293750747410687E-002   0.0000000000000000     
  -2.4881444532620302E-003   3.0563912437141436E-002   0.0000000000000000     
  -2.7274622460000046E-003   3.5091953077894082E-002   0.0000000000000000     
  -3.5411624357881925E-003   1.8604331290525897E-002   0.0000000000000000     
  -4.0013936512353267E-003   2.2364028066760619E-002   0.0000000000000000     
  -4.4598661126924212E-003   2.6381438763616226E-002   0.0000000000000000     
  -4.9165798201594741E-003   3.0656563381092714E-002   0.0000000000000000     
  -5.3715347736364898E-003   3.5189401919190094E-002   0.0000000000000000     
  -5.3236550796676892E-003   1.8728731199940448E-002   0.0000000000000000     
  -6.0087129494235123E-003   2.2496287056885902E-002   0.0000000000000000     
  -6.6875129909126675E-003   2.6520343790819485E-002   0.0000000000000000     
  -7.3600552041351523E-003   3.0800901401741181E-002   0.0000000000000000     
  -8.0263395890909674E-003   3.5337959889650994E-002   0.0000000000000000     
  -7.1262585432013475E-003   1.8900263949258509E-002   0.0000000000000000     
  -8.0357615306080148E-003   2.2678244979077701E-002   0.0000000000000000     
  -8.9331988846039195E-003   2.6710465829020476E-002   0.0000000000000000     
  -9.8185706051890625E-003   3.0996926499086839E-002   0.0000000000000000     
  -1.0691876692363442E-002   3.5537626989276788E-002   0.0000000000000000     
  -9.4122006181516105E-005   3.5045613365762951E-002   0.0000000000000000     
  -1.1911931405367239E-004   3.9801317078712026E-002   0.0000000000000000     
  -1.5205223023191401E-004   4.4766102657616900E-002   0.0000000000000000     
  -1.9292075471624313E-004   4.9939970102477575E-002   0.0000000000000000     
  -2.4172488750665889E-004   5.5322919413294064E-002   0.0000000000000000     
  -2.7274622460000046E-003   3.5091953077894082E-002   0.0000000000000000     
  -2.9670470578355254E-003   3.9851307643076615E-002   0.0000000000000000     
  -3.2057343184470110E-003   4.4815411106097020E-002   0.0000000000000000     
  -3.4435240278344629E-003   4.9984263466955309E-002   0.0000000000000000     
  -3.6804161859978804E-003   5.5357864725651462E-002   0.0000000000000000     
  -5.3715347736364898E-003   3.5189401919190094E-002   0.0000000000000000     
  -5.8209569024754272E-003   3.9952304193231453E-002   0.0000000000000000     
  -6.2610721360282610E-003   4.4917620018539876E-002   0.0000000000000000     
  -6.6918804742949868E-003   5.0085349395115379E-002   0.0000000000000000     
  -7.1133819172756055E-003   5.5455492322957933E-002   0.0000000000000000     
  -8.0263395890909674E-003   3.5337959889650994E-002   0.0000000000000000     
  -8.6808488479733839E-003   4.0104306729176566E-002   0.0000000000000000     
  -9.3180656829756642E-003   4.5072729394945499E-002   0.0000000000000000     
  -9.9379900940978171E-003   5.0243227886957800E-002   0.0000000000000000     
  -1.0540622081339834E-002   5.5615802205213470E-002   0.0000000000000000     
  -1.0691876692363442E-002   3.5537626989276788E-002   0.0000000000000000     
  -1.1546722894329385E-002   4.0307315250911926E-002   0.0000000000000000     
  -1.2376714959289223E-002   4.5280739235313852E-002   0.0000000000000000     
  -1.3181852887242948E-002   5.0457898942482572E-002   0.0000000000000000     
  -1.3962136678190566E-002   5.5838794372418073E-002   0.0000000000000000     
  -2.4172488750665889E-004   5.5322919413294064E-002   0.0000000000000000     
  -2.8669245934897060E-004   6.0905172195107118E-002   0.0000000000000000     
  -3.1605130098898702E-004   6.6676950052957526E-002   0.0000000000000000     
  -3.2980141242670911E-004   7.2638252986845286E-002   0.0000000000000000     
  -3.2794279366213548E-004   7.8789080996770372E-002   0.0000000000000000     
  -3.6804161859978804E-003   5.5357864725651462E-002   0.0000000000000000     
  -3.9070831131564890E-003   6.0931335798155767E-002   0.0000000000000000     
  -4.1141971295295112E-003   6.6699797600438454E-002   0.0000000000000000     
  -4.3017582351169486E-003   7.2663250132499524E-002   0.0000000000000000     
  -4.4697664299188002E-003   7.8821693394338976E-002   0.0000000000000000     
  -7.1133819172756055E-003   5.5455492322957933E-002   0.0000000000000000     
  -7.5192042120410304E-003   6.1025703221246168E-002   0.0000000000000000     
  -7.9029751056621748E-003   6.6793636509158663E-002   0.0000000000000000     
  -8.2646945981390361E-003   7.2759292186695426E-002   0.0000000000000000     
  -8.6043626894716195E-003   7.8922670253856478E-002   0.0000000000000000     
  -1.0540622081339834E-002   5.5615802205213470E-002   0.0000000000000000     
  -1.1123055756002597E-002   6.1188274464378328E-002   0.0000000000000000     
  -1.1682385229386975E-002   6.6958466779118181E-002   0.0000000000000000     
  -1.2218610501492973E-002   7.2926379149433007E-002   0.0000000000000000     
  -1.2731731572320595E-002   7.9092011575322863E-002   0.0000000000000000     
  -1.3962136678190566E-002   5.5838794372418073E-002   0.0000000000000000     
  -1.4718637745041185E-002   6.1419049527552241E-002   0.0000000000000000     
  -1.5452427500703919E-002   6.7194288410316994E-002   0.0000000000000000     
  -1.6163505945178767E-002   7.3164511020712267E-002   0.0000000000000000     
  -1.6851873078465723E-002   7.9329717358738130E-002   0.0000000000000000     
  -3.2794279366213548E-004   7.8789080996770372E-002   0.0000000000000000     
  -3.2358193055560857E-004   8.5116773311519012E-002   0.0000000000000000     
  -3.2982530896746463E-004   9.1608669159877407E-002   0.0000000000000000     
  -3.4667292889770877E-004   9.8264768541845571E-002   0.0000000000000000     
  -3.7412479034633610E-004  0.10508507145742350        0.0000000000000000     
  -4.4697664299188002E-003   7.8821693394338976E-002   0.0000000000000000     
  -4.6323106044137488E-003   8.5157013487821315E-002   0.0000000000000000     
  -4.8034796490804789E-003   9.1651096514811015E-002   0.0000000000000000     
  -4.9832735639189886E-003   9.8303942475308076E-002   0.0000000000000000     
  -5.1716923489292816E-003  0.10511555136931251        0.0000000000000000     
  -8.6043626894716195E-003   7.8922670253856478E-002   0.0000000000000000     
  -8.9342187473260472E-003   8.5262880579600034E-002   0.0000000000000000     
  -9.2665021393684432E-003   9.1759033032884282E-002   0.0000000000000000     
  -9.6012128655988179E-003   9.8411127613709293E-002   0.0000000000000000     
  -9.9383509260171608E-003  0.10521916432207498        0.0000000000000000     
  -1.2731731572320595E-002   7.9092011575322863E-002   0.0000000000000000     
  -1.3229306359292503E-002   8.5434374586855100E-002   0.0000000000000000     
  -1.3718892779831370E-002   9.1932478714097224E-002   0.0000000000000000     
  -1.4200490833937195E-002   9.8586323957049152E-002   0.0000000000000000     
  -1.4674100521609978E-002  0.10539591031571095        0.0000000000000000     
  -1.6851873078465723E-002   7.9329717358738130E-002   0.0000000000000000     
  -1.7517573440313114E-002   8.5671495509586609E-002   0.0000000000000000     
  -1.8160651570469241E-002   9.2171433558449811E-002   0.0000000000000000     
  -1.8781107468934116E-002   9.8829531505327736E-002   0.0000000000000000     
  -1.9378941135707727E-002  0.10564578935022041        0.0000000000000000     
  -3.7412479034633610E-004  0.10508507145742350        0.0000000000000000     
  -4.3318642056542440E-004  0.11204432490440309        0.0000000000000000     
  -5.4486334680704449E-004  0.11911727588057625        0.0000000000000000     
  -7.0915556907119994E-004  0.12630392438594298        0.0000000000000000     
  -9.2606308735788652E-004  0.13360427042050330        0.0000000000000000     
  -5.1716923489292816E-003  0.10511555136931251        0.0000000000000000     
  -5.3811634932397143E-003  0.11206910606657128        0.0000000000000000     
  -5.6241144859786492E-003  0.11914778943683146        0.0000000000000000     
  -5.9005453271460872E-003  0.12635160148009306        0.0000000000000000     
  -6.2104560167420258E-003  0.13368054219635600        0.0000000000000000     
  -9.9383509260171608E-003  0.10521916432207498        0.0000000000000000     
  -1.0282852615360161E-002  0.11217219297039611        0.0000000000000000     
  -1.0639654228364498E-002  0.11925926337108740        0.0000000000000000     
  -1.1008755765030177E-002  0.12648037552414879        0.0000000000000000     
  -1.1390157225357193E-002  0.13383552942958030        0.0000000000000000     
  -1.4674100521609978E-002  0.10539591031571095        0.0000000000000000     
  -1.5138253786926761E-002  0.11235358561587755        0.0000000000000000     
  -1.5591482573964593E-002  0.11945169768334397        0.0000000000000000     
  -1.6033786882723465E-002  0.12669024651811020        0.0000000000000000     
  -1.6465166713203389E-002  0.13406923212017621        0.0000000000000000     
  -1.9378941135707727E-002  0.10564578935022041        0.0000000000000000     
  -1.9947367007939525E-002  0.11261328400301561        0.0000000000000000     
  -2.0479599522778932E-002  0.11972509237360122        0.0000000000000000     
  -2.0975638680225964E-002  0.12698121446197730        0.0000000000000000     
  -2.1435484480280608E-002  0.13438165026814372        0.0000000000000000     
  -9.2606308735788652E-004  0.13360427042050330        0.0000000000000000     
  -1.1818199302205601E-003  0.14101919151407682        0.0000000000000000     
  -1.4626601262126744E-003  0.14854956519648327        0.0000000000000000     
  -1.7685836753342267E-003  0.15619539146772260        0.0000000000000000     
  -2.0995905775852194E-003  0.16395667032779482        0.0000000000000000     
  -6.2104560167420258E-003  0.13368054219635600        0.0000000000000000     
  -6.6344935856416541E-003  0.14109228224357789        0.0000000000000000     
  -7.2533050647201587E-003  0.14854449227971628        0.0000000000000000     
  -8.0668904539775380E-003  0.15603717230477124        0.0000000000000000     
  -9.0752497534137971E-003  0.16357032231874272        0.0000000000000000     
  -1.1390157225357193E-002  0.13383552942958030        0.0000000000000000     
  -1.1902363035408342E-002  0.14126091069095484        0.0000000000000000     
  -1.2663877621246421E-002  0.14869270491184536        0.0000000000000000     
  -1.3674700982871421E-002  0.15613091209225177        0.0000000000000000     
  -1.4934833120283351E-002  0.16357553223217419        0.0000000000000000     
  -1.6465166713203389E-002  0.13406923212017621        0.0000000000000000     
  -1.6985428279520622E-002  0.14152507685620772        0.0000000000000000     
  -1.7694377795791454E-002  0.14899420309287040        0.0000000000000000     
  -1.8592015262015874E-002  0.15647661083016429        0.0000000000000000     
  -1.9678340678193885E-002  0.16397230006808935        0.0000000000000000     
  -2.1435484480280608E-002  0.13438165026814372        0.0000000000000000     
  -2.1883689317978499E-002  0.14188478073933650        0.0000000000000000     
  -2.2344805588355259E-002  0.14944898682279151        0.0000000000000000     
  -2.2818833291410892E-002  0.15707426851850870        0.0000000000000000     
  -2.3305772427145405E-002  0.16476062582648812        0.0000000000000000     
   0.0000000000000000        0.0000000000000000        0.0000000000000000     
  -8.4203046736782273E-004   1.1136979412953441E-003   0.0000000000000000     
  -1.7027535601795160E-003   2.6055769642808146E-003   0.0000000000000000     
  -2.5821692784350797E-003   4.4756370689564120E-003   0.0000000000000000     
  -3.4802776221345144E-003   6.7238782553221375E-003   0.0000000000000000     
   0.0000000000000000        0.0000000000000000        0.0000000000000000     
  -1.0567429888408456E-003   1.1377168348673640E-003   0.0000000000000000     
  -2.1393161237549534E-003   2.6575017212065841E-003   0.0000000000000000     
  -3.2477194047423248E-003   4.5593546590176597E-003   0.0000000000000000     
  -4.3819528318029578E-003   6.8432756483005914E-003   0.0000000000000000     
   0.0000000000000000        0.0000000000000000        0.0000000000000000     
  -1.2874873738457874E-003   1.1732745425802977E-003   0.0000000000000000     
  -2.6041392301304439E-003   2.7311394692284730E-003   0.0000000000000000     
  -3.9499555688539707E-003   4.6735947799445270E-003   0.0000000000000000     
  -5.3249363900163670E-003   7.0006404747284586E-003   0.0000000000000000     
   0.0000000000000000        0.0000000000000000        0.0000000000000000     
  -1.5342636223826481E-003   1.2203710644341445E-003   0.0000000000000000     
  -3.0972228793059876E-003   2.8264902083464825E-003   0.0000000000000000     
  -4.6888777707700183E-003   4.8183574317370139E-003   0.0000000000000000     
  -6.3092282967747403E-003   7.1959727346057401E-003   0.0000000000000000     
   0.0000000000000000        0.0000000000000000        0.0000000000000000     
  -1.7970717344514280E-003   1.2790064004289047E-003   0.0000000000000000     
  -3.6185670712815844E-003   2.9435539385606118E-003   0.0000000000000000     
  -5.4644860104904680E-003   4.9936426143951220E-003   0.0000000000000000     
  -7.3348285520780810E-003   7.4292724279324341E-003   0.0000000000000000     
  -3.4802776221345144E-003   6.7238782553221375E-003   0.0000000000000000     
  -4.3887424220172191E-003   9.3129011566012512E-003   0.0000000000000000     
  -5.2992275088225927E-003   1.2205306406017016E-002   0.0000000000000000     
  -6.2117328825506352E-003   1.5401094003569435E-002   0.0000000000000000     
  -7.1262585432013475E-003   1.8900263949258509E-002   0.0000000000000000     
  -4.3819528318029578E-003   6.8432756483005914E-003   0.0000000000000000     
  -5.5292781632729458E-003   9.4672129544933516E-003   0.0000000000000000     
  -6.6769571574883833E-003   1.2389114843033913E-002   0.0000000000000000     
  -7.8249898144492677E-003   1.5608981313922278E-002   0.0000000000000000     
  -8.9733761341556015E-003   1.9126812367158449E-002   0.0000000000000000     
  -5.3249363900163670E-003   7.0006404747284586E-003   0.0000000000000000     
  -6.7148883599452711E-003   9.6661223153162463E-003   0.0000000000000000     
  -8.1056181449683275E-003   1.2623886063443869E-002   0.0000000000000000     
  -9.4971257450855284E-003   1.5873931719111327E-002   0.0000000000000000     
  -1.0889411160296885E-002   1.9416259282318625E-002   0.0000000000000000     
  -6.3092282967747403E-003   7.1959727346057401E-003   0.0000000000000000     
  -7.9455730120341940E-003   9.9096292390699371E-003   0.0000000000000000     
  -9.5852104712624234E-003   1.2909620067246887E-002   0.0000000000000000     
  -1.1228140674459422E-002   1.6195945219136587E-002   0.0000000000000000     
  -1.2874363621625196E-002   1.9768604694739046E-002   0.0000000000000000     
  -7.3348285520780810E-003   7.4292724279324341E-003   0.0000000000000000     
  -9.2213321195397154E-003   1.0197733725754426E-002   0.0000000000000000     
  -1.1115734136370670E-002   1.3246316854442965E-002   0.0000000000000000     
  -1.3018034602570942E-002   1.6575021813998059E-002   0.0000000000000000     
  -1.4928233518140535E-002   2.0183848604419703E-002   0.0000000000000000     
  -7.1262585432013475E-003   1.8900263949258509E-002   0.0000000000000000     
  -8.0357615306080148E-003   2.2678244979077701E-002   0.0000000000000000     
  -8.9331988846039195E-003   2.6710465829020476E-002   0.0000000000000000     
  -9.8185706051890625E-003   3.0996926499086839E-002   0.0000000000000000     
  -1.0691876692363442E-002   3.5537626989276788E-002   0.0000000000000000     
  -8.9733761341556015E-003   1.9126812367158449E-002   0.0000000000000000     
  -1.0112547087301468E-002   2.2918751103629620E-002   0.0000000000000000     
  -1.1232933644580946E-002   2.6960940624223002E-002   0.0000000000000000     
  -1.2334535805994038E-002   3.1253380928938604E-002   0.0000000000000000     
  -1.3417353571540743E-002   3.5796072017776431E-002   0.0000000000000000     
  -1.0889411160296885E-002   1.9416259282318625E-002   0.0000000000000000     
  -1.2269077312016510E-002   2.3226654700835295E-002   0.0000000000000000     
  -1.3622727121658519E-002   2.7280903922430891E-002   0.0000000000000000     
  -1.4950360589222920E-002   3.1579006947105415E-002   0.0000000000000000     
  -1.6251977714709709E-002   3.6120963774858850E-002   0.0000000000000000     
  -1.2874363621625196E-002   1.9768604694739046E-002   0.0000000000000000     
  -1.4505352204753137E-002   2.3601955770694731E-002   0.0000000000000000     
  -1.6102579315836637E-002   2.7670355723644135E-002   0.0000000000000000     
  -1.7666044954875705E-002   3.1973804553587247E-002   0.0000000000000000     
  -1.9195749121870331E-002   3.6512302260524085E-002   0.0000000000000000     
  -1.4928233518140535E-002   2.0183848604419703E-002   0.0000000000000000     
  -1.6821371765511354E-002   2.4044654313207920E-002   0.0000000000000000     
  -1.8672490227115306E-002   2.8129296027862724E-002   0.0000000000000000     
  -2.0481588902952395E-002   3.2437773748384122E-002   0.0000000000000000     
  -2.2248667793022613E-002   3.6970087474772102E-002   0.0000000000000000     
  -1.0691876692363442E-002   3.5537626989276788E-002   0.0000000000000000     
  -1.1546722894329385E-002   4.0307315250911926E-002   0.0000000000000000     
  -1.2376714959289223E-002   4.5280739235313852E-002   0.0000000000000000     
  -1.3181852887242948E-002   5.0457898942482572E-002   0.0000000000000000     
  -1.3962136678190566E-002   5.5838794372418073E-002   0.0000000000000000     
  -1.3417353571540743E-002   3.5796072017776431E-002   0.0000000000000000     
  -1.4474461246031344E-002   4.0566955592949976E-002   0.0000000000000000     
  -1.5498933134276116E-002   4.5543973356672769E-002   0.0000000000000000     
  -1.6490769236275068E-002   5.0727125308944833E-002   0.0000000000000000     
  -1.7449969552028197E-002   5.6116411449766132E-002   0.0000000000000000     
  -1.6251977714709709E-002   3.6120963774858850E-002   0.0000000000000000     
  -1.7519946107567155E-002   4.0888853589803105E-002   0.0000000000000000     
  -1.8746633377243537E-002   4.5864755576050055E-002   0.0000000000000000     
  -1.9932039523738856E-002   5.1048669733599700E-002   0.0000000000000000     
  -2.1076164547053116E-002   5.6440596062452053E-002   0.0000000000000000     
  -1.9195749121870331E-002   3.6512302260524085E-002   0.0000000000000000     
  -2.0683177478936821E-002   4.1273009241471335E-002   0.0000000000000000     
  -2.2119815688191484E-002   4.6243085893445716E-002   0.0000000000000000     
  -2.3505663749634319E-002   5.1422532216447214E-002   0.0000000000000000     
  -2.4840721663265324E-002   5.6811348210475829E-002   0.0000000000000000     
  -2.2248667793022613E-002   3.6970087474772102E-002   0.0000000000000000     
  -2.3964155360140346E-002   4.1719422547954653E-002   0.0000000000000000     
  -2.5618480067119951E-002   4.6678964308859726E-002   0.0000000000000000     
  -2.7211641913961450E-002   5.1848712757487321E-002   0.0000000000000000     
  -2.8743640900664828E-002   5.7228667893837473E-002   0.0000000000000000     
  -1.3962136678190566E-002   5.5838794372418073E-002   0.0000000000000000     
  -1.4718637745041185E-002   6.1419049527552241E-002   0.0000000000000000     
  -1.5452427500703919E-002   6.7194288410316994E-002   0.0000000000000000     
  -1.6163505945178767E-002   7.3164511020712267E-002   0.0000000000000000     
  -1.6851873078465723E-002   7.9329717358738130E-002   0.0000000000000000     
  -1.7449969552028197E-002   5.6116411449766132E-002   0.0000000000000000     
  -1.8381643583380704E-002   6.1704264651520596E-002   0.0000000000000000     
  -1.9290900832177795E-002   6.7483117786592092E-002   0.0000000000000000     
  -2.0177741298419476E-002   7.3452970854980634E-002   0.0000000000000000     
  -2.1042164982105746E-002   7.9613823856686222E-002   0.0000000000000000     
  -2.1076164547053116E-002   5.6440596062452053E-002   0.0000000000000000     
  -2.2187766675245049E-002   6.2030156077036012E-002   0.0000000000000000     
  -2.3275604136373404E-002   6.7806971291780524E-002   0.0000000000000000     
  -2.4339676930438182E-002   7.3771041706685539E-002   0.0000000000000000     
  -2.5379985057439384E-002   7.9922367321751092E-002   0.0000000000000000     
  -2.4840721663265324E-002   5.6811348210475829E-002   0.0000000000000000     
  -2.6137007020634227E-002   6.2396723804098532E-002   0.0000000000000000     
  -2.7406537413290747E-002   6.8165848925882261E-002   0.0000000000000000     
  -2.8649312841234890E-002   7.4118723575826981E-002   0.0000000000000000     
  -2.9865333304466651E-002   8.0255347753932754E-002   0.0000000000000000     
  -2.8743640900664828E-002   5.7228667893837473E-002   0.0000000000000000     
  -3.0229364619548234E-002   6.2803967832708127E-002   0.0000000000000000     
  -3.1683700662929817E-002   6.8559750688897303E-002   0.0000000000000000     
  -3.3106649030809586E-002   7.4496016462404988E-002   0.0000000000000000     
  -3.4498209723187540E-002   8.0612765153231181E-002   0.0000000000000000     
  -1.6851873078465723E-002   7.9329717358738130E-002   0.0000000000000000     
  -1.7517573440313114E-002   8.5671495509586609E-002   0.0000000000000000     
  -1.8160651570469241E-002   9.2171433558449811E-002   0.0000000000000000     
  -1.8781107468934116E-002   9.8829531505327736E-002   0.0000000000000000     
  -1.9378941135707727E-002  0.10564578935022041        0.0000000000000000     
  -2.1042164982105746E-002   7.9613823856686222E-002   0.0000000000000000     
  -2.1876751909259803E-002   8.5950995421683968E-002   0.0000000000000000     
  -2.2674082105904863E-002   9.2449804179948997E-002   0.0000000000000000     
  -2.3434155572040920E-002   9.9110250131481309E-002   0.0000000000000000     
  -2.4156972307667970E-002  0.10593233327628092        0.0000000000000000     
  -2.5379985057439384E-002   7.9922367321751092E-002   0.0000000000000000     
  -2.6384573685004499E-002   8.6249626397036649E-002   0.0000000000000000     
  -2.7341487980761012E-002   9.2741497192601663E-002   0.0000000000000000     
  -2.8250727944708932E-002   9.9397979708446119E-002   0.0000000000000000     
  -2.9112293576848247E-002  0.10621907394457006        0.0000000000000000     
  -2.9865333304466651E-002   8.0255347753932754E-002   0.0000000000000000     
  -3.1041038767547199E-002   8.6567388435644654E-002   0.0000000000000000     
  -3.2162869195037712E-002   9.3046512596407782E-002   0.0000000000000000     
  -3.3230824586938157E-002   9.9692720236222221E-002   0.0000000000000000     
  -3.4244904943248569E-002  0.10650601135508787        0.0000000000000000     
  -3.4498209723187540E-002   8.0612765153231181E-002   0.0000000000000000     
  -3.5846147156887900E-002   8.6904281537507969E-002   0.0000000000000000     
  -3.7138225748734918E-002   9.3364850391367410E-002   0.0000000000000000     
  -3.8374445498728600E-002   9.9994471714809519E-002   0.0000000000000000     
  -3.9554806406868932E-002  0.10679314550783431        0.0000000000000000     
  -1.9378941135707727E-002  0.10564578935022041        0.0000000000000000     
  -1.9947367007939525E-002  0.11261328400301561        0.0000000000000000     
  -2.0479599522778932E-002  0.11972509237360122        0.0000000000000000     
  -2.0975638680225964E-002  0.12698121446197730        0.0000000000000000     
  -2.1435484480280608E-002  0.13438165026814372        0.0000000000000000     
  -2.4156972307667970E-002  0.10593233327628092        0.0000000000000000     
  -2.4830926667152198E-002  0.11290790992431125        0.0000000000000000     
  -2.5444413004859771E-002  0.12002883638553581        0.0000000000000000     
  -2.5997431320790694E-002  0.12729511265995455        0.0000000000000000     
  -2.6489981614944976E-002  0.13470673874756753        0.0000000000000000     
  -2.9112293576848247E-002  0.10621907394457006        0.0000000000000000     
  -2.9909667153318539E-002  0.11319408517226545        0.0000000000000000     
  -3.0626330950259354E-002  0.12031231866282427        0.0000000000000000     
  -3.1262284967670716E-002  0.12757377441624651        0.0000000000000000     
  -3.1817529205552614E-002  0.13497845243253220        0.0000000000000000     
  -3.4244904943248569E-002  0.10650601135508787        0.0000000000000000     
  -3.5183588466438535E-002  0.11347180974687818        0.0000000000000000     
  -3.6025353358977691E-002  0.12057553920546661        0.0000000000000000     
  -3.6770199620866015E-002  0.12781719973085312        0.0000000000000000     
  -3.7418127252103514E-002  0.13519679132303775        0.0000000000000000     
  -3.9554806406868932E-002  0.10679314550783431        0.0000000000000000     
  -4.0652690606512228E-002  0.11374108364814950        0.0000000000000000     
  -4.1641480231014785E-002  0.12081849801346289        0.0000000000000000     
  -4.2521175280376605E-002  0.12802538860377444        0.0000000000000000     
  -4.3291775754597681E-002  0.13536175541908418        0.0000000000000000     
  -2.1435484480280608E-002  0.13438165026814372        0.0000000000000000     
  -2.1883689317978499E-002  0.14188478073933650        0.0000000000000000     
  -2.2344805588355259E-002  0.14944898682279151        0.0000000000000000     
  -2.2818833291410892E-002  0.15707426851850870        0.0000000000000000     
  -2.3305772427145405E-002  0.16476062582648812        0.0000000000000000     
  -2.6489981614944976E-002  0.13470673874756753        0.0000000000000000     
  -2.6874282132265462E-002  0.14224861412772408        0.0000000000000000     
  -2.7102551117695002E-002  0.14990563827977357        0.0000000000000000     
  -2.7174788571233611E-002  0.15767781120371605        0.0000000000000000     
  -2.7090994492881278E-002  0.16556513289955146        0.0000000000000000     
  -3.1817529205552614E-002  0.13497845243253220        0.0000000000000000     
  -3.2234342703865000E-002  0.14252516880875321        0.0000000000000000     
  -3.2455004502567844E-002  0.15021273964198159        0.0000000000000000     
  -3.2479514601661146E-002  0.15804116493221732        0.0000000000000000     
  -3.2307873001144898E-002  0.16601044467946038        0.0000000000000000     
  -3.7418127252103514E-002  0.13519679132303775        0.0000000000000000     
  -3.7963871032777111E-002  0.14271444478242407        0.0000000000000000     
  -3.8402165742973782E-002  0.15037029090941564        0.0000000000000000     
  -3.8733011382693486E-002  0.15816432970401256        0.0000000000000000     
  -3.8956407951936257E-002  0.16609656116621482        0.0000000000000000     
  -4.3291775754597681E-002  0.13536175541908418        0.0000000000000000     
  -4.4062867119001814E-002  0.14281644204873650        0.0000000000000000     
  -4.4944034838912815E-002  0.15037829208207570        0.0000000000000000     
  -4.5935278914330656E-002  0.15804730551910179        0.0000000000000000     
  -4.7036599345255357E-002  0.16582348235981481        0.0000000000000000     
   0.0000000000000000        0.0000000000000000        0.0000000000000000     
  -1.7970717344514280E-003   1.2790064004289047E-003   0.0000000000000000     
  -3.6185670712815844E-003   2.9435539385606118E-003   0.0000000000000000     
  -5.4644860104904680E-003   4.9936426143951220E-003   0.0000000000000000     
  -7.3348285520780810E-003   7.4292724279324341E-003   0.0000000000000000     
   0.0000000000000000        0.0000000000000000        0.0000000000000000     
  -2.0678139388804946E-003   1.3564663508205501E-003   0.0000000000000000     
  -4.1609214131270921E-003   3.0971300701267569E-003   0.0000000000000000     
  -6.2793224227397915E-003   5.2219911579186196E-003   0.0000000000000000     
  -8.4230169677185947E-003   7.7310496141961386E-003   0.0000000000000000     
   0.0000000000000000        0.0000000000000000        0.0000000000000000     
  -2.3383924644982150E-003   1.4600367158650528E-003   0.0000000000000000     
  -4.7170355119123680E-003   3.3020180133008126E-003   0.0000000000000000     
  -7.1359291422424583E-003   5.5259438923072777E-003   0.0000000000000000     
  -9.5950733554884867E-003   8.1318143528844519E-003   0.0000000000000000     
   0.0000000000000000        0.0000000000000000        0.0000000000000000     
  -2.6088073113045888E-003   1.5897174955624136E-003   0.0000000000000000     
  -5.2869093676374121E-003   3.5582177680827795E-003   0.0000000000000000     
  -8.0343061689984677E-003   5.9055008175610988E-003   0.0000000000000000     
  -1.0850997715387759E-002   8.6315666439973696E-003   0.0000000000000000     
   0.0000000000000000        0.0000000000000000        0.0000000000000000     
  -2.8790584792996172E-003   1.7455086899126311E-003   0.0000000000000000     
  -5.8705429803022242E-003   3.8657293344726575E-003   0.0000000000000000     
  -8.9744535030078232E-003   6.3606619336800804E-003   0.0000000000000000     
  -1.2190790047416411E-002   9.2303064875348985E-003   0.0000000000000000     
  -7.3348285520780810E-003   7.4292724279324341E-003   0.0000000000000000     
  -9.2213321195397154E-003   1.0197733725754426E-002   0.0000000000000000     
  -1.1115734136370670E-002   1.3246316854442965E-002   0.0000000000000000     
  -1.3018034602570942E-002   1.6575021813998059E-002   0.0000000000000000     
  -1.4928233518140535E-002   2.0183848604419703E-002   0.0000000000000000     
  -8.4230169677185947E-003   7.7310496141961386E-003   0.0000000000000000     
  -1.0582565982851561E-002   1.0566476475527754E-002   0.0000000000000000     
  -1.2748530402926761E-002   1.3670442778481909E-002   0.0000000000000000     
  -1.4920910227944192E-002   1.7042948523058599E-002   0.0000000000000000     
  -1.7099705457903853E-002   2.0683993709257824E-002   0.0000000000000000     
  -9.5950733554884867E-003   8.1318143528844519E-003   0.0000000000000000     
  -1.2069674902359460E-002   1.1051898188547982E-002   0.0000000000000000     
  -1.4534940533564387E-002   1.4218464192813522E-002   0.0000000000000000     
  -1.6990870249103261E-002   1.7631512365681071E-002   0.0000000000000000     
  -1.9437464048976096E-002   2.1291042707150629E-002   0.0000000000000000     
  -1.0850997715387759E-002   8.6315666439973696E-003   0.0000000000000000     
  -1.3682658878063409E-002   1.1653998864815104E-002   0.0000000000000000     
  -1.6474964528283540E-002   1.4890381097437805E-002   0.0000000000000000     
  -1.9227914666048163E-002   1.8340713341865478E-002   0.0000000000000000     
  -2.1941509291357270E-002   2.2004995598098119E-002   0.0000000000000000     
  -1.2190790047416411E-002   9.2303064875348985E-003   0.0000000000000000     
  -1.5421517909963406E-002   1.2372778504329121E-002   0.0000000000000000     
  -1.8568602387084233E-002   1.5686193492354759E-002   0.0000000000000000     
  -2.1632043478778881E-002   1.9170551451611815E-002   0.0000000000000000     
  -2.4611841185047358E-002   2.2825852382100283E-002   0.0000000000000000     
  -1.4928233518140535E-002   2.0183848604419703E-002   0.0000000000000000     
  -1.6821371765511354E-002   2.4044654313207920E-002   0.0000000000000000     
  -1.8672490227115306E-002   2.8129296027862724E-002   0.0000000000000000     
  -2.0481588902952395E-002   3.2437773748384122E-002   0.0000000000000000     
  -2.2248667793022613E-002   3.6970087474772102E-002   0.0000000000000000     
  -1.7099705457903853E-002   2.0683993709257824E-002   0.0000000000000000     
  -1.9256604353289176E-002   2.4566294083086707E-002   0.0000000000000000     
  -2.1363295174583595E-002   2.8662565390552348E-002   0.0000000000000000     
  -2.3419777921787108E-002   3.2972807631654756E-002   0.0000000000000000     
  -2.5426052594899724E-002   3.7497020806393930E-002   0.0000000000000000     
  -1.9437464048976096E-002   2.1291042707150629E-002   0.0000000000000000     
  -2.1850518327084623E-002   2.5178418835042925E-002   0.0000000000000000     
  -2.4205829477330579E-002   2.9275004367178677E-002   0.0000000000000000     
  -2.6503397499713983E-002   3.3580799303557889E-002   0.0000000000000000     
  -2.8743222394234814E-002   3.8095803644180568E-002   0.0000000000000000     
  -2.1941509291357270E-002   2.2004995598098119E-002   0.0000000000000000     
  -2.4603113686897691E-002   2.5881028569076578E-002   0.0000000000000000     
  -2.7200093135356266E-002   2.9966612957741712E-002   0.0000000000000000     
  -2.9732447636733005E-002   3.4261748764093533E-002   0.0000000000000000     
  -3.2200177191027898E-002   3.8766435988132016E-002   0.0000000000000000     
  -2.4611841185047358E-002   2.2825852382100283E-002   0.0000000000000000     
  -2.7514390432728384E-002   2.6674123285187666E-002   0.0000000000000000     
  -3.0346086148660651E-002   3.0737391162241459E-002   0.0000000000000000     
  -3.3106928332844184E-002   3.5015656013261662E-002   0.0000000000000000     
  -3.5796916985278975E-002   3.9508917838248274E-002   0.0000000000000000     
  -2.2248667793022613E-002   3.6970087474772102E-002   0.0000000000000000     
  -2.3964155360140346E-002   4.1719422547954653E-002   0.0000000000000000     
  -2.5618480067119951E-002   4.6678964308859726E-002   0.0000000000000000     
  -2.7211641913961450E-002   5.1848712757487321E-002   0.0000000000000000     
  -2.8743640900664828E-002   5.7228667893837473E-002   0.0000000000000000     
  -2.5426052594899724E-002   3.7497020806393930E-002   0.0000000000000000     
  -2.7371850521751215E-002   4.2233293169614619E-002   0.0000000000000000     
  -2.9246903030171377E-002   4.7179712976161560E-002   0.0000000000000000     
  -3.1051210120160207E-002   5.2336280226034759E-002   0.0000000000000000     
  -3.2784771791717709E-002   5.7702994919234210E-002   0.0000000000000000     
  -2.8743222394234814E-002   3.8095803644180568E-002   0.0000000000000000     
  -3.0915233734342934E-002   4.2819820766812795E-002   0.0000000000000000     
  -3.3009361093488183E-002   4.7752654049220647E-002   0.0000000000000000     
  -3.5025604471670566E-002   5.2894303491404157E-002   0.0000000000000000     
  -3.6963963868890073E-002   5.8244769093363291E-002   0.0000000000000000     
  -3.2200177191027898E-002   3.8766435988132016E-002   0.0000000000000000     
  -3.4594304997915500E-002   4.3479005339549189E-002   0.0000000000000000     
  -3.6905854257070367E-002   4.8397787528037028E-002   0.0000000000000000     
  -3.9134824968492521E-002   5.3522782553595542E-002   0.0000000000000000     
  -4.1281217132181927E-002   5.8853990416224723E-002   0.0000000000000000     
  -3.5796916985278975E-002   3.9508917838248274E-002   0.0000000000000000     
  -3.8409064312468925E-002   4.4210846887823785E-002   0.0000000000000000     
  -4.0936382520917955E-002   4.9115113412610649E-002   0.0000000000000000     
  -4.3378871610626063E-002   5.4221717412608894E-002   0.0000000000000000     
  -4.5736531581593257E-002   5.9530658887818499E-002   0.0000000000000000     
  -2.8743640900664828E-002   5.7228667893837473E-002   0.0000000000000000     
  -3.0229364619548234E-002   6.2803967832708127E-002   0.0000000000000000     
  -3.1683700662929817E-002   6.8559750688897303E-002   0.0000000000000000     
  -3.3106649030809586E-002   7.4496016462404988E-002   0.0000000000000000     
  -3.4498209723187540E-002   8.0612765153231181E-002   0.0000000000000000     
  -3.2784771791717709E-002   5.7702994919234210E-002   0.0000000000000000     
  -3.4464309450535260E-002   6.3263819615899317E-002   0.0000000000000000     
  -3.6106544502304203E-002   6.9002716876169476E-002   0.0000000000000000     
  -3.7711476947024557E-002   7.4919686700044674E-002   0.0000000000000000     
  -3.9279106784696323E-002   8.1014729087524953E-002   0.0000000000000000     
  -3.6963963868890073E-002   5.8244769093363291E-002   0.0000000000000000     
  -3.8841311492143468E-002   6.3788210606706586E-002   0.0000000000000000     
  -4.0674519548427462E-002   6.9508787783042592E-002   0.0000000000000000     
  -4.2463588037742070E-002   7.5406500622371253E-002   0.0000000000000000     
  -4.4208516960087284E-002   8.1481349124692612E-002   0.0000000000000000     
  -4.1281217132181927E-002   5.8853990416224723E-002   0.0000000000000000     
  -4.3360370744372864E-002   6.4377140805129962E-002   0.0000000000000000     
  -4.5387625801299597E-002   7.0077963409516622E-002   0.0000000000000000     
  -4.7362982302962112E-002   7.5956458229384682E-002   0.0000000000000000     
  -4.9286440249360436E-002   8.2012625264734157E-002   0.0000000000000000     
  -4.5736531581593257E-002   5.9530658887818499E-002   0.0000000000000000     
  -4.8021487207223455E-002   6.5030610211169418E-002   0.0000000000000000     
  -5.0245863260920606E-002   7.0710243755591581E-002   0.0000000000000000     
  -5.2409659742684710E-002   7.6569559521084976E-002   0.0000000000000000     
  -5.4512876652515745E-002   8.2608557507649602E-002   0.0000000000000000     
  -3.4498209723187540E-002   8.0612765153231181E-002   0.0000000000000000     
  -3.5846147156887900E-002   8.6904281537507969E-002   0.0000000000000000     
  -3.7138225748734918E-002   9.3364850391367410E-002   0.0000000000000000     
  -3.8374445498728600E-002   9.9994471714809519E-002   0.0000000000000000     
  -3.9554806406868932E-002  0.10679314550783431        0.0000000000000000     
  -3.9279106784696323E-002   8.1014729087524953E-002   0.0000000000000000     
  -4.0799662637584749E-002   8.7283574034829239E-002   0.0000000000000000     
  -4.2263373127955098E-002   9.3721951538176557E-002   0.0000000000000000     
  -4.3670238255807375E-002  0.10032986159756691        0.0000000000000000     
  -4.5020258021141547E-002  0.10710730421300027        0.0000000000000000     
  -4.4208516960087284E-002   8.1481349124692612E-002   0.0000000000000000     
  -4.5901348994195887E-002   8.7728534259811142E-002   0.0000000000000000     
  -4.7534126818800641E-002   9.4143256997531302E-002   0.0000000000000000     
  -4.9106850433901547E-002  0.10072551733785313        0.0000000000000000     
  -5.0619519839498618E-002  0.10747531528077663        0.0000000000000000     
  -4.9286440249360436E-002   8.2012625264734157E-002   0.0000000000000000     
  -5.1151206226721320E-002   8.8239162212453634E-002   0.0000000000000000     
  -5.2950486821271556E-002   9.4628766769431646E-002   0.0000000000000000     
  -5.4684282033011171E-002  0.10118143893566824        0.0000000000000000     
  -5.6352591861940145E-002  0.10789717871116336        0.0000000000000000     
  -5.4512876652515745E-002   8.2608557507649602E-002   0.0000000000000000     
  -5.6549234335161035E-002   8.8815457892756730E-002   0.0000000000000000     
  -5.8512453135367862E-002   9.5178480853877589E-002   0.0000000000000000     
  -6.0402533053136226E-002  0.10169762639101217        0.0000000000000000     
  -6.2219474088466134E-002  0.10837289450416050        0.0000000000000000     
  -3.9554806406868932E-002  0.10679314550783431        0.0000000000000000     
  -4.0652690606512228E-002  0.11374108364814950        0.0000000000000000     
  -4.1641480231014785E-002  0.12081849801346289        0.0000000000000000     
  -4.2521175280376605E-002  0.12802538860377444        0.0000000000000000     
  -4.3291775754597681E-002  0.13536175541908418        0.0000000000000000     
  -4.5020258021141547E-002  0.10710730421300027        0.0000000000000000     
  -4.6283866427114517E-002  0.11403075758746145        0.0000000000000000     
  -4.7431497476883119E-002  0.12107669992393526        0.0000000000000000     
  -4.8463151170447388E-002  0.12824513122242173        0.0000000000000000     
  -4.9378827507807296E-002  0.13553605148292083        0.0000000000000000     
  -5.0619519839498618E-002  0.10747531528077663        0.0000000000000000     
  -5.2044008781820333E-002  0.11436968227619611        0.0000000000000000     
  -5.3352191007095234E-002  0.12138564977400601        0.0000000000000000     
  -5.4544066515323279E-002  0.12852321777420628        0.0000000000000000     
  -5.5619635306504503E-002  0.13578238627679695        0.0000000000000000     
  -5.6352591861940145E-002  0.10789717871116336        0.0000000000000000     
  -5.7933117670629711E-002  0.11475785771435351        0.0000000000000000     
  -5.9403560821651089E-002  0.12174534756367505        0.0000000000000000     
  -6.0763921315004299E-002  0.12885964825912807        0.0000000000000000     
  -6.2014199150689321E-002  0.13610075980071254        0.0000000000000000     
  -6.2219474088466134E-002  0.10837289450416050        0.0000000000000000     
  -6.3951193093542621E-002  0.11519528390193359        0.0000000000000000     
  -6.5585606920550724E-002  0.12215579329294246        0.0000000000000000     
  -6.7122715569490427E-002  0.12925442267718712        0.0000000000000000     
  -6.8562519040361758E-002  0.13649117205466757        0.0000000000000000     
  -4.3291775754597681E-002  0.13536175541908418        0.0000000000000000     
  -4.4062867119001814E-002  0.14281644204873650        0.0000000000000000     
  -4.4944034838912815E-002  0.15037829208207570        0.0000000000000000     
  -4.5935278914330656E-002  0.15804730551910179        0.0000000000000000     
  -4.7036599345255357E-002  0.16582348235981481        0.0000000000000000     
  -4.9378827507807296E-002  0.13553605148292083        0.0000000000000000     
  -5.0400079979172591E-002  0.14292347072420430        0.0000000000000000     
  -5.1748462074753053E-002  0.15038139896504391        0.0000000000000000     
  -5.3423973794548656E-002  0.15790983620543950        0.0000000000000000     
  -5.5426615138559440E-002  0.16550878244539127        0.0000000000000000     
  -5.5619635306504503E-002  0.13578238627679695        0.0000000000000000     
  -5.6844258629922928E-002  0.14312784092534123        0.0000000000000000     
  -5.8483297734862598E-002  0.15052426736340238        0.0000000000000000     
  -6.0536752621323534E-002  0.15797166559098036        0.0000000000000000     
  -6.3004623289305714E-002  0.16547003560807513        0.0000000000000000     
  -6.2014199150689321E-002  0.13610075980071254        0.0000000000000000     
  -6.3395403071252826E-002  0.14342955265214730        0.0000000000000000     
  -6.5148541819241498E-002  0.15080689727715119        0.0000000000000000     
  -6.7273615394655276E-002  0.15823279367572424        0.0000000000000000     
  -6.9770623797494200E-002  0.16570724184786642        0.0000000000000000     
  -6.8562519040361758E-002  0.13649117205466757        0.0000000000000000     
  -7.0053513303162299E-002  0.14382860590462243        0.0000000000000000     
  -7.1744194327889657E-002  0.15122928870629032        0.0000000000000000     
  -7.3634562114543861E-002  0.15869322045967119        0.0000000000000000     
  -7.5724616663124897E-002  0.16622040116476511        0.0000000000000000     
   0.0000000000000000        0.0000000000000000        0.0000000000000000     
  -2.8790584792996172E-003   1.7455086899126311E-003   0.0000000000000000     
  -5.8705429803022242E-003   3.8657293344726575E-003   0.0000000000000000     
  -8.9744535030078232E-003   6.3606619336800804E-003   0.0000000000000000     
  -1.2190790047416411E-002   9.2303064875348985E-003   0.0000000000000000     
   0.0000000000000000        0.0000000000000000        0.0000000000000000     
  -3.2826327876449807E-003   1.9999187641587682E-003   0.0000000000000000     
  -6.6754829225162161E-003   4.3316808570815091E-003   0.0000000000000000     
  -1.0178550404613703E-002   6.9952862787682219E-003   0.0000000000000000     
  -1.3791835233937448E-002   9.9907350292189057E-003   0.0000000000000000     
   0.0000000000000000        0.0000000000000000        0.0000000000000000     
  -3.9530170555023602E-003   2.4254561835438874E-003   0.0000000000000000     
  -7.9092757668887924E-003   5.0632004805203964E-003   0.0000000000000000     
  -1.1868776134159299E-002   7.9132328909295238E-003   0.0000000000000000     
  -1.5831518157313880E-002   1.0975553414771274E-002   0.0000000000000000     
   0.0000000000000000        0.0000000000000000        0.0000000000000000     
  -4.8902112828717566E-003   3.0221209480679888E-003   0.0000000000000000     
  -9.5719215134199599E-003   6.0602882047893179E-003   0.0000000000000000     
  -1.4045130691644607E-002   9.1145017701639887E-003   0.0000000000000000     
  -1.8309838817545703E-002   1.2184761644191994E-002   0.0000000000000000     
   0.0000000000000000        0.0000000000000000        0.0000000000000000     
  -6.0942154697531687E-003   3.7899130577310719E-003   0.0000000000000000     
  -1.1663420162109712E-002   7.3229440298882746E-003   0.0000000000000000     
  -1.6707614077069631E-002   1.0599092916471610E-002   0.0000000000000000     
  -2.1226797214632921E-002   1.3618359717481075E-002   0.0000000000000000     
  -1.2190790047416411E-002   9.2303064875348985E-003   0.0000000000000000     
  -1.5421517909963406E-002   1.2372778504329121E-002   0.0000000000000000     
  -1.8568602387084233E-002   1.5686193492354759E-002   0.0000000000000000     
  -2.1632043478778881E-002   1.9170551451611815E-002   0.0000000000000000     
  -2.4611841185047358E-002   2.2825852382100283E-002   0.0000000000000000     
  -1.3791835233937448E-002   9.9907350292189057E-003   0.0000000000000000     
  -1.7398572902476050E-002   1.3220540367421062E-002   0.0000000000000000     
  -2.0881998902218125E-002   1.6587215552362183E-002   0.0000000000000000     
  -2.4242113233163661E-002   2.0090760584042269E-002   0.0000000000000000     
  -2.7478915895312674E-002   2.3731175462461323E-002   0.0000000000000000     
  -1.5831518157313880E-002   1.0975553414771274E-002   0.0000000000000000     
  -1.9726144760017942E-002   1.4209587714421953E-002   0.0000000000000000     
  -2.3481298865936893E-002   1.7574761452257868E-002   0.0000000000000000     
  -2.7096980475070743E-002   2.1071074628279021E-002   0.0000000000000000     
  -3.0573189587419482E-002   2.4698527242485422E-002   0.0000000000000000     
  -1.8309838817545703E-002   1.2184761644191994E-002   0.0000000000000000     
  -2.2404233482589072E-002   1.5339920545331790E-002   0.0000000000000000     
  -2.6366502278240545E-002   1.8648831192041821E-002   0.0000000000000000     
  -3.0196645204500116E-002   2.2111493584322083E-002   0.0000000000000000     
  -3.3894662261367788E-002   2.5727907722172583E-002   0.0000000000000000     
  -2.1226797214632921E-002   1.3618359717481075E-002   0.0000000000000000     
  -2.5432839070189454E-002   1.6611538860150581E-002   0.0000000000000000     
  -2.9537609139129072E-002   1.9809424771714039E-002   0.0000000000000000     
  -3.3541107421451791E-002   2.3212017452171444E-002   0.0000000000000000     
  -3.7443333917157595E-002   2.6819316901522804E-002   0.0000000000000000     
  -2.4611841185047358E-002   2.2825852382100283E-002   0.0000000000000000     
  -2.7514390432728384E-002   2.6674123285187666E-002   0.0000000000000000     
  -3.0346086148660651E-002   3.0737391162241459E-002   0.0000000000000000     
  -3.3106928332844184E-002   3.5015656013261662E-002   0.0000000000000000     
  -3.5796916985278975E-002   3.9508917838248274E-002   0.0000000000000000     
  -2.7478915895312674E-002   2.3731175462461323E-002   0.0000000000000000     
  -3.0615890216092210E-002   2.7549826282669155E-002   0.0000000000000000     
  -3.3676519522929368E-002   3.1588079139715557E-002   0.0000000000000000     
  -3.6660803815824122E-002   3.5845934033600535E-002   0.0000000000000000     
  -3.9568743094776482E-002   4.0323390964324100E-002   0.0000000000000000     
  -3.0573189587419482E-002   2.4698527242485422E-002   0.0000000000000000     
  -3.3939154688504704E-002   2.8500260860813986E-002   0.0000000000000000     
  -3.7224104263848014E-002   3.2519417049201645E-002   0.0000000000000000     
  -4.0428038313449405E-002   3.6755995807648392E-002   0.0000000000000000     
  -4.3550956837308884E-002   4.1209997136154225E-002   0.0000000000000000     
  -3.3894662261367788E-002   2.5727907722172583E-002   0.0000000000000000     
  -3.7484183849965852E-002   2.9525427019622172E-002   0.0000000000000000     
  -4.0988840371416604E-002   3.3531404890699730E-002   0.0000000000000000     
  -4.4408631825720052E-002   3.7745841335405227E-002   0.0000000000000000     
  -4.7743558212876167E-002   4.2168736353738676E-002   0.0000000000000000     
  -3.7443333917157595E-002   2.6819316901522804E-002   0.0000000000000000     
  -4.1250977700475658E-002   3.0625324759093721E-002   0.0000000000000000     
  -4.4970727845635147E-002   3.4624042664209792E-002   0.0000000000000000     
  -4.8602584352636036E-002   3.8815470616871024E-002   0.0000000000000000     
  -5.2146547221478351E-002   4.3199608617077417E-002   0.0000000000000000     
  -3.5796916985278975E-002   3.9508917838248274E-002   0.0000000000000000     
  -3.8409064312468925E-002   4.4210846887823785E-002   0.0000000000000000     
  -4.0936382520917955E-002   4.9115113412610649E-002   0.0000000000000000     
  -4.3378871610626063E-002   5.4221717412608894E-002   0.0000000000000000     
  -4.5736531581593257E-002   5.9530658887818499E-002   0.0000000000000000     
  -3.9568743094776482E-002   4.0323390964324100E-002   0.0000000000000000     
  -4.2395241012345181E-002   4.5010451048117260E-002   0.0000000000000000     
  -4.5135201221088939E-002   4.9897115401211063E-002   0.0000000000000000     
  -4.7788623721007777E-002   5.4983384023605503E-002   0.0000000000000000     
  -5.0355508512101660E-002   6.0269256915300565E-002   0.0000000000000000     
  -4.3550956837308884E-002   4.1209997136154225E-002   0.0000000000000000     
  -4.6588564431886262E-002   4.5872923456910304E-002   0.0000000000000000     
  -4.9536565693641364E-002   5.0736277192107770E-002   0.0000000000000000     
  -5.2394960622574191E-002   5.5800058341746631E-002   0.0000000000000000     
  -5.5163749218684756E-002   6.1064266905826864E-002   0.0000000000000000     
  -4.7743558212876167E-002   4.2168736353738676E-002   0.0000000000000000     
  -5.0989034571092176E-002   4.6798264114202910E-002   0.0000000000000000     
  -5.4140475938575225E-002   5.1632598785300771E-002   0.0000000000000000     
  -5.7197882315325355E-002   5.6671740367032271E-002   0.0000000000000000     
  -6.0161253701342537E-002   6.1915688859397397E-002   0.0000000000000000     
  -5.2146547221478351E-002   4.3199608617077417E-002   0.0000000000000000     
  -5.5596651429962916E-002   4.7786473019995071E-002   0.0000000000000000     
  -5.8946931955890541E-002   5.2586080180790085E-002   0.0000000000000000     
  -6.2197388799261233E-002   5.7598430099462444E-002   0.0000000000000000     
  -6.5348021960074998E-002   6.2823522776012150E-002   0.0000000000000000     
  -4.5736531581593257E-002   5.9530658887818499E-002   0.0000000000000000     
  -4.8021487207223455E-002   6.5030610211169418E-002   0.0000000000000000     
  -5.0245863260920606E-002   7.0710243755591581E-002   0.0000000000000000     
  -5.2409659742684710E-002   7.6569559521084976E-002   0.0000000000000000     
  -5.4512876652515745E-002   8.2608557507649602E-002   0.0000000000000000     
  -5.0355508512101660E-002   6.0269256915300565E-002   0.0000000000000000     
  -5.2844440864111400E-002   6.5745565564588673E-002   0.0000000000000000     
  -5.5264006046777767E-002   7.1403141459762190E-002   0.0000000000000000     
  -5.7614204060100753E-002   7.7241984600821115E-002   0.0000000000000000     
  -5.9895034904080345E-002   8.3262094987765475E-002   0.0000000000000000     
  -5.5163749218684756E-002   6.1064266905826864E-002   0.0000000000000000     
  -5.7849011698452857E-002   6.6518953605151421E-002   0.0000000000000000     
  -6.0456828278358327E-002   7.2154169160523182E-002   0.0000000000000000     
  -6.2987198958401158E-002   7.7969913571942120E-002   0.0000000000000000     
  -6.5440123738581338E-002   8.3966186839408305E-002   0.0000000000000000     
  -6.0161253701342537E-002   6.1915688859397397E-002   0.0000000000000000     
  -6.3035199710247819E-002   6.7350774332857646E-002   0.0000000000000000     
  -6.5824329955662300E-002   7.2963326857874516E-002   0.0000000000000000     
  -6.8528644437585925E-002   7.8753346434447993E-002   0.0000000000000000     
  -7.1148143156018750E-002   8.4720833062578077E-002   0.0000000000000000     
  -6.5348021960074998E-002   6.2823522776012150E-002   0.0000000000000000     
  -6.8403004899496300E-002   6.8241027747707364E-002   0.0000000000000000     
  -7.1366511078689687E-002   7.3830614551816220E-002   0.0000000000000000     
  -7.4238540497655089E-002   7.9592283188338692E-002   0.0000000000000000     
  -7.7019093156392548E-002   8.5526033657274819E-002   0.0000000000000000     
  -5.4512876652515745E-002   8.2608557507649602E-002   0.0000000000000000     
  -5.6549234335161035E-002   8.8815457892756730E-002   0.0000000000000000     
  -5.8512453135367862E-002   9.5178480853877589E-002   0.0000000000000000     
  -6.0402533053136226E-002  0.10169762639101217        0.0000000000000000     
  -6.2219474088466134E-002  0.10837289450416050        0.0000000000000000     
  -5.9895034904080345E-002   8.3262094987765475E-002   0.0000000000000000     
  -6.2100813565068733E-002   8.9447729077011651E-002   0.0000000000000000     
  -6.4225855029418036E-002   9.5783143324976061E-002   0.0000000000000000     
  -6.6270159297128275E-002  0.10226833773165867        0.0000000000000000     
  -6.8233726368199438E-002  0.10890331229705952        0.0000000000000000     
  -6.5440123738581338E-002   8.3966186839408305E-002   0.0000000000000000     
  -6.7811324161998102E-002   9.0126283541509589E-002   0.0000000000000000     
  -7.0096521771750617E-002   9.6433498256833977E-002   0.0000000000000000     
  -7.2295716567838911E-002  0.10288783098538140        0.0000000000000000     
  -7.4408908550262942E-002  0.10948928172715190        0.0000000000000000     
  -7.1148143156018750E-002   8.4720833062578077E-002   0.0000000000000000     
  -7.3680766125949163E-002   9.0851121286250600E-002   0.0000000000000000     
  -7.6124453362365618E-002   9.7129545649451365E-002   0.0000000000000000     
  -7.8479204865268104E-002  0.10355610615218039        0.0000000000000000     
  -8.0745020634656633E-002  0.11013080279443761        0.0000000000000000     
  -7.7019093156392548E-002   8.5526033657274819E-002   0.0000000000000000     
  -7.9709139456921901E-002   9.1622242311234642E-002   0.0000000000000000     
  -8.2309649801263013E-002   9.7871285502828240E-002   0.0000000000000000     
  -8.4820624189415897E-002  0.10427316323205560        0.0000000000000000     
  -8.7242062621380512E-002  0.11082787549891671        0.0000000000000000     
  -6.2219474088466134E-002  0.10837289450416050        0.0000000000000000     
  -6.3951193093542621E-002  0.11519528390193359        0.0000000000000000     
  -6.5585606920550724E-002  0.12215579329294246        0.0000000000000000     
  -6.7122715569490427E-002  0.12925442267718712        0.0000000000000000     
  -6.8562519040361758E-002  0.13649117205466757        0.0000000000000000     
  -6.8233726368199438E-002  0.10890331229705952        0.0000000000000000     
  -7.0113799242080735E-002  0.11568797106643131        0.0000000000000000     
  -7.1907620918221352E-002  0.12262221808502684        0.0000000000000000     
  -7.3615191396621302E-002  0.12970605335284602        0.0000000000000000     
  -7.5236510677280585E-002  0.13693947686988889        0.0000000000000000     
  -7.4408908550262942E-002  0.10948928172715190        0.0000000000000000     
  -7.6436500307765734E-002  0.11624192943534163        0.0000000000000000     
  -7.8378894429090268E-002  0.12314985306314676        0.0000000000000000     
  -8.0236090914236557E-002  0.13021305261056729        0.0000000000000000     
  -8.2008089763204603E-002  0.13743152807760325        0.0000000000000000     
  -8.0745020634656633E-002  0.11013080279443761        0.0000000000000000     
  -8.2919296290597619E-002  0.11685715900866445        0.0000000000000000     
  -8.4999427453157458E-002  0.12373869822730224        0.0000000000000000     
  -8.6985414122336194E-002  0.13077542045035095        0.0000000000000000     
  -8.8877256298133797E-002  0.13796732567781061        0.0000000000000000     
  -8.7242062621380512E-002  0.11082787549891671        0.0000000000000000     
  -8.9562187190576376E-002  0.11753365978639986        0.0000000000000000     
  -9.1769219990422951E-002  0.12438875357749328        0.0000000000000000     
  -9.3863161020920211E-002  0.13139315687219705        0.0000000000000000     
  -9.5844010282068182E-002  0.13854686967051105        0.0000000000000000     
  -6.8562519040361758E-002  0.13649117205466757        0.0000000000000000     
  -7.0053513303162299E-002  0.14382860590462243        0.0000000000000000     
  -7.1744194327889657E-002  0.15122928870629032        0.0000000000000000     
  -7.3634562114543861E-002  0.15869322045967119        0.0000000000000000     
  -7.5724616663124897E-002  0.16622040116476511        0.0000000000000000     
  -7.5236510677280585E-002  0.13693947686988889        0.0000000000000000     
  -7.6820371097790857E-002  0.14428848696225349        0.0000000000000000     
  -7.8415564995743814E-002  0.15171908195603787        0.0000000000000000     
  -8.0022092371139456E-002  0.15923126185124198        0.0000000000000000     
  -8.1639953223977782E-002  0.16682502664786586        0.0000000000000000     
  -8.2008089763204603E-002  0.13743152807760325        0.0000000000000000     
  -8.3697758227278027E-002  0.14477268210452723        0.0000000000000000     
  -8.5307963557740563E-002  0.15220391733161193        0.0000000000000000     
  -8.6838705754592183E-002  0.15972523375885733        0.0000000000000000     
  -8.8289984817832873E-002  0.16733663138626342        0.0000000000000000     
  -8.8877256298133797E-002  0.13796732567781061        0.0000000000000000     
  -9.0685674691623835E-002  0.14528119133144365        0.0000000000000000     
  -9.2421390013879903E-002  0.15268379483301250        0.0000000000000000     
  -9.4084402264902015E-002  0.16017513618251722        0.0000000000000000     
  -9.5674711444690155E-002  0.16775521537995766        0.0000000000000000     
  -9.5844010282068182E-002  0.13854686967051105        0.0000000000000000     
  -9.7784120490828269E-002  0.14581401464300278        0.0000000000000000     
  -9.9755844364161878E-002  0.15315871446023965        0.0000000000000000     
 -0.10175918190206899       0.16058096912222164        0.0000000000000000     
 -0.10379413310454963       0.16808077862894874        0.0000000000000000     
 </DataArray>
 <DataArray  type="Float64" Name="stress" NumberOfComponents="3" format="ascii">
   13415810694.339539        4024743208.3018618        2892266990.9560256     
   11769115205.960722        1891364851.9955969        1715420718.9655812     
   10319467457.416954        414812295.13949299        810874971.66830194     
   9066867448.7082348       -404914462.26645184        178629749.06418708     
   8011315179.8345633       -567815420.22223616       -181314948.84676382     
   10542796219.373892        3162838865.8121672        2224114328.8286057     
   9671882598.2418098        1590665183.1994352        1445730787.2666116     
   8949497855.0748062        513587760.47029591        862293232.65658891     
   8375641989.8728838       -68393402.375252247        473801664.99853635     
   7950315002.6360359       -155278305.33720684        280256084.29245567     
   8342792141.3100729        2502837642.3930221        1710598995.1713009     
   8026647422.4498892        1425564743.9813704        1274072845.1894584     
   7810512719.6848145        681658565.88674378        955138144.41839302     
   7694388033.0148468        271119108.10914087        753794892.85810518     
   7678273362.4399843        193946370.64856195        670043090.50859499     
   6815798460.1480837        2044739538.0444250        1351720989.9841120     
   6833409678.5849581        1396063534.3414035        1200446892.7341216     
   6902512051.2469702        919024711.38883781        1089409706.9537153     
   7023105578.1341190        613623069.18672752        1018609432.6428930     
   7195190259.2464066        479858607.73507380        988046069.80165386     
   5961815175.8879242        1788544552.7663774        1147480313.2670383     
   6092169366.6470203        1502161554.2795339        1224852929.9006021     
   6225495849.7612810        1225686196.9765778        1265107920.2625554     
   6361794625.2307072        959118480.85750818        1268245284.3528996     
   6501065693.0553017        702458405.92232752        1234265022.1716337     
   8011315179.8345633       -567815420.22223616       -181314948.84676382     
   7927377785.8287163       -202613576.59228277       -79976933.668085769     
   7802404743.7188454        25802773.357597828       -10305804.779855587     
   7636396053.5049534        117433629.62740755        27698437.817928184     
   7429351715.1870422        72278992.217147350        34035794.125265539     
   7950315002.6360359       -155278305.33720684        280256084.29245567     
   7748282796.6407909        14984231.630788803        279027161.28752029     
   7523101276.7842941        108082389.06128168        263608955.34933174     
   7274770443.0665483        124016166.95427704        234001466.47788766     
   7003290295.4875546        62785565.309769630        190204694.67319056     
   7678273362.4399843        193946370.64856195        670043090.50859499     
   7408082354.0473194        184250403.83219242        587114619.26994503     
   7132628366.0361748        157011171.62089539        507474468.45523524     
   6851911398.4065504        112228674.01466441        431122638.06446224     
   6565931451.1584492        49902911.013505697        358059128.09763086     
   7195190259.2464066        479858607.73507380        988046069.80165386     
   6906776458.0482988        305184940.01193523        844285440.27919161     
   6630986011.4744892        172589121.03643751        721290734.53786075     
   6367818919.5249653        82071150.808578253        619061952.57766068     
   6117275182.1997375        33631029.328358889        537599094.39859164     
   6501065693.0553017        702458405.92232752        1234265022.1716337     
   6244365108.6437349        377787840.17001295        1050539624.3152577     
   6018174213.0992336        154816237.30790949        905057753.59720504     
   5822493006.4217930        33543597.336012840        797819410.01747584     
   5657321488.6114149        13969920.254330397        728824593.57607150     
   7429351715.1870422        72278992.217147350        34035794.125265539     
   7233061372.2441282       -14481004.636207581        17953044.949978180     
   7048247408.3575916       -62986404.634964466        4060121.1495023570     
   6874909823.5274343       -73237207.779130936       -7642977.2761633713     
   6713048617.7536545       -45233414.068696022       -17156250.327019166     
   7003290295.4875546        62785565.309769630        190204694.67319056     
   6821881715.0713215        4831207.7523374557        181443590.32371569     
   6647966255.5085945       -28146080.293414593        175292715.01320502     
   6481543916.7993698       -36146298.827501059        171752068.74166366     
   6322614698.9436474       -19169447.849905729        170821651.50908583     
   6565931451.1584492        49902911.013505697        358059128.09763086     
   6400605786.5950661        21114538.749847651        351972534.00394523     
   6238789984.6823082        4025708.6549446583        348916572.61338168     
   6080484045.4201775       -1363579.2712061405        348891243.92594194     
   5925687968.8086739        4946674.9713945389        351896547.94162202     
   6117275182.1997375        33631029.328358889        537599094.39859164     
   5969233586.8153639        34368988.356323957        529539875.99067229     
   5820718595.8787365        33528962.210121870        524931693.95003259     
   5671730209.3898592        31110950.889749050        523774548.27667218     
   5522268427.3487310        27114954.395206451        526068438.97058666     
   5657321488.6114149        13969920.254330397        728824593.57607150     
   5527765115.7322092        44594556.571767569        714145616.28389728     
   5393752089.0978746        60363680.372110844        703338079.02315724     
   5255282408.7084150        61277291.655366898        696401981.79385340     
   5112356074.5638256        47335390.421530724        693337324.59598219     
   6713048617.7536545       -45233414.068696022       -17156250.327019166     
   6534613139.7513523       -12089488.553418636       -11547366.311043037     
   6351368808.0597448        5024924.6641876698       -666515.92832679150     
   6163315622.6788445        6109825.5841474533        15486300.821139177     
   5970453583.6086464       -8834785.7935605049        36911083.937346548     
   6322614698.9436474       -19169447.849905729        170821651.50908583     
   6152171944.1609497        834070.81573057175        168792846.47049657     
   5978509076.5024223        10103879.895274162        170672725.27632171     
   5801626095.9680672        8639979.3887221813        176461287.92654881     
   5621523002.5578823       -3557630.7039320469        186158534.42119548     
   5925687968.8086739        4946674.9713945389        351896547.94162202     
   5759342844.3246260        10641258.911107540        344083584.79752100     
   5591366347.7782183        10897935.976282835        338816022.97549236     
   5421758479.1694489        5716706.1669316292        336093862.47553837     
   5250519238.4983253       -4902430.5169446468        335917103.29766136     
   5522268427.3487310        27114954.395206451        526068438.97058666     
   5356125840.2423782        17332075.732706785        514324848.67001820     
   5189940621.8871336        7407092.9072346687        503763377.16918772     
   5023712772.2830009       -2659994.0811972618        494384024.46810085     
   4857442291.4299793       -12869185.232595444        486186790.56674957     
   5112356074.5638256        47335390.421530724        693337324.59598219     
   4942520931.9142084        20906521.280526400        679516638.08799446     
   4774231898.8291702       -368649.31187796593        665514787.85740900     
   4607488975.3087149       -16490121.355679035        651331773.90423024     
   4442292161.3528404       -27457894.850879192        636967596.22845590     
   5970453583.6086464       -8834785.7935605049        36911083.937346548     
   5790186104.0519161       -22017570.571901083        37374398.179867983     
   5613397890.5440474       -23602801.854043245        39236802.561171979     
   5440088943.0850306       -13590479.640010357        42498297.081239954     
   5270259261.6748772        8019396.0702345371        47158881.740090482     
   5621523002.5578823       -3557630.7039320469        186158534.42119548     
   5449438281.4285355       -14758717.981407404        183781754.09128296     
   5279644669.5250692       -18322774.505924463        185842998.37423056     
   5112142166.8474932       -14249800.277477980        192342267.27002981     
   4946930773.3958120       -2539795.2960634232        203279560.77869466     
   5250519238.4983253       -4902430.5169446468        335917103.29766136     
   5095299945.7223024       -11517019.315774918        329314045.43518704     
   4941183605.3491983       -14455100.104869366        330187946.65965295     
   4788170217.3790169       -13716672.884227276        338538806.97105247     
   4636259781.8117561       -9301737.6538457870        354366626.36939222     
   4857442291.4299793       -12869185.232595444        486186790.56674957     
   4727771096.9332285       -12292474.574995279        473971272.21158093     
   4598014698.0164328       -11999778.650884867        472271647.41743469     
   4468173094.6795874       -11991097.460265875        481087916.18431205     
   4338246286.9226999       -12266431.003128052        500420078.51220208     
   4442292161.3528404       -27457894.850879192        636967596.22845590     
   4346851735.0613117       -17085083.759069204        617753434.42047000     
   4250137947.5267715       -10956810.143970251        612094100.64758563     
   4152150798.7492170       -9073074.0055820942        619989594.90980387     
   4052890288.7286496       -11433875.343911409        641439917.20712018     
   5270259261.6748772        8019396.0702345371        47158881.740090482     
   5097481617.1050243        28581022.094872713        27823753.525650747     
   4921116666.4394827        37184961.133894205        8301523.5259280391     
   4741164409.6782703        33831213.187341928       -11407808.259069320     
   4557624846.8213711        18519778.255164385       -31304241.829358622     
   4946930773.3958120       -2539795.2960634232        203279560.77869466     
   4771718853.5079536        7802243.9088892937        186003272.15864560     
   4595291995.0454645        14094487.865075111        169399932.03765836     
   4417650198.0083246        16336936.572434664        153469540.41572401     
   4238793462.3965626        14529590.031030893        138212097.29283229     
   4636259781.8117561       -9301737.6538457870        354366626.36939222     
   4461070873.1325598       -8442099.3105595112        341916939.45163667     
   4287039393.3997679       -3724364.4792613983        331000251.31725997     
   4114165342.6133804        4851466.8400552273        321616561.96626520     
   3942448720.7734008        17285394.647394419        313765871.39866012     
   4338246286.9226999       -12266431.003128052        500420078.51220208     
   4165537675.9788289       -20152007.563525915        495564755.40460795     
   3996358861.5023999       -16271595.899101973        493102481.36473340     
   3830709843.4934263       -625196.00984072685        493033256.39257109     
   3668590621.9519038        26787192.104256153        495357080.48812675     
   4052890288.7286496       -11433875.343911409        641439917.20712018     
   3885119262.0467596       -27327480.849992990        646946720.01757503     
   3723250399.3533645       -23547206.394437551        655706622.18008196     
   3567283700.6484652       -93051.977230548859        667719623.69462883     
   3417219165.9320493        43034982.401600122        682985724.56122899     
   4557624846.8213711        18519778.255164385       -31304241.829358622     
   4331948182.7402811       -12830391.501234531       -19560971.649680037     
   4107618645.9920263       -39690136.814858913        16755575.702448027     
   3884636236.5766230       -62059457.685644388        77645400.227029413     
   3663000954.4940305       -79938354.113716364        163108501.92408076     
   4238793462.3965626        14529590.031030893        138212097.29283229     
   4068940478.9031301        10085087.294486761        151059914.74629277     
   3896782687.7223616       -2042107.7331547737        176066747.70551986     
   3722320088.8542767       -21851995.051885605        213232596.17051771     
   3545552682.2988563       -49344574.661712170        262557460.14130712     
   3942448720.7734008        17285394.647394419        313765871.39866012     
   3792950098.8199477        29105763.216376781        323457645.26904851     
   3637494734.1590157        21070322.760418177        332894172.97852194     
   3476082626.7905889       -6820926.7205159664        342075454.52709281     
   3308713776.7146778       -54567985.226392269        351001489.91474611     
   3668590621.9519038        26787192.104256153        495357080.48812675     
   3503977042.4907656        44231636.264484406        497632219.91859263     
   3329754785.3019886        29647154.665893435        487237851.52145416     
   3145923850.3855610       -16966252.691534996        464173975.29673034     
   2952484237.7414837       -95608585.807779074        428440591.24440777     
   3417219165.9320493        43034982.401600122        682985724.56122899     
   3202021309.9155731        55462706.438782215        673583638.69491005     
   2973562841.1512861        23688387.983271241        639097783.33431029     
   2731843759.6391792       -52287972.964977264        579528158.47944629     
   2476864065.3792706       -172466376.40588832        494874764.13029009     
   3663000954.4940305       -79938354.113716364        163108501.92408076     
   3586186280.4206491       -44345575.396912098        151477642.66461027     
   3514634694.0091882        8790828.8596153259        89352229.428462788     
   3448346195.2596502        79470858.655886769       -23267737.784387961     
   3387320784.1720533        167694513.99197125       -186382258.97391954     
   3545552682.2988563       -49344574.661712170        262557460.14130712     
   3371686031.9402723       -64058711.191300392        237106082.83503687     
   3207975760.4038448       -44918251.647028804        199103181.26603085     
   3054421867.6895747        8076803.9710990191        148548755.43423724     
   2911024353.7974725        94926455.663118243        85442805.339701444     
   3308713776.7146778       -54567985.226392269        351001489.91474611     
   3146203806.3964100       -87066440.104717493        317438434.24862128     
   2998743506.0605488       -69399328.375051498        309266884.03367537     
   2866332875.7070599       -1566650.0374470949        326486839.26990020     
   2748971915.3359723        116431594.90814912        369098299.95730877     
   2952484237.7414837       -95608585.807779074        428440591.24440777     
   2909739603.7890749       -113368762.13716519        392474696.90535516     
   2886937930.9792976       -64652401.324464202        419843337.73141408     
   2884079219.3121347        50540496.630290389        510546513.72258300     
   2901163468.7876005        232209931.72713852        664584224.87887096     
   2476864065.3792706       -172466376.40588832        494874764.13029009     
   2662293424.1182551       -142965677.28866816        462214870.80523914     
   2872559035.1600900       -30677470.495273113        530832542.35924351     
   3107660898.5047870        164398243.97430861        700727778.79229772     
   3367599014.1523237        442261466.12005663        971900580.10438490     
   5961815175.8879242        1788544552.7663774        1147480313.2670383     
   6092169366.6470203        1502161554.2795339        1224852929.9006021     
   6225495849.7612810        1225686196.9765778        1265107920.2625554     
   6361794625.2307072        959118480.85750818        1268245284.3528996     
   6501065693.0553017        702458405.92232752        1234265022.1716337     
   5436535396.1435242        1630960618.8430572        1030410196.4856585     
   5492336185.9720964        1372517237.7864246        1110653271.8607657     
   5550499892.3752155        1121950245.3116162        1164217599.5385699     
   5611026515.3528814        879259641.41863215        1191103179.5190713     
   5673916054.9050961        644445426.10747266        1191310011.8022692     
   4895652228.5288115        1468695668.5586433        933043871.10555029     
   4906724984.7820215        1247139515.1387699        1015446466.8114793     
   4919551281.8291616        1031428497.6986585        1081609193.3944118     
   4934131119.6702280        821562616.23830712        1131532050.8543482     
   4950464498.3052235        617541870.75771797        1165215039.1912885     
   4339165673.0437870        1301749701.9131360        855381337.12671399     
   4335335763.0767975        1126028386.3365707        939232514.75274217     
   4332650018.1231194        954120954.13770413        1017282701.8300810     
   4331108438.1827507        786027405.31653523        1089531898.3587308     
   4330711023.2556896        621747739.87306464        1155980104.3386910     
   3767075729.6884484        1130122718.9065344        797422594.54914951     
   3778168520.8564234        1009183851.3798264        882011415.68455482     
   3789796101.2570901        890027614.62875366        971238124.84557831     
   3801958470.8904471        772654008.65331519        1065102722.0322185     
   3814655629.7564931        657063033.45351219        1163605207.2444768     
   6501065693.0553017        702458405.92232752        1234265022.1716337     
   6244365108.6437349        377787840.17001295        1050539624.3152577     
   6018174213.0992336        154816237.30790949        905057753.59720504     
   5822493006.4217930        33543597.336012840        797819410.01747584     
   5657321488.6114149        13969920.254330397        728824593.57607150     
   5673916054.9050961        644445426.10747266        1191310011.8022692     
   5522390070.3175373        385067817.26033640        1070265126.0304667     
   5394717386.9835367        205201212.59171820        976812646.00684488     
   5290898004.9030895        104845612.10161519        910952571.73140275     
   5210931924.0761976        84001015.790029764        872684903.20414317     
   4950464498.3052235        617541870.75771797        1165215039.1912885     
   4873681338.1412668        414327686.19563818        1099084879.9549665     
   4814095091.6173592        268436547.10038304        1049896005.0766819     
   4771705758.7334967        179868453.47195053        1017648414.5564348     
   4746513339.4896803        148623405.31034064        1002342108.3942242     
   4330711023.2556896        621747739.87306464        1155980104.3386910     
   4298238912.1149254        465567446.97591913        1136998886.0887561     
   4276307327.0006981        344522240.83390272        1124307830.8067172     
   4264916267.9130135        258612121.44701815        1117906938.4925716     
   4264065734.8518658        207837088.81526327        1117796209.1463201     
   3814655629.7564931        657063033.45351219        1163605207.2444768     
   3796062792.2385097        538787099.60117733        1184007144.4318383     
   3781354093.1335597        433458293.79228008        1200048123.1969504     
   3770529532.4416380        341076616.02681780        1211728143.5398145     
   3763589110.1627483        261642066.30479288        1219047205.4604285     
   5657321488.6114149        13969920.254330397        728824593.57607150     
   5527765115.7322092        44594556.571767569        714145616.28389728     
   5393752089.0978746        60363680.372110844        703338079.02315724     
   5255282408.7084150        61277291.655366898        696401981.79385340     
   5112356074.5638256        47335390.421530724        693337324.59598219     
   5210931924.0761976        84001015.790029764        872684903.20414317     
   5083357646.0819712        82768225.611611128        848784645.40896320     
   4954277934.0539923        76517321.987352848        829889349.76214647     
   4823692787.9922628        65248304.917256117        815999016.26369309     
   4691602207.8967772        48961174.401316643        807113644.91360152     
   4746513339.4896803        148623405.31034064        1002342108.3942242     
   4624159791.0002298        116504779.02200770        972663659.77097905     
   4503252028.1983976        89205438.359082937        949123695.41302478     
   4383790051.0841894        66725383.321570396        931722215.32036078     
   4265773859.6576056        49064613.909464598        920459219.49298608     
   4264065734.8518658        207837088.81526327        1117796209.1463201     
   4150171550.4869781        145804216.80294943        1085782659.3699470     
   4040674371.5310888        98428029.487296343        1061041115.9757916     
   3935574197.9841976        65708526.868302584        1043571578.9638518     
   3834871029.8463044        47645708.945972681        1033374048.3341326     
   3763589110.1627483        261642066.30479288        1219047205.4604285     
   3661392924.5422220        170666538.95444000        1188141644.2058630     
   3566544964.0520687        104185095.37199914        1165641611.4504440     
   3479045228.6922884        62197735.557469368        1151547107.1941698     
   3398893718.4628811        44704459.510846376        1145858131.4370410     
   5112356074.5638256        47335390.421530724        693337324.59598219     
   4942520931.9142084        20906521.280526400        679516638.08799446     
   4774231898.8291702       -368649.31187796593        665514787.85740900     
   4607488975.3087149       -16490121.355679035        651331773.90423024     
   4442292161.3528404       -27457894.850879192        636967596.22845590     
   4691602207.8967772        48961174.401316643        807113644.91360152     
   4525103708.7127857        22005372.532873154        794689054.39156902     
   4359882316.7761993       -693405.17754793167        785133876.27202177     
   4195938032.0870228       -19135158.729933739        778448110.55495667     
   4033270854.6452570       -33319888.124291658        774631757.24037385     
   4265773859.6576056        49064613.909464598        920459219.49298608     
   4111327935.7251744        24196658.849359512        909116888.92020726     
   3957890116.7229819        2689053.5567121506        903694546.87499404     
   3805460402.6510262       -15458201.968481302        904192193.35734320     
   3654038793.5093055       -30245107.726216555        910609828.36725450     
   3834871029.8463044        47645708.945972681        1033374048.3341326     
   3701193612.9513793        27480380.229991913        1022800141.6739105     
   3568255298.6695185        9778726.8908953667        1021196799.6663283     
   3436056087.0007234       -5459251.0713200569        1028564022.3113914     
   3304595977.9449911       -18233553.656650305        1044901809.6090934     
   3398893718.4628811        44704459.510846376        1145858131.4370410     
   3294700740.3913994        31856536.674770594        1135738812.6526732     
   3190977862.6158104        20575614.825005412        1137640634.6460245     
   3087725085.1361132        10861693.961548686        1151563597.4170988     
   2984942407.9523129        2714774.0844105482        1177507700.9658928     
   4442292161.3528404       -27457894.850879192        636967596.22845590     
   4346851735.0613117       -17085083.759069204        617753434.42047000     
   4250137947.5267715       -10956810.143970251        612094100.64758563     
   4152150798.7492170       -9073074.0055820942        619989594.90980387     
   4052890288.7286496       -11433875.343911409        641439917.20712018     
   4033270854.6452570       -33319888.124291658        774631757.24037385     
   3967783315.9902711       -17597568.412084103        761993996.41549051     
   3901515257.4310884       -4476981.7138745785        757607588.36352491     
   3834466678.9677033        6041871.9703311920        761472533.08447444     
   3766637580.6001177        13958992.640540123        773588830.57833886     
   3654038793.5093055       -30245107.726216555        910609828.36725450     
   3603351356.0274754       -13719115.332628012        905123450.08742559     
   3552376239.9802608        1847948.5096740723        902584949.31832600     
   3501113445.3676577        16456083.800691128        902994326.05995870     
   3449562972.1896710        30105290.540422201        906351580.31232047     
   3304595977.9449911       -18233553.656650305        1044901809.6090934     
   3253555855.1729259       -5449724.5206999779        1047141795.4362700     
   3202720895.1742930        8017980.5266827345        1047026183.5119889     
   3152091097.9490857        22169561.485488415        1044554973.8362523     
   3101666463.4973092        37005018.355730772        1039728166.4090607     
   2984942407.9523129        2714774.0844105482        1177507700.9658928     
   2918396813.4266267        7210604.0237079859        1188049032.4620233     
   2852549223.0131817        14033114.337147117        1190931290.9445114     
   2787399636.7119794        23182305.024729371        1186154476.4133584     
   2722948054.5230198        34658176.086454272        1173718588.8685613     
   4052890288.7286496       -11433875.343911409        641439917.20712018     
   3885119262.0467596       -27327480.849992990        646946720.01757503     
   3723250399.3533645       -23547206.394437551        655706622.18008196     
   3567283700.6484652       -93051.977230548859        667719623.69462883     
   3417219165.9320493        43034982.401600122        682985724.56122899     
   3766637580.6001177        13958992.640540123        773588830.57833886     
   3609707015.3182631        154271.20776653290        774807868.18932700     
   3456859342.2293653       -40809.581800460815        780630572.73906624     
   3308094561.3334408        13373750.271856070        791056944.22755635     
   3163412672.6304760        40397950.768727899        806086982.65479290     
   3449562972.1896710        30105290.540422201        906351580.31232047     
   3307331632.8412800        19547082.540976763        901160368.96238792     
   3167363913.8903294        16534275.866329193        901923392.13791168     
   3029659815.3368182        21066870.516476512        908640649.83889270     
   2894219337.1807408        33144866.491412044        921312142.06532788     
   3101666463.4973092        37005018.355730772        1039728166.4090607     
   2977993114.6158276        30850953.149659395        1026004222.3367633     
   2854764114.3362527        26178049.949941516        1019585080.3766257     
   2731979462.6585975        22986308.756615162        1020470740.5286459     
   2609639159.5828476        21275729.569644451        1028661202.7928261     
   2722948054.5230198        34658176.086454272        1173718588.8685613     
   2621691460.6418848        34065883.033768415        1149339428.3124511     
   2519059943.5671391        28890512.669051051        1133615637.4552014     
   2415053503.2987738        19132064.992264986        1126547216.2968190     
   2309672139.8367944        4790540.0034322739        1128134164.8372946     
   3417219165.9320493        43034982.401600122        682985724.56122899     
   3202021309.9155731        55462706.438782215        673583638.69491005     
   2973562841.1512861        23688387.983271241        639097783.33431029     
   2731843759.6391792       -52287972.964977264        579528158.47944629     
   2476864065.3792706       -172466376.40588832        494874764.13029009     
   3163412672.6304760        40397950.768727899        806086982.65479290     
   2894586156.9907784        24569117.923006773        786742635.51290476     
   2617978081.9526730       -17198246.250739694        757749986.66656458     
   2333588447.5161648       -84904141.752492547        719109036.11577308     
   2041417253.6812546       -178548568.58225965        670819783.86051989     
   2894219337.1807408        33144866.491412044        921312142.06532788     
   2615865498.4601731        2289877.7254747152        898417762.55551171     
   2335209153.6906114       -36240131.203781009        881310549.13106859     
   2052250302.8720534       -82445160.296360135        869990501.79199541     
   1766988946.0044990       -136325209.55225122        864457620.53829825     
   2609639159.5828476        21275729.569644451        1028661202.7928261     
   2365859334.3237658       -11375014.153801203        1008609019.8227259     
   2125256056.3651004       -33437266.875859261        1009779470.7278278     
   1887829325.7068434       -44911028.596552372        1032172555.5081191     
   1653579142.3490059       -45796299.315854788        1075788274.1636083     
   2309672139.8367944        4790540.0034322739        1128134164.8372946     
   2144567664.5815589       -16425557.714797020        1117316407.3145545     
   1988118789.9761388       -8789653.2669726610        1143156751.4568362     
   1840325516.0205424        27698253.346934795        1205655197.2641399     
   1701187842.7147639        93038162.126896918        1304811744.7364628     
   2476864065.3792706       -172466376.40588832        494874764.13029009     
   2662293424.1182551       -142965677.28866816        462214870.80523914     
   2872559035.1600900       -30677470.495273113        530832542.35924351     
   3107660898.5047870        164398243.97430861        700727778.79229772     
   3367599014.1523237        442261466.12005663        971900580.10438490     
   2041417253.6812546       -178548568.58225965        670819783.86051989     
   2447201929.7975016       -56546637.945971608        688752222.12123358     
   2864895371.7829404        105151178.92096758        753564747.75024521     
   3294497579.6375866        306544882.01857293        865257360.74753928     
   3736008553.3614135        547634471.34682381        1023830061.1131333     
   1766988946.0044990       -136325209.55225122        864457620.53829825     
   2237707575.1815662        31551543.308172345        917900322.87883747     
   2707407483.7941756        196032560.95372319        963825635.07691538     
   3176088671.8423333        357117843.38442767        1002233557.1325327     
   3643751139.3260179        514807390.60023868        1033124089.0456936     
   1653579142.3490059       -45796299.315854788        1075788274.1636083     
   2033810360.2704513        121328866.47375798        1149659173.0780416     
   2400095371.1937819        241966675.60299379        1161615204.3392613     
   2752434175.1190100        316117128.07184470        1111656367.9472713     
   3090826772.0460954        343780223.88029873        999782663.90205657     
   1701187842.7147639        93038162.126896918        1304811744.7364628     
   1835510285.0641580        212785331.55079693        1384028772.7188559     
   1942959033.9817715        242953522.86877757        1346933455.5372798     
   2023534089.4676230        183542736.08086568        1193525793.1917346     
   2077235451.5216892        34552971.187013865        923805785.68221986     
   3767075729.6884484        1130122718.9065344        797422594.54914951     
   3778168520.8564234        1009183851.3798264        882011415.68455482     
   3789796101.2570901        890027614.62875366        971238124.84557831     
   3801958470.8904471        772654008.65331519        1065102722.0322185     
   3814655629.7564931        657063033.45351219        1163605207.2444768     
   3206187022.2179260        961856106.66537786        753944111.93188131     
   3233871759.0686941        868619960.20484900        850489775.36944687     
   3261206214.7418928        774216209.81909084        948767650.29134762     
   3288190389.2375240        678644855.50810385        1048777736.6975838     
   3314824282.5555854        581905897.27188671        1150520034.5881553     
   2683304174.3873453        804991252.31620359        719722357.83393419     
   2719278923.9458146        736967247.02932668        827192281.42835712     
   2754018321.9164572        664825403.11635673        933488739.96583331     
   2787522368.2992692        588565720.57729244        1038611733.4463629     
   2819791063.0942550        508188199.41213524        1142561261.8699462     
   2198427186.1967077        659528155.85901237        694757332.25530827     
   2234390015.4877868        614225711.85325980        812118933.86128581     
   2268232422.7807784        561855194.52054965        925401393.86903512     
   2299954408.0756831        502416603.86088175        1034604712.2785556     
   2329555971.3724999        435909939.87425613        1139728889.0898478     
   1751556057.6460123        525466817.29380369        679049035.19600308     
   1779205033.6946101        500395354.67664826        805269732.66823316     
   1803848517.3348610        465305584.03167099        924505612.00095260     
   1825486508.5667655        420197505.35887170        1036756673.1941618     
   1844119007.3903229        365071118.65825021        1142022916.2478604     
   3814655629.7564931        657063033.45351219        1163605207.2444768     
   3796062792.2385097        538787099.60117733        1184007144.4318383     
   3781354093.1335597        433458293.79228008        1200048123.1969504     
   3770529532.4416380        341076616.02681780        1211728143.5398145     
   3763589110.1627483        261642066.30479288        1219047205.4604285     
   3314824282.5555854        581905897.27188671        1150520034.5881553     
   3290238190.8514690        474978858.26529896        1177809273.0382218     
   3269416390.0411539        380599455.57137489        1202230298.6491082     
   3252358880.1246362        298767689.19011199        1223783111.4208150     
   3239065661.1019173        229483559.12151277        1242467711.3533437     
   2819791063.0942550        508188199.41213524        1142561261.8699462     
   2793476704.5842066        413889551.46535498        1176597979.4769452     
   2770806789.4487243        331739048.10046232        1209259229.8278344     
   2751781317.6878085        261736689.31745934        1240545012.9226143     
   2736400289.3014603        203882475.11634469        1270455328.7612855     
   2329555971.3724999        435909939.87425613        1139728889.0898478     
   2305778333.4367175        355519179.20134187        1180373263.7480092     
   2285525291.3562698        286877071.37954229        1221134916.7331312     
   2268796845.1311564        229983616.40885824        1262013848.0452127     
   2255592994.7613788        184838814.28928924        1303010057.6842551     
   1844119007.3903229        365071118.65825021        1142022916.2478604     
   1827143077.4090064        299867741.47326285        1189135125.8514130     
   1813571895.7637923        246013525.40861589        1237857359.3649960     
   1803405462.4546807        203508470.46431106        1288189616.7886093     
   1796643777.4816701        172352576.64034539        1340131898.1222532     
   3763589110.1627483        261642066.30479288        1219047205.4604285     
   3661392924.5422220        170666538.95444000        1188141644.2058630     
   3566544964.0520687        104185095.37199914        1165641611.4504440     
   3479045228.6922884        62197735.557469368        1151547107.1941698     
   3398893718.4628811        44704459.510846376        1145858131.4370410     
   3239065661.1019173        229483559.12151277        1242467711.3533437     
   3161672497.2744031        155346929.69596565        1226024052.5223784     
   3089994702.3890157        100261530.07750976        1216368213.2042451     
   3024032276.4457588        64227360.266151547        1213500193.3989453     
   2963785219.4446282        47244420.261886597        1217419993.1064756     
   2736400289.3014603        203882475.11634469        1270455328.7612855     
   2679188121.5917759        145198135.91304529        1266568573.4676356     
   2626058466.6359749        100122172.55602515        1267851928.7005029     
   2577011324.4340582        68654585.045284390        1274305394.4598894     
   2532046694.9860244        50795373.380821943        1285928970.7457936     
   2255592994.7613788        184838814.28928924        1303010057.6842551     
   2213939797.4943414        140220157.60568416        1309775207.0416338     
   2174736256.7929454        103767022.80754495        1320092757.9392173     
   2137982372.6571884        75479409.894867420        1333962710.3770065     
   2103678145.0870683        55357318.867653012        1351385064.3549995     
   1796643777.4816701        172352576.64034539        1340131898.1222532     
   1765927524.9821014        140412994.77388173        1355643953.2443752     
   1736028072.8599267        111196080.83206534        1373090700.9203894     
   1706945421.1151464        84701834.814896643        1392472141.1502938     
   1678679569.7477601        60930256.722376943        1413788273.9340899     
   3398893718.4628811        44704459.510846376        1145858131.4370410     
   3294700740.3913994        31856536.674770594        1135738812.6526732     
   3190977862.6158104        20575614.825005412        1137640634.6460245     
   3087725085.1361132        10861693.961548686        1151563597.4170988     
   2984942407.9523129        2714774.0844105482        1177507700.9658928     
   2963785219.4446282        47244420.261886597        1217419993.1064756     
   2886795712.8179817        35179080.205196619        1207595065.9221051     
   2810644904.1735334        25909400.089168072        1206494149.1992598     
   2735332793.5112853        19435379.913806200        1214117242.9379368     
   2660859380.8312349        15757019.679102182        1230464347.1381407     
   2532046694.9860244        50795373.380821943        1285928970.7457936     
   2472840287.4722209        36686504.403917909        1276828465.7954469     
   2414841175.6269207        26601954.322029948        1273154840.9904258     
   2358049359.4501252        20541723.135155678        1274908096.3307316     
   2302464838.9418359        18505810.843298554        1282088231.8163660     
   2103678145.0870683        55357318.867653012        1351385064.3549995     
   2052834464.3541148        36378809.270934105        1343439012.2726974     
   2003566676.9759748        22653277.523591995        1337622710.0195246     
   1955874782.9526420        14180723.625609040        1333936157.5954816     
   1909758782.2841215        10961147.577001214        1332379355.0005703     
   1678679569.7477601        60930256.722376943        1413788273.9340899     
   1626778243.4636681        34255994.806254268        1407426705.3538558     
   1576821408.2206929        14063369.693854690        1399897756.2865560     
   1528809064.0188317        352381.38516908884        1391201426.7321889     
   1482741210.8580880       -6876970.1197931170        1381337716.6907542     
   2984942407.9523129        2714774.0844105482        1177507700.9658928     
   2918396813.4266267        7210604.0237079859        1188049032.4620233     
   2852549223.0131817        14033114.337147117        1190931290.9445114     
   2787399636.7119794        23182305.024729371        1186154476.4133584     
   2722948054.5230198        34658176.086454272        1173718588.8685613     
   2660859380.8312349        15757019.679102182        1230464347.1381407     
   2577881173.8895769        11082850.825309396        1231909810.3938401     
   2495089958.8510346        7031988.3152332306        1230490029.1416104     
   2412485735.7156081        3604432.1488745213        1226205003.3814549     
   2330068504.4832983        800182.32624185085        1219054733.1133628     
   2302464838.9418359        18505810.843298554        1282088231.8163660     
   2216750672.4576750        8770639.0584609509        1273841645.9209867     
   2130712485.6675007       -2044600.4130884409        1267523644.0233927     
   2044350278.5713162       -13939907.571345091        1263134226.1235781     
   1957664051.1691179       -26915282.416308403        1260673392.2215521     
   1909758782.2841215        10961147.577001214        1332379355.0005703     
   1835005309.1309190        273968.72315347195        1313844539.0434635     
   1759416803.4625769       -13196651.847833037        1302032135.5898521     
   1682993265.2790935       -29450714.135949731        1296942144.6397405     
   1605734694.5804720       -48488218.141201615        1298574566.1931198     
   1482741210.8580880       -6876970.1197931170        1381337716.6907542     
   1432645083.9093099       -14407160.180609167        1351918489.7612717     
   1381202912.2362633       -26424165.988987267        1334015503.8409967     
   1328414695.8389468       -42927987.544931293        1327628758.9299316     
   1274280434.7173662       -63918624.848426163        1332758255.0280697     
   2722948054.5230198        34658176.086454272        1173718588.8685613     
   2621691460.6418848        34065883.033768415        1149339428.3124511     
   2519059943.5671391        28890512.669051051        1133615637.4552014     
   2415053503.2987738        19132064.992264986        1126547216.2968190     
   2309672139.8367944        4790540.0034322739        1128134164.8372946     
   2330068504.4832983        800182.32624185085        1219054733.1133628     
   2249010267.2948847       -1872572.1700419188        1200177789.6644881     
   2167582926.4098544       -5775672.3217135668        1188662780.4596751     
   2085786481.8282120       -10909118.128766298        1184509705.4989192     
   2003620933.5499480       -17272909.591212392        1187718564.7822266     
   1957664051.1691179       -26915282.416308403        1260673392.2215521     
   1893108640.8025613       -32777157.317455888        1248472121.9597425     
   1829189946.2363870       -36516646.217326403        1242339350.4871917     
   1765907967.4705970       -38133749.115916848        1242275077.8038995     
   1703262704.5051899       -37628466.013234019        1248279303.9098673     
   1605734694.5804720       -48488218.141201615        1298574566.1931198     
   1553986581.1649091       -58647872.408468246        1294222425.1982119     
   1503881003.0467310       -63332409.017792404        1294645347.5377595     
   1455417960.2259321       -62541827.969180584        1299843333.2117653     
   1408597452.7025161       -56276129.262628675        1309816382.2202311     
   1274280434.7173662       -63918624.848426163        1332758255.0280697     
   1231644088.3819358       -79484717.443073869        1337428699.3798952     
   1191656096.8408825       -86222960.723131001        1345580771.6113760     
   1154316460.0942185       -84133354.688559413        1357214471.7225101     
   1119625178.1419311       -73215899.339396656        1372329799.7133009     
   2309672139.8367944        4790540.0034322739        1128134164.8372946     
   2144567664.5815589       -16425557.714797020        1117316407.3145545     
   1988118789.9761388       -8789653.2669726610        1143156751.4568362     
   1840325516.0205424        27698253.346934795        1205655197.2641399     
   1701187842.7147639        93038162.126896918        1304811744.7364628     
   2003620933.5499480       -17272909.591212392        1187718564.7822266     
   1921839244.5491283       -17647555.997137308        1179401327.0110352     
   1844299617.8866646       -3881994.6085456610        1193710872.8523088     
   1771002053.5625484        24023774.574539781        1230647202.3060408     
   1701946551.5767822        66069751.552126646        1290210315.3722332     
   1703262704.5051899       -37628466.013234019        1248279303.9098673     
   1664714321.6086249       -29188505.151879430        1237313457.8601811     
   1625994462.7389369       -21320130.867598176        1234943077.3703947     
   1587103127.8961306       -14023343.160375595        1241168162.4405100     
   1548040317.0802019       -7298142.0302297473        1255988713.0705285     
   1408597452.7025161       -56276129.262628675        1309816382.2202311     
   1373192895.7600324       -51048405.179051399        1291052799.8619902     
   1333203324.5329566       -61104062.044119716        1266853365.0111001     
   1288628739.0212860       -86443099.857829154        1237218077.6675453     
   1239469139.2250304       -127065518.62016690        1202146937.8313379     
   1119625178.1419311       -73215899.339396656        1372329799.7133009     
   1047274967.0033554       -83227256.078662157        1340619353.0164692     
   965926203.26871884       -123233788.13813007        1289441735.7744200     
   875578886.93802285       -193235495.51779860        1218796947.9871507     
   776233018.01126409       -293232378.21767563        1128684989.6546679     
   1701187842.7147639        93038162.126896918        1304811744.7364628     
   1835510285.0641580        212785331.55079693        1384028772.7188559     
   1942959033.9817715        242953522.86877757        1346933455.5372798     
   2023534089.4676230        183542736.08086568        1193525793.1917346     
   2077235451.5216892        34552971.187013865        923805785.68221986     
   1701946551.5767822        66069751.552126646        1290210315.3722332     
   1582612327.2526548        83686594.145318031        1324085683.0000622     
   1452874160.7992694        66623629.640976369        1302721419.9270043     
   1312732052.2166228        14880858.039097667        1226117526.1530733     
   1162186001.5047064       -71541720.660341740        1094274001.6782577     
   1548040317.0802019       -7298142.0302297473        1255988713.0705285     
   1349542895.9770975       -39463585.299373686        1263737130.1967165     
   1157111284.0472453       -51409664.657684028        1277318631.0851140     
   970745481.29063940       -43136380.105165124        1296733215.7357225     
   790445487.70728421       -14643731.641815871        1321980884.1485262     
   1239469139.2250304       -127065518.62016690        1202146937.8313379     
   1136301991.2374849       -156665206.78328705        1202983114.3088207     
   1055670403.7257049       -111146360.02719802        1270725089.0115967     
   997574376.68968189        9491021.6480798125        1405372861.9396636     
   962013910.12942028        205246938.24257421        1606926433.0930388     
   776233018.01126409       -293232378.21767563        1128684989.6546679     
   942889613.03381848       -267918270.30640978        1141823635.3363693     
   1148551519.8346431       -112586456.46757835        1282940793.7064581     
   1393218738.4137464        172763063.29884380        1552036464.7649293     
   1676891268.7711139        588130288.99282479        1949110648.5117826     
   1751556057.6460123        525466817.29380369        679049035.19600308     
   1779205033.6946101        500395354.67664826        805269732.66823316     
   1803848517.3348610        465305584.03167099        924505612.00095260     
   1825486508.5667655        420197505.35887170        1036756673.1941618     
   1844119007.3903229        365071118.65825021        1142022916.2478604     
   1320935475.1125834        396280642.53377497        669426562.42691851     
   1333997461.6643171        375557107.52223521        791527410.99672592     
   1344809054.0246911        347332258.53949666        908388948.64562225     
   1353370252.1937058        311606095.58555949        1020011175.3736068     
   1359681056.1713607        268378618.66042349        1126394091.1806800     
   884810124.97374451        265443037.49212337        662719009.71895349     
   888272285.51032591        250563579.13071266        781580957.30615675     
   890239150.07253492        230699800.85472649        896949101.19104767     
   890710718.66037118        205851702.66416490        1008823441.3736261     
   889686991.27383506        176019284.55902797        1117203977.8538921     
   443180007.22949630        132954002.16884889        658926377.07210815     
   442029505.23263711        125414769.50208080        775430371.59652531     
   440138805.47839230        115408210.97736038        890186069.63722908     
   437507907.96676189        102934326.59468785        1003193471.1942194     
   434136812.69774568        87993116.354063183        1114452576.2674966     
  -3954878.1201617490       -1186463.4360485247        658048664.48638260     
  -4730879.1687499918        110678.63633937878        773075653.86783159     
  -5491979.7577368878        1457488.9073983131        888099853.98416650     
  -6238179.8871224364        2853967.3771283799        1003121264.8353869     
  -6969479.5569066443        4300114.0455295797        1118139886.4214928     
   1844119007.3903229        365071118.65825021        1142022916.2478604     
   1827143077.4090064        299867741.47326285        1189135125.8514130     
   1813571895.7637923        246013525.40861589        1237857359.3649960     
   1803405462.4546807        203508470.46431106        1288189616.7886093     
   1796643777.4816701        172352576.64034539        1340131898.1222532     
   1359681056.1713607        268378618.66042349        1126394091.1806800     
   1350953629.6142526        221091143.04758492        1181529394.6220677     
   1344774270.0876637        182297224.20314550        1237265237.9630885     
   1341142977.5915945        151996862.12710452        1293601621.2037439     
   1340059752.1260452        130190056.81946224        1350538544.3440342     
   889686991.27383506        176019284.55902797        1117203977.8538921     
   886323828.11123168        145782438.50942698        1179362913.6099336     
   884652050.67356598        121183544.87628356        1241112905.2552137     
   884671658.96083713        102222603.65959671        1302453952.7897317     
   886382652.97304535        88899614.859366894        1363386056.2134883     
   434136812.69774568        87993116.354063183        1114452576.2674966     
   433253672.89994514        73941627.858789235        1182635682.8150134     
   433205237.52149880        62672487.428030148        1249400361.2413721     
   433991506.56240767        54185695.061788067        1314746611.5465732     
   435612480.02267039        48481250.760058850        1378674433.7306163     
  -6969479.5569066443        4300114.0455295797        1118139886.4214928     
  -8256836.0196079221        5568711.0956716025        1191347702.2373052     
  -9566169.3685367554        6764051.8583883122        1262127605.9215634     
  -10897479.603694202        7886136.3336764555        1330479597.4742670     
  -12250766.725079469        8934964.5215383619        1396403676.8954177     
   1796643777.4816701        172352576.64034539        1340131898.1222532     
   1765927524.9821014        140412994.77388173        1355643953.2443752     
   1736028072.8599267        111196080.83206534        1373090700.9203894     
   1706945421.1151464        84701834.814896643        1392472141.1502938     
   1678679569.7477601        60930256.722376943        1413788273.9340899     
   1340059752.1260452        130190056.81946224        1350538544.3440342     
   1316605293.3280482        106803237.73818791        1367903164.4171109     
   1293986079.2969613        86200567.879945278        1386945372.6024616     
   1272202110.0327845        68382047.244737625        1407665168.9000881     
   1251253385.5355167        53347675.832559586        1430062553.3099880     
   886382652.97304535        88899614.859366894        1363386056.2134883     
   869455403.75771546        73845183.327608824        1382624759.6919544     
   853381843.69881094        61636382.317268074        1403283946.8410783     
   838161972.79633188        52273211.828346401        1425363617.6608596     
   823795791.05027890        45755671.860843062        1448863772.1513000     
   435612480.02267039        48481250.760058850        1378674433.7306163     
   424477856.27110243        41538831.542145550        1399808739.0689063     
   414215366.06547648        37503524.144038111        1422106423.6362376     
   404825009.40579075        36375328.565731093        1445567487.4326100     
   396306786.29204583        38154244.807228342        1470191930.4580235     
  -12250766.725079469        8934964.5215383619        1396403676.8954177     
  -18327349.131789684        9884182.3817997817        1419455102.5479674     
  -23513353.603043444        13801993.360249199        1443412802.9879405     
  -27808780.138840150        20688397.456888452        1468276778.2153392     
  -31213628.739180744        30543394.671715595        1494047028.2301619     
   1678679569.7477601        60930256.722376943        1413788273.9340899     
   1626778243.4636681        34255994.806254268        1407426705.3538558     
   1576821408.2206929        14063369.693854690        1399897756.2865560     
   1528809064.0188317        352381.38516908884        1391201426.7321889     
   1482741210.8580880       -6876970.1197931170        1381337716.6907542     
   1251253385.5355167        53347675.832559586        1430062553.3099880     
   1200320151.9791451        31516971.224445999        1426163680.0467832     
   1150001576.6372664        11735127.331307590        1423059129.9901202     
   1100297659.5098810       -5997855.8468526602        1420748903.1399977     
   1051208400.5969875       -21681978.310039997        1419232999.4964218     
   823795791.05027890        45755671.860843062        1448863772.1513000     
   779435517.91765308        30449984.869546533        1445876122.5740628     
   734360070.17289734        12760382.504482687        1445644499.8969753     
   688569447.81601036       -7313135.2343512774        1448168904.1200385     
   642063650.84699261       -29770568.346956104        1453449335.2432532     
   396306786.29204583        38154244.807228342        1470191930.4580235     
   364124341.27919251        31055035.741560042        1466564032.9356933     
   329896888.82758439        17139135.213375494        1467653866.0071218     
   293624428.93722159       -3593456.7773240507        1473461429.6723094     
   255306961.60810521       -31142740.230537817        1483986723.9312577     
  -31213628.739180744        30543394.671715595        1494047028.2301619     
  -45613377.936238363        33332123.840478748        1488227411.1316760     
  -63387967.398673490        24871385.457983125        1489087228.3205590     
  -84537397.126486272        5161179.5242286883        1496626479.7968113     
  -109061667.11967902       -25798493.960791912        1510845165.5604308     
   1482741210.8580880       -6876970.1197931170        1381337716.6907542     
   1432645083.9093099       -14407160.180609167        1351918489.7612717     
   1381202912.2362633       -26424165.988987267        1334015503.8409967     
   1328414695.8389468       -42927987.544931293        1327628758.9299316     
   1274280434.7173662       -63918624.848426163        1332758255.0280697     
   1051208400.5969875       -21681978.310039997        1419232999.4964218     
   1028689217.8174049       -28354136.016501069        1395897484.8862946     
   1006241712.1530390       -34787370.005575716        1382060755.7768745     
   983865883.60389209       -40981680.277251899        1377722812.1681626     
   961561732.16996193       -46937066.831538737        1382883654.0601597     
   642063650.84699261       -29770568.346956104        1453449335.2432532     
   641357253.64088702       -37313941.277782112        1437851541.7652197     
   642140255.38948655       -39892651.026257753        1429735078.2793908     
   644412656.09278977       -37506697.592388511        1429099944.7857685     
   648174455.75079787       -30156080.976169109        1435946141.2843513     
   255306961.60810521       -31142740.230537817        1483986723.9312577     
   270649191.37975806       -41286575.964445457        1477780660.3980498     
   288898541.94560385       -41740009.051044568        1477038471.3485458     
   310055013.30564028       -32503039.490341753        1481760156.7827449     
   334118605.45986640       -13575667.282338127        1491945716.7006497     
  -109061667.11967902       -25798493.960791912        1510845165.5604308     
  -83434968.965981394       -40272040.076486953        1515684840.7847812     
  -53483428.178606093       -40329444.079923756        1523970934.9843349     
  -19207044.757554356       -25970705.971105404        1535703448.1590931     
   19394181.297176071        2804174.2499752329        1550882380.3090565     
   1274280434.7173662       -63918624.848426163        1332758255.0280697     
   1231644088.3819358       -79484717.443073869        1337428699.3798952     
   1191656096.8408825       -86222960.723131001        1345580771.6113760     
   1154316460.0942185       -84133354.688559413        1357214471.7225101     
   1119625178.1419311       -73215899.339396656        1372329799.7133009     
   961561732.16996193       -46937066.831538737        1382883654.0601597     
   929247600.59129620       -54394352.880089879        1388953326.7882984     
   897851524.56719029       -58791453.746776283        1397610273.7851942     
   867373504.09763730       -60128369.431619167        1408854495.0508466     
   837813539.18264282       -58405099.934600413        1422685990.5852571     
   648174455.75079787       -30156080.976169109        1435946141.2843513     
   623627242.89776373       -30271149.287953705        1441396359.9423428     
   598267786.35945845       -33093696.550640136        1448539499.2581911     
   572096086.13588500       -38623722.764223576        1457375559.2319000     
   545112142.22704124       -46861227.928704917        1467904539.8634665     
   334118605.45986640       -13575667.282338127        1491945716.7006497     
   314783015.30132681       -7115106.6666971743        1494757798.8420281     
   292904882.21769041       -9129689.1347114593        1498368448.0303657     
   268484206.20895892       -19619414.686376795        1502777664.2656648     
   241520987.27513030       -38584283.321698874        1507985447.5479264     
   19394181.297176071        2804174.2499752329        1550882380.3090565     
   2714917.8019891228        15073774.983685765        1549037643.4873576     
  -18237187.858115550        13100568.501002502        1547097120.1017222     
  -43462135.683145493       -3115445.1980976425        1545060810.1521492     
  -72959925.673093066       -33574266.113589890        1542928713.6386399     
   1119625178.1419311       -73215899.339396656        1372329799.7133009     
   1047274967.0033554       -83227256.078662157        1340619353.0164692     
   965926203.26871884       -123233788.13813007        1289441735.7744200     
   875578886.93802285       -193235495.51779860        1218796947.9871507     
   776233018.01126409       -293232378.21767563        1128684989.6546679     
   837813539.18264282       -58405099.934600413        1422685990.5852571     
   719297695.91227448       -89166421.017911583        1383254891.8538854     
   596041053.96182227       -135730404.36816579        1332567392.2611310     
   468043613.33129060       -198097049.98535481        1270623491.8069966     
   335305374.02067697       -276266357.86948383        1197423190.4914811     
   545112142.22704124       -46861227.928704917        1467904539.8634665     
   403890008.77869701       -91334710.769919842        1425720168.6661978     
   262184830.56625158       -137418342.82480627        1380490166.2913826     
   119996607.58970453       -185112124.09336358        1332214532.7390218     
  -22674660.150943577       -234416054.57559192        1280893268.0091169     
   241520987.27513030       -38584283.321698874        1507985447.5479264     
   101051905.60263169       -89732125.334662855        1468015183.4534039     
  -35642466.917991430       -128297603.50804216        1433210057.8651724     
  -168562130.28673843       -154280717.84183460        1403570070.7832270     
  -297707084.50360364       -167681468.33602023        1379095222.2075801     
  -72959925.673093066       -33574266.113589890        1542928713.6386399     
  -189216613.61593163       -84358664.712171912        1510139936.2155066     
  -297440838.49091345       -108368186.41789758        1490727066.9824960     
  -397632600.29803377       -105602831.23075274        1484690105.9396167     
  -489791899.03729576       -76062599.150744826        1492029053.0868671     
   776233018.01126409       -293232378.21767563        1128684989.6546679     
   942889613.03381848       -267918270.30640978        1141823635.3363693     
   1148551519.8346431       -112586456.46757835        1282940793.7064581     
   1393218738.4137464        172763063.29884380        1552036464.7649293     
   1676891268.7711139        588130288.99282479        1949110648.5117826     
   335305374.02067697       -276266357.86948383        1197423190.4914811     
   762169267.46626484       -172283587.55224788        1233625142.9230704     
   1203183699.1795173       -21132356.342797279        1323853736.2826135     
   1658348669.1604328        177187335.75886256        1468108970.5701230     
   2127664177.4090111        422675488.75273120        1666390845.7855744     
  -22674660.150943577       -234416054.57559192        1280893268.0091169     
   453105469.54502386       -115151940.50419211        1311161291.4282176     
   918181363.99804926       -31568610.575935602        1321504084.0148499     
   1372553023.2081339        16333935.209182441        1311921645.7690117     
   1816220447.1752713        28555696.851153135        1282413976.6906943     
  -297707084.50360364       -167681468.33602023        1379095222.2075801     
   15698219.270099390       -96523329.162238047        1374432080.8518145     
   293544514.29024899       -143895219.16696525        1275891836.9031544     
   535831800.55684954       -309797138.35019159        1083474490.3615923     
   742560078.06989825       -594229086.71192145        797180041.22713220     
  -489791899.03729576       -76062599.150744826        1492029053.0868671     
  -550052483.35851467       -116397753.52639419        1423437511.1938612     
  -670726849.94388676       -358112182.11589056        1187016994.9475355     
  -851814998.79341912       -801205884.91925311        782767504.34787881     
  -1093316929.9071109       -1445678861.9364805        210689039.39489740     
  -3954878.1201617490       -1186463.4360485247        658048664.48638260     
  -4730879.1687499918        110678.63633937878        773075653.86783159     
  -5491979.7577368878        1457488.9073983131        888099853.98416650     
  -6238179.8871224364        2853967.3771283799        1003121264.8353869     
  -6969479.5569066443        4300114.0455295797        1118139886.4214928     
  -450927654.01127154       -135278296.20338148        660029621.25269926     
  -451332833.37155247       -125492639.70049199        776699716.28685069     
  -451003785.16082501       -113259557.96090741        891698960.09315979     
  -449940509.37908924       -98579050.984628171        1005027352.6716272     
  -448143006.02634466       -81451118.771653146        1116684894.0222518     
  -892071443.37987530       -267621433.01396260        664812996.66198075     
  -896871692.37392867       -250777029.47719544        783965412.31214273     
  -900218386.68556619       -229087443.66570938        899778914.77173471     
  -902111526.31478822       -202552675.57950425        1012253504.0407569     
  -902551111.26159406       -171172725.21857971        1121389180.1192091     
  -1327386246.2259731       -398215873.86779195        672398790.71422684     
  -1341347456.1758778       -375742490.69377077        794872741.94370794     
  -1353135784.3319602       -346026168.20700687        912339718.01989102     
  -1362751230.6942196       -309066906.40749985        1024799718.9427772     
  -1370193795.2626557       -264864705.29525009        1132252744.7123652     
  -1756872062.5495648       -527061618.76486945        682787003.40943801     
  -1784760124.7774007       -500389023.35021830        809421705.18154645     
  -1809755978.1000071       -464075731.58480054        929381369.83762956     
  -1831859622.5173829       -418121743.46861565        1042665997.3776867     
  -1851071058.0295289       -362527059.00166339        1149275587.8017190     
  -6969479.5569066443        4300114.0455295797        1118139886.4214928     
  -8256836.0196079221        5568711.0956716025        1191347702.2373052     
  -9566169.3685367554        6764051.8583883122        1262127605.9215634     
  -10897479.603694202        7886136.3336764555        1330479597.4742670     
  -12250766.725079469        8934964.5215383619        1396403676.8954177     
  -448143006.02634466       -81451118.771653146        1116684894.0222518     
  -449920936.58564717       -65575711.664710939        1185304126.2709935     
  -452551706.75931108       -52543103.272306174        1252603103.6407952     
  -456035316.54733580       -42353293.594437882        1318581826.1316583     
  -460371765.94972187       -35006282.631107479        1383240293.7435811     
  -902551111.26159406       -171172725.21857971        1121389180.1192091     
  -901654880.91002846       -139741087.55259651        1184450488.9513915     
  -902442352.90095735       -113921791.02826101        1247299200.1572487     
  -904913527.23438036       -93714835.645573139        1309935313.7367806     
  -909068403.91029763       -79120221.404533297        1372358829.6899865     
  -1370193795.2626557       -264864705.29525009        1132252744.7123652     
  -1363458668.9927523       -216927416.56798467        1188786790.2784994     
  -1359238107.7934766       -177372011.40947899        1246215895.4709227     
  -1357532111.6648273       -146198489.81972933        1304540060.2896354     
  -1358340680.6068065       -123406851.79873908        1363759284.7346373     
  -1851071058.0295289       -362527059.00166339        1149275587.8017190     
  -1835332300.8338172       -297134698.71087515        1198313030.2523162     
  -1822938971.4368670       -242893764.41595608        1249353189.5818176     
  -1813891069.8386772       -199804256.11690652        1302396065.7902224     
  -1808188596.0392482       -167866173.81372511        1357441658.8775313     
  -12250766.725079469        8934964.5215383619        1396403676.8954177     
  -18327349.131789684        9884182.3817997817        1419455102.5479674     
  -23513353.603043444        13801993.360249199        1443412802.9879405     
  -27808780.138840150        20688397.456888452        1468276778.2153392     
  -31213628.739180744        30543394.671715595        1494047028.2301619     
  -460371765.94972187       -35006282.631107479        1383240293.7435811     
  -460854100.92132169       -27451893.587372154        1407225518.4031010     
  -461109215.78328562       -19140104.178184450        1433083465.2598641     
  -461137110.53561163       -10070914.403536499        1460814134.3138716     
  -460937785.17830133       -244324.26343455911        1490417525.5651209     
  -909068403.91029763       -79120221.404533297        1372358829.6899865     
  -901195213.13301849       -64132277.683195025        1396503935.8930213     
  -893758160.07192206       -50598126.349133015        1423488211.7031186     
  -886757244.72700965       -38517767.402350247        1453311657.1202779     
  -880192467.09827995       -27891200.842843771        1485974272.1445003     
  -1358340680.6068065       -123406851.79873908        1363759284.7346373     
  -1339350685.7668796       -100156969.90566725        1387290355.0177295     
  -1321460186.4689553       -80572073.152605653        1414627042.3177032     
  -1304669182.7130337       -64652161.539551377        1445769346.6345580     
  -1288977674.4991159       -52397235.066510141        1480717267.9682958     
  -1808188596.0392482       -167866173.81372511        1357441658.8775313     
  -1775320518.8229043       -135525970.25478691        1379584775.7772243     
  -1744215294.9743819       -109061944.58859015        1406499957.1036189     
  -1714872924.4936845       -88474096.815141082        1438187202.8567131     
  -1687293407.3808091       -73762426.934432149        1474646513.0365090     
  -31213628.739180744        30543394.671715595        1494047028.2301619     
  -45613377.936238363        33332123.840478748        1488227411.1316760     
  -63387967.398673490        24871385.457983125        1489087228.3205590     
  -84537397.126486272        5161179.5242286883        1496626479.7968113     
  -109061667.11967902       -25798493.960791912        1510845165.5604308     
  -460937785.17830133       -244324.26343455911        1490417525.5651209     
  -456765824.79948342        7917882.4988073111        1484906008.5345886     
  -454704276.10237586        9045383.6553477943        1485760954.3688660     
  -454753139.08697808        3138179.2061901093        1492982363.0679531     
  -456912413.75329012       -9803730.8486689925        1506570234.6318505     
  -880192467.09827995       -27891200.842843771        1485974272.1445003     
  -858343001.20803881       -14623777.706457853        1482246021.8628652     
  -837339518.41584003       -4176298.2302144170        1484571263.0234828     
  -817182018.72168267        3451237.5858918428        1492949995.6263521     
  -797870502.12556851        8258829.7418553531        1507382219.6714718     
  -1288977674.4991159       -52397235.066510141        1480717267.9682958     
  -1250344907.1619036       -34292856.775315523        1480247451.1165063     
  -1211293694.3390675       -14793660.198706388        1485518154.2844095     
  -1171824036.0306048        6100354.6633237600        1496529377.4720058     
  -1131935932.2365150        28389187.810777664        1513281120.6792960     
  -1687293407.3808091       -73762426.934432149        1474646513.0365090     
  -1632771542.6610792       -51089354.707766414        1478910296.2955093     
  -1576566803.8720577       -22806702.250126779        1488601628.1516457     
  -1518679191.0137410        11085530.438495696        1503720508.6049159     
  -1459108704.0861294        50587343.358099520        1524266937.6553214     
  -109061667.11967902       -25798493.960791912        1510845165.5604308     
  -83434968.965981394       -40272040.076486953        1515684840.7847812     
  -53483428.178606093       -40329444.079923756        1523970934.9843349     
  -19207044.757554356       -25970705.971105404        1535703448.1590931     
   19394181.297176071        2804174.2499752329        1550882380.3090565     
  -456912413.75329012       -9803730.8486689925        1506570234.6318505     
  -419468978.31024253       -10130908.399590358        1517324722.0042791     
  -379431228.23748463       -1810370.5181445777        1530458041.7245181     
  -336799163.53501958        15157882.795658082        1545970193.7925687     
  -291572784.20284688        40773851.541820839        1563861178.2084274     
  -797870502.12556851        8258829.7418553531        1507382219.6714718     
  -751660576.90000808        21162946.503659010        1522032569.8540154     
  -704586865.04870820        36946352.017928183        1537994165.7569740     
  -656649366.57166982        55609046.284657866        1555267007.3803508     
  -607848081.46889091        77151029.303858489        1573851094.7241447     
  -1131935932.2365150        28389187.810777664        1513281120.6792960     
  -1080009764.7352810        53609524.633251667        1529808384.3339882     
  -1028950338.6122738        75940723.528303146        1546579307.0817058     
  -978757653.86750031        95382784.495910943        1563593888.9224470     
  -929431710.50095427        111935707.53609109        1580852129.8562102     
  -1459108704.0861294        50587343.358099520        1524266937.6553214     
  -1404516541.8160584        87208825.989198029        1540652165.4442003     
  -1352521648.9281857        115172744.01296878        1556213465.6987092     
  -1303124025.4225123        134479097.42940748        1570950838.4188480     
  -1256323671.2990367        145127886.23852134        1584864283.6046176     
   19394181.297176071        2804174.2499752329        1550882380.3090565     
   2714917.8019891228        15073774.983685765        1549037643.4873576     
  -18237187.858115550        13100568.501002502        1547097120.1017222     
  -43462135.683145493       -3115445.1980976425        1545060810.1521492     
  -72959925.673093066       -33574266.113589890        1542928713.6386399     
  -291572784.20284688        40773851.541820839        1563861178.2084274     
  -305808568.33833224        48520406.856265754        1557698327.5205894     
  -322658951.31764001        47551632.691302836        1554554642.6162884     
  -342123933.14077699        37867529.046909422        1554430123.4955242     
  -364203513.80773664        19468095.923107609        1557324770.1582966     
  -607848081.46889091        77151029.303858489        1573851094.7241447     
  -610740522.39474630        83044498.354026228        1565304747.3781104     
  -614589318.84333229        85750115.661759466        1562892518.1630878     
  -619394470.81465340        85267881.227043003        1566614407.0790756     
  -625155978.30870020        81597795.049904138        1576470414.1260743     
  -929431710.50095427        111935707.53609109        1580852129.8562102     
  -912080944.36725593        118646049.47695398        1571856903.0599239     
  -894028290.43519497        127696017.41236168        1572110746.7421215     
  -875273748.70477104        139085611.34231085        1581613660.9028063     
  -855817319.17598593        152814831.26679820        1600365645.5419743     
  -1256323671.2990367        145127886.23852134        1584864283.6046176     
  -1209829834.2558622        155325060.22505105        1577354794.5660262     
  -1160975866.0932279        173389337.94311291        1582209328.3533912     
  -1109761766.8111372        199320719.39269590        1599427884.9667132     
  -1056187536.4095864        233119204.57381445        1629010464.4059966     
  -72959925.673093066       -33574266.113589890        1542928713.6386399     
  -189216613.61593163       -84358664.712171912        1510139936.2155066     
  -297440838.49091345       -108368186.41789758        1490727066.9824960     
  -397632600.29803377       -105602831.23075274        1484690105.9396167     
  -489791899.03729576       -76062599.150744826        1492029053.0868671     
  -364203513.80773664        19468095.923107609        1557324770.1582966     
  -436812361.05648434       -8290364.9636363089        1544334229.9289501     
  -502982597.01418817       -14586788.213567823        1546229365.6483536     
  -562714221.68084848        578826.17331355810        1563010177.3165050     
  -616007235.05647194        37206478.196982294        1594676664.9334018     
  -625155978.30870020        81597795.049904138        1576470414.1260743     
  -649803362.69586837        78159358.525251627        1581418617.3509002     
  -669605987.56880975        90870120.381350756        1602762264.2830930     
  -684563852.92752481        119730080.61820793        1640501354.9226575     
  -694676958.77201593        164739239.23580912        1694635889.2695885     
  -855817319.17598593        152814831.26679820        1600365645.5419743     
  -828189618.53408527        174990505.75448549        1621393098.4813511     
  -797311010.15477538        208002539.36686969        1660325762.8867176     
  -763181494.03806067        251850932.10393775        1717163638.7580760     
  -725801070.18393064        306535683.96572304        1791906726.0954204     
  -1056187536.4095864        233119204.57381445        1629010464.4059966     
  -971971128.57113421        282203076.72407478        1664257673.3203073     
  -886097664.77208900        336810468.74297512        1718919861.4592280     
  -798567145.01244593        396941380.63053566        1792997028.8227575     
  -709379569.29221547        462595812.38672251        1886489175.4108963     
  -489791899.03729576       -76062599.150744826        1492029053.0868671     
  -550052483.35851467       -116397753.52639419        1423437511.1938612     
  -670726849.94388676       -358112182.11589056        1187016994.9475355     
  -851814998.79341912       -801205884.91925311        782767504.34787881     
  -1093316929.9071109       -1445678861.9364805        210689039.39489740     
  -616007235.05647194        37206478.196982294        1594676664.9334018     
  -1023648311.1188308       -75044083.532741249        1529873345.7867813     
  -1465798632.5034776       -302325463.00342739        1382279101.3512409     
  -1942458199.2104135       -644637660.21507406        1151893931.6267858     
  -2453627011.2396345       -1101980675.1676776        838717836.61340928     
  -694676958.77201593        164739239.23580912        1694635889.2695885     
  -1206732672.1057849        53463026.492908776        1663842752.6348617     
  -1727393093.8199666       -86495547.518032789        1635296739.7756281     
  -2256658223.9145665       -255136482.79703921        1608997850.6918845     
  -2794528062.3895807       -452459779.34408832        1584946085.3836296     
  -725801070.18393064        306535683.96572304        1791906726.0954204     
  -1099305566.3193710        269123576.55057836        1825345731.7381115     
  -1455510233.8933558        289377564.34028125        1946069910.2207005     
  -1794415072.9058833        367297647.33484828        2154079261.5431886     
  -2116020083.3569541        502883825.53426278        2449373785.7055693     
  -709379569.29221547        462595812.38672251        1886489175.4108963     
  -701366993.75959301        571937566.64024687        2014382283.0965228     
  -650150052.72363997        825293872.57154119        2314598612.6864500     
  -555728746.18436265        1222664730.1805820        2787138164.1806803     
  -418103074.14175439        1764050139.4673927        3432000937.5792184     
  -1756872062.5495648       -527061618.76486945        682787003.40943801     
  -1784760124.7774007       -500389023.35021830        809421705.18154645     
  -1809755978.1000071       -464075731.58480054        929381369.83762956     
  -1831859622.5173829       -418121743.46861565        1042665997.3776867     
  -1851071058.0295289       -362527059.00166339        1149275587.8017190     
  -2202362195.9825182       -660708658.79475546        699088843.66629148     
  -2238005953.4447126       -614208248.79985833        816755008.51518261     
  -2271621272.3521914       -560946376.95590520        930554641.55053568     
  -2303208152.7049518       -500923043.26289564        1040487742.7723507     
  -2332766594.5029964       -434138247.72083008        1146554312.1806278     
  -2685689950.1567001       -805706985.04701006        724415520.40346491     
  -2721065101.9890037       -736971470.21259201        832105416.25353980     
  -2755275585.6171050       -664353728.03082883        938737285.59256434     
  -2788321401.0410008       -587853758.50171971        1044311128.4205383     
  -2820202548.2606940       -507471561.62526536        1148826944.7374616     
  -3206855325.0721111       -962056597.52163339        758767033.62095833     
  -3233937570.4102740       -868678687.58841956        855472928.39661860     
  -3260718917.8947463       -774297784.80957115        953929301.96371567     
  -3287199367.5255289       -678913889.18508768        1054136154.3222494     
  -3313378919.3026204       -582527000.71496964        1156093485.4722204     
  -3765858320.7287507       -1129757496.2186253        802143383.31877172     
  -3776623358.7085228       -1009329900.9273407        886857544.94441831     
  -3787951269.1851187       -890778547.29213214        976130690.66398919     
  -3799842052.1585364       -774103435.31299925        1069962820.4774842     
  -3812295707.6287780       -659304564.98994327        1168353934.3849037     
  -1851071058.0295289       -362527059.00166339        1149275587.8017190     
  -1835332300.8338172       -297134698.71087515        1198313030.2523162     
  -1822938971.4368670       -242893764.41595608        1249353189.5818176     
  -1813891069.8386772       -199804256.11690652        1302396065.7902224     
  -1808188596.0392482       -167866173.81372511        1357441658.8775313     
  -2332766594.5029964       -434138247.72083008        1146554312.1806278     
  -2309314790.0528460       -353702124.64945734        1188809817.8973308     
  -2289376092.0772920       -284976356.49340832        1231524082.4430251     
  -2272950500.5763350       -227960943.25268275        1274697105.8177116     
  -2260038015.5499763       -182655884.92728090        1318328888.0213904     
  -2820202548.2606940       -507471561.62526536        1148826944.7374616     
  -2793449005.2701373       -413315068.38751775        1184104888.5984604     
  -2770376247.4300137       -331427858.98454881        1218297633.2385390     
  -2750984274.7403240       -261809933.41635811        1251405178.6576977     
  -2735273087.2010674       -204461291.68294597        1283427524.8559368     
  -3313378919.3026204       -582527000.71496964        1156093485.4722204     
  -3287734946.4856915       -475973529.92505741        1184198242.3557057     
  -3265939437.4950328       -382248271.88937891        1209673841.9683599     
  -3247992392.3306417       -301351226.60793173        1232520284.3101816     
  -3233893810.9925246       -233282394.08072221        1252737569.3811727     
  -3812295707.6287780       -659304564.98994327        1168353934.3849037     
  -3792172613.6995087       -541677509.26207614        1189089879.1690671     
  -3776065662.2723479       -437437595.20789766        1205652708.6324866     
  -3763974853.3472924       -346584822.82740641        1218042422.7751627     
  -3755900186.9243431       -269119192.12060404        1226259021.5970960     
  -1808188596.0392482       -167866173.81372511        1357441658.8775313     
  -1775320518.8229043       -135525970.25478691        1379584775.7772243     
  -1744215294.9743819       -109061944.58859015        1406499957.1036189     
  -1714872924.4936845       -88474096.815141082        1438187202.8567131     
  -1687293407.3808091       -73762426.934432149        1474646513.0365090     
  -2260038015.5499763       -182655884.92728090        1318328888.0213904     
  -2210146384.7715831       -136570582.54417896        1329530760.2422404     
  -2163541757.1897445       -101441957.48292232        1345883663.3554668     
  -2120224132.8044577       -77270009.743506551        1367387597.3610673     
  -2080193511.6157234       -64054739.325934649        1394042562.2590439     
  -2735273087.2010674       -204461291.68294597        1283427524.8559368     
  -2667275141.5301280       -144306062.07653165        1281909977.5977595     
  -2604088348.8844728       -100188009.22106171        1285922427.6976326     
  -2545712709.2641001       -72107133.116536260        1295464875.1555552     
  -2492148222.6690102       -60063433.762952328        1310537319.9715269     
  -3233893810.9925246       -233282394.08072221        1252737569.3811727     
  -3146706789.0985389       -158732408.85184455        1236722427.8437827     
  -3065855070.0585670       -105300099.80301189        1226616250.1301167     
  -2991338653.8726082       -72985466.934222937        1222419036.2401752     
  -2923157540.5406637       -61788510.245480061        1224130786.1739590     
  -3755900186.9243431       -269119192.12060404        1226259021.5970960     
  -3648441327.4768128       -179849622.87011433        1193968110.9803076     
  -3548841920.7120290       -116778229.22877216        1167965130.6529191     
  -3457101966.6299863       -79905011.196573138        1148250080.6149278     
  -3373221465.2306871       -69229968.773516178        1134822960.8663368     
  -1687293407.3808091       -73762426.934432149        1474646513.0365090     
  -1632771542.6610792       -51089354.707766414        1478910296.2955093     
  -1576566803.8720577       -22806702.250126779        1488601628.1516457     
  -1518679191.0137410        11085530.438495696        1503720508.6049159     
  -1459108704.0861294        50587343.358099520        1524266937.6553214     
  -2080193511.6157234       -64054739.325934649        1394042562.2590439     
  -2011904767.7201116       -45294624.980504155        1393727307.9354761     
  -1942262598.3537927       -22023092.399385095        1399477402.3534296     
  -1871267003.5167675        5759858.4174180031        1411292845.5129046     
  -1798917983.2090356        38054227.469913840        1429173637.4139009     
  -2492148222.6690102       -60063433.762952328        1310537319.9715269     
  -2408270313.4706917       -44669591.460702181        1305258671.3670371     
  -2323368427.4002528       -25862492.918057919        1306683171.6484563     
  -2237442564.4576983       -3642138.1350238323        1314810820.8157849     
  -2150492724.6430268        21991472.888403416        1329641618.8690221     
  -2923157540.5406637       -61788510.245480061        1224130786.1739590     
  -2821868179.9128194       -49214254.148366451        1213504386.5901935     
  -2719884291.0114450       -34324903.806157708        1210218936.0367246     
  -2617205873.8365393       -17120459.218842268        1214274434.5135520     
  -2513832928.3881083        2399079.6135629416        1225670882.0206754     
  -3373221465.2306871       -69229968.773516178        1134822960.8663368     
  -3252698367.0464950       -58928613.043492556        1118464453.6049445     
  -3131810189.1873612       -47410325.063662052        1110084695.5182359     
  -3010556931.6532874       -34675104.834035873        1109683686.6062090     
  -2888938594.4442701       -20722952.354594946        1117261426.8688674     
  -1459108704.0861294        50587343.358099520        1524266937.6553214     
  -1404516541.8160584        87208825.989198029        1540652165.4442003     
  -1352521648.9281857        115172744.01296878        1556213465.6987092     
  -1303124025.4225123        134479097.42940748        1570950838.4188480     
  -1256323671.2990367        145127886.23852134        1584864283.6046176     
  -1798917983.2090356        38054227.469913840        1429173637.4139009     
  -1748676200.7607589        62059427.276193380        1439105503.9835410     
  -1700880369.8634362        77911455.245958328        1449426301.9534347     
  -1655530490.5170674        85610311.379215240        1460136031.3235855     
  -1612626562.7216511        85155995.675954580        1471234692.0939894     
  -2150492724.6430268        21991472.888403416        1329641618.8690221     
  -2101136010.7747598        34419983.242395401        1333296661.6892061     
  -2054073930.6262023        39199714.530691862        1338553494.8442707     
  -2009306484.1973541        36330666.753295302        1345412118.3342173     
  -1966833671.4882119        25812839.910202146        1353872532.1590414     
  -2513832928.3881083        2399079.6135629416        1225670882.0206754     
  -2461895971.8580623        4290493.8878110647        1223225638.5611923     
  -2412102331.2164845       -962478.13282895088        1223595044.3712134     
  -2364452006.4633698       -13359836.448342681        1226779099.4507415     
  -2318944997.5987177       -32901581.058732748        1232777803.7997735     
  -2888938594.4442701       -20722952.354594946        1117261426.8688674     
  -2830956084.0106683       -28329040.787569165        1108892434.5995030     
  -2774965571.6342826       -42575122.744603992        1104550950.5342669     
  -2720967057.3151140       -63461198.225696445        1104236974.6731625     
  -2668960541.0531664       -90987267.230850697        1107950507.0161865     
  -1256323671.2990367        145127886.23852134        1584864283.6046176     
  -1209829834.2558622        155325060.22505105        1577354794.5660262     
  -1160975866.0932279        173389337.94311291        1582209328.3533912     
  -1109761766.8111372        199320719.39269590        1599427884.9667132     
  -1056187536.4095864        233119204.57381445        1629010464.4059966     
  -1612626562.7216511        85155995.675954580        1471234692.0939894     
  -1538614003.5841146        93421450.876795828        1465469567.4725149     
  -1462559549.0485041        108493224.07121134        1468954449.0482135     
  -1384463199.1148250        130371315.25919509        1481689336.8210809     
  -1304324953.7830687        159055724.44076312        1503674230.7911234     
  -1966833671.4882119        25812839.910202146        1353872532.1590414     
  -1874199580.6242747        29477419.214965820        1349480496.9463999     
  -1779841830.0836506        38887530.775345564        1351224451.3021462     
  -1683760419.8663409        54043174.591349006        1359104395.2262764     
  -1585955349.9723465        74944350.662969649        1373120328.7187893     
  -2318944997.5987177       -32901581.058732748        1232777803.7997735     
  -2216586565.3763404       -36507034.760436177        1229387582.9876845     
  -2112822709.1986663       -35427741.944481134        1229019335.1151950     
  -2007653429.0656891       -29663702.610848188        1231673060.1823025     
  -1901078724.9774163       -19214916.759559751        1237348758.1890080     
  -2668960541.0531664       -90987267.230850697        1107950507.0161865     
  -2565774957.8403120       -104531911.04940343        1105190825.5963650     
  -2461502186.3935490       -114452594.08826113        1102339100.4873540     
  -2356142226.7128701       -120749316.34739792        1099395331.6891530     
  -2249695078.7982774       -123422077.82682312        1096359519.2017694     
  -1056187536.4095864        233119204.57381445        1629010464.4059966     
  -971971128.57113421        282203076.72407478        1664257673.3203073     
  -886097664.77208900        336810468.74297512        1718919861.4592280     
  -798567145.01244593        396941380.63053566        1792997028.8227575     
  -709379569.29221547        462595812.38672251        1886489175.4108963     
  -1304324953.7830687        159055724.44076312        1503674230.7911234     
  -1174365200.6155791        205259562.29516637        1526474940.5080154     
  -1044750874.9414647        250311975.17165840        1565712483.0139842     
  -915481976.76072311        294212963.07024175        1621386858.3090293     
  -786558506.07335687        336962525.99089938        1693498066.3931518     
  -1585955349.9723465        74944350.662969649        1373120328.7187893     
  -1418761241.2916300        115715457.27677709        1381138308.5419717     
  -1253915043.5582578        148660194.06611598        1402614974.7186956     
  -1091416756.7722309        173778561.03096849        1437550327.2489614     
  -931266380.93354070        191070558.17136192        1485944366.1327686     
  -1901078724.9774163       -19214916.759559751        1237348758.1890080     
  -1705159250.5992854        13570761.668906093        1228247777.4221816     
  -1513590170.6224678        31855125.426342070        1229627336.5733607     
  -1326371485.0469608        35638174.512740433        1241487435.6425488     
  -1143503193.8727579        24919908.928115249        1263828074.6297438     
  -2249695078.7982774       -123422077.82682312        1096359519.2017694     
  -2033559228.5385506       -101174524.52845132        1067803347.1486363     
  -1823776256.1340921       -100103230.74764615        1046749568.5779803     
  -1620346161.5849233       -120208196.48446661        1033198183.4897983     
  -1423268944.8910213       -161489421.73884863        1027149191.8840892     
  -709379569.29221547        462595812.38672251        1886489175.4108963     
  -701366993.75959301        571937566.64024687        2014382283.0965228     
  -650150052.72363997        825293872.57154119        2314598612.6864500     
  -555728746.18436265        1222664730.1805820        2787138164.1806803     
  -418103074.14175439        1764050139.4673927        3432000937.5792184     
  -786558506.07335687        336962525.99089938        1693498066.3931518     
  -443554899.61319602        481706076.75610340        1790121654.0256803     
  -75302603.827106208        710611925.27440047        1963937782.8108563     
   318198381.28490353        1023680071.5457622        2214946452.7486835     
   736948055.72283983        1420910515.5702236        2543147663.8391418     
  -931266380.93354070        191070558.17136192        1485944366.1327686     
  -525073688.55057847        289675321.94682097        1530350144.8385646     
  -111587983.01909211        412590129.55069041        1556817783.9453487     
   309190735.66091555        559814980.98296595        1565347283.4531233     
   737262467.48944390        731349876.24364400        1555938643.3618829     
  -1143503193.8727579        24919908.928115249        1263828074.6297438     
  -945923360.57173347       -4154697.7875940204        1235067755.5351746     
  -759006190.29958808       -68771514.599569082        1093238616.0899315     
  -582751683.05632162       -168930541.50780833        838340656.29402244     
  -417159838.84193873       -304631778.51232147        470373876.14743835     
  -1423268944.8910213       -161489421.73884863        1027149191.8840892     
  -1706103915.6766677       -399783982.44714284        904274486.11551130     
  -2017557225.6685982       -733473007.17637205        573200279.24460649     
  -2357628874.8668118       -1162556495.9265509        33926571.271371275     
  -2726318863.2713137       -1687034448.6976914       -713546637.80418885     
  -3765858320.7287507       -1129757496.2186253        802143383.31877172     
  -3776623358.7085228       -1009329900.9273407        886857544.94441831     
  -3787951269.1851187       -890778547.29213214        976130690.66398919     
  -3799842052.1585364       -774103435.31299925        1069962820.4774842     
  -3812295707.6287780       -659304564.98994327        1168353934.3849037     
  -4336176888.6803198       -1300853066.6040962        859840738.39585626     
  -4332250357.9740639       -1125886004.5735166        943683448.64491212     
  -4329462077.9997225       -954713111.64932406        1021682350.6956134     
  -4327812048.7572975       -787334387.83151865        1093837444.5479605     
  -4327300270.2467899       -623749833.12010050        1160148730.2019534     
  -4891288980.4805183       -1467386694.1441557        937155267.75116277     
  -4902393144.7804585       -1246796844.4819486        1019455252.0160191     
  -4915210938.0474052       -1031919091.3764396        1085508635.7902420     
  -4929742360.2813635       -822753434.82762921        1135315419.0738320     
  -4945987411.4823294       -619299874.83551621        1168875601.8667889     
  -5431194596.1293478       -1629358378.8388045        1034086971.3846920     
  -5487051719.1277075       -1372062420.6526372        1114172955.0577390     
  -5545197849.3281679       -1122396486.4734793        1167609545.9478750     
  -5605632986.7307320       -880360576.30133033        1194396744.0550992     
  -5668357131.3353977       -645954690.13619089        1194534549.3794117     
  -5955893735.6268072       -1786768120.6880422        1150635849.2964430     
  -6086226081.0158091       -1501682733.0855818        1227836557.7700727     
  -6219422811.8420095       -1226145296.9404423        1267985081.1685123     
  -6355483928.1054058       -960155812.25262356        1271081419.4917614     
  -6494409429.8059959       -703714279.02212429        1237125572.7398210     
  -3812295707.6287780       -659304564.98994327        1168353934.3849037     
  -3792172613.6995087       -541677509.26207614        1189089879.1690671     
  -3776065662.2723479       -437437595.20789766        1205652708.6324866     
  -3763974853.3472924       -346584822.82740641        1218042422.7751627     
  -3755900186.9243431       -269119192.12060404        1226259021.5970960     
  -4327300270.2467899       -623749833.12010050        1160148730.2019534     
  -4292850035.7310963       -467857126.43751407        1141310910.0797637     
  -4269046199.8222008       -347452415.11092603        1128836547.8167861     
  -4255888762.5201073       -262535699.14034009        1122725643.4130204     
  -4253377723.8248167       -213106978.52575564        1122978196.8684673     
  -4945987411.4823294       -619299874.83551621        1168875601.8667889     
  -4867105541.5803375       -416110168.75824714        1102728718.0494373     
  -4805500326.3898392       -270509311.71929145        1053481865.2712528     
  -4761171765.9108362       -182497303.71864796        1021135043.5322363     
  -4734119860.1433249       -152074144.75631928        1005688252.8323865     
  -5668357131.3353977       -645954690.13619089        1194534549.3794117     
  -5514939131.2472363       -386436636.22427702        1073343303.0780883     
  -5385428041.9752607       -206608285.03299022        979588660.99588752     
  -5279823863.5194731       -106469636.56232715        913270623.13281083     
  -5198126595.8798733       -86020690.812293530        874389189.48885500     
  -6494409429.8059959       -703714279.02212429        1237125572.7398210     
  -6236350804.7317886       -378836528.83560491        1053154665.1657162     
  -6008829346.5784636       -155749335.05202532        907156934.99068987     
  -5811845055.3460217       -34452697.671382427        799132382.21474206     
  -5645397931.0344591       -14946616.693681002        729081006.83787203     
  -3755900186.9243431       -269119192.12060404        1226259021.5970960     
  -3648441327.4768128       -179849622.87011433        1193968110.9803076     
  -3548841920.7120290       -116778229.22877216        1167965130.6529191     
  -3457101966.6299863       -79905011.196573138        1148250080.6149278     
  -3373221465.2306871       -69229968.773516178        1134822960.8663368     
  -4253377723.8248167       -213106978.52575564        1122978196.8684673     
  -4139035105.1912880       -153296590.59578300        1089018505.7432323     
  -4029321564.8736506       -108916463.71877933        1060864356.3148710     
  -3924237102.8719063       -79966597.894750595        1038515748.5833827     
  -3823781719.1860485       -66446993.123686314        1021972682.5487669     
  -4734119860.1433249       -152074144.75631928        1005688252.8323865     
  -4614271735.4453011       -122136414.08331180        973828551.29336655     
  -4495822314.6963158       -96861029.907101393        947292002.85869324     
  -4378771597.8963709       -76247992.227690697        926078607.52836680     
  -4263119585.0454655       -60297301.045077562        910188365.30238807     
  -5198126595.8798733       -86020690.812293530        874389189.48885500     
  -5074151218.2388563       -86369093.332702637        848398247.63071036     
  -4948344170.1800251       -80611927.793737650        827248070.28438544     
  -4820705451.7033825       -68749194.195396900        810938657.44988215     
  -4691235062.8089256       -50780892.537677288        799470009.12720037     
  -5645397931.0344591       -14946616.693681002        729081006.83787203     
  -5518673553.5719528       -45994628.343958855        712727594.75526321     
  -5386887131.3247776       -60169157.378683329        700732558.59194660     
  -5250038664.2929401       -57470203.797866106        693095898.34792864     
  -5108128152.4764376       -37897767.601497412        689817614.02320266     
  -3373221465.2306871       -69229968.773516178        1134822960.8663368     
  -3252698367.0464950       -58928613.043492556        1118464453.6049445     
  -3131810189.1873612       -47410325.063662052        1110084695.5182359     
  -3010556931.6532874       -34675104.834035873        1109683686.6062090     
  -2888938594.4442701       -20722952.354594946        1117261426.8688674     
  -3823781719.1860485       -66446993.123686314        1021972682.5487669     
  -3682529374.5380692       -48376522.257599831        1008595862.9778587     
  -3541717109.0644903       -31772981.972852230        1001392995.7114741     
  -3401344922.7653131       -16636372.269440413        1000364080.7496121     
  -3261412815.6405387       -2966693.1473712921        1005509118.0922750     
  -4263119585.0454655       -60297301.045077562        910188365.30238807     
  -4106294556.4198666       -36004683.788778782        898853881.43106401     
  -3950714765.8180132       -15862859.944958687        891888552.99410331     
  -3796380213.2399063        128170.48637676239        889292379.99150670     
  -3643290898.6855426        11968407.505234003        891065362.42327285     
  -4691235062.8089256       -50780892.537677288        799470009.12720037     
  -4523993912.6918812       -21813097.637019634        789238508.96456110     
  -4358803159.4479275        320041.02001881599        781571367.36612511     
  -4195662803.0770607        15618523.433427572        776468584.33189213     
  -4034572843.5792780        24082349.603217125        773930159.86186409     
  -5108128152.4764376       -37897767.601497412        689817614.02320266     
  -4935627443.3541222       -5801763.8023309708        679749745.57834864     
  -4765982289.9542341        16775720.922074318        670441438.82753706     
  -4599192692.2767773        29834686.571711779        661892693.77077067     
  -4435258650.3217478        33375133.146584511        654103510.40804565     
  -2888938594.4442701       -20722952.354594946        1117261426.8688674     
  -2830956084.0106683       -28329040.787569165        1108892434.5995030     
  -2774965571.6342826       -42575122.744603992        1104550950.5342669     
  -2720967057.3151140       -63461198.225696445        1104236974.6731625     
  -2668960541.0531664       -90987267.230850697        1107950507.0161865     
  -3261412815.6405387       -2966693.1473712921        1005509118.0922750     
  -3192791080.4961233       -12964261.110309720        992409261.91016793     
  -3125228696.1713123       -26492998.471928596        984017796.42377913     
  -3058725662.6661005       -43552905.232210755        980334721.63310611     
  -2993281979.9804935       -64143981.391174078        981360037.53815198     
  -3643290898.6855426        11968407.505234003        891065362.42327285     
  -3562084560.2829227        162973.57654619217        874322730.77231061     
  -3481004925.4622898       -12064805.625433207        862969372.30865204     
  -3400051994.2236419       -24714930.100696802        857005287.03229892     
  -3319225766.5669832       -37787399.849252820        856430474.94325006     
  -4034572843.5792780        24082349.603217125        773930159.86186409     
  -3938836523.3710628        11052663.272994995        754632841.18592882     
  -3842294259.5072203        709455.79486846924        741405678.18888819     
  -3744946051.9877462       -6947272.8311524391        734248670.87073815     
  -3646791900.8126407       -11917522.605073452        733161819.23148000     
  -4435258650.3217478        33375133.146584511        654103510.40804565     
  -4323046969.7605457        19704807.979048252        633339593.15102494     
  -4209096698.3060951        11829785.789001465        619326714.06448495     
  -4093407835.9583983        9750066.5764358044        612064873.14842618     
  -3975980382.7174621        13465650.341346741        611554070.40284252     
  -2668960541.0531664       -90987267.230850697        1107950507.0161865     
  -2565774957.8403120       -104531911.04940343        1105190825.5963650     
  -2461502186.3935490       -114452594.08826113        1102339100.4873540     
  -2356142226.7128701       -120749316.34739792        1099395331.6891530     
  -2249695078.7982774       -123422077.82682312        1096359519.2017694     
  -2993281979.9804935       -64143981.391174078        981360037.53815198     
  -2887374621.4341860       -74929773.019206285        979207611.08072519     
  -2781946693.3170376       -87313666.077768922        978604243.44809830     
  -2676998195.6290450       -101295660.56685042        979549934.64027321     
  -2572529128.3702054       -116875756.48644674        982044684.65724874     
  -3319225766.5669832       -37787399.849252820        856430474.94325006     
  -3205907768.3615384       -44407679.989054441        853057581.67463577     
  -3094635819.2483225       -57848123.769612193        852874849.74481428     
  -2985409919.2273335       -78108731.190930367        855882279.15378094     
  -2878230068.2985702       -105189502.25299621        862079869.90153909     
  -3646791900.8126407       -11917522.605073452        733161819.23148000     
  -3521374398.6223741       -12965631.958945036        726740737.37809861     
  -3399569564.1874065       -26055967.163803577        725150919.37749791     
  -3281377397.5077300       -51188528.219644308        728392365.22967625     
  -3166797898.5833540       -88363315.126475573        736465074.93463457     
  -3975980382.7174621        13465650.341346741        611554070.40284252     
  -3833774512.2166901        19396371.071120739        600257078.19111228     
  -3696747928.1342835        8062803.7396779060        595432452.34615135     
  -3564900630.4702463       -20535051.653003454        597080192.86795902     
  -3438232619.2245693       -66397195.106877804        605200299.75653851     
  -2249695078.7982774       -123422077.82682312        1096359519.2017694     
  -2033559228.5385506       -101174524.52845132        1067803347.1486363     
  -1823776256.1340921       -100103230.74764615        1046749568.5779803     
  -1620346161.5849233       -120208196.48446661        1033198183.4897983     
  -1423268944.8910213       -161489421.73884863        1027149191.8840892     
  -2572529128.3702054       -116875756.48644674        982044684.65724874     
  -2344784035.8620806       -99980527.833884716        951905551.61608565     
  -2119531479.7397130       -91393753.800522923        924429363.27871168     
  -1896771460.0031095       -91115434.386376143        899616119.64512801     
  -1676503976.6522682       -99145569.591437399        877465820.71533406     
  -2878230068.2985702       -105189502.25299621        862079869.90153909     
  -2652702730.0525727       -97794697.199415207        834861507.58677721     
  -2425807586.7228208       -85840541.866649389        805466641.19712019     
  -2197544638.3093147       -69327036.254711390        773895270.73256862     
  -1967913884.8120604       -48254180.363594651        740147396.19311965     
  -3166797898.5833540       -88363315.126475573        736465074.93463457     
  -2957315311.1100187       -94617032.625030994        716671215.06071150     
  -2742604577.0834093       -83443594.946011424        689861402.33320558     
  -2522665696.5035353       -54843002.089437962        656035636.75212228     
  -2297498669.3703947       -8815254.0553188324        615193918.31745732     
  -3438232619.2245693       -66397195.106877804        605200299.75653851     
  -3258621779.0344214       -90447534.110728741        597334674.03788424     
  -3069922450.8214898       -84202913.038631916        577613646.68696547     
  -2872134634.5857706       -47663331.890581250        546037217.70377874     
  -2665258330.3272686        19171209.333408594        502605387.08833015     
  -1423268944.8910213       -161489421.73884863        1027149191.8840892     
  -1706103915.6766677       -399783982.44714284        904274486.11551130     
  -2017557225.6685982       -733473007.17637205        573200279.24460649     
  -2357628874.8668118       -1162556495.9265509        33926571.271371275     
  -2726318863.2713137       -1687034448.6976914       -713546637.80418885     
  -1676503976.6522682       -99145569.591437399        877465820.71533406     
  -2401281656.9294171       -421441575.53827196        762076050.90532506     
  -3143843056.8559861       -803016646.98317945        534314800.72077155     
  -3904188176.4319892       -1243870783.9261973        194182070.16166601     
  -4682317015.6574183       -1744003986.3673029       -258322140.77197754     
  -1967913884.8120604       -48254180.363594651        740147396.19311965     
  -2860839929.6441813       -372413328.06800550        644882951.82468128     
  -3760715074.5688739       -719736142.74764383        533075047.80947763     
  -4667539319.5861387       -1090222624.4025302        404723684.14751112     
  -5581312664.6959782       -1483872773.0326512        259828860.83878145     
  -2297498669.3703947       -8815254.0553188324        615193918.31745732     
  -3084778733.8209782       -252699240.03634226        552695188.87358105     
  -3868173278.8072705       -483631494.46976078        569481020.51072919     
  -4647682304.3292809       -701612017.35555708        665551413.22888815     
  -5423305810.3870087       -906640808.69374347        840906367.02806532     
  -2665258330.3272686        19171209.333408594        502605387.08833015     
  -3073098069.4597893       -62299311.443293452        485512762.05202270     
  -3466217669.5711637       -94702702.149514675        643532718.82451749     
  -3844617130.6614056       -78038962.785290480        976665257.40581214     
  -4208296452.7304935       -12308093.350565672        1484910377.7959039     
  -5955893735.6268072       -1786768120.6880422        1150635849.2964430     
  -6086226081.0158091       -1501682733.0855818        1227836557.7700727     
  -6219422811.8420095       -1226145296.9404423        1267985081.1685123     
  -6355483928.1054058       -960155812.25262356        1271081419.4917614     
  -6494409429.8059959       -703714279.02212429        1237125572.7398210     
  -6809721207.6276464       -2042916362.2882938        1354336319.8351624     
  -6827075524.6700716       -1395373063.5150154        1202851303.7090828     
  -6895834310.1409082       -919177992.83644414        1091680514.9622958     
  -7015997564.0401564       -614331150.25258017        1020823953.5948014     
  -7187565286.3678188       -480832535.76342559        990281619.60659897     
  -8337011820.7866182       -2501103546.2359853        1712722801.3495960     
  -8020341216.7553682       -1424788268.4737587        1275921963.8007212     
  -7803615164.1437511       -681621495.44362974        956801766.08562171     
  -7686833662.9517612       -271603227.14559412        755362208.20429754     
  -7669996713.1793985       -194733463.57965517        671603290.15674794     
  -10537765575.103718       -3161329672.5311155        2225795293.8397431     
  -9666023157.2717056       -1589928347.9618151        1447048538.0449877     
  -8942765373.8505363       -513475804.76199627        863348834.53849089     
  -8367992224.8402128        68027957.068337917        474696183.32025105     
  -7941703710.2407360        154582937.52918911        281090584.39026988     
  -13411982470.578949       -4023594741.1736851        2893553797.3056045     
  -11764121346.219078       -1890793301.9791815        1716231026.4418828     
  -10313284939.261265       -414740920.79154778        811321720.32090259     
  -9059473249.7055187        404562402.38921499        178825878.94266233     
  -8002686277.5518284        567116667.56310654       -181256497.69283751     
  -6494409429.8059959       -703714279.02212429        1237125572.7398210     
  -6236350804.7317886       -378836528.83560491        1053154665.1657162     
  -6008829346.5784636       -155749335.05202532        907156934.99068987     
  -5811845055.3460217       -34452697.671382427        799132382.21474206     
  -5645397931.0344591       -14946616.693681002        729081006.83787203     
  -7187565286.3678188       -480832535.76342559        990281619.60659897     
  -6898413262.6843023       -306187137.11617398        846222894.67891943     
  -6621858401.1077051       -173532278.82532692        722777995.48377037     
  -6357900701.6380310       -82867960.890886307        619946922.02114999     
  -6106540164.2752790       -34194183.312850714        537729674.29106104     
  -7669996713.1793985       -194733463.57965517        671603290.15674794     
  -7399349438.5052805       -185199860.75728416        588386753.49178064     
  -7123359321.1241226       -157856782.24478197        508424690.89279556     
  -6842026361.0359268       -112704228.04215574        431717102.35979098     
  -6555350558.2406931       -49742198.149398565        358263987.89276826     
  -7941703710.2407360        154582937.52918911        281090584.39026988     
  -7739159332.1947241       -15874699.758931637        279646241.60430145     
  -7513332106.6277180       -108722845.31039095        264097021.21776748     
  -7264222033.5397129       -123961499.12519073        234442923.23066324     
  -6991829112.9307079       -61590661.203328609        190683947.64299664     
  -8002686277.5518284        567116667.56310654       -181256497.69283751     
  -7917842943.7526369        201788345.87887859       -79998640.983521000     
  -7791776757.6184893       -26130468.022152901       -10205013.541316669     
  -7624487719.1493816       -116639774.13999319        28124384.633769058     
  -7415975828.3453140       -69739572.474633217        34989553.541741945     
  -5645397931.0344591       -14946616.693681002        729081006.83787203     
  -5518673553.5719528       -45994628.343958855        712727594.75526321     
  -5386887131.3247776       -60169157.378683329        700732558.59194660     
  -5250038664.2929401       -57470203.797866106        693095898.34792864     
  -5108128152.4764376       -37897767.601497412        689817614.02320266     
  -6106540164.2752790       -34194183.312850714        537729674.29106104     
  -5960188857.9468622       -34964584.782791376        528789940.23799688     
  -5813069890.4374676       -33176115.649464607        523602327.04394954     
  -5665183261.7470913       -28828775.912872553        522166834.70891953     
  -5516528971.8757343       -21922565.573007345        524483463.23290497     
  -6555350558.2406931       -49742198.149398565        358263987.89276826     
  -6391104480.3614511       -20754636.633528471        351727817.66495353     
  -6230385124.9049158       -3522816.5266764164        348337513.23587382     
  -6073192491.8710814        1953262.1711683273        348093074.60553610     
  -5919526581.2599497       -4326400.5399959087        350994501.77393746     
  -6991829112.9307079       -61590661.203328609        190683947.64299664     
  -6811420420.8157177       -3364783.8961744308        181541227.03612825     
  -6638832834.7271175        28790739.989689827        174938117.16772056     
  -6474066354.6649036        34875910.454260111        170874618.03777590     
  -6317120980.6290741        14890727.497547626        169350729.64629373     
  -7415975828.3453140       -69739572.474633217        34989553.541741945     
  -7221136679.3096571        17204973.429286480        18230168.351526372     
  -7038413019.9040766        63764553.899625778        3404138.8394949893     
  -6867804850.1285658        69939168.936399937       -9488534.9943556860     
  -6709312169.9831238        35728818.539603710       -20447853.150020648     
  -5108128152.4764376       -37897767.601497412        689817614.02320266     
  -4935627443.3541222       -5801763.8023309708        679749745.57834864     
  -4765982289.9542341        16775720.922074318        670441438.82753706     
  -4599192692.2767773        29834686.571711779        661892693.77077067     
  -4435258650.3217478        33375133.146584511        654103510.40804565     
  -5516528971.8757343       -21922565.573007345        524483463.23290497     
  -5346287636.6626835       -8292784.6757409573        514790517.21955389     
  -5176650804.1988077        3321987.0575981140        506861465.63624197     
  -5007618474.4841194        12921749.626987457        500696308.48296911     
  -4839190647.5186090        20506503.032445669        496295045.75973201     
  -5919526581.2599497       -4326400.5399959087        350994501.77393746     
  -5748675097.8533182       -8301985.9137754440        344302706.66088015     
  -5576177064.2226181       -6789070.5406577587        340379138.71385521     
  -5402032480.3678513        212345.57934951782        339223797.93286687     
  -5226241346.2890148        12702262.446245432        340836684.31790960     
  -6317120980.6290741        14890727.497547626        169350729.64629373     
  -6142789826.9260244       -5829367.5164291859        168286313.90232077     
  -5964561070.0256557       -13557451.872675180        170994458.06037915     
  -5782434709.9279737       -8293525.5712146759        177475162.12046418     
  -5596410746.6329756        9962411.3879792690        187728426.08257335     
  -6709312169.9831238        35728818.539603710       -20447853.150020648     
  -6528631823.8808079       -874929.48370552063       -13258661.056116864     
  -6341802821.6079273       -16983156.938468456       -1292576.3241911081     
  -6148825163.1644831       -12595863.824676752        15450401.045753736     
  -5949698848.5504751        12286949.857648134        36970271.053726315     
  -4435258650.3217478        33375133.146584511        654103510.40804565     
  -4323046969.7605457        19704807.979048252        633339593.15102494     
  -4209096698.3060951        11829785.789001465        619326714.06448495     
  -4093407835.9583983        9750066.5764358044        612064873.14842618     
  -3975980382.7174621        13465650.341346741        611554070.40284252     
  -4839190647.5186090        20506503.032445669        496295045.75973201     
  -4707159050.3541126        16661943.116477251        482348327.34727871     
  -4574859507.1752424        13710536.581752062        474629176.17036384     
  -4442292017.9820004        11652283.428267479        473137592.22898632     
  -4309456582.7743826        10487183.656033278        477873575.52314478     
  -5226241346.2890148        12702262.446245432        340836684.31790960     
  -5075885463.7639160        18234778.409036398        331991412.39133781     
  -4926732280.1033144        19758298.156832218        328850236.76535583     
  -4778781795.3072166        17272821.689615965        331413157.43997943     
  -4632034009.3756142        10778349.007420063        339680174.41519445     
  -5596410746.6329756        9962411.3879792690        187728426.08257335     
  -5429226209.9899569        24423313.856721878        182268848.28319365     
  -5264715017.0903206        29973070.514215708        181989895.84947404     
  -5102877167.9340439        26611681.360495329        186891568.78140607     
  -4943712662.5211458        14339146.395523548        196973867.07899648     
  -5949698848.5504751        12286949.857648134        36970271.053726315     
  -5767181289.0322323        35227549.459543943        33180635.022857763     
  -5588807718.1362362        44354853.653965712        34048153.422706470     
  -5414578135.8624897        39668862.440877199        39572826.253269143     
  -5244492542.2109871        21169575.820320368        49754653.514543481     
  -3975980382.7174621        13465650.341346741        611554070.40284252     
  -3833774512.2166901        19396371.071120739        600257078.19111228     
  -3696747928.1342835        8062803.7396779060        595432452.34615135     
  -3564900630.4702463       -20535051.653003454        597080192.86795902     
  -3438232619.2245693       -66397195.106877804        605200299.75653851     
  -4309456582.7743826        10487183.656033278        477873575.52314478     
  -4153922564.2674198        12215853.522529840        464846219.21482807     
  -4001238341.4568396        4445204.4010837078        456568622.12833905     
  -3851403914.3426504       -12824763.708330631        453040784.26367766     
  -3704419282.9248509       -39594050.805718184        454262705.62083948     
  -4632034009.3756142        10778349.007420063        339680174.41519445     
  -4468093577.5622864        6828447.6007168293        327640193.18593466     
  -4304673450.7233734        1144196.2793021202        318627364.03355587     
  -4141773628.8588719       -6274404.9568166733        312641686.95806098     
  -3979394111.9687891       -15427356.107657194        309683161.95944822     
  -4943712662.5211458        14339146.395523548        196973867.07899648     
  -4776287552.1012983        3234153.3056490421        188639000.10442752     
  -4607053255.9338865       -1840220.6256694794        181608678.06179738     
  -4436009774.0189095       -883975.39844441414        175882900.95110959     
  -4263157106.3563733        6102888.9873137474        171461668.77236170     
  -5244492542.2109871        21169575.820320368        49754653.514543481     
  -5078504487.8844528        1432970.6373319626        47842639.970306739     
  -4908377757.0883808       -4508046.3138487339        45512564.213068262     
  -4734112349.8227644        3346524.9667863846        42764426.242830612     
  -4555708266.0876150        24996684.479181290        39598226.059583537     
  -3438232619.2245693       -66397195.106877804        605200299.75653851     
  -3258621779.0344214       -90447534.110728741        597334674.03788424     
  -3069922450.8214898       -84202913.038631916        577613646.68696547     
  -2872134634.5857706       -47663331.890581250        546037217.70377874     
  -2665258330.3272686        19171209.333408594        502605387.08833015     
  -3704419282.9248509       -39594050.805718184        454262705.62083948     
  -3544510829.0104723       -58573536.631436110        455482550.30554259     
  -3379172807.1869416       -59454462.759977937        452231917.98466057     
  -3208405217.4542503       -42236829.191323996        444510808.65818840     
  -3032208059.8124099       -6920635.9254924059        432319222.32612956     
  -3979394111.9687891       -15427356.107657194        309683161.95944822     
  -3818088259.6825266       -23006053.360943556        315719736.91494507     
  -3655011759.6007433       -24682591.295831680        324670759.49153125     
  -3490164611.7234216       -20456969.912257195        336536229.68920594     
  -3323546816.0505929       -10329189.210313082        351316147.50797337     
  -4263157106.3563733        6102888.9873137474        171461668.77236170     
  -4079354071.0505829        16254915.700736284        178046233.86608446     
  -3897439308.0628943        20112701.353814363        194930171.20757052     
  -3717412817.3933020        17676245.946574926        222113480.79682744     
  -3539274599.0418224        8945549.4789593220        259596162.63385338     
  -4555708266.0876150        24996684.479181290        39598226.059583537     
  -4328308263.1146393        59209370.553629160        42462041.158959523     
  -4106455452.5733957        74931415.188953876        63010153.132780910     
  -3890149834.4638720        72162818.385214806        101242561.98105346     
  -3679391408.7860990        50903580.142317533        157159267.70377269     
  -2665258330.3272686        19171209.333408594        502605387.08833015     
  -3073098069.4597893       -62299311.443293452        485512762.05202270     
  -3466217669.5711637       -94702702.149514675        643532718.82451749     
  -3844617130.6614056       -78038962.785290480        976665257.40581214     
  -4208296452.7304935       -12308093.350565672        1484910377.7959039     
  -3032208059.8124099       -6920635.9254924059        432319222.32612956     
  -3054943077.0902543       -10169771.218476892        419209905.98149741     
  -3069186130.0242100        14887641.301494837        509171320.29695857     
  -3074937218.6142907        68251601.634387612        702203465.27250814     
  -3072196342.8604951        149922109.78020763        998306340.90815055     
  -3323546816.0505929       -10329189.210313082        351316147.50797337     
  -3167010971.8986425        2892902.8529773951        334923936.06487894     
  -3008211338.0800729        23660960.471666694        349560604.13316202     
  -2847147914.5948844        51974983.645746350        395226151.71282792     
  -2683820701.4430828        87834972.375218749        471920578.80387241     
  -3539274599.0418224        8945549.4789593220        259596162.63385338     
  -3409301753.8849669       -23111289.228950024        232654852.30215159     
  -3283293293.7387609       -68382744.639029145        164700570.33312961     
  -3161249218.6031909       -126868816.75120544        55733316.726782016     
  -3043169528.4782643       -198569505.56556511       -94246908.516911879     
  -3679391408.7860990        50903580.142317533        157159267.70377269     
  -3781815423.0492201       -88182347.464262724        112402654.69333749     
  -3894431997.0002556       -261243474.03054559       -45408781.103144974     
  -4017241130.6391716       -468279799.55646551       -316275039.68565303     
  -4150242823.9660187       -709291324.04210091       -700196121.05420160     
 </DataArray>
 <DataArray  type="Float64" Name="VM" NumberOfComponents="1" format="ascii">
   12933791653.809105     
   11342735455.967770     
   10215448620.755341     
   9281113757.1621532     
   8315717581.1523504     
   10131583776.511215     
   9325299691.8035564     
   8831284195.5305634     
   8449991663.0752277     
   8043740538.5867052     
   7985246992.4352522     
   7738642190.3547201     
   7673430202.3432493     
   7674349312.7381315     
   7671453382.5713453     
   6494688963.8598480     
   6589979164.3550243     
   6760631658.4186649     
   6964459861.4240618     
   7174751443.6482296     
   5659442813.4976187     
   5892400904.7237682     
   6118013978.9150219     
   6333716335.7153988     
   6539174653.4865265     
   8315717581.1523504     
   8031796443.9228630     
   7789555861.2484026     
   7578513524.9526777     
   7393712221.3211222     
   8043740538.5867052     
   7755873724.4723110     
   7483587970.2489595     
   7224939163.9030933     
   6979888604.2313013     
   7671453382.5713453     
   7388017388.9065619     
   7109973880.9584694     
   6837390170.4766378     
   6570457065.2697735     
   7174751443.6482296     
   6915729060.9188309     
   6664541050.4351826     
   6417394513.5215807     
   6171182609.4131165     
   6539174653.4865265     
   6331403838.1206923     
   6145572914.8266153     
   5967980400.0059910     
   5789646372.5111351     
   7393712221.3211222     
   7240379509.7273569     
   7079954239.5109968     
   6911832117.0837698     
   6735844781.8101139     
   6979888604.2313013     
   6826704979.4592762     
   6668998750.6403399     
   6506496618.2231407     
   6339129691.1838350     
   6570457065.2697735     
   6419089375.7850714     
   6265989902.0344372     
   6111117296.2254267     
   5954492712.4208679     
   6171182609.4131165     
   6022375923.3774567     
   5874809474.3419714     
   5728530166.7734861     
   5583609205.1039600     
   5789646372.5111351     
   5642843210.5442476     
   5500424711.3886576     
   5362335851.9960518     
   5228630780.4803343     
   6735844781.8101139     
   6540696843.4337883     
   6348857942.0882940     
   6160321378.6125259     
   5975217904.8398905     
   6339129691.1838350     
   6158698081.1030264     
   5980773718.0074568     
   5805362162.2756119     
   5632539198.9469471     
   5954492712.4208679     
   5784810897.2101698     
   5616667244.8946123     
   5450080764.5596323     
   5285095790.4539728     
   5583609205.1039600     
   5421175314.3153982     
   5259128137.9997683     
   5097480439.5069141     
   4936249116.5935831     
   5228630780.4803343     
   5070586544.9980116     
   4911596499.6704712     
   4751621183.6733332     
   4590628794.5993872     
   5975217904.8398905     
   5801587391.4867582     
   5625646937.7293673     
   5447394252.6310787     
   5266887560.9748764     
   5632539198.9469471     
   5466109157.8030653     
   5298616249.4933863     
   5130110548.4259796     
   4960711890.2764339     
   5285095790.4539728     
   5132858859.1611242     
   4981365466.9879980     
   4830762415.3721714     
   4681329263.8530922     
   4936249116.5935831     
   4804584576.8993845     
   4676128723.9912100     
   4551113010.9875536     
   4430012062.6264362     
   4590628794.5993872     
   4484923204.4583807     
   4385696996.3068666     
   4293165806.3827825     
   4207936093.9159098     
   5266887560.9748764     
   5083479808.2220926     
   4902651035.9135923     
   4724380973.3078680     
   4548716400.4459896     
   4960711890.2764339     
   4778694720.2489014     
   4597632858.1107426     
   4417509252.4953165     
   4238313455.3878531     
   4681329263.8530922     
   4504398626.6700268     
   4327051031.3383713     
   4149304990.6159444     
   3971196417.3210998     
   4430012062.6264362     
   4262957595.4445181     
   4094584987.8331008     
   3925045046.3840132     
   3754615742.6508174     
   4207936093.9159098     
   4056684504.5423956     
   3903930541.8946881     
   3750119123.4377151     
   3596051636.2975965     
   4548716400.4459896     
   4338509901.2075748     
   4127708861.0821142     
   3918343388.4091396     
   3714376603.2406521     
   4238313455.3878531     
   4072321205.8291564     
   3909715543.9418511     
   3751518211.8640838     
   3599325181.0139980     
   3971196417.3210998     
   3819789972.6257024     
   3672550108.9375086     
   3529582681.8418965     
   3391271222.3422084     
   3754615742.6508174     
   3587163000.5938859     
   3420764578.3899913     
   3255283659.4031839     
   3091807083.0923247     
   3596051636.2975965     
   3382243126.6821742     
   3161888064.0711513     
   2935320355.8140979     
   2706746961.9605479     
   3714376603.2406521     
   3618088789.7758980     
   3513657527.6508532     
   3409543698.1393824     
   3322385208.1977201     
   3599325181.0139980     
   3428850239.0394015     
   3249022779.4713602     
   3061223352.2132082     
   2868560965.8999224     
   3391271222.3422084     
   3237654892.0873675     
   3080962136.0686288     
   2922351470.6324863     
   2767496411.6024847     
   3091807083.0923247     
   3044900618.7793746     
   3008993736.2428827     
   2992770909.5461092     
   3020266301.1525221     
   2706746961.9605479     
   2851278626.1406751     
   3030842939.9765410     
   3262935382.1443000     
   3588973566.3630376     
   5659442813.4976187     
   5892400904.7237682     
   6118013978.9150219     
   6333716335.7153988     
   6539174653.4865265     
   5151156184.6586218     
   5311486263.5311050     
   5468605356.9064255     
   5619550450.3405285     
   5762791223.7300663     
   4641763359.2154608     
   4754506389.6207047     
   4868398043.9307985     
   4980764169.6120615     
   5089647911.8293552     
   4131517287.7322044     
   4222302466.9284539     
   4318902996.3358364     
   4419638981.8649979     
   4523039733.7535830     
   3621936972.1085181     
   3716715643.0146689     
   3822511078.5234694     
   3939240460.2458649     
   4066791295.2197466     
   6539174653.4865265     
   6331403838.1206923     
   6145572914.8266153     
   5967980400.0059910     
   5789646372.5111351     
   5762791223.7300663     
   5652873335.0558176     
   5558828069.8245764     
   5471688096.4292316     
   5385896483.7821007     
   5089647911.8293552     
   5052632860.7216864     
   5026145196.0299349     
   5005004901.1150713     
   4985990767.0867329     
   4523039733.7535830     
   4535282800.1567764     
   4552408290.3268099     
   4571933915.4474897     
   4592126624.2692080     
   4066791295.2197466     
   4106182333.2357097     
   4143405853.9620132     
   4177564127.6944900     
   4207918083.4366665     
   5789646372.5111351     
   5642843210.5442476     
   5500424711.3886576     
   5362335851.9960518     
   5228630780.4803343     
   5385896483.7821007     
   5252422409.4679937     
   5122283247.4463453     
   4995507467.7148666     
   4872178098.8830233     
   4985990767.0867329     
   4867844924.2701387     
   4752686528.2777042     
   4640460782.8068857     
   4531188688.9508314     
   4592126624.2692080     
   4491864001.2535772     
   4395047961.8453255     
   4301347000.2634106     
   4210626622.1921701     
   4207918083.4366665     
   4128569928.8387103     
   4054093953.8334479     
   3983643777.5898280     
   3916823185.1372943     
   5228630780.4803343     
   5070586544.9980116     
   4911596499.6704712     
   4751621183.6733332     
   4590628794.5993872     
   4872178098.8830233     
   4719328691.4216633     
   4567373761.0283518     
   4416389526.0901337     
   4266489799.9998980     
   4531188688.9508314     
   4391309944.3167276     
   4254908921.5542369     
   4122291107.5305367     
   3993878046.0243020     
   4210626622.1921701     
   4090994929.5355353     
   3978212816.9425874     
   3872867332.2605853     
   3775764948.0839839     
   3916823185.1372943     
   3823717824.8915005     
   3741628707.5292115     
   3671365196.9738746     
   3614050118.9108958     
   4590628794.5993872     
   4484923204.4583807     
   4385696996.3068666     
   4293165806.3827825     
   4207936093.9159098     
   4266489799.9998980     
   4189909546.4140973     
   4118399705.4237885     
   4052101320.9824786     
   3991302304.6599908     
   3993878046.0243020     
   3935925479.6861148     
   3880308561.0708089     
   3827093910.8499789     
   3776368691.4162965     
   3775764948.0839839     
   3727318634.7023339     
   3677036517.8370051     
   3624855111.8521485     
   3570718552.0319834     
   3614050118.9108958     
   3567972822.2374749     
   3514563396.4782171     
   3453462484.3988972     
   3384393721.3656497     
   4207936093.9159098     
   4056684504.5423956     
   3903930541.8946881     
   3750119123.4377151     
   3596051636.2975965     
   3991302304.6599908     
   3851027081.7277851     
   3711895723.1976128     
   3574456618.9021211     
   3439526858.9141488     
   3776368691.4162965     
   3648348388.7063446     
   3524272250.0437512     
   3404752626.8850050     
   3290611467.4493175     
   3570718552.0319834     
   3454790129.4737277     
   3345787275.0072837     
   3244306340.0607624     
   3151123423.9960995     
   3384393721.3656497     
   3278423360.2390904     
   3182604902.9438014     
   3097413500.1255441     
   3023508532.7563605     
   3596051636.2975965     
   3382243126.6821742     
   3161888064.0711513     
   2935320355.8140979     
   2706746961.9605479     
   3439526858.9141488     
   3188260835.7488766     
   2936270555.6318707     
   2683715427.8122692     
   2431821060.5943499     
   3290611467.4493175     
   3042734126.6798649     
   2805221609.2025995     
   2580383117.8544264     
   2371408984.0266566     
   3151123423.9960995     
   2945540345.8060126     
   2765476061.7982211     
   2616646990.5879679     
   2506812780.9774542     
   3023508532.7563605     
   2894797721.6078200     
   2809019496.3869910     
   2774419715.8759665     
   2802145937.1525064     
   2706746961.9605479     
   2851278626.1406751     
   3030842939.9765410     
   3262935382.1443000     
   3588973566.3630376     
   2431821060.5943499     
   2748365827.0694900     
   3101776043.3369870     
   3490527695.9297447     
   3918721773.4927845     
   2371408984.0266566     
   2732279373.0993085     
   3102357746.9659414     
   3477678935.3979020     
   3855924681.4250259     
   2506812780.9774542     
   2805261843.8349905     
   3047345109.0558681     
   3242386772.3593979     
   3406981946.3237734     
   2802145937.1525064     
   2961488286.3972635     
   2967281024.9194350     
   2833810971.2741423     
   2608558560.0386901     
   3621936972.1085181     
   3716715643.0146689     
   3822511078.5234694     
   3939240460.2458649     
   4066791295.2197466     
   3134678132.8689547     
   3251679597.4884129     
   3377939928.7613072     
   3512982437.6406889     
   3656343494.3980575     
   2691114385.9009242     
   2826007837.6198153     
   2968142866.4994245     
   3116439225.8539920     
   3269989457.7556682     
   2294819841.6530371     
   2444578421.0780244     
   2599085345.5722904     
   2756428517.5437794     
   2915187424.1464620     
   1951154065.8882518     
   2114482952.4218962     
   2279291524.1414022     
   2442641041.5247154     
   2602588378.8712215     
   4066791295.2197466     
   4106182333.2357097     
   4143405853.9620132     
   4177564127.6944900     
   4207918083.4366665     
   3656343494.3980575     
   3694615371.0487261     
   3731712000.1327720     
   3766740763.7895961     
   3798957065.5596490     
   3269989457.7556682     
   3312366866.0800910     
   3354871071.8087440     
   3396677813.7401814     
   3437109362.5589886     
   2915187424.1464620     
   2967002243.7665806     
   3020558055.0551906     
   3075155661.5766578     
   3130247536.8399434     
   2602588378.8712215     
   2668819638.4037929     
   2738662992.5077777     
   2811578940.5024571     
   2887185238.7019825     
   4207918083.4366665     
   4128569928.8387103     
   4054093953.8334479     
   3983643777.5898280     
   3916823185.1372943     
   3798957065.5596490     
   3746805901.7677650     
   3699590102.7943358     
   3656831813.2578316     
   3618365220.1812115     
   3437109362.5589886     
   3409209031.7877426     
   3386093084.9605775     
   3367542114.0977321     
   3353515220.1335039     
   3130247536.8399434     
   3123665380.7885633     
   3121300072.6562343     
   3123085278.5805020     
   3129024922.4769664     
   2887185238.7019825     
   2898890864.4787803     
   2913632224.4057903     
   2931414616.5339165     
   2952251186.3786316     
   3916823185.1372943     
   3823717824.8915005     
   3741628707.5292115     
   3671365196.9738746     
   3614050118.9108958     
   3618365220.1812115     
   3550792836.3999724     
   3492056463.9184966     
   3442601201.4196057     
   3403031184.5961599     
   3353515220.1335039     
   3304003316.2893772     
   3260474784.4815555     
   3223127721.5122275     
   3192229397.0361319     
   3129024922.4769664     
   3091158071.2492204     
   3055668305.1634521     
   3022593018.8153076     
   2992000976.3223095     
   2952251186.3786316     
   2921370194.3364716     
   2888516798.2121282     
   2853601721.2933154     
   2816566566.0081024     
   3614050118.9108958     
   3567972822.2374749     
   3514563396.4782171     
   3453462484.3988972     
   3384393721.3656497     
   3403031184.5961599     
   3342129447.9141421     
   3278764255.5745893     
   3212808881.1460638     
   3144143559.5753012     
   3192229397.0361319     
   3124521685.7254148     
   3060089034.1742702     
   2999097306.8673320     
   2941726747.3453565     
   2992000976.3223095     
   2923235235.8062105     
   2864402747.0422173     
   2815861468.3102851     
   2778035626.6103954     
   2816566566.0081024     
   2748885348.4267073     
   2698834739.2532201     
   2666711261.1541786     
   2652934256.4414930     
   3384393721.3656497     
   3278423360.2390904     
   3182604902.9438014     
   3097413500.1255441     
   3023508532.7563605     
   3144143559.5753012     
   3063256813.1602716     
   2991609260.4011202     
   2929602033.5568986     
   2877747335.9193015     
   2941726747.3453565     
   2884966777.2079701     
   2836245122.0409446     
   2795884105.3572206     
   2764274690.8565426     
   2778035626.6103954     
   2744901989.4657621     
   2718314404.1591988     
   2698509865.0127001     
   2685784999.6247988     
   2652934256.4414930     
   2643351743.6927762     
   2638558244.1397991     
   2638699451.3082738     
   2644005050.9273934     
   3023508532.7563605     
   2894797721.6078200     
   2809019496.3869910     
   2774419715.8759665     
   2802145937.1525064     
   2877747335.9193015     
   2810810515.5406127     
   2771904156.9812040     
   2763685378.4381452     
   2789707523.0846934     
   2764274690.8565426     
   2722783510.1161275     
   2693368182.8908319     
   2676349137.7046313     
   2672134511.2787881     
   2685784999.6247988     
   2637956779.7944217     
   2584062943.2975411     
   2524193973.2187052     
   2458738490.0624461     
   2644005050.9273934     
   2565668373.6556273     
   2460734587.8134704     
   2330143614.7436080     
   2176678432.2503562     
   2802145937.1525064     
   2961488286.3972635     
   2967281024.9194350     
   2833810971.2741423     
   2608558560.0386901     
   2789707523.0846934     
   2763843424.7744136     
   2666408741.9130955     
   2492798601.0425382     
   2243043931.4490457     
   2672134511.2787881     
   2582087490.1038861     
   2509116345.7132912     
   2455734733.4714351     
   2424766783.3577380     
   2458738490.0624461     
   2415626276.6969256     
   2467459055.9810376     
   2628877205.1475596     
   2918353018.9918709     
   2176678432.2503562     
   2263784887.9218249     
   2529618328.9285951     
   2992768009.0334334     
   3683575434.0077991     
   1951154065.8882518     
   2114482952.4218962     
   2279291524.1414022     
   2442641041.5247154     
   2602588378.8712215     
   1650104083.2877116     
   1816355435.3898342     
   1984330357.9884748     
   2151338971.8550510     
   2315629780.3689561     
   1391427947.7432144     
   1569027550.9892333     
   1747547772.7901316     
   1924983220.0316784     
   2100085200.1027830     
   1207358538.7375169     
   1399842385.0478940     
   1591709554.8043621     
   1782179981.1407001     
   1970794292.6240535     
   1139779141.2967172     
   1339014868.0594442     
   1538247165.6256170     
   1737475662.9877794     
   1936700144.8347747     
   2602588378.8712215     
   2668819638.4037929     
   2738662992.5077777     
   2811578940.5024571     
   2887185238.7019825     
   2315629780.3689561     
   2400689120.1890931     
   2487765524.7311316     
   2576457543.0860243     
   2666478991.8858757     
   2100085200.1027830     
   2202340265.4176698     
   2304598264.6873932     
   2406619800.0343604     
   2508235014.3833127     
   1970794292.6240535     
   2087348102.8241739     
   2201692157.5698009     
   2313751184.4628472     
   2423472551.7768669     
   1936700144.8347747     
   2063509924.5453119     
   2186115333.4047856     
   2304516166.8132634     
   2418712273.4181361     
   2887185238.7019825     
   2898890864.4787803     
   2913632224.4057903     
   2931414616.5339165     
   2952251186.3786316     
   2666478991.8858757     
   2686580712.2673907     
   2709453925.8313932     
   2735094552.5827208     
   2763506154.9548488     
   2508235014.3833127     
   2536169236.2455263     
   2566530294.3048868     
   2599311233.8887010     
   2634512943.1683259     
   2423472551.7768669     
   2458183908.6501288     
   2494916108.4630203     
   2533668662.6720924     
   2574448866.5084529     
   2418712273.4181361     
   2458693373.3382311     
   2500277877.2482858     
   2543479260.6737914     
   2588318011.2669678     
   2952251186.3786316     
   2921370194.3364716     
   2888516798.2121282     
   2853601721.2933154     
   2816566566.0081024     
   2763506154.9548488     
   2739664187.0649223     
   2717432204.6544881     
   2696826408.5529442     
   2677866390.9891062     
   2634512943.1683259     
   2618470243.0870118     
   2607631278.5518017     
   2602075420.2142992     
   2601882304.9162831     
   2574448866.5084529     
   2564112564.7728367     
   2562322222.3301358     
   2569153381.7758665     
   2584715122.3513432     
   2588318011.2669678     
   2578599325.8394561     
   2580378942.6048102     
   2593700441.8508067     
   2618722155.1086712     
   2816566566.0081024     
   2748885348.4267073     
   2698834739.2532201     
   2666711261.1541786     
   2652934256.4414930     
   2677866390.9891062     
   2633203832.3721499     
   2603653749.0841465     
   2589276442.1013865     
   2590181179.4355807     
   2601882304.9162831     
   2576609049.1927090     
   2563587211.4097209     
   2562776652.5535717     
   2574181399.5307798     
   2584715122.3513432     
   2576361151.9522042     
   2577244878.0006275     
   2587297388.3727007     
   2606542055.8704619     
   2618722155.1086712     
   2626237754.7736726     
   2640036404.3426909     
   2660018761.1534190     
   2686268431.4224582     
   2652934256.4414930     
   2643351743.6927762     
   2638558244.1397991     
   2638699451.3082738     
   2644005050.9273934     
   2590181179.4355807     
   2589320316.7469082     
   2592744342.1496706     
   2600522819.6625438     
   2612734496.4694180     
   2574181399.5307798     
   2577125451.6026921     
   2583334758.0710769     
   2592819462.7272172     
   2605593802.0123692     
   2606542055.8704619     
   2608501738.1234388     
   2612254729.1430297     
   2617777362.1990752     
   2625109593.6101265     
   2686268431.4224582     
   2683047992.1599393     
   2679789475.7846093     
   2676453246.4698606     
   2673179352.8027406     
   2644005050.9273934     
   2565668373.6556273     
   2460734587.8134704     
   2330143614.7436080     
   2176678432.2503562     
   2612734496.4694180     
   2515881419.0430140     
   2404536574.6241050     
   2279139639.8759642     
   2140759977.2447090     
   2605593802.0123692     
   2511253142.1069555     
   2416798086.0915160     
   2322771016.4709463     
   2229845827.5355153     
   2625109593.6101265     
   2548045659.0789409     
   2485041453.8439569     
   2436439343.7962513     
   2402610563.0481782     
   2673179352.8027406     
   2620787120.5371156     
   2595146076.1773138     
   2596186943.6594081     
   2624286353.3224134     
   2176678432.2503562     
   2263784887.9218249     
   2529618328.9285951     
   2992768009.0334334     
   3683575434.0077991     
   2140759977.2447090     
   2303776434.9621668     
   2594472941.1464515     
   2992274908.2290397     
   3483801555.3828235     
   2229845827.5355153     
   2329843837.3470025     
   2472277985.2777338     
   2650502710.9431100     
   2860308641.1942887     
   2402610563.0481782     
   2382911888.0417356     
   2243393368.6753154     
   2017632290.0024281     
   1803397495.9643652     
   2624286353.3224134     
   2516069224.5865645     
   2136574694.5195162     
   1588463210.1159668     
   1355696765.5308850     
   1139779141.2967172     
   1339014868.0594442     
   1538247165.6256170     
   1737475662.9877794     
   1936700144.8347747     
   1211425831.2513857     
   1404492124.6824832     
   1597038746.7580581     
   1788309123.6454706     
   1977857463.7727079     
   1398071605.8436325     
   1576755667.6177213     
   1756545404.4882500     
   1935479051.3711624     
   2112332255.3045211     
   1657801030.3203063     
   1825338930.4697099     
   1994888832.1501439     
   2163810378.5121336     
   2330377052.4603629     
   1958828179.5416813     
   2123246097.9335527     
   2289534526.3157229     
   2454801881.2272515     
   2617122410.9436250     
   1936700144.8347747     
   2063509924.5453119     
   2186115333.4047856     
   2304516166.8132634     
   2418712273.4181361     
   1977857463.7727079     
   2095724875.2625217     
   2211521865.0693002     
   2325171286.2453079     
   2436619139.1476393     
   2112332255.3045211     
   2217043018.1878195     
   2322033249.0679383     
   2427063805.9675426     
   2531964840.0635581     
   2330377052.4603629     
   2418666487.4824095     
   2509394437.1738119     
   2602166903.7017984     
   2696703222.2137799     
   2617122410.9436250     
   2686867158.7625666     
   2760792194.6893048     
   2838380864.9781766     
   2919269587.0328727     
   2418712273.4181361     
   2458693373.3382311     
   2500277877.2482858     
   2543479260.6737914     
   2588318011.2669678     
   2436619139.1476393     
   2478172667.5101480     
   2522963937.3649940     
   2570999531.4459152     
   2622286079.8832655     
   2531964840.0635581     
   2570824729.2363958     
   2614401919.6270361     
   2662707351.2408042     
   2715755085.7481513     
   2696703222.2137799     
   2728272339.6195369     
   2765824488.8553290     
   2809401877.0123906     
   2859062946.5564470     
   2919269587.0328727     
   2939267027.3402014     
   2966256964.4463363     
   3000340359.2265840     
   3041658773.8882422     
   2588318011.2669678     
   2578599325.8394561     
   2580378942.6048102     
   2593700441.8508067     
   2618722155.1086712     
   2622286079.8832655     
   2612881913.1841035     
   2614078731.1937609     
   2625876305.5062456     
   2648329140.4752855     
   2715755085.7481513     
   2704731808.0239563     
   2703611184.3244672     
   2712437597.5094099     
   2731274151.6751838     
   2859062946.5564470     
   2845181547.4027691     
   2840743627.8443799     
   2845901941.5431581     
   2860817871.3535562     
   3041658773.8882422     
   3024345016.9673352     
   3016277700.2578406     
   3017759241.9871116     
   3029115186.7081127     
   2618722155.1086712     
   2626237754.7736726     
   2640036404.3426909     
   2660018761.1534190     
   2686268431.4224582     
   2648329140.4752855     
   2660569524.2353654     
   2677721022.7601562     
   2699785198.9557195     
   2726820693.5910597     
   2731274151.6751838     
   2744284656.6705627     
   2760456078.1467557     
   2779813445.9714446     
   2802382822.1188703     
   2860817871.3535562     
   2871956643.3839822     
   2884158054.8383980     
   2897395140.3600163     
   2911647278.1984577     
   3029115186.7081127     
   3037035663.0970354     
   3043641610.6192369     
   3048789826.5119624     
   3052396314.6377525     
   2686268431.4224582     
   2683047992.1599393     
   2679789475.7846093     
   2676453246.4698606     
   2673179352.8027406     
   2726820693.5910597     
   2718452373.1689453     
   2715075197.3406177     
   2716651827.1303401     
   2723214070.6189237     
   2802382822.1188703     
   2789472328.4524579     
   2786695765.2994862     
   2794025174.8361173     
   2811452728.8590288     
   2911647278.1984577     
   2892470519.4829803     
   2888659431.1497202     
   2900291751.5222116     
   2927467819.4601378     
   3052396314.6377525     
   3023222690.7521434     
   3014861313.0853257     
   3027706577.5265584     
   3062208280.5402675     
   2673179352.8027406     
   2620787120.5371156     
   2595146076.1773138     
   2596186943.6594081     
   2624286353.3224134     
   2723214070.6189237     
   2709641503.2656837     
   2723663547.5498252     
   2765135762.8923292     
   2834210594.2345576     
   2811452728.8590288     
   2825207256.0086451     
   2867754759.6498160     
   2939159732.4317656     
   3039659197.8866749     
   2927467819.4601378     
   2957734230.9559541     
   3019082233.8569274     
   3111918337.9870973     
   3236668718.2308884     
   3062208280.5402675     
   3099664579.2528410     
   3171925882.4175558     
   3279751717.1150837     
   3423725237.7989779     
   2624286353.3224134     
   2516069224.5865645     
   2136574694.5195162     
   1588463210.1159668     
   1355696765.5308850     
   2834210594.2345576     
   2828109985.9108157     
   2743884948.1137285     
   2630037784.7473187     
   2577040976.9021292     
   3039659197.8866749     
   3135075076.3633494     
   3296140599.2844005     
   3514038612.8903060     
   3779663698.4850898     
   3236668718.2308884     
   3401824568.4411154     
   3739653153.4979863     
   4234865977.2490330     
   4877790610.0902605     
   3423725237.7989779     
   3659695932.6099567     
   4208618554.2854424     
   5078152307.4803152     
   6273765150.8521671     
   1958828179.5416813     
   2123246097.9335527     
   2289534526.3157229     
   2454801881.2272515     
   2617122410.9436250     
   2301736526.0662308     
   2452057694.0363250     
   2607386074.7911420     
   2765828245.1041574     
   2925968758.0738072     
   2696766330.2961011     
   2831814464.2063246     
   2974241902.6827960     
   3122969782.1471229     
   3277088228.0880876     
   3138706721.5534964     
   3255641875.3961601     
   3381863513.7302737     
   3516886057.1822691     
   3660237878.4446974     
   3624063499.2684398     
   3718779487.5520930     
   3824438375.1117487     
   3940942308.0407386     
   4068165416.5813141     
   2617122410.9436250     
   2686867158.7625666     
   2760792194.6893048     
   2838380864.9781766     
   2919269587.0328727     
   2925968758.0738072     
   2980106842.7490158     
   3036443817.0800152     
   3094298687.0017858     
   3153141121.3748765     
   3277088228.0880876     
   3320530874.0860920     
   3364431078.0921021     
   3407971343.0160651     
   3450481770.3506122     
   3660237878.4446974     
   3698358217.2622023     
   3735506238.3159556     
   3770782333.2409301     
   3803437079.6622581     
   4068165416.5813141     
   4106294833.8227301     
   4142345448.4555721     
   4175400963.9088383     
   4204706897.4971437     
   2919269587.0328727     
   2939267027.3402014     
   2966256964.4463363     
   3000340359.2265840     
   3041658773.8882422     
   3153141121.3748765     
   3147143739.0354633     
   3147370013.3218656     
   3153844925.2590995     
   3166721616.8197517     
   3450481770.3506122     
   3417624397.1539392     
   3389867963.3054090     
   3367042666.7681360     
   3349215968.1397705     
   3803437079.6622581     
   3743784493.8230810     
   3688018824.7910852     
   3635661490.3772035     
   3586577591.8209090     
   4204706897.4971437     
   4118735092.2571483     
   4035581283.6535130     
   3954381593.8824801     
   3874707380.2925673     
   3041658773.8882422     
   3024345016.9673352     
   3016277700.2578406     
   3017759241.9871116     
   3029115186.7081127     
   3166721616.8197517     
   3128276099.0890617     
   3099307243.2382612     
   3080210073.1620216     
   3071420245.8000751     
   3349215968.1397705     
   3287139397.9647937     
   3234329041.9634781     
   3191268698.0464578     
   3158517942.0036526     
   3586577591.8209090     
   3499180563.8831177     
   3420450059.3174682     
   3350916163.7793374     
   3291230767.6402373     
   3874707380.2925673     
   3760948078.2027159     
   3654978352.1362748     
   3557310455.5783205     
   3468623299.5646958     
   3029115186.7081127     
   3037035663.0970354     
   3043641610.6192369     
   3048789826.5119624     
   3052396314.6377525     
   3071420245.8000751     
   3063219813.5162969     
   3055174644.2133050     
   3047266398.1255808     
   3039528804.3806643     
   3158517942.0036526     
   3133898259.5988150     
   3110699570.4314456     
   3089018163.3568583     
   3069003593.4648809     
   3291230767.6402373     
   3249670109.8278804     
   3210525110.4306264     
   3173985500.9986725     
   3140304889.6148958     
   3468623299.5646958     
   3409375882.5206184     
   3353237312.2083645     
   3300459227.0759025     
   3251376724.4833107     
   3052396314.6377525     
   3023222690.7521434     
   3014861313.0853257     
   3027706577.5265584     
   3062208280.5402675     
   3039528804.3806643     
   2993760733.8642626     
   2963614437.6740980     
   2949650689.5376787     
   2952478829.0527234     
   3069003593.4648809     
   3005333989.4099069     
   2952284774.1195812     
   2910405443.5661321     
   2880296466.1834259     
   3140304889.6148958     
   3060694243.1767135     
   2986952956.7688098     
   2919426891.3200865     
   2858502459.3849249     
   3251376724.4833107     
   3160737726.8589482     
   3071778243.4148617     
   2984542563.4131503     
   2899088046.5752020     
   3062208280.5402675     
   3099664579.2528410     
   3171925882.4175558     
   3279751717.1150837     
   3423725237.7989779     
   2952478829.0527234     
   2941545857.4328480     
   2961425479.2365880     
   3013420185.6568460     
   3098558676.3972464     
   2880296466.1834259     
   2813018879.1782584     
   2771785768.3079796     
   2758751019.7252235     
   2775931302.3548174     
   2858502459.3849249     
   2730690453.6218657     
   2622238684.5776696     
   2536074528.2534661     
   2475580893.1189218     
   2899088046.5752020     
   2713018060.5527720     
   2537847231.7693386     
   2376486537.5592279     
   2233167443.5876608     
   3423725237.7989779     
   3659695932.6099567     
   4208618554.2854424     
   5078152307.4803152     
   6273765150.8521671     
   3098558676.3972464     
   3202507048.0028863     
   3483576547.6052275     
   3942258378.4735265     
   4573591806.0707550     
   2775931302.3548174     
   2745474413.9678383     
   2738570326.0191422     
   2754421621.9724951     
   2793218029.2295799     
   2475580893.1189218     
   2338169224.4539762     
   2028332795.1711345     
   1542121156.9011958     
   896380197.28114033     
   2233167443.5876608     
   2200382199.6528444     
   2028391413.4162176     
   2042676624.2068386     
   2684576753.9434705     
   3624063499.2684398     
   3718779487.5520930     
   3824438375.1117487     
   3940942308.0407386     
   4068165416.5813141     
   4131815338.8137288     
   4222559385.8285022     
   4319007904.0569820     
   4419486212.5430727     
   4522529589.7689724     
   4640614099.5747185     
   4753266208.2685308     
   4866933589.7113075     
   4978970154.1480188     
   5087443851.5390282     
   5148915287.5700092     
   5309035553.8367996     
   5465804481.8234520     
   5616309142.6777391     
   5759059517.3778162     
   5656438634.2663145     
   5889003834.4662209     
   6114089864.3578596     
   6329199336.0844355     
   6534049129.5262499     
   4068165416.5813141     
   4106294833.8227301     
   4142345448.4555721     
   4175400963.9088383     
   4204706897.4971437     
   4522529589.7689724     
   4532855945.0408087     
   4548076965.0144663     
   4565712434.1845980     
   4584043222.1455278     
   5087443851.5390282     
   5048231749.2353420     
   5019516730.7488213     
   4996129619.2092285     
   4974867511.0455742     
   5759059517.3778162     
   5647026643.0312929     
   5550822458.0751839     
   5461494720.1905785     
   5373494448.6264324     
   6534049129.5262499     
   6324589728.2016840     
   6137036573.9993868     
   5957712135.3783703     
   5777632641.9836903     
   4204706897.4971437     
   4118735092.2571483     
   4035581283.6535130     
   3954381593.8824801     
   3874707380.2925673     
   4584043222.1455278     
   4480903412.7356205     
   4380038260.1857586     
   4281094309.4089212     
   4183889044.0477896     
   4974867511.0455742     
   4856735167.8616018     
   4741140873.3336849     
   4628006772.0417709     
   4517310963.0505171     
   5373494448.6264324     
   5241713376.8868217     
   5113387414.9999495     
   4988524071.0020752     
   4867185726.5223446     
   5777632641.9836903     
   5632760054.4191189     
   5492825064.5327053     
   5357763878.8800640     
   5227654142.2669010     
   3874707380.2925673     
   3760948078.2027159     
   3654978352.1362748     
   3557310455.5783205     
   3468623299.5646958     
   4183889044.0477896     
   4054258472.5739961     
   3929453204.2950110     
   3809858644.9255323     
   3695983293.2444081     
   4517310963.0505171     
   4374805182.4946156     
   4234633954.5527668     
   4097012586.6463270     
   3962235309.2276402     
   4867185726.5223446     
   4715613076.2046947     
   4564331439.3137980     
   4413396735.0069990     
   4262912579.5000706     
   5227654142.2669010     
   5071291327.1919622     
   4913582864.9242392     
   4754469982.6451015     
   4593932384.1067638     
   3468623299.5646958     
   3409375882.5206184     
   3353237312.2083645     
   3300459227.0759025     
   3251376724.4833107     
   3695983293.2444081     
   3620403183.0583143     
   3548215421.0679922     
   3479605099.0604224     
   3414828400.9936571     
   3962235309.2276402     
   3870703770.5645428     
   3782815302.8464122     
   3698689839.6353827     
   3618519329.9238982     
   4262912579.5000706     
   4155298079.3171148     
   4051542762.5596943     
   3951710435.6169152     
   3855950107.2757959     
   4593932384.1067638     
   4469638163.5871801     
   4349382071.9834414     
   4233186034.3050780     
   4121181339.3940568     
   3251376724.4833107     
   3160737726.8589482     
   3071778243.4148617     
   2984542563.4131503     
   2899088046.5752020     
   3414828400.9936571     
   3317037682.5077977     
   3221327042.0742722     
   3127933195.1065736     
   3037126118.3553810     
   3618519329.9238982     
   3510067157.1906972     
   3403422529.0560627     
   3298968051.7007070     
   3197195439.0460172     
   3855950107.2757959     
   3733503075.7369919     
   3612022235.5158272     
   3491955802.1199117     
   3373978462.4495068     
   4121181339.3940568     
   3981644160.7118287     
   3841801116.9124465     
   3702059838.1218443     
   3563195944.3528543     
   2899088046.5752020     
   2713018060.5527720     
   2537847231.7693386     
   2376486537.5592279     
   2233167443.5876608     
   3037126118.3553810     
   2827003373.3284125     
   2621214130.2620111     
   2420980447.3667178     
   2228029686.8722115     
   3197195439.0460172     
   2979589993.1254539     
   2762246900.4355044     
   2545270337.0552154     
   2328842621.7104664     
   3373978462.4495068     
   3164760136.9463220     
   2954270836.8794770     
   2742197600.6837726     
   2528579736.0187988     
   3563195944.3528543     
   3376757096.5550404     
   3189659879.3566051     
   3001500220.7936630     
   2812988136.0245996     
   2233167443.5876608     
   2200382199.6528444     
   2028391413.4162176     
   2042676624.2068386     
   2684576753.9434705     
   2228029686.8722115     
   2583417580.4117980     
   2976659790.7929769     
   3470837689.3193197     
   4123087918.5480747     
   2328842621.7104664     
   2916385422.9787474     
   3578656514.0168090     
   4286870126.9889641     
   5027276069.3533621     
   2528579736.0187988     
   3117147961.8786597     
   3781377977.9056621     
   4490124332.1603012     
   5238188967.3405819     
   2812988136.0245996     
   3156505818.3606892     
   3596912069.4962802     
   4165185002.2508063     
   4926762720.8844595     
   5656438634.2663145     
   5889003834.4662209     
   6114089864.3578596     
   6329199336.0844355     
   6534049129.5262499     
   6491286460.5491571     
   6585610274.8894186     
   6755310423.3298111     
   6958284512.7086277     
   7167862476.9892864     
   7981842732.2102575     
   7733856563.2873678     
   7667353814.3096380     
   7667145977.6272049     
   7663309899.4146528     
   10128556249.029366     
   9320592256.5649357     
   8825017275.7325191     
   8442344964.1154318     
   8034876560.6100435     
   12931518357.435350     
   11338539382.241465     
   10209468339.696775     
   9273552967.8099842     
   8306721826.2495127     
   6534049129.5262499     
   6324589728.2016840     
   6137036573.9993868     
   5957712135.3783703     
   5777632641.9836903     
   7167862476.9892864     
   6907816605.8896523     
   6655617180.2454777     
   6407488175.7604980     
   6160329006.9715099     
   7663309899.4146528     
   7379221471.8682251     
   7100576258.2531900     
   6827447593.2279606     
   6560036351.7559118     
   8034876560.6100435     
   7746391960.5022726     
   7473576845.5960302     
   7214478138.1145096     
   6969068623.5359268     
   8306721826.2495127     
   8021837893.9425220     
   7778764522.4306793     
   7566998892.1572809     
   7381601920.8157682     
   5777632641.9836903     
   5632760054.4191189     
   5492825064.5327053     
   5357763878.8800640     
   5227654142.2669010     
   6160329006.9715099     
   6012947248.9477682     
   5867069568.1450891     
   5722742943.6024456     
   5580043435.1283197     
   6560036351.7559118     
   6409769071.9572144     
   6257777543.2312393     
   6104018329.0575066     
   5948511985.5148363     
   6969068623.5359268     
   6816994364.4156961     
   6660170963.1701088     
   6498317848.2945127     
   6331377792.6811647     
   7381601920.8157682     
   7229823471.8555298     
   7070513403.4204655     
   6903059727.9268389     
   6727340966.8233786     
   5227654142.2669010     
   5071291327.1919622     
   4913582864.9242392     
   4754469982.6451015     
   4593932384.1067638     
   5580043435.1283197     
   5416045834.5440578     
   5252204012.3384571     
   5088536855.4967012     
   4925073383.6891289     
   5948511985.5148363     
   5775399721.6994200     
   5603883792.3193703     
   5433996725.8923321     
   5265800412.3257961     
   6331377792.6811647     
   6146792099.1501465     
   5965150930.7795773     
   5786463124.0961523     
   5610828114.1647987     
   6727340966.8233786     
   6528234795.1876602     
   6333328716.8314838     
   6142595210.7550335     
   5956196052.1649437     
   4593932384.1067638     
   4469638163.5871801     
   4349382071.9834414     
   4233186034.3050780     
   4121181339.3940568     
   4925073383.6891289     
   4788949163.3029900     
   4654897402.9994516     
   4522989557.5759478     
   4393382471.9718609     
   5265800412.3257961     
   5117436691.2312279     
   4969391575.4495668     
   4821732145.8315907     
   4674604665.4940939     
   5610828114.1647987     
   5450629251.0489855     
   5289166591.9264431     
   5126465165.1276178     
   4962638938.4311171     
   5956196052.1649437     
   5785160976.8897104     
   5611426524.6935568     
   5434953375.0518408     
   5255815867.7219248     
   4121181339.3940568     
   3981644160.7118287     
   3841801116.9124465     
   3702059838.1218443     
   3563195944.3528543     
   4393382471.9718609     
   4237241039.7747355     
   4080818431.0758286     
   3924260579.7079816     
   3767848293.7115130     
   4674604665.4940939     
   4507378537.1313353     
   4340473523.6177454     
   4173916083.1470218     
   4007759343.3281255     
   4962638938.4311171     
   4789064052.9608679     
   4616861513.0670652     
   4446016931.7758160     
   4276536056.7708321     
   5255815867.7219248     
   5079897045.1455078     
   4906758554.7905712     
   4736365711.5560303     
   4568772734.6150370     
   3563195944.3528543     
   3376757096.5550404     
   3189659879.3566051     
   3001500220.7936630     
   2812988136.0245996     
   3767848293.7115130     
   3603021843.1451364     
   3440200272.2343917     
   3279162195.2906651     
   3119943674.9945755     
   4007759343.3281255     
   3845715141.7923126     
   3685883657.6722736     
   3528461309.6609011     
   3373723416.8225751     
   4276536056.7708321     
   4099122442.6700740     
   3922093704.7166843     
   3746089107.7083330     
   3572166845.1076231     
   4568772734.6150370     
   4358835125.6668415     
   4145865947.8590431     
   3930642129.7291541     
   3715091333.3655629     
   2812988136.0245996     
   3156505818.3606892     
   3596912069.4962802     
   4165185002.2508063     
   4926762720.8844595     
   3119943674.9945755     
   3135111384.3287730     
   3200560011.1584654     
   3339017174.1940498     
   3593230275.9994793     
   3373723416.8225751     
   3221125711.4457502     
   3080202966.2102628     
   2953903222.1449399     
   2848590696.3152208     
   3572166845.1076231     
   3421617170.6854262     
   3262138758.4217944     
   3101265383.4754901     
   2953417917.9845238     
   3715091333.3655629     
   3743570184.8746676     
   3771424089.1094046     
   3844009508.7200966     
   4031712077.5613174     
 </DataArray>
 <DataArray  type="Float64" Name="strain" NumberOfComponents="3" format="ascii">
  0.20347312886414967        0.0000000000000000       0.12533156960809444     
  0.18669509583936739       -2.7322828496543661E-002   7.4334897821841855E-002
  0.16991706281458513       -4.4683799034759893E-002   3.5137915438959749E-002
  0.15313902978980284       -5.2082911614648703E-002   7.7406224594481071E-003
  0.13636099676502056       -4.9520166236210084E-002  -7.8569811166930986E-003
  0.15989907599383735        0.0000000000000000        9.6378287582572914E-002
  0.15324471738803300       -2.1848326604551799E-002   6.2648334114886503E-002
  0.14659035878222865       -3.6187693267535771E-002   3.7366040081785519E-002
  0.13993600017642432       -4.3018099988951959E-002   2.0531405483269909E-002
  0.13328164157061997       -4.2339546768800293E-002   1.2144430319339747E-002
  0.12653234747653611        0.0000000000000000        7.4125956457423037E-002
  0.12664963332092463       -1.6373824712559933E-002   5.5209823291543197E-002
  0.12676691916531319       -2.7691587500311671E-002   4.1389319591463698E-002
  0.12688420500970174       -3.3953288363255216E-002   3.2664445357184560E-002
  0.12700149085409027       -3.5158927301390558E-002   2.9035200588705783E-002
  0.10337294331224593        0.0000000000000000        5.8574576232644851E-002
  0.10690984363804229       -1.0899322820568070E-002   5.2019365351811932E-002
  0.11044674396383865       -1.9195481733087556E-002   4.7207753967994329E-002
  0.11398364428963502       -2.4888476737558472E-002   4.4139742081192028E-002
  0.11752054461543140       -2.7978307833980805E-002   4.2815329691405002E-002
   9.0420863500966855E-002   0.0000000000000000        4.9724146908238329E-002
   9.4025348339386000E-002  -5.4248209285762024E-003   5.3076960295692754E-002
   9.7629833177805131E-002  -1.0699375965863445E-002   5.4821343211377396E-002
  0.10123431801622425       -1.5823665111861732E-002   5.4957295655292310E-002
  0.10483880285464339       -2.0797688366571049E-002   5.3484817627437467E-002
  0.13636099676502056       -4.9520166236210084E-002  -7.8569811166930986E-003
  0.13313603098010668       -4.3013781872348292E-002  -3.4656671256170501E-003
  0.12991106519519277       -3.8581977495967604E-002  -4.4658487379374209E-004
  0.12668609941027886       -3.6224753107067978E-002   1.2002656387768880E-003
  0.12346113362536498       -3.5942108705649428E-002   1.4748844120948401E-003
  0.13328164157061997       -4.2339546768800293E-002   1.2144430319339747E-002
  0.12906312545252591       -3.8491676789357478E-002   1.2091176989125881E-002
  0.12484460933443184       -3.5814133232900114E-002   1.1423054731804376E-002
  0.12062609321633776       -3.4306916099428125E-002   1.0140063547375133E-002
  0.11640757709824373       -3.3970025388941616E-002   8.2422034358382579E-003
  0.12700149085409027       -3.5158927301390558E-002   2.9035200588705783E-002
  0.12254678721496104       -3.3969571706366726E-002   2.5441633501697616E-002
  0.11809208357583177       -3.3046288969832617E-002   2.1990560299726861E-002
  0.11363737993670252       -3.2389079091788349E-002   1.8681980982793365E-002
  0.10918267629757329       -3.1997942072233818E-002   1.5515895550897336E-002
  0.11752054461543140       -2.7978307833980805E-002   4.2815329691405002E-002
  0.11358701626741198       -2.9447466623375908E-002   3.6585702412098305E-002
  0.10965348791939263       -3.0278444706765151E-002   3.1255931829973965E-002
  0.10571995957137321       -3.0471242084148528E-002   2.6826017945031963E-002
  0.10178643122335383       -3.0025858755526040E-002   2.3295960757272305E-002
  0.10483880285464339       -2.0797688366571049E-002   5.3484817627437467E-002
  0.10218381260987885       -2.4925361540385129E-002   4.5523383720327833E-002
   9.9528822365114344E-002  -2.7510600443697675E-002   3.9219169322545551E-002
   9.6873832120349807E-002  -2.8553405076508748E-002   3.4572174434090622E-002
   9.4218841875585269E-002  -2.8053775438818235E-002   3.1582399054963101E-002
  0.12346113362536498       -3.5942108705649428E-002   1.4748844120948401E-003
  0.12062342789391650       -3.6406656938490767E-002   7.7796528116572117E-004
  0.11778572216246802       -3.6291010452370702E-002   1.7593858314510213E-004
  0.11494801643101955       -3.5595169247289352E-002  -3.3119568196707944E-004
  0.11211031069957106       -3.4319133323246542E-002  -7.4343751417083048E-004
  0.11640757709824373       -3.3970025388941616E-002   8.2422034358382579E-003
  0.11367387254576033       -3.4028888446150984E-002   7.8625555806943470E-003
  0.11094016799327699       -3.3708932615766553E-002   7.5960176505722177E-003
  0.10820646344079367       -3.3010157897788529E-002   7.4425896454720919E-003
  0.10547275888831031       -3.1932564292216664E-002   7.4022715653937199E-003
  0.10918267629757329       -3.1997942072233818E-002   1.5515895550897336E-002
  0.10657119041616853       -3.1651119953811202E-002   1.5252143140170961E-002
  0.10395970453476375       -3.1126854779162463E-002   1.5119718146579874E-002
  0.10134821865335900       -3.0425146548287658E-002   1.5118620570124150E-002
   9.8736732771954244E-002  -2.9545995261186786E-002   1.5248850410803622E-002
  0.10178643122335383       -3.0025858755526040E-002   2.3295960757272305E-002
   9.9315381505141118E-002  -2.9273351461471420E-002   2.2946727959595799E-002
   9.6844331786928320E-002  -2.8544776942558317E-002   2.2747040071168078E-002
   9.4373282068715578E-002  -2.7840135198786812E-002   2.2696897091989129E-002
   9.1902232350502822E-002  -2.7159426230156880E-002   2.2796299022058757E-002
   9.4218841875585269E-002  -2.8053775438818235E-002   3.1582399054963101E-002
   9.1906445812677984E-002  -2.6895582969131589E-002   3.0946310038968881E-002
   8.9594049749770685E-002  -2.5962699105954189E-002   3.0477983424336816E-002
   8.7281653686863414E-002  -2.5255123849285958E-002   3.0177419211066980E-002
   8.4969257623956101E-002  -2.4772857199126946E-002   3.0044617399159229E-002
  0.11211031069957106       -3.4319133323246542E-002  -7.4343751417083048E-004
  0.10897066643862297       -3.2874557174647073E-002  -5.0038587347853158E-004
  0.10583102217767482       -3.1673095295895598E-002  -2.8882356894160965E-005
  0.10269137791672667       -3.0714747686991763E-002   6.7107303558269771E-004
   9.9551733655778574E-002  -2.9999514347935907E-002   1.5994803039516836E-003
  0.10547275888831031       -3.1932564292216664E-002   7.4022715653937199E-003
  0.10253202871527051       -3.0746958540542574E-002   7.3143566803881843E-003
   9.9591298542230672E-002  -2.9724147384257542E-002   7.3958180953072744E-003
   9.6650568369190837E-002  -2.8864130823361631E-002   7.6466558101504489E-003
   9.3709838196151030E-002  -2.8166908857854944E-002   8.0668698249184712E-003
   9.8736732771954244E-002  -2.9545995261186786E-002   1.5248850410803622E-002
   9.5935841110854903E-002  -2.8619359906438005E-002   1.4910288674559243E-002
   9.3134949449755547E-002  -2.7775199472619708E-002   1.4682027662271335E-002
   9.0334057788656164E-002  -2.7013513959731717E-002   1.4564067373939997E-002
   8.7533166127556808E-002  -2.6334303367774037E-002   1.4556407809565325E-002
   9.1902232350502822E-002  -2.7159426230156880E-002   2.2796299022058757E-002
   8.9182103625376097E-002  -2.6491761272333443E-002   2.2287410109034123E-002
   8.6461974900249400E-002  -2.5826251560981763E-002   2.1829746343998136E-002
   8.3741846175122661E-002  -2.5162897096101623E-002   2.1423307726951037E-002
   8.1021717449995978E-002  -2.4501697877693157E-002   2.1068094257892481E-002
   8.4969257623956101E-002  -2.4772857199126946E-002   3.0044617399159229E-002
   8.2270816258834173E-002  -2.4364162638228937E-002   2.9445720983813095E-002
   7.9572374893712230E-002  -2.3877303649343817E-002   2.8838974140487722E-002
   7.6873933528590316E-002  -2.3312280232471561E-002   2.8224376869183311E-002
   7.4175492163468415E-002  -2.2669092387612194E-002   2.7601929169899758E-002
   9.9551733655778574E-002  -2.9999514347935907E-002   1.5994803039516836E-003
   9.6613189587058113E-002  -2.9317890029791266E-002   1.6195572544609460E-003
   9.3674645518337679E-002  -2.8460369483620962E-002   1.7002614443174524E-003
   9.0736101449617232E-002  -2.7426952709425328E-002   1.8415928735203979E-003
   8.7797557380896785E-002  -2.6217639707203810E-002   2.0435515420705874E-003
   9.3709838196151030E-002  -2.8166908857854944E-002   8.0668698249184712E-003
   9.0897764947049292E-002  -2.7493170040166132E-002   7.9638760106222617E-003
   8.8085691697947444E-002  -2.6703602922724085E-002   8.0531965962166580E-003
   8.5273618448845623E-002  -2.5798207505528768E-002   8.3348315817012922E-003
   8.2461545199743858E-002  -2.4776983788580120E-002   8.8087809670767681E-003
   8.7533166127556808E-002  -2.6334303367774037E-002   1.4556407809565325E-002
   8.4979250858617253E-002  -2.5668450050541095E-002   1.4270275302191437E-002
   8.2425335589677656E-002  -2.4946836361827152E-002   1.4308144355251629E-002
   7.9871420320738087E-002  -2.4169462301632208E-002   1.4670014968745607E-002
   7.7317505051798491E-002  -2.3336327869956208E-002   1.5355887142673663E-002
   8.1021717449995978E-002  -2.4501697877693157E-002   2.1068094257892481E-002
   7.8857647321762120E-002  -2.3843730060916064E-002   2.0538755129168508E-002
   7.6693577193528303E-002  -2.3190069800930246E-002   2.0465104721422170E-002
   7.4529507065294459E-002  -2.2540717097735703E-002   2.0847143034653522E-002
   7.2365436937060629E-002  -2.1895671951332296E-002   2.1684870068862092E-002
   7.4175492163468415E-002  -2.2669092387612194E-002   2.7601929169899758E-002
   7.2532954336483879E-002  -2.2019010071291048E-002   2.6769315491553702E-002
   7.0890416509499371E-002  -2.1433303240033362E-002   2.6524077694728712E-002
   6.9247878682514863E-002  -2.0911971893839122E-002   2.6866215779424836E-002
   6.7605340855530383E-002  -2.0455016032708440E-002   2.7795729745641873E-002
   8.7797557380896785E-002  -2.6217639707203810E-002   2.0435515420705874E-003
   8.4815121841276042E-002  -2.5011057717277241E-002   1.2056959861115324E-003
   8.1832686301655244E-002  -2.3985833979965843E-002   3.5973268612354836E-004
   7.8850250762034474E-002  -2.3141968495268991E-002  -4.9433835789300384E-004
   7.5867815222413704E-002  -2.2479461263187450E-002  -1.3565171459388736E-003
   8.2461545199743858E-002  -2.4776983788580120E-002   8.8087809670767681E-003
   7.9489636338921449E-002  -2.3728556869058282E-002   8.0601417935413089E-003
   7.6517727478099040E-002  -2.2741551844142741E-002   7.3406637216318626E-003
   7.3545818617276562E-002  -2.1815968713834375E-002   6.6503467513480408E-003
   7.0573909756454223E-002  -2.0951807478132300E-002   5.9891908826893991E-003
   7.7317505051798491E-002  -2.3336327869956208E-002   1.5355887142673663E-002
   7.4393391715428803E-002  -2.2446056020838795E-002   1.4816400709570923E-002
   7.1469278379059101E-002  -2.1497269708319861E-002   1.4343344223747931E-002
   6.8545165042689399E-002  -2.0489968932399315E-002   1.3936717685204825E-002
   6.5621051706319711E-002  -1.9424153693077095E-002   1.3596521093941938E-002
   7.2365436937060629E-002  -2.1895671951332296E-002   2.1684870068862092E-002
   6.9526387970798104E-002  -2.1163555172619572E-002   2.1474472734199678E-002
   6.6687339004535509E-002  -2.0252987572497036E-002   2.1367774192471781E-002
   6.3848290038272970E-002  -1.9163969150964476E-002   2.1364774443678080E-002
   6.1009241072010445E-002  -1.7896499908021918E-002   2.1465473487818826E-002
   6.7605340855530383E-002  -2.0455016032708440E-002   2.7795729745641873E-002
   6.4888625105029296E-002  -1.9881054324400349E-002   2.8034357867428250E-002
   6.2171909354528265E-002  -1.9008705436674114E-002   2.8413953627803551E-002
   5.9455193604027234E-002  -1.7837969369529503E-002   2.8934517026767248E-002
   5.6738477853526148E-002  -1.6368846122966907E-002   2.9596048064319924E-002
   7.5867815222413704E-002  -2.2479461263187450E-002  -1.3565171459388736E-003
   7.2263288336510856E-002  -2.1873580772055312E-002  -8.4764210481946822E-004
   6.8658761450608063E-002  -2.1199595510207780E-002   7.2607494710608123E-004
   6.5054234564705271E-002  -2.0457505477643856E-002   3.3646340098379413E-003
   6.1449707678802423E-002  -1.9647310674365426E-002   7.0680350833768335E-003
   7.0573909756454223E-002  -2.0951807478132300E-002   5.9891908826893991E-003
   6.7765249211913070E-002  -2.0176617606274205E-002   6.5459296390060207E-003
   6.4956588667371806E-002  -1.9517948567497723E-002   7.6295590672391944E-003
   6.2147928122830709E-002  -1.8975800361802811E-002   9.2400791673891008E-003
   5.9339267578289501E-002  -1.8550172989189484E-002   1.1377489939456642E-002
   6.5621051706319711E-002  -1.9424153693077095E-002   1.3596521093941938E-002
   6.3070306164250578E-002  -1.8479654440493459E-002   1.4016497961658769E-002
   6.0519560622181501E-002  -1.7836301624788109E-002   1.4425414162402617E-002
   5.7968815080112396E-002  -1.7494095245961544E-002   1.4823269696174021E-002
   5.5418069538043263E-002  -1.7453035304013265E-002   1.5210064562972331E-002
   6.1009241072010445E-002  -1.7896499908021918E-002   2.1465473487818826E-002
   5.8178459193523671E-002  -1.6782691274712422E-002   2.1564062863139014E-002
   5.5347677315037008E-002  -1.6154654682078384E-002   2.1113640232596348E-002
   5.2516895436550359E-002  -1.6012390130120055E-002   2.0114205596191648E-002
   4.9686113558063627E-002  -1.6355897618837073E-002   1.8565758953924337E-002
   5.6738477853526148E-002  -1.6368846122966907E-002   2.9596048064319924E-002
   5.3089708299732308E-002  -1.5085728108931495E-002   2.9188624343446101E-002
   4.9440938745938412E-002  -1.4473007739368576E-002   2.7694237277820111E-002
   4.5792169192144544E-002  -1.4530685014278850E-002   2.5112886867442674E-002
   4.2143399638350620E-002  -1.5258759933661159E-002   2.1444573112312570E-002
   6.1449707678802423E-002  -1.9647310674365426E-002   7.0680350833768335E-003
   5.9991499217328714E-002  -1.8670024325385115E-002   6.5640311821331121E-003
   5.8533290755855061E-002  -1.7426659655719018E-002   3.8719299419000541E-003
   5.7075082294381407E-002  -1.5917216665366808E-002  -1.0082686373234784E-003
   5.5616873832907698E-002  -1.4141695354327410E-002  -8.0765645555365140E-003
   5.9339267578289501E-002  -1.8550172989189484E-002   1.1377489939456642E-002
   5.6515060754961044E-002  -1.7926075346223036E-002   1.0274596922851598E-002
   5.3690853931632559E-002  -1.6788516329469705E-002   8.6278045215280041E-003
   5.0866647108304089E-002  -1.5137495938929560E-002   6.4371127354836133E-003
   4.8042440284975618E-002  -1.2973014174602060E-002   3.7025215647203957E-003
   5.5418069538043263E-002  -1.7453035304013265E-002   1.5210064562972331E-002
   5.2872062307130430E-002  -1.7182126367060679E-002   1.3755665484106921E-002
   5.0326055076217735E-002  -1.6150373003220267E-002   1.3401564974792599E-002
   4.7780047845304902E-002  -1.4357775212492752E-002   1.4147763035029008E-002
   4.5234040614392124E-002  -1.1804332994877376E-002   1.5994259664816712E-002
   4.9686113558063627E-002  -1.6355897618837073E-002   1.8565758953924337E-002
   4.9062503873837079E-002  -1.6438177387898129E-002   1.7007236865898723E-002
   4.8438894189610615E-002  -1.5512229676970891E-002   1.8193211301694611E-002
   4.7815284505384130E-002  -1.3578054486055835E-002   2.2123682261311929E-002
   4.7191674821157645E-002  -1.0635651815152358E-002   2.8798649744751076E-002
   4.2143399638350620E-002  -1.5258759933661159E-002   2.1444573112312570E-002
   4.5086385455080924E-002  -1.5694228408735744E-002   2.0029311068227029E-002
   4.8029371271811200E-002  -1.4874086350721669E-002   2.3002743502233886E-002
   5.0972357088541573E-002  -1.2798333759618790E-002   3.0364870414332903E-002
   5.3915342905271779E-002  -9.4669706354273409E-003   4.2115691804523347E-002
   9.0420863500966855E-002   0.0000000000000000        4.9724146908238329E-002
   9.4025348339386000E-002  -5.4248209285762024E-003   5.3076960295692754E-002
   9.7629833177805131E-002  -1.0699375965863445E-002   5.4821343211377396E-002
  0.10123431801622425       -1.5823665111861732E-002   5.4957295655292310E-002
  0.10483880285464339       -2.0797688366571049E-002   5.3484817627437467E-002
   8.2454120174843451E-002   0.0000000000000000        4.4651108514378535E-002
   8.4676350243936147E-002  -4.5863936334200710E-003   4.8128308447299852E-002
   8.6898580313028842E-002  -9.0533287066824723E-003   5.0449429313338033E-002
   8.9120810382121524E-002  -1.3400805219787204E-002   5.1614471112493093E-002
   9.1343040451214233E-002  -1.7628823172734266E-002   5.1623433844765004E-002
   7.4250725466020309E-002   0.0000000000000000        4.0431901081240514E-002
   7.5543052170673169E-002  -3.7479663382639404E-003   4.4002680228497439E-002
   7.6835378875326071E-002  -7.4072814475015011E-003   4.6869731713757842E-002
   7.8127705579978932E-002  -1.0977945327712688E-002   4.9033055537021752E-002
   7.9420032284631806E-002  -1.4459957978897488E-002   5.0492651698289169E-002
   6.5810679374497430E-002   0.0000000000000000        3.7066524608824272E-002
   6.6625454119597111E-002  -2.9095390431078086E-003   4.0700075639285495E-002
   6.7440228864696805E-002  -5.7612341883205281E-003   4.4082250412636845E-002
   6.8255003609796500E-002  -8.5550854356381649E-003   4.7213048928878336E-002
   6.9069778354896180E-002  -1.1291092785060707E-002   5.0092471188009940E-002
   5.7133981900274800E-002   0.0000000000000000        3.4554979097129811E-002
   5.7923556090707928E-002  -2.0711117479516785E-003   3.8220494679664041E-002
   5.8713130281141064E-002  -4.1151869291395568E-003   4.2086985409975061E-002
   5.9502704471574207E-002  -6.1322255435636470E-003   4.6154451288062802E-002
   6.0292278662007329E-002  -8.1222275912239301E-003   5.0422892313927326E-002
  0.10483880285464339       -2.0797688366571049E-002   5.3484817627437467E-002
  0.10218381260987885       -2.4925361540385129E-002   4.5523383720327833E-002
   9.9528822365114344E-002  -2.7510600443697675E-002   3.9219169322545551E-002
   9.6873832120349807E-002  -2.8553405076508748E-002   3.4572174434090622E-002
   9.4218841875585269E-002  -2.8053775438818235E-002   3.1582399054963101E-002
   9.1343040451214233E-002  -1.7628823172734266E-002   5.1623433844765004E-002
   9.0114495418990609E-002  -2.1194153397248748E-002   4.6378155461320222E-002
   8.8885950386767013E-002  -2.3553566725055711E-002   4.2328547993629943E-002
   8.7657405354543416E-002  -2.4707063156155194E-002   3.9474611441694119E-002
   8.6428860322319806E-002  -2.4654642690547159E-002   3.7816345805512873E-002
   7.9420032284631806E-002  -1.4459957978897488E-002   5.0492651698289169E-002
   7.9156383871376260E-002  -1.7462945254112364E-002   4.7627011464715222E-002
   7.8892735458120727E-002  -1.9596533006413740E-002   4.5495493553322879E-002
   7.8629087044865195E-002  -2.0860721235801641E-002   4.4098097964112175E-002
   7.8365438631609635E-002  -2.1255509942276055E-002   4.3434824697083048E-002
   6.9069778354896180E-002  -1.1291092785060707E-002   5.0092471188009940E-002
   6.9309477967035835E-002  -1.3731737110975976E-002   4.9269951730512761E-002
   6.9549177579175461E-002  -1.5639499287771780E-002   4.8720006001624412E-002
   6.9788877191315130E-002  -1.7014379315448094E-002   4.8442634001344770E-002
   7.0028576803454784E-002  -1.7856377194004944E-002   4.8437835729673875E-002
   6.0292278662007329E-002  -8.1222275912239301E-003   5.0422892313927326E-002
   6.0573777705969278E-002  -1.0000528967839595E-002   5.1306976258712993E-002
   6.0855276749931256E-002  -1.1682465569129795E-002   5.2002085338534516E-002
   6.1136775793893212E-002  -1.3168037395094560E-002   5.2508219553391959E-002
   6.1418274837855176E-002  -1.4457244445733861E-002   5.2825378903285231E-002
   9.4218841875585269E-002  -2.8053775438818235E-002   3.1582399054963101E-002
   9.1906445812677984E-002  -2.6895582969131589E-002   3.0946310038968881E-002
   8.9594049749770685E-002  -2.5962699105954189E-002   3.0477983424336816E-002
   8.7281653686863414E-002  -2.5255123849285958E-002   3.0177419211066980E-002
   8.4969257623956101E-002  -2.4772857199126946E-002   3.0044617399159229E-002
   8.6428860322319806E-002  -2.4654642690547159E-002   3.7816345805512873E-002
   8.4308786306641473E-002  -2.4037317803549670E-002   3.6780667967721739E-002
   8.2188712290963098E-002  -2.3496100970480743E-002   3.5961871823026348E-002
   8.0068638275284765E-002  -2.3030992191340381E-002   3.5359957371426699E-002
   7.7948564259606376E-002  -2.2641991466128608E-002   3.4974924612922731E-002
   7.8365438631609635E-002  -2.1255509942276055E-002   4.3434824697083048E-002
   7.6486805954893794E-002  -2.1179052637967686E-002   4.2148758590075761E-002
   7.4608173278177883E-002  -2.1029502835007274E-002   4.1128693467897742E-002
   7.2729540601461987E-002  -2.0806860533394780E-002   4.0374629330548965E-002
   7.0850907924746104E-002  -2.0511125733130284E-002   3.9886566178029395E-002
   7.0028576803454784E-002  -1.7856377194004944E-002   4.8437835729673875E-002
   6.8440504757434892E-002  -1.8320787472385733E-002   4.7050581906031036E-002
   6.6852432711415000E-002  -1.8562904699533839E-002   4.5978448358950971E-002
   6.5264360665395107E-002  -1.8582728875449275E-002   4.5221435088433577E-002
   6.3676288619375215E-002  -1.8380260000131980E-002   4.4779542094479076E-002
   6.1418274837855176E-002  -1.4457244445733861E-002   5.2825378903285231E-002
   6.0169882714264836E-002  -1.5462522306803776E-002   5.1486137915587399E-002
   5.8921490590674488E-002  -1.6096306564060359E-002   5.0511136496185910E-002
   5.7673098467084134E-002  -1.6358597217503622E-002   4.9900374645080695E-002
   5.6424706343493794E-002  -1.6249394267133635E-002   4.9653852362271780E-002
   8.4969257623956101E-002  -2.4772857199126946E-002   3.0044617399159229E-002
   8.2270816258834173E-002  -2.4364162638228937E-002   2.9445720983813095E-002
   7.9572374893712230E-002  -2.3877303649343817E-002   2.8838974140487722E-002
   7.6873933528590316E-002  -2.3312280232471561E-002   2.8224376869183311E-002
   7.4175492163468415E-002  -2.2669092387612194E-002   2.7601929169899758E-002
   7.7948564259606376E-002  -2.2641991466128608E-002   3.4974924612922731E-002
   7.5308368282548735E-002  -2.2258762334682713E-002   3.4436525690301326E-002
   7.2668172305491052E-002  -2.1810968336840125E-002   3.4022467971787609E-002
   7.0027976328433383E-002  -2.1298609472600677E-002   3.3732751457381457E-002
   6.7387780351375742E-002  -2.0721685741964480E-002   3.3567376147082870E-002
   7.0850907924746104E-002  -2.0511125733130284E-002   3.9886566178029395E-002
   6.8401148967839442E-002  -2.0153362031136546E-002   3.9395065186542316E-002
   6.5951390010932809E-002  -1.9744633024336378E-002   3.9160097031249744E-002
   6.3501631054026175E-002  -1.9284938712729821E-002   3.9181661712151539E-002
   6.1051872097119514E-002  -1.8774279096316807E-002   3.9459759229247694E-002
   6.3676288619375215E-002  -1.8380260000131980E-002   4.4779542094479076E-002
   6.1549158314706365E-002  -1.8047961727590364E-002   4.4321339472536123E-002
   5.9422028010037500E-002  -1.7678297711832672E-002   4.4251861318874229E-002
   5.7294897705368657E-002  -1.7271267952858951E-002   4.4571107633493624E-002
   5.5167767400699771E-002  -1.6826872450669127E-002   4.5279078416394052E-002
   5.6424706343493794E-002  -1.6249394267133635E-002   4.9653852362271780E-002
   5.4752396323149474E-002  -1.5942561424044155E-002   4.9215348548282509E-002
   5.3080086302805148E-002  -1.5611962399328962E-002   4.9297760834661065E-002
   5.1407776282460807E-002  -1.5257597192988089E-002   4.9901089221407610E-002
   4.9735466262116501E-002  -1.4879465805021391E-002   5.1025333708522025E-002
   7.4175492163468415E-002  -2.2669092387612194E-002   2.7601929169899758E-002
   7.2532954336483879E-002  -2.2019010071291048E-002   2.6769315491553702E-002
   7.0890416509499371E-002  -2.1433303240033362E-002   2.6524077694728712E-002
   6.9247878682514863E-002  -2.0911971893839122E-002   2.6866215779424836E-002
   6.7605340855530383E-002  -2.0455016032708440E-002   2.7795729745641873E-002
   6.7387780351375742E-002  -2.0721685741964480E-002   3.3567376147082870E-002
   6.6217709775231601E-002  -2.0132209386819422E-002   3.3019739844671256E-002
   6.5047639199087515E-002  -1.9582192649053351E-002   3.2829662162419414E-002
   6.3877568622943401E-002  -1.9071635528666333E-002   3.2997143100327225E-002
   6.2707498046799259E-002  -1.8600538025658253E-002   3.3522182658394684E-002
   6.1051872097119514E-002  -1.8774279096316807E-002   3.9459759229247694E-002
   6.0124451510454396E-002  -1.8245408702347844E-002   3.9222016170455107E-002
   5.9197030923789307E-002  -1.7731082058073399E-002   3.9112014470460796E-002
   5.8269610337124175E-002  -1.7231299163493436E-002   3.9129754129264879E-002
   5.7342189750459072E-002  -1.6746060018607983E-002   3.9275235146867218E-002
   5.5167767400699771E-002  -1.6826872450669127E-002   4.5279078416394052E-002
   5.4253179542152266E-002  -1.6358608017876298E-002   4.5376144468905033E-002
   5.3338591683604802E-002  -1.5879971467093419E-002   4.5371134618852851E-002
   5.2424003825057318E-002  -1.5390962798320621E-002   4.5264048866237604E-002
   5.1509415966509833E-002  -1.4891582011557700E-002   4.5054887211059297E-002
   4.9735466262116501E-002  -1.4879465805021391E-002   5.1025333708522025E-002
   4.8603893870325238E-002  -1.4471807333404668E-002   5.1482124740021007E-002
   4.7472321478533960E-002  -1.4028860876113457E-002   5.1607022607595490E-002
   4.6340749086742676E-002  -1.3550626433147741E-002   5.1400027311245537E-002
   4.5209176694951392E-002  -1.3037104004507527E-002   5.0861138850970988E-002
   6.7605340855530383E-002  -2.0455016032708440E-002   2.7795729745641873E-002
   6.4888625105029296E-002  -1.9881054324400349E-002   2.8034357867428250E-002
   6.2171909354528265E-002  -1.9008705436674114E-002   2.8413953627803551E-002
   5.9455193604027234E-002  -1.7837969369529503E-002   2.8934517026767248E-002
   5.6738477853526148E-002  -1.6368846122966907E-002   2.9596048064319924E-002
   6.2707498046799259E-002  -1.8600538025658253E-002   3.3522182658394684E-002
   6.0161012232598884E-002  -1.8045963889795208E-002   3.3575007621537506E-002
   5.7614526418398426E-002  -1.7284976870843502E-002   3.3827324818692869E-002
   5.5068040604198065E-002  -1.6317576968802937E-002   3.4279134249860774E-002
   5.2521554789997621E-002  -1.5143764183673580E-002   3.4930435915041025E-002
   5.7342189750459072E-002  -1.6746060018607983E-002   3.9275235146867218E-002
   5.5024458467983123E-002  -1.6210873455190122E-002   3.9050282655036808E-002
   5.2706727185507174E-002  -1.5561248305012827E-002   3.9083346992642841E-002
   5.0388995903031253E-002  -1.4797184568076148E-002   3.9374428159685351E-002
   4.8071264620555290E-002  -1.3918682244380171E-002   3.9923526156164207E-002
   5.1509415966509833E-002  -1.4891582011557700E-002   4.5054887211059297E-002
   4.9478963811182164E-002  -1.4375783020584815E-002   4.4460182967926407E-002
   4.7448511655854508E-002  -1.3837519739182239E-002   4.4182020149653778E-002
   4.5418059500526881E-002  -1.3276792167349401E-002   4.4220398756241321E-002
   4.3387607345199239E-002  -1.2693600305086830E-002   4.4575318787689132E-002
   4.5209176694951392E-002  -1.3037104004507527E-002   5.0861138850970988E-002
   4.3524528262195911E-002  -1.2540692585979951E-002   4.9804708560206218E-002
   4.1839879829440402E-002  -1.2113791173351512E-002   4.9123344289725396E-002
   4.0155231396684907E-002  -1.1756399766622787E-002   4.8817046039528827E-002
   3.8470582963929412E-002  -1.1468518365793434E-002   4.8885813809616097E-002
   5.6738477853526148E-002  -1.6368846122966907E-002   2.9596048064319924E-002
   5.3089708299732308E-002  -1.5085728108931495E-002   2.9188624343446101E-002
   4.9440938745938412E-002  -1.4473007739368576E-002   2.7694237277820111E-002
   4.5792169192144544E-002  -1.4530685014278850E-002   2.5112886867442674E-002
   4.2143399638350620E-002  -1.5258759933661159E-002   2.1444573112312570E-002
   5.2521554789997621E-002  -1.5143764183673580E-002   3.4930435915041025E-002
   4.8120257026897942E-002  -1.4063445486237114E-002   3.4092180872225875E-002
   4.3718959263798249E-002  -1.3376527847275693E-002   3.2835832755551131E-002
   3.9317661500698542E-002  -1.3083011266789034E-002   3.1161391565016835E-002
   3.4916363737598877E-002  -1.3182895744777268E-002   2.9068857300622530E-002
   4.8071264620555290E-002  -1.3918682244380171E-002   3.9923526156164207E-002
   4.3586308919042180E-002  -1.3041162863542954E-002   3.8931436377405509E-002
   3.9101353217529097E-002  -1.2280047955182741E-002   3.8190123795679640E-002
   3.4616397516016022E-002  -1.1635337519299602E-002   3.7699588410986466E-002
   3.0131441814502904E-002  -1.1107031555893349E-002   3.7459830223326260E-002
   4.3387607345199239E-002  -1.2693600305086830E-002   4.4575318787689132E-002
   3.9487863976165105E-002  -1.2018880240848850E-002   4.3706390858984791E-002
   3.5588120607130971E-002  -1.1183568063089823E-002   4.3757110398205873E-002
   3.1688377238096817E-002  -1.0187663771810089E-002   4.4727477405351830E-002
   2.7788633869062707E-002  -9.0311673670092768E-003   4.6617491880423023E-002
   3.8470582963929412E-002  -1.1468518365793434E-002   4.8885813809616097E-002
   3.5824922198266634E-002  -1.0996597618154413E-002   4.8417044316964031E-002
   3.3179261432603843E-002  -1.0087088170996905E-002   4.9536792563129567E-002
   3.0533600666941031E-002  -8.7399900243204653E-003   5.2245058548112733E-002
   2.7887939901278247E-002  -6.9553031781255381E-003   5.6541842271913390E-002
   4.2143399638350620E-002  -1.5258759933661159E-002   2.1444573112312570E-002
   4.5086385455080924E-002  -1.5694228408735744E-002   2.0029311068227029E-002
   4.8029371271811200E-002  -1.4874086350721669E-002   2.3002743502233886E-002
   5.0972357088541573E-002  -1.2798333759618790E-002   3.0364870414332903E-002
   5.3915342905271779E-002  -9.4669706354273409E-003   4.2115691804523347E-002
   3.4916363737598877E-002  -1.3182895744777268E-002   2.9068857300622530E-002
   4.1069432019688212E-002  -1.3178453614753699E-002   2.9845929625253453E-002
   4.7222500301777506E-002  -1.2571957210231910E-002   3.2654472402510626E-002
   5.3375568583866918E-002  -1.1363406531211720E-002   3.7494485632393368E-002
   5.9528636865956108E-002  -9.5528015776933373E-003   4.4365969314902443E-002
   3.0131441814502904E-002  -1.1107031555893349E-002   3.7459830223326260E-002
   3.7137368536485249E-002  -1.0662678820771626E-002   3.9775680658082957E-002
   4.4143295258467642E-002  -1.0269828069742158E-002   4.1765777519999665E-002
   5.1149221980450091E-002  -9.9284793028045406E-003   4.3430120809076420E-002
   5.8155148702432435E-002  -9.6386325199594447E-003   4.4768710525313393E-002
   2.7788633869062707E-002  -9.0311673670092768E-003   4.6617491880423023E-002
   3.3290195005472062E-002  -8.1469040267896226E-003   4.9818564166715137E-002
   3.8791756141881399E-002  -7.9676989292523474E-003   5.0336658854701323E-002
   4.4293317278290945E-002  -8.4935520743976388E-003   4.8171775944381760E-002
   4.9794878414700094E-002  -9.7244634622254966E-003   4.3323915435755783E-002
   2.7887939901278247E-002  -6.9553031781255381E-003   5.6541842271913390E-002
   2.9527911426648651E-002  -5.6311292328075080E-003   5.9974580151150425E-002
   3.1167882952018972E-002  -5.6655697887625645E-003   5.8367116406615460E-002
   3.2807854477389389E-002  -7.0586248459903536E-003   5.1719451038308495E-002
   3.4447826002759752E-002  -9.8102944044915485E-003   4.0031584046229529E-002
   5.7133981900274800E-002   0.0000000000000000        3.4554979097129811E-002
   5.7923556090707928E-002  -2.0711117479516785E-003   3.8220494679664041E-002
   5.8713130281141064E-002  -4.1151869291395568E-003   4.2086985409975061E-002
   5.9502704471574207E-002  -6.1322255435636470E-003   4.6154451288062802E-002
   6.0292278662007329E-002  -8.1222275912239301E-003   5.0422892313927326E-002
   4.8627169836971879E-002   0.0000000000000000        3.2670911517048193E-002
   4.9554762850120657E-002  -1.6923594585959859E-003   3.6854556932676030E-002
   5.0482355863269428E-002  -3.4024275767246173E-003   4.1113264845958397E-002
   5.1409948876418213E-002  -5.1302043543858880E-003   4.5447035256895300E-002
   5.2337541889566991E-002  -6.8756897915798155E-003   4.9855868165486733E-002
   4.0696779978208072E-002   0.0000000000000000        3.1187968839470483E-002
   4.1636479163950281E-002  -1.3136071692402950E-003   3.5844998861895475E-002
   4.2576178349692496E-002  -2.6896682243096725E-003   4.0451178731852777E-002
   4.3515877535434691E-002  -4.1281831652081376E-003   4.5006508449342390E-002
   4.4455576721176907E-002  -5.6291519919356870E-003   4.9510988014364342E-002
   3.3342812323983402E-002   0.0000000000000000        3.0106151064396691E-002
   3.4168705032196808E-002  -9.3485487988460283E-004   3.5191820467322388E-002
   3.4994597740410228E-002  -1.9769088718947329E-003   4.0100727067658187E-002
   3.5820490448623642E-002  -3.1261619760303864E-003   4.4832870865404079E-002
   3.6646383156837055E-002  -4.3826141922915654E-003   4.9388251860560069E-002
   2.6565266874297853E-002   0.0000000000000000        2.9425458191826803E-002
   2.7151440454860259E-002  -5.5610259052891152E-004   3.4895021748956770E-002
   2.7737614035422662E-002  -1.2641495194797882E-003   4.0061909853374614E-002
   2.8323787615985065E-002  -2.1241407868526317E-003   4.4926122505080344E-002
   2.8909961196547464E-002  -3.1360763926474439E-003   4.9487659704073948E-002
   6.0292278662007329E-002  -8.1222275912239301E-003   5.0422892313927326E-002
   6.0573777705969278E-002  -1.0000528967839595E-002   5.1306976258712993E-002
   6.0855276749931256E-002  -1.1682465569129795E-002   5.2002085338534516E-002
   6.1136775793893212E-002  -1.3168037395094560E-002   5.2508219553391959E-002
   6.1418274837855176E-002  -1.4457244445733861E-002   5.2825378903285231E-002
   5.2337541889566991E-002  -6.8756897915798155E-003   4.9855868165486733E-002
   5.2462408889531326E-002  -8.5348766498356959E-003   5.1038401831656276E-002
   5.2587275889495688E-002  -1.0003757690682855E-002   5.2096646274794690E-002
   5.2712142889460044E-002  -1.1282332914121314E-002   5.3030601494901984E-002
   5.2837009889424386E-002  -1.2370602320151039E-002   5.3840267491978226E-002
   4.4455576721176907E-002  -5.6291519919356870E-003   4.9510988014364342E-002
   4.4488497319076670E-002  -7.0692243318317832E-003   5.0985912444000962E-002
   4.4521417916976426E-002  -8.3250498122359150E-003   5.2401233292539491E-002
   4.4554338514876182E-002  -9.3966284331480562E-003   5.3756950559979956E-002
   4.4587259112775952E-002  -1.0283960194568224E-002   5.5053064246322378E-002
   3.6646383156837055E-002  -4.3826141922915654E-003   4.9388251860560069E-002
   3.6652042994605248E-002  -5.6035720138278896E-003   5.1149508095747066E-002
   3.6657702832373455E-002  -6.6463419337889785E-003   5.2915846391769022E-002
   3.6663362670141648E-002  -7.5109239521748104E-003   5.4687266748625882E-002
   3.6669022507909863E-002  -8.1973180689854062E-003   5.6463769166317720E-002
   2.8909961196547464E-002  -3.1360763926474439E-003   4.9487659704073948E-002
   2.8953045916117123E-002  -4.1379196958239838E-003   5.1529188786894567E-002
   2.8996130635686790E-002  -4.9676340553420299E-003   5.3640485572483160E-002
   2.9039215355256456E-002  -5.6252194712015525E-003   5.5821550060839741E-002
   2.9082300074826109E-002  -6.1106759434025951E-003   5.8072382251964309E-002
   6.1418274837855176E-002  -1.4457244445733861E-002   5.2825378903285231E-002
   6.0169882714264836E-002  -1.5462522306803776E-002   5.1486137915587399E-002
   5.8921490590674488E-002  -1.6096306564060359E-002   5.0511136496185910E-002
   5.7673098467084134E-002  -1.6358597217503622E-002   4.9900374645080695E-002
   5.6424706343493794E-002  -1.6249394267133635E-002   4.9653852362271780E-002
   5.2837009889424386E-002  -1.2370602320151039E-002   5.3840267491978226E-002
   5.1917806972760223E-002  -1.3219246991439254E-002   5.3127708942636395E-002
   5.0998604056096047E-002  -1.3778948010653248E-002   5.2709289238850626E-002
   5.0079401139431885E-002  -1.4049705377792933E-002   5.2585008380620961E-002
   4.9160198222767709E-002  -1.4031519092858366E-002   5.2754866367947281E-002
   4.4587259112775952E-002  -1.0283960194568224E-002   5.5053064246322378E-002
   4.3927144680297708E-002  -1.0975971676074791E-002   5.4884638183597546E-002
   4.3267030247819457E-002  -1.1461589457246124E-002   5.4940250243688454E-002
   4.2606915815341213E-002  -1.1740813538082217E-002   5.5219900426595206E-002
   4.1946801382862969E-002  -1.1813643918583090E-002   5.5723588732317725E-002
   3.6669022507909863E-002  -8.1973180689854062E-003   5.6463769166317720E-002
   3.6197895836877270E-002  -8.7326963607103052E-003   5.6756925638470797E-002
   3.5726769165844705E-002  -9.1442309038389791E-003   5.7204019510699422E-002
   3.5255642494812139E-002  -9.4319216983714867E-003   5.7805050783003617E-002
   3.4784515823779540E-002  -9.5957687443077901E-003   5.8560019455383312E-002
   2.9082300074826109E-002  -6.1106759434025951E-003   5.8072382251964309E-002
   2.8730060442498949E-002  -6.4894210453458126E-003   5.8744571307256264E-002
   2.8377820810171785E-002  -6.8268723504318774E-003   5.9500597039883543E-002
   2.8025581177844622E-002  -7.1230298586607878E-003   6.0340459449846062E-002
   2.7673341545517448E-002  -7.3778935700325177E-003   6.1264158537143898E-002
   5.6424706343493794E-002  -1.6249394267133635E-002   4.9653852362271780E-002
   5.4752396323149474E-002  -1.5942561424044155E-002   4.9215348548282509E-002
   5.3080086302805148E-002  -1.5611962399328962E-002   4.9297760834661065E-002
   5.1407776282460807E-002  -1.5257597192988089E-002   4.9901089221407610E-002
   4.9735466262116501E-002  -1.4879465805021391E-002   5.1025333708522025E-002
   4.9160198222767709E-002  -1.4031519092858366E-002   5.2754866367947281E-002
   4.7937366479273713E-002  -1.3847660560669967E-002   5.2329119523291223E-002
   4.6714534735779717E-002  -1.3621401186048199E-002   5.2281413131967922E-002
   4.5491702992285721E-002  -1.3352740968992988E-002   5.2611747193977265E-002
   4.4268871248791739E-002  -1.3041679909504472E-002   5.3320121709319435E-002
   4.1946801382862969E-002  -1.1813643918583090E-002   5.5723588732317725E-002
   4.1030572269184093E-002  -1.1752759697295806E-002   5.5329233517802695E-002
   4.0114343155505196E-002  -1.1630839972767438E-002   5.5170043109585121E-002
   3.9198114041826305E-002  -1.1447884744998030E-002   5.5246017507665036E-002
   3.8281884928147443E-002  -1.1203894013987539E-002   5.5557156712042526E-002
   3.4784515823779540E-002  -9.5957687443077901E-003   5.8560019455383312E-002
   3.4032013692880579E-002  -9.6578588339216731E-003   5.8215690531816890E-002
   3.3279511561981626E-002  -9.6402787594866771E-003   5.7963650767512732E-002
   3.2527009431082651E-002  -9.5430285210030569E-003   5.7803900162470868E-002
   3.1774507300183684E-002  -9.3661081184705855E-003   5.7736438716691381E-002
   2.7673341545517448E-002  -7.3778935700325177E-003   6.1264158537143898E-002
   2.6941690750363199E-002  -7.5629579705474362E-003   6.0988490565333758E-002
   2.6210039955208941E-002  -7.6497175462058864E-003   6.0662236105750764E-002
   2.5478389160054682E-002  -7.6381722970080071E-003   6.0285395158394858E-002
   2.4746738364900434E-002  -7.5283222229536595E-003   5.9857967723266015E-002
   4.9735466262116501E-002  -1.4879465805021391E-002   5.1025333708522025E-002
   4.8603893870325238E-002  -1.4471807333404668E-002   5.1482124740021007E-002
   4.7472321478533960E-002  -1.4028860876113457E-002   5.1607022607595490E-002
   4.6340749086742676E-002  -1.3550626433147741E-002   5.1400027311245537E-002
   4.5209176694951392E-002  -1.3037104004507527E-002   5.0861138850970988E-002
   4.4268871248791739E-002  -1.3041679909504472E-002   5.3320121709319435E-002
   4.2909271977366409E-002  -1.2704691689026062E-002   5.3382758450399734E-002
   4.1549672705941079E-002  -1.2358249989001285E-002   5.3321234596136455E-002
   4.0190073434515763E-002  -1.2002354809430134E-002   5.3135550146529716E-002
   3.8830474163090434E-002  -1.1637006150312462E-002   5.2825705101579051E-002
   3.8281884928147443E-002  -1.1203894013987539E-002   5.5557156712042526E-002
   3.6901991345668947E-002  -1.0937576044647360E-002   5.5199804656576090E-002
   3.5522097763190458E-002  -1.0687639101888979E-002   5.4926024574347018E-002
   3.4142204180711996E-002  -1.0454083185712334E-002   5.4735816465355046E-002
   3.2762310598233507E-002  -1.0236908296117397E-002   5.4629180329600596E-002
   3.1774507300183684E-002  -9.3661081184705855E-003   5.7736438716691381E-002
   3.0582051975232886E-002  -9.1704604002687054E-003   5.6933263358550083E-002
   2.9389596650282110E-002  -9.0170282147767674E-003   5.6421392542226924E-002
   2.8197141325331306E-002  -8.9058115619946292E-003   5.6200826267722090E-002
   2.7004686000380543E-002  -8.8368104419223881E-003   5.6271564535035186E-002
   2.4746738364900434E-002  -7.5283222229536595E-003   5.9857967723266015E-002
   2.3949453866058214E-002  -7.4033447558900373E-003   5.8583134556321775E-002
   2.3152169367215994E-002  -7.3464173276644382E-003   5.7807338499776525E-002
   2.2354884868373774E-002  -7.3575399382769229E-003   5.7530579553630369E-002
   2.1557600369531568E-002  -7.4367125877272677E-003   5.7752857717883022E-002
   4.5209176694951392E-002  -1.3037104004507527E-002   5.0861138850970988E-002
   4.3524528262195911E-002  -1.2540692585979951E-002   4.9804708560206218E-002
   4.1839879829440402E-002  -1.2113791173351512E-002   4.9123344289725396E-002
   4.0155231396684907E-002  -1.1756399766622787E-002   4.8817046039528827E-002
   3.8470582963929412E-002  -1.1468518365793434E-002   4.8885813809616097E-002
   3.8830474163090434E-002  -1.1637006150312462E-002   5.2825705101579051E-002
   3.7492867315764955E-002  -1.1276260872641788E-002   5.2007704218794484E-002
   3.6155260468439476E-002  -1.0934175837411166E-002   5.1508720486585918E-002
   3.4817653621114032E-002  -1.0610751044620498E-002   5.1328753904953173E-002
   3.3480046773788533E-002  -1.0305986494269948E-002   5.1467804473896483E-002
   3.2762310598233507E-002  -1.0236908296117397E-002   5.4629180329600596E-002
   3.1715696466629965E-002  -1.0011829159303737E-002   5.4100458618255513E-002
   3.0669082335026417E-002  -9.7545605014707076E-003   5.3834705187778303E-002
   2.9622468203422868E-002  -9.4651023226182650E-003   5.3831920038168980E-002
   2.8575854071819333E-002  -9.1434546227465163E-003   5.4092103169427586E-002
   2.7004686000380543E-002  -8.8368104419223881E-003   5.6271564535035186E-002
   2.6193015714790831E-002  -8.7473974459656850E-003   5.6082971758589180E-002
   2.5381345429201143E-002  -8.5749451655301942E-003   5.6101298393302912E-002
   2.4569675143611441E-002  -8.3194536006160041E-003   5.6326544439176493E-002
   2.3758004858021743E-002  -7.9809227512230574E-003   5.6758709896210013E-002
   2.1557600369531568E-002  -7.4367125877272677E-003   5.7752857717883022E-002
   2.0924825060247634E-002  -7.4829657326275778E-003   5.7955243639795456E-002
   2.0292049750963700E-002  -7.3953298295899306E-003   5.8308500103159633E-002
   1.9659274441679774E-002  -7.1738048786137501E-003   5.8812627107975440E-002
   1.9026499132395833E-002  -6.8183908796995985E-003   5.9467624654243045E-002
   3.8470582963929412E-002  -1.1468518365793434E-002   4.8885813809616097E-002
   3.5824922198266634E-002  -1.0996597618154413E-002   4.8417044316964031E-002
   3.3179261432603843E-002  -1.0087088170996905E-002   4.9536792563129567E-002
   3.0533600666941031E-002  -8.7399900243204653E-003   5.2245058548112733E-002
   2.7887939901278247E-002  -6.9553031781255381E-003   5.6541842271913390E-002
   3.3480046773788533E-002  -1.0305986494269948E-002   5.1467804473896483E-002
   3.2118891855804493E-002  -9.9033221560312634E-003   5.1107390837144856E-002
   3.0757736937820475E-002  -9.2861979995757515E-003   5.1727471156933380E-002
   2.9396582019836439E-002  -8.4546140249037449E-003   5.3328045433261764E-002
   2.8035427101852403E-002  -7.4085702320151325E-003   5.5909113666130106E-002
   2.8575854071819333E-002  -9.1434546227465163E-003   5.4092103169427586E-002
   2.7891181219236477E-002  -8.8100466939077804E-003   5.3616916507274515E-002
   2.7206508366653604E-002  -8.4853078281546535E-003   5.3514200019383770E-002
   2.6521835514070724E-002  -8.1692380254869135E-003   5.3783953705755436E-002
   2.5837162661487847E-002  -7.8618372859048380E-003   5.4426177566389566E-002
   2.3758004858021743E-002  -7.9809227512230574E-003   5.6758709896210013E-002
   2.3141790288562464E-002  -7.7167712317843529E-003   5.5945621327352910E-002
   2.2525575719103207E-002  -7.6844176567334443E-003   5.4896979150481001E-002
   2.1909361149643911E-002  -7.8838620260702486E-003   5.3612783365593636E-002
   2.1293146580184674E-002  -8.3151043397945990E-003   5.2093033972691306E-002
   1.9026499132395833E-002  -6.8183908796995985E-003   5.9467624654243045E-002
   1.7870719063782570E-002  -6.6234957696611474E-003   5.8093505297380332E-002
   1.6714938995169300E-002  -6.8835274853124295E-003   5.5875808550224865E-002
   1.5559158926556040E-002  -7.5984860266534240E-003   5.2814534412776531E-002
   1.4403378857942781E-002  -8.7683713936842489E-003   4.8909682885035610E-002
   2.7887939901278247E-002  -6.9553031781255381E-003   5.6541842271913390E-002
   2.9527911426648651E-002  -5.6311292328075080E-003   5.9974580151150425E-002
   3.1167882952018972E-002  -5.6655697887625645E-003   5.8367116406615460E-002
   3.2807854477389389E-002  -7.0586248459903536E-003   5.1719451038308495E-002
   3.4447826002759752E-002  -9.8102944044915485E-003   4.0031584046229529E-002
   2.8035427101852403E-002  -7.4085702320151325E-003   5.5909113666130106E-002
   2.5958439150150989E-002  -6.5182850671746395E-003   5.7377046263336035E-002
   2.3881451198449609E-002  -6.1539769766467411E-003   5.6451261530170188E-002
   2.1804463246748226E-002  -6.3156459604314860E-003   5.3131759466633177E-002
   1.9727475295046815E-002  -7.0032920185292280E-003   4.7418540072724502E-002
   2.5837162661487847E-002  -7.8618372859048380E-003   5.4426177566389566E-002
   2.2689699526115159E-002  -7.4054409015417155E-003   5.4761942308524381E-002
   1.9542236390742505E-002  -6.6423841645309595E-003   5.5350474013688269E-002
   1.6394773255369813E-002  -5.5726670748726150E-003   5.6191772681881309E-002
   1.3247310119997149E-002  -4.1962896325666854E-003   5.7285838313102799E-002
   2.1293146580184674E-002  -8.3151043397945990E-003   5.2093033972691306E-002
   1.9721692554541183E-002  -8.2925967359088748E-003   5.2129268286715567E-002
   1.8150238528897737E-002  -7.1307913524151570E-003   5.5064753857169191E-002
   1.6578784503254299E-002  -4.8296881893137456E-003   6.0899490684052093E-002
   1.5007330477610801E-002  -1.3892872466041983E-003   6.9633478767365017E-002
   1.4403378857942781E-002  -8.7683713936842489E-003   4.8909682885035610E-002
   1.7054418235429025E-002  -9.1797525702759231E-003   4.9479024197909338E-002
   1.9705457612915277E-002  -7.6191985402995210E-003   5.5594101060613188E-002
   2.2356496990401552E-002  -4.0867093037546681E-003   6.7254913473146938E-002
   2.5007536367887773E-002   1.4177151393581777E-003   8.4461461435510587E-002
   2.6565266874297853E-002   0.0000000000000000        2.9425458191826803E-002
   2.7151440454860259E-002  -5.5610259052891152E-004   3.4895021748956770E-002
   2.7737614035422662E-002  -1.2641495194797882E-003   4.0061909853374614E-002
   2.8323787615985065E-002  -2.1241407868526317E-003   4.4926122505080344E-002
   2.8909961196547464E-002  -3.1360763926474439E-003   4.9487659704073948E-002
   2.0034188039207514E-002   0.0000000000000000        2.9008484371833135E-002
   2.0355505490127442E-002  -4.1070218295099874E-004   3.4299521143191458E-002
   2.0676822941047369E-002  -9.3517429446517836E-004   3.9363521107976966E-002
   2.0998140391967301E-002  -1.5734163345425380E-003   4.4200484266189631E-002
   2.1319457842887225E-002  -2.3254283031830785E-003   4.8810410617829467E-002
   1.3419620228768459E-002   0.0000000000000000        2.8717823754487982E-002
   1.3551720196185203E-002  -2.6530177537308595E-004   3.3868508149933460E-002
   1.3683820163601951E-002  -6.0619906945056680E-004   3.8867794384945399E-002
   1.3815920131018697E-002  -1.0226918822324408E-003   4.3715682459523800E-002
   1.3948020098435446E-002  -1.5147802137187097E-003   4.8412172373668662E-002
   6.7215634429806936E-003   0.0000000000000000        2.8553476339791356E-002
   6.7400845730335480E-003  -1.1990136779517230E-004   3.3601982769182762E-002
   6.7586057030864033E-003  -2.7722384443595524E-004   3.8574729684279926E-002
   6.7771268331392586E-003  -4.7196742992234534E-004   4.3471717085082837E-002
   6.7956479631921130E-003  -7.0413212425434260E-004   4.8292944971591520E-002
  -5.9982318155786529E-005   0.0000000000000000        2.8515442127743248E-002
  -7.9401379327530101E-005   2.5499039782739610E-005   3.3499945000939370E-002
  -9.8820440499273023E-005   5.1751380578656317E-005   3.8484327005980548E-002
  -1.1823950167101584E-004   7.8757022387751854E-005   4.3468588142866763E-002
  -1.3765856284275865E-004   1.0651596521002622E-004   4.8452728411598027E-002
   2.8909961196547464E-002  -3.1360763926474439E-003   4.9487659704073948E-002
   2.8953045916117123E-002  -4.1379196958239838E-003   5.1529188786894567E-002
   2.8996130635686790E-002  -4.9676340553420299E-003   5.3640485572483160E-002
   2.9039215355256456E-002  -5.6252194712015525E-003   5.5821550060839741E-002
   2.9082300074826109E-002  -6.1106759434025951E-003   5.8072382251964309E-002
   2.1319457842887225E-002  -2.3254283031830785E-003   4.8810410617829467E-002
   2.1410438111666284E-002  -3.0699157639448469E-003   5.1199607100289604E-002
   2.1501418380445333E-002  -3.6855842803858933E-003   5.3614826978400504E-002
   2.1592398649224388E-002  -4.1724338525062320E-003   5.6056070252162242E-002
   2.1683378918003444E-002  -4.5304644803058555E-003   5.8523336921574819E-002
   1.3948020098435446E-002  -1.5147802137187097E-003   4.8412172373668662E-002
   1.4043151609306727E-002  -2.0019118320657092E-003   5.1105726256430457E-002
   1.4138283120178015E-002  -2.4035345054297707E-003   5.3781559227725928E-002
   1.4233414631049303E-002  -2.7196482338109071E-003   5.6439671287555046E-002
   1.4328546141920589E-002  -2.9502530172091125E-003   5.9080062435917832E-002
   6.7956479631921130E-003  -7.0413212425434260E-004   4.8292944971591520E-002
   6.8511864090384728E-003  -9.3390790018657186E-004   5.1247546255317245E-002
   6.9067248548848291E-003  -1.1214847304736584E-003   5.4140682320459460E-002
   6.9622633007311880E-003  -1.2668626151155706E-003   5.6972353167018173E-002
   7.0178017465775452E-003  -1.3700415541123712E-003   5.9742558794993371E-002
  -1.3765856284275865E-004   1.0651596521002622E-004   4.8452728411598027E-002
  -1.6545748913849006E-004   1.3409603169256632E-004   5.1625067096949889E-002
  -1.9325641543422082E-004   1.6056504448248897E-004   5.4692196256601079E-002
  -2.2105534172995234E-004   1.8592300357974528E-004   5.7654115890551569E-002
  -2.4885426802568299E-004   2.1016990898437005E-004   6.0510825998801435E-002
   2.9082300074826109E-002  -6.1106759434025951E-003   5.8072382251964309E-002
   2.8730060442498949E-002  -6.4894210453458126E-003   5.8744571307256264E-002
   2.8377820810171785E-002  -6.8268723504318774E-003   5.9500597039883543E-002
   2.8025581177844622E-002  -7.1230298586607878E-003   6.0340459449846062E-002
   2.7673341545517448E-002  -7.3778935700325177E-003   6.1264158537143898E-002
   2.1683378918003444E-002  -4.5304644803058555E-003   5.8523336921574819E-002
   2.1409405366776532E-002  -4.8029725043371094E-003   5.9275803791408142E-002
   2.1135431815549631E-002  -5.0332542651523853E-003   6.0100966146106674E-002
   2.0861458264322723E-002  -5.2213097627516296E-003   6.0998823985670483E-002
   2.0587484713095815E-002  -5.3671389971349237E-003   6.1969377310099487E-002
   1.4328546141920589E-002  -2.9502530172091125E-003   5.9080062435917832E-002
   1.4121697479323880E-002  -3.1165239633284304E-003   5.9913739586651360E-002
   1.3914848816727176E-002  -3.2396361798729201E-003   6.0808971029780064E-002
   1.3708000154130467E-002  -3.3195896668425529E-003   6.1765756765303916E-002
   1.3501151491533766E-002  -3.3563844242373436E-003   6.2784096793222999E-002
   7.0178017465775452E-003  -1.3700415541123712E-003   5.9742558794993371E-002
   6.8669367801409802E-003  -1.4300754223197532E-003   6.0658378692985938E-002
   6.7160718137044169E-003  -1.4460180945934137E-003   6.1624611690903636E-002
   6.5652068472678571E-003  -1.4178695709334355E-003   6.2641257788746435E-002
   6.4143418808312886E-003  -1.3456298513397566E-003   6.3708316986514357E-002
  -2.4885426802568299E-004   2.1016990898437005E-004   6.0510825998801435E-002
  -3.5487673077216030E-004   2.5637311868894480E-004   6.1509721110411919E-002
  -4.6089919351863674E-004   3.4759999068603720E-004   6.2547888129477425E-002
  -5.6692165626511144E-004   4.8385052497567499E-004   6.3625327055998035E-002
  -6.7294411901159049E-004   6.6512472155783042E-004   6.4742037889973680E-002
   2.7673341545517448E-002  -7.3778935700325177E-003   6.1264158537143898E-002
   2.6941690750363199E-002  -7.5629579705474362E-003   6.0988490565333758E-002
   2.6210039955208941E-002  -7.6497175462058864E-003   6.0662236105750764E-002
   2.5478389160054682E-002  -7.6381722970080071E-003   6.0285395158394858E-002
   2.4746738364900434E-002  -7.5283222229536595E-003   5.9857967723266015E-002
   2.0587484713095815E-002  -5.3671389971349237E-003   6.1969377310099487E-002
   1.9847751010196854E-002  -5.4763179061549580E-003   6.1800426135360610E-002
   1.9108017307297904E-002  -5.5544224276645390E-003   6.1665895632905213E-002
   1.8368283604398947E-002  -5.6014525616636165E-003   6.1565785802733239E-002
   1.7628549901499993E-002  -5.6174083081522719E-003   6.1500096644844945E-002
   1.3501151491533766E-002  -3.3563844242373436E-003   6.2784096793222999E-002
   1.2838342040946487E-002  -3.3896778417624902E-003   6.2654631978209391E-002
   1.2175532590359209E-002  -3.4591273091231084E-003   6.2644594995535596E-002
   1.1512723139771929E-002  -3.5647328263192397E-003   6.2753985845201671E-002
   1.0849913689184656E-002  -3.7064943933508981E-003   6.2982804527207642E-002
   6.4143418808312886E-003  -1.3456298513397566E-003   6.3708316986514357E-002
   5.9134638426120746E-003  -1.3030377773699617E-003   6.3551108093880038E-002
   5.4125858043928624E-003  -1.3638321905816639E-003   6.3598334193641942E-002
   4.9117077661736466E-003  -1.5280130909748422E-003   6.3849995285800071E-002
   4.4108297279544430E-003  -1.7955804785494897E-003   6.4306091370354507E-002
  -6.7294411901159049E-004   6.6512472155783042E-004   6.4742037889973680E-002
  -9.2688358480636640E-004   7.8360228702250428E-004   6.4489854482372627E-002
  -1.1808230506011406E-003   7.3146292795975287E-004   6.4527113227224223E-002
  -1.4347625163959148E-003   5.0870664436957619E-004   6.4853814124528494E-002
  -1.6887019821906907E-003   1.1533343625186321E-004   6.5469957174285331E-002
   2.4746738364900434E-002  -7.5283222229536595E-003   5.9857967723266015E-002
   2.3949453866058214E-002  -7.4033447558900373E-003   5.8583134556321775E-002
   2.3152169367215994E-002  -7.3464173276644382E-003   5.7807338499776525E-002
   2.2354884868373774E-002  -7.3575399382769229E-003   5.7530579553630369E-002
   2.1557600369531568E-002  -7.4367125877272677E-003   5.7752857717883022E-002
   1.7628549901499993E-002  -5.6174083081522719E-003   6.1500096644844945E-002
   1.7286590977039253E-002  -5.6160150226953753E-003   6.0488891011739432E-002
   1.6944632052578526E-002  -5.6109980608581231E-003   5.9889299416997895E-002
   1.6602673128117796E-002  -5.6023574226403260E-003   5.9701321860620382E-002
   1.6260714203657059E-002  -5.5900931080421212E-003   5.9924958342606915E-002
   1.0849913689184656E-002  -3.7064943933508981E-003   6.2982804527207642E-002
   1.0875857267070360E-002  -3.8286852895008036E-003   6.2306900143159517E-002
   1.0901800844956063E-002  -3.8755787940517282E-003   6.1955186725440273E-002
   1.0927744422841773E-002  -3.8471749070037578E-003   6.1927664274049971E-002
   1.0953688000727477E-002  -3.7434736283568082E-003   6.2224332788988562E-002
   4.4108297279544430E-003  -1.7955804785494897E-003   6.4306091370354507E-002
   4.7172527361515285E-003  -2.0413555563062145E-003   6.4037161950582164E-002
   5.0236757443486201E-003  -2.1401595272454287E-003   6.4005000425103653E-002
   5.3300987525457134E-003  -2.0919923913672307E-003   6.4209606793918947E-002
   5.6365217607427971E-003  -1.8968541486716339E-003   6.4650981057028156E-002
  -1.6887019821906907E-003   1.1533343625186321E-004   6.5469957174285331E-002
  -1.1892226157172552E-003  -2.5402582311154220E-004   6.5679676434007184E-002
  -6.8974324924381616E-004  -4.0474026043903211E-004   6.6038740515987848E-002
  -1.9026388277037891E-004  -3.3680987573065160E-004   6.6547149420227367E-002
   3.0921548370305835E-004  -5.0234668986293141E-005   6.7204903146725781E-002
   2.1557600369531568E-002  -7.4367125877272677E-003   5.7752857717883022E-002
   2.0924825060247634E-002  -7.4829657326275778E-003   5.7955243639795456E-002
   2.0292049750963700E-002  -7.3953298295899306E-003   5.8308500103159633E-002
   1.9659274441679774E-002  -7.1738048786137501E-003   5.8812627107975440E-002
   1.9026499132395833E-002  -6.8183908796995985E-003   5.9467624654243045E-002
   1.6260714203657059E-002  -5.5900931080421212E-003   5.9924958342606915E-002
   1.5759431774255386E-002  -5.5528105509579789E-003   6.0187977494159592E-002
   1.5258149344853721E-002  -5.4691151852822237E-003   6.0563111864025077E-002
   1.4756866915452051E-002  -5.3390070110151729E-003   6.1050361452203356E-002
   1.4255584486050382E-002  -5.1624860281565543E-003   6.1649726258694471E-002
   1.0953688000727477E-002  -3.7434736283568082E-003   6.2224332788988562E-002
   1.0545143128069163E-002  -3.6226553692880470E-003   6.2460508930834858E-002
   1.0136598255410842E-002  -3.5429005409746278E-003   6.2770044967854946E-002
   9.7280533827525349E-003  -3.5042091434164847E-003   6.3152940900048998E-002
   9.3195085100942106E-003  -3.5065811766136212E-003   6.3609196727416883E-002
   5.6365217607427971E-003  -1.8968541486716339E-003   6.4650981057028156E-002
   5.2819591216889334E-003  -1.6925001876182538E-003   6.4772837949821221E-002
   4.9273964826350644E-003  -1.6166858966669764E-003   6.4929299414649186E-002
   4.5728338435811989E-003  -1.6694112758177410E-003   6.5120365451512147E-002
   4.2182712045273326E-003  -1.8506763250706326E-003   6.5346036060410145E-002
   3.0921548370305835E-004  -5.0234668986293141E-005   6.7204903146725781E-002
  -3.0120244885276787E-005   2.3765499405148383E-004   6.7124964551118826E-002
  -3.6945597347360498E-004   3.0952874764061944E-004   6.7040875204407963E-002
  -7.0879170206193665E-004   1.6538659178076676E-004   6.6952635106593134E-002
  -1.0481274306502683E-003  -1.9477147352769952E-004   6.6860244257674395E-002
   1.9026499132395833E-002  -6.8183908796995985E-003   5.9467624654243045E-002
   1.7870719063782570E-002  -6.6234957696611474E-003   5.8093505297380332E-002
   1.6714938995169300E-002  -6.8835274853124295E-003   5.5875808550224865E-002
   1.5559158926556040E-002  -7.5984860266534240E-003   5.2814534412776531E-002
   1.4403378857942781E-002  -8.7683713936842489E-003   4.8909682885035610E-002
   1.4255584486050382E-002  -5.1624860281565543E-003   6.1649726258694471E-002
   1.2434127036960799E-002  -5.0825954965265652E-003   5.9941045313668367E-002
   1.0612669587871201E-002  -5.2423786759452085E-003   5.7744586997982350E-002
   8.7912121387816178E-003  -5.6418355664123662E-003   5.5060351311636516E-002
   6.9697546896920343E-003  -6.2809661679281148E-003   5.1888338254630850E-002
   9.3195085100942106E-003  -3.5065811766136212E-003   6.3609196727416883E-002
   7.1881737001612163E-003  -3.5416952233921495E-003   6.1781207308868574E-002
   5.0568388902282237E-003  -3.6012298665780290E-003   5.9821240539293247E-002
   2.9255040802952268E-003  -3.6851851061712494E-003   5.7729296418690949E-002
   7.9416927036223342E-004  -3.7935609421718142E-003   5.5505374947061731E-002
   4.2182712045273326E-003  -1.8506763250706326E-003   6.5346036060410145E-002
   2.1328590533838425E-003  -2.0007949502575395E-003   6.3613991282980842E-002
   4.7446902240353642E-005  -1.9600810572107455E-003   6.2105769174157471E-002
  -2.0379652489031343E-003  -1.7285346459302176E-003   6.0821369733939840E-002
  -4.1233774000466262E-003  -1.3061557164156523E-003   5.9760792962328474E-002
  -1.0481274306502683E-003  -1.9477147352769952E-004   6.6860244257674395E-002
  -2.7318169033713341E-003  -4.5989467712320709E-004   6.5439397236005281E-002
  -4.4155063760924033E-003  -3.1893224784372565E-004   6.4598172902574830E-002
  -6.0991958488134657E-003   2.2811581431095643E-004   6.4336571257383388E-002
  -7.7828853215345384E-003   1.1812495093407316E-003   6.4654592300430913E-002
   1.4403378857942781E-002  -8.7683713936842489E-003   4.8909682885035610E-002
   1.7054418235429025E-002  -9.1797525702759231E-003   4.9479024197909338E-002
   1.9705457612915277E-002  -7.6191985402995210E-003   5.5594101060613188E-002
   2.2356496990401552E-002  -4.0867093037546681E-003   6.7254913473146938E-002
   2.5007536367887773E-002   1.4177151393581777E-003   8.4461461435510587E-002
   6.9697546896920343E-003  -6.2809661679281148E-003   5.1888338254630850E-002
   1.3564239062198988E-002  -6.6822394632021220E-003   5.3457089526666390E-002
   2.0158723434705941E-002  -6.3681244349442084E-003   5.7366995238913254E-002
   2.6753207807212898E-002  -5.3386210831544538E-003   6.3618055391371997E-002
   3.3347692179719862E-002  -3.5937294078328685E-003   7.2210269984041564E-002
   7.9416927036223342E-004  -3.7935609421718142E-003   5.5505374947061731E-002
   8.1275175282713580E-003  -4.1847263561283210E-003   5.6816989295222761E-002
   1.5460865786180498E-002  -5.1170503295891734E-003   5.7265176973976831E-002
   2.2794214044089652E-002  -6.5905328625542950E-003   5.6849937983323842E-002
   3.0127562301998756E-002  -8.6051739550238038E-003   5.5571272323263421E-002
  -4.1233774000466262E-003  -1.3061557164156523E-003   5.9760792962328474E-002
   7.4425363364618007E-004  -1.6872132490544645E-003   5.9558723503578631E-002
   5.6118846673389768E-003  -3.8659762242339996E-003   5.5288646265803355E-002
   1.0479515701031785E-002  -7.8424446419541084E-003   4.6950561249002334E-002
   1.5347146734724579E-002  -1.3616618502214850E-002   3.4544468453175728E-002
  -7.7828853215345384E-003   1.1812495093407316E-003   6.4654592300430913E-002
  -8.5855526216766058E-003   8.1029985801933657E-004   6.1682292151733986E-002
  -9.3882199218186593E-003  -2.6149021188787425E-003   5.1437403114393210E-002
  -1.0190887221960720E-002  -9.0943564213537900E-003   3.3919925188408084E-002
  -1.0993554522102780E-002  -1.8628063049405785E-002   9.1298583737788874E-003
  -5.9982318155786529E-005   0.0000000000000000        2.8515442127743248E-002
  -7.9401379327530101E-005   2.5499039782739610E-005   3.3499945000939370E-002
  -9.8820440499273023E-005   5.1751380578656317E-005   3.8484327005980548E-002
  -1.1823950167101584E-004   7.8757022387751854E-005   4.3468588142866763E-002
  -1.3765856284275865E-004   1.0651596521002622E-004   4.8452728411598027E-002
  -6.8390694191709520E-003   0.0000000000000000        2.8601283587616967E-002
  -6.8947506910234154E-003   1.6512017184956273E-004   3.3656987705763530E-002
  -6.9504319628758797E-003   3.6735962645566798E-004   3.8640288270703593E-002
  -7.0061132347283457E-003   6.0671836381830969E-004   4.3551185282437177E-002
  -7.0617945065808117E-003   8.8319638393750434E-004   4.8389678740964247E-002
  -1.3529750224594775E-002   0.0000000000000000        2.8808563188685833E-002
  -1.3693976392179501E-002   3.0474130391638585E-004   3.3971834533526188E-002
  -1.3858202559764225E-002   6.8296787233267531E-004   3.8990419640108506E-002
  -1.4022428727348948E-002   1.1346797052488701E-003   4.3864318508432802E-002
  -1.4186654894933669E-002   1.6598768026649747E-003   4.8593531138499062E-002
  -2.0132024734427260E-002   0.0000000000000000        2.9137280930949833E-002
  -2.0477078482795778E-002   4.4436243598320940E-004   3.4444485484227343E-002
  -2.0822132231164303E-002   9.9857611820968655E-004   3.9534721114195280E-002
  -2.1167185979532824E-002   1.6626410466794327E-003   4.4407987820853680E-002
  -2.1512239727901349E-002   2.4365572213924454E-003   4.9064285604202486E-002
  -2.6645892948668402E-002   0.0000000000000000        2.9587436814408979E-002
  -2.7244056962872257E-002   5.8398356805003208E-004   3.5074940557867015E-002
  -2.7842220977076115E-002   1.3141843640866926E-003   4.0273192692963949E-002
  -2.8440384991279970E-002   2.1906023881099867E-003   4.5182193219699761E-002
  -2.9038549005483832E-002   3.2132376401199222E-003   4.9801942138074484E-002
  -1.3765856284275865E-004   1.0651596521002622E-004   4.8452728411598027E-002
  -1.6545748913849006E-004   1.3409603169256632E-004   5.1625067096949889E-002
  -1.9325641543422082E-004   1.6056504448248897E-004   5.4692196256601079E-002
  -2.2105534172995234E-004   1.8592300357974528E-004   5.7654115890551569E-002
  -2.4885426802568299E-004   2.1016990898437005E-004   6.0510825998801435E-002
  -7.0617945065808117E-003   8.8319638393750434E-004   4.8389678740964247E-002
  -7.1708037181038983E-003   1.1566761551830536E-003   5.1363178805076383E-002
  -7.2798129296269866E-003   1.3870401459247857E-003   5.4279467824434463E-002
  -7.3888221411500732E-003   1.5742883561627140E-003   5.7138545799038529E-002
  -7.4978313526731606E-003   1.7184207858968181E-003   5.9940412728888511E-002
  -1.4186654894933669E-002   1.6598768026649747E-003   4.8593531138499062E-002
  -1.4328875910737490E-002   2.1792562786735335E-003   5.1326187854560293E-002
  -1.4471096926541317E-002   2.6135152473671028E-003   5.4049632006814112E-002
  -1.4613317942345142E-002   2.9626537087456828E-003   5.6763863595260498E-002
  -1.4755538958148962E-002   3.2266716628092662E-003   5.9468882619899410E-002
  -2.1512239727901349E-002   2.4365572213924454E-003   4.9064285604202486E-002
  -2.1639674067039281E-002   3.2018364021640169E-003   5.1514094245401640E-002
  -2.1767108406177214E-002   3.8399903488093995E-003   5.4002688803739984E-002
  -2.1894542745315142E-002   4.3510190613286481E-003   5.6530069279217533E-002
  -2.2021977084453078E-002   4.7349225397217143E-003   5.9096235671834287E-002
  -2.9038549005483832E-002   3.2132376401199222E-003   4.9801942138074484E-002
  -2.9103198187009245E-002   4.2244165256545008E-003   5.1926897977600375E-002
  -2.9167847368534668E-002   5.0664654502517326E-003   5.4138638215212094E-002
  -2.9232496550060088E-002   5.7393844139116100E-003   5.6437162850909640E-002
  -2.9297145731585511E-002   6.2431734166341554E-003   5.8822471884693021E-002
  -2.4885426802568299E-004   2.1016990898437005E-004   6.0510825998801435E-002
  -3.5487673077216030E-004   2.5637311868894480E-004   6.1509721110411919E-002
  -4.6089919351863674E-004   3.4759999068603720E-004   6.2547888129477425E-002
  -5.6692165626511144E-004   4.8385052497567499E-004   6.3625327055998035E-002
  -6.7294411901159049E-004   6.6512472155783042E-004   6.4742037889973680E-002
  -7.4978313526731606E-003   1.7184207858968181E-003   5.9940412728888511E-002
  -7.5436422140851668E-003   1.8467389448170723E-003   6.0979772464134371E-002
  -7.5894530754971722E-003   1.9865443426133542E-003   6.2100283494594108E-002
  -7.6352639369091785E-003   2.1378369792857833E-003   6.3301945820267769E-002
  -7.6810747983211830E-003   2.3006168548342643E-003   6.4584759441155243E-002
  -1.4755538958148962E-002   3.2266716628092662E-003   5.9468882619899410E-002
  -1.4699258830467667E-002   3.4371047709451756E-003   6.0515170555364255E-002
  -1.4642978702786370E-002   3.6254886945407266E-003   6.1684489173801801E-002
  -1.4586698575105077E-002   3.7918234335958777E-003   6.2976838475212044E-002
  -1.4530418447423780E-002   3.9361089881106703E-003   6.4392218459595016E-002
  -2.2021977084453078E-002   4.7349225397217143E-003   5.9096235671834287E-002
  -2.1821726579919657E-002   5.0274705970732771E-003   6.0115915384101611E-002
  -2.1621476075386229E-002   5.2644330464680159E-003   6.1300505167100477E-002
  -2.1421225570852805E-002   5.4458098879059790E-003   6.2650005020830846E-002
  -2.1220975066319380E-002   5.5716011213870764E-003   6.4164414945292819E-002
  -2.9297145731585511E-002   6.2431734166341554E-003   5.8822471884693021E-002
  -2.8911045462441137E-002   6.6178364232014064E-003   5.9782006950346384E-002
  -2.8524945193296750E-002   6.9033773983954074E-003   6.0948331474490150E-002
  -2.8138844924152372E-002   7.0997963422160717E-003   6.2321445457124237E-002
  -2.7752744655007992E-002   7.2070932546635103E-003   6.3901348898248722E-002
  -6.7294411901159049E-004   6.6512472155783042E-004   6.4742037889973680E-002
  -9.2688358480636640E-004   7.8360228702250428E-004   6.4489854482372627E-002
  -1.1808230506011406E-003   7.3146292795975287E-004   6.4527113227224223E-002
  -1.4347625163959148E-003   5.0870664436957619E-004   6.4853814124528494E-002
  -1.6887019821906907E-003   1.1533343625186321E-004   6.5469957174285331E-002
  -7.6810747983211830E-003   2.3006168548342643E-003   6.4584759441155243E-002
  -7.6523531591520932E-003   2.4157938323108724E-003   6.4345927036498843E-002
  -7.6236315199830033E-003   2.4242777747676761E-003   6.4382974689317529E-002
  -7.5949098808139187E-003   2.3260686822047256E-003   6.4695902399611302E-002
  -7.5661882416448237E-003   2.1211665546219671E-003   6.5284710167380189E-002
  -1.4530418447423780E-002   3.9361089881106703E-003   6.4392218459595016E-002
  -1.4232597798268357E-002   4.0479853775992301E-003   6.4230660947390827E-002
  -1.3934777149112929E-002   4.1170926215756271E-003   6.4331421397684260E-002
  -1.3636956499957505E-002   4.1434307200399444E-003   6.4694499810475259E-002
  -1.3339135850802085E-002   4.1269996729920988E-003   6.5319896185763782E-002
  -2.1220975066319380E-002   5.5716011213870764E-003   6.4164414945292819E-002
  -2.0667617502155150E-002   5.6801769228875931E-003   6.4144056215048609E-002
  -2.0114259937990927E-002   5.8099074683835641E-003   6.4372453352324416E-002
  -1.9560902373826700E-002   5.9607927578750868E-003   6.4849606357120254E-002
  -1.9007544809662474E-002   6.1328327913622027E-003   6.5575515229436165E-002
  -2.7752744655007992E-002   7.2070932546635103E-003   6.3901348898248722E-002
  -2.6957412270812487E-002   7.3123684681759560E-003   6.4086112839472076E-002
  -2.6162079886616993E-002   7.5027223151915082E-003   6.4506070553237982E-002
  -2.5366747502421495E-002   7.7781547957103004E-003   6.5161222039546357E-002
  -2.4571415118225991E-002   8.1386659097323066E-003   6.6051567298397257E-002
  -1.6887019821906907E-003   1.1533343625186321E-004   6.5469957174285331E-002
  -1.1892226157172552E-003  -2.5402582311154220E-004   6.5679676434007184E-002
  -6.8974324924381616E-004  -4.0474026043903211E-004   6.6038740515987848E-002
  -1.9026388277037891E-004  -3.3680987573065160E-004   6.6547149420227367E-002
   3.0921548370305835E-004  -5.0234668986293141E-005   6.7204903146725781E-002
  -7.5661882416448237E-003   2.1211665546219671E-003   6.5284710167380189E-002
  -6.9404950965060910E-003   1.9284964182247066E-003   6.5750737953518767E-002
  -6.3148019513673548E-003   1.8669832992183472E-003   6.6319848474729118E-002
  -5.6891088062286169E-003   1.9366271976027326E-003   6.6992041731011309E-002
  -5.0634156610898859E-003   2.1374281133779149E-003   6.7767317722365189E-002
  -1.3339135850802085E-002   4.1269996729920988E-003   6.5319896185763782E-002
  -1.2633491014185098E-002   4.1110186595610249E-003   6.5954744693674003E-002
  -1.1927846177568112E-002   4.1387068588756779E-003   6.6646413849468872E-002
  -1.1222201340951119E-002   4.2100642709359797E-003   6.7394903653148541E-002
  -1.0516556504334140E-002   4.3250908957420953E-003   6.8200214104712942E-002
  -1.9007544809662474E-002   6.1328327913622027E-003   6.5575515229436165E-002
  -1.8268210368754277E-002   6.2935409008972668E-003   6.6291696654472820E-002
  -1.7528875927846081E-002   6.4104304185330883E-003   6.7018436640207249E-002
  -1.6789541486937894E-002   6.4835013442693509E-003   6.7755735186639368E-002
  -1.6050207046029694E-002   6.5127536781062895E-003   6.8503592293769108E-002
  -2.4571415118225991E-002   8.1386659097323066E-003   6.6051567298397257E-002
  -2.3844653160213631E-002   8.4760631422335919E-003   6.6761593835915345E-002
  -2.3117891202201271E-002   8.6821539781904086E-003   6.7435916846944069E-002
  -2.2391129244188908E-002   8.7569384176026856E-003   6.8074536331483415E-002
  -2.1664367286176552E-002   8.7004164604705392E-003   6.8677452289533425E-002
   3.0921548370305835E-004  -5.0234668986293141E-005   6.7204903146725781E-002
  -3.0120244885276787E-005   2.3765499405148383E-004   6.7124964551118826E-002
  -3.6945597347360498E-004   3.0952874764061944E-004   6.7040875204407963E-002
  -7.0879170206193665E-004   1.6538659178076676E-004   6.6952635106593134E-002
  -1.0481274306502683E-003  -1.9477147352769952E-004   6.6860244257674395E-002
  -5.0634156610898859E-003   2.1374281133779149E-003   6.7767317722365189E-002
  -5.3394115065868667E-003   2.3377162892960907E-003   6.7500260859225544E-002
  -5.6154073520838475E-003   2.4058219681099141E-003   6.7364034513372500E-002
  -5.8914031975808301E-003   2.3417451498190418E-003   6.7358638684806044E-002
  -6.1673990430778161E-003   2.1454858344238104E-003   6.7484073373526188E-002
  -1.0516556504334140E-002   4.3250908957420953E-003   6.8200214104712942E-002
  -1.0594231198349237E-002   4.4377775845408363E-003   6.7829872386384785E-002
  -1.0671905892364336E-002   4.5021151885793198E-003   6.7725342453733808E-002
  -1.0749580586379438E-002   4.5181037078573169E-003   6.7886624306759943E-002
  -1.0827255280394524E-002   4.4857431423752370E-003   6.8313717945463218E-002
  -1.6050207046029694E-002   6.5127536781062895E-003   6.8503592293769108E-002
  -1.5794579320172367E-002   6.5378388797855125E-003   6.8113799132596700E-002
  -1.5538951594315058E-002   6.5984084090486700E-003   6.8124799025491928E-002
  -1.5283323868457739E-002   6.6944622658957030E-003   6.8536591972454944E-002
  -1.5027696142600423E-002   6.8260004503265664E-003   6.9349177973485554E-002
  -2.1664367286176552E-002   8.7004164604705392E-003   6.8677452289533425E-002
  -2.0940455872056292E-002   8.6379001750301609E-003   6.8352041097861138E-002
  -2.0216544457936029E-002   8.6947016295180202E-003   6.8562404228646956E-002
  -1.9492633043815766E-002   8.8708208239339503E-003   6.9308541681890906E-002
  -1.8768721629695513E-002   9.1662577582781735E-003   7.0590453457593183E-002
  -1.0481274306502683E-003  -1.9477147352769952E-004   6.6860244257674395E-002
  -2.7318169033713341E-003  -4.5989467712320709E-004   6.5439397236005281E-002
  -4.4155063760924033E-003  -3.1893224784372565E-004   6.4598172902574830E-002
  -6.0991958488134657E-003   2.2811581431095643E-004   6.4336571257383388E-002
  -7.7828853215345384E-003   1.1812495093407316E-003   6.4654592300430913E-002
  -6.1673990430778161E-003   2.1454858344238104E-003   6.7484073373526188E-002
  -7.2387541927898917E-003   2.0458890558884835E-003   6.6921149963587834E-002
  -8.3101093425019638E-003   2.2717998481781437E-003   6.7003272511428652E-002
  -9.3814644922140429E-003   2.8232182112928016E-003   6.7730441017048545E-002
  -1.0452819641926112E-002   3.7001441452320649E-003   6.9102655480447417E-002
  -1.0827255280394524E-002   4.4857431423752370E-003   6.8313717945463218E-002
  -1.1220852837557397E-002   4.5516727889002018E-003   6.8528140085205677E-002
  -1.1614450394720251E-002   4.8625319441998952E-003   6.9453031452267361E-002
  -1.2008047951883120E-002   5.4183206082744229E-003   7.1088392046648491E-002
  -1.2401645509045977E-002   6.2190387811235648E-003   7.3434221868348831E-002
  -1.5027696142600423E-002   6.8260004503265664E-003   6.9349177973485554E-002
  -1.4678112837673849E-002   7.0574565219118507E-003   7.0260367600858548E-002
  -1.4328529532747273E-002   7.4532640402217055E-003   7.1947449725091095E-002
  -1.3978946227820701E-002   8.0134230052559333E-003   7.4410424346183293E-002
  -1.3629362922894125E-002   8.7379334170150369E-003   7.7649291464134879E-002
  -1.8768721629695513E-002   9.1662577582781735E-003   7.0590453457593183E-002
  -1.7610534193139276E-002   9.5632402549235829E-003   7.2117832510546653E-002
  -1.6452346756583025E-002   1.0043996136243363E-002   7.4486527329899882E-002
  -1.5294159320026778E-002   1.0608525402237824E-002   7.7696537915652827E-002
  -1.4135971883470537E-002   1.1256828052906453E-002   8.1747864267805503E-002
  -7.7828853215345384E-003   1.1812495093407316E-003   6.4654592300430913E-002
  -8.5855526216766058E-003   8.1029985801933657E-004   6.1682292151733986E-002
  -9.3882199218186593E-003  -2.6149021188787425E-003   5.1437403114393210E-002
  -1.0190887221960720E-002  -9.0943564213537900E-003   3.3919925188408084E-002
  -1.0993554522102780E-002  -1.8628063049405785E-002   9.1298583737788874E-003
  -1.0452819641926112E-002   3.7001441452320649E-003   6.9102655480447417E-002
  -1.6685584767650141E-002   3.8675068300484672E-003   6.6294511650760529E-002
  -2.2918349893374157E-002   2.2902354457935981E-003   5.9898761058553768E-002
  -2.9151115019098187E-002  -1.0316700075325008E-003   4.9915403703827382E-002
  -3.5383880144822188E-002  -6.0982095299297878E-003   3.6344439586581068E-002
  -1.2401645509045977E-002   6.2190387811235648E-003   7.3434221868348831E-002
  -2.0379526334227623E-002   6.9247138020774035E-003   7.2099852614177340E-002
  -2.8357407159409279E-002   7.1953730104659525E-003   7.0862858723610547E-002
  -3.6335287984590917E-002   7.0310164062888474E-003   6.9723240196648328E-002
  -4.4313168809772568E-002   6.4316439895464317E-003   6.8680997033290614E-002
  -1.3629362922894125E-002   8.7379334170150369E-003   7.7649291464134879E-002
  -1.9667377321409073E-002   9.9819207741064925E-003   7.9098315041984835E-002
  -2.5705391719924003E-002   1.2100510575138133E-002   8.4329696109563687E-002
  -3.1743406118438962E-002   1.5093702820110222E-002   9.3343434666871505E-002
  -3.7781420516953886E-002   1.8961497509022485E-002  0.10613953071390800     
  -1.4135971883470537E-002   1.1256828052906453E-002   8.1747864267805503E-002
  -1.4549137729194452E-002   1.3039127746135415E-002   8.7289898934182653E-002
  -1.4962303574918370E-002   1.7005648139810550E-002  0.10029927321641283     
  -1.5375469420642289E-002   2.3156389233931516E-002  0.12077598711449615     
  -1.5788635266366202E-002   3.1491351028498649E-002  0.14872004062843280     
  -2.6645892948668402E-002   0.0000000000000000        2.9587436814408979E-002
  -2.7244056962872257E-002   5.8398356805003208E-004   3.5074940557867015E-002
  -2.7842220977076115E-002   1.3141843640866926E-003   4.0273192692963949E-002
  -2.8440384991279970E-002   2.1906023881099867E-003   4.5182193219699761E-002
  -2.9038549005483832E-002   3.2132376401199222E-003   4.9801942138074484E-002
  -3.3402493305734859E-002   0.0000000000000000        3.0293849892205963E-002
  -3.4229057980079254E-002   9.5322562055925788E-004   3.5392717035657911E-002
  -3.5055622654423663E-002   2.0090000791625371E-003   4.0324034467189879E-002
  -3.5882187328768057E-002   3.1673233758098326E-003   4.5087802186801862E-002
  -3.6708752003112459E-002   4.4281955105011485E-003   4.9684020194493868E-002
  -4.0732964244043289E-002   0.0000000000000000        3.1391339217483480E-002
  -4.1666227682087102E-002   1.3224676730684854E-003   3.6057901370986724E-002
  -4.2599491120130936E-002   2.7038157942383756E-003   4.0678615709011122E-002
  -4.3532754558174749E-002   4.1440443635096759E-003   4.5253482231556660E-002
  -4.4466017996218569E-002   5.6431533808823792E-003   4.9782500938623332E-002
  -4.8637305763593687E-002   0.0000000000000000        3.2879904790241526E-002
  -4.9555566068895801E-002   1.6917097255777108E-003   3.7070493563853474E-002
  -5.0473826374197922E-002   3.3986315093142132E-003   4.1336936418427679E-002
  -5.1392086679500043E-002   5.1207653512095174E-003   4.5679233353964142E-002
  -5.2310346984802157E-002   6.8581112512636072E-003   5.0097384370462884E-002
  -5.7115517864386053E-002   0.0000000000000000        3.4759546610480106E-002
  -5.7897073140505351E-002   2.0609517780869379E-003   3.8430493614258127E-002
  -5.8678628416624648E-002   4.0934472243900569E-003   4.2298996595439529E-002
  -5.9460183692743945E-002   6.0974863389093616E-003   4.6365055554024315E-002
  -6.0241738968863250E-002   8.0730691216448353E-003   5.0628670490012496E-002
  -2.9038549005483832E-002   3.2132376401199222E-003   4.9801942138074484E-002
  -2.9103198187009245E-002   4.2244165256545008E-003   5.1926897977600375E-002
  -2.9167847368534668E-002   5.0664654502517326E-003   5.4138638215212094E-002
  -2.9232496550060088E-002   5.7393844139116100E-003   5.6437162850909640E-002
  -2.9297145731585511E-002   6.2431734166341554E-003   5.8822471884693021E-002
  -3.6708752003112459E-002   4.4281955105011485E-003   4.9684020194493868E-002
  -3.6720069210966808E-002   5.6515385394399400E-003   5.1515092108884331E-002
  -3.6731386418821156E-002   6.6972745188296533E-003   5.3366043572531094E-002
  -3.6742703626675505E-002   7.5654034486702963E-003   5.5236874585434172E-002
  -3.6754020834529874E-002   8.2559253289618689E-003   5.7127585147593585E-002
  -4.4466017996218569E-002   5.6431533808823792E-003   4.9782500938623332E-002
  -4.4490908079231360E-002   7.0786605532253896E-003   5.1311211839266617E-002
  -4.4515798162244151E-002   8.3280835874075879E-003   5.2792897440336689E-002
  -4.4540688245256949E-002   9.3914224834289860E-003   5.4227557741833562E-002
  -4.4565578328269732E-002   1.0268677241289572E-002   5.5615192743757265E-002
  -5.2310346984802157E-002   6.8581112512636072E-003   5.0097384370462884E-002
  -5.2415714791802903E-002   8.5057825670108340E-003   5.1315257168747248E-002
  -5.2521082598803656E-002   9.9588926559855163E-003   5.2419199818628928E-002
  -5.2626450405804374E-002   1.1217441518187682E-002   5.3409212320107868E-002
  -5.2731818212805134E-002   1.2281429153617253E-002   5.4285294673184145E-002
  -6.0241738968863250E-002   8.0730691216448353E-003   5.0628670490012496E-002
  -6.0494489348681429E-002   9.9329045807962750E-003   5.1527228097326239E-002
  -6.0747239728499644E-002   1.1589701724563447E-002   5.2244950707407749E-002
  -6.0999990108317838E-002   1.3043460552946355E-002   5.2781838320257055E-002
  -6.1252740488136032E-002   1.4294181065944982E-002   5.3137890935874156E-002
  -2.9297145731585511E-002   6.2431734166341554E-003   5.8822471884693021E-002
  -2.8911045462441137E-002   6.6178364232014064E-003   5.9782006950346384E-002
  -2.8524945193296750E-002   6.9033773983954074E-003   6.0948331474490150E-002
  -2.8138844924152372E-002   7.0997963422160717E-003   6.2321445457124237E-002
  -2.7752744655007992E-002   7.2070932546635103E-003   6.3901348898248722E-002
  -3.6754020834529874E-002   8.2559253289618689E-003   5.7127585147593585E-002
  -3.6152920166805491E-002   8.7745555481216000E-003   5.7612999610497088E-002
  -3.5551819499081129E-002   9.1270094945666846E-003   5.8321625412070227E-002
  -3.4950718831356760E-002   9.3132871682971782E-003   5.9253462552312917E-002
  -3.4349618163632384E-002   9.3333885693130392E-003   6.0408511031225243E-002
  -4.4565578328269732E-002   1.0268677241289572E-002   5.5615192743757265E-002
  -4.3733055381786144E-002   1.0931274673041780E-002   5.5549432362569581E-002
  -4.2900532435302577E-002   1.1350641590738005E-002   5.5723305200230742E-002
  -4.2068009488818989E-002   1.1526777994378229E-002   5.6136811256740728E-002
  -4.1235486542335408E-002   1.1459683883962513E-002   5.6789950532099502E-002
  -5.2731818212805134E-002   1.2281429153617253E-002   5.4285294673184145E-002
  -5.1651451107383096E-002   1.3087993797961953E-002   5.3591305206563918E-002
  -5.0571084001961059E-002   1.3574273686909303E-002   5.3153370838971724E-002
  -4.9490716896539021E-002   1.3740268820459324E-002   5.2971491570407592E-002
  -4.8410349791116997E-002   1.3585979198611986E-002   5.3045667400871563E-002
  -6.1252740488136032E-002   1.4294181065944982E-002   5.3137890935874156E-002
  -5.9908107343596313E-002   1.5244712922882160E-002   5.1738618142480000E-002
  -5.8563474199056623E-002   1.5797905783080608E-002   5.0611822328293157E-002
  -5.7218841054516904E-002   1.5953759646540378E-002   4.9757503493313537E-002
  -5.5874207909977207E-002   1.5712274513261501E-002   4.9175661637541265E-002
  -2.7752744655007992E-002   7.2070932546635103E-003   6.3901348898248722E-002
  -2.6957412270812487E-002   7.3123684681759560E-003   6.4086112839472076E-002
  -2.6162079886616993E-002   7.5027223151915082E-003   6.4506070553237982E-002
  -2.5366747502421495E-002   7.7781547957103004E-003   6.5161222039546357E-002
  -2.4571415118225991E-002   8.1386659097323066E-003   6.6051567298397257E-002
  -3.4349618163632384E-002   9.3333885693130392E-003   6.0408511031225243E-002
  -3.3305273003766005E-002   9.3046134222588214E-003   6.0394850010537300E-002
  -3.2260927843899619E-002   9.3442614517792108E-003   6.0644020768648610E-002
  -3.1216582684033215E-002   9.4523326578741362E-003   6.1156023305559200E-002
  -3.0172237524166829E-002   9.6288270405437415E-003   6.1930857621269042E-002
  -4.1235486542335408E-002   1.1459683883962513E-002   5.6789950532099502E-002
  -3.9914490600541350E-002   1.1296858376341756E-002   5.6561209092571611E-002
  -3.8593494658747257E-002   1.1185800588366965E-002   5.6622937438099777E-002
  -3.7272498716953185E-002   1.1126510520038095E-002   5.6975135568684013E-002
  -3.5951502775159128E-002   1.1118988171355190E-002   5.7617803484324291E-002
  -4.8410349791116997E-002   1.3585979198611986E-002   5.3045667400871563E-002
  -4.6785065061138491E-002   1.3289103330424656E-002   5.2585190085575051E-002
  -4.5159780331159964E-002   1.3027339724954597E-002   5.2442820561591399E-002
  -4.3534495601181444E-002   1.2800688382201993E-002   5.2618558828920588E-002
  -4.1909210871202952E-002   1.2609149302166590E-002   5.3112404887562602E-002
  -5.5874207909977207E-002   1.5712274513261501E-002   4.9175661637541265E-002
  -5.3916996385557456E-002   1.5281348284507598E-002   4.8466792989547591E-002
  -5.1959784861137712E-002   1.4868878861542440E-002   4.8103670139123554E-002
  -5.0002573336717947E-002   1.4474866244365839E-002   4.8086293086269064E-002
  -4.8045361812298196E-002   1.4099310432978102E-002   4.8414661830984251E-002
  -2.4571415118225991E-002   8.1386659097323066E-003   6.6051567298397257E-002
  -2.3844653160213631E-002   8.4760631422335919E-003   6.6761593835915345E-002
  -2.3117891202201271E-002   8.6821539781904086E-003   6.7435916846944069E-002
  -2.2391129244188908E-002   8.7569384176026856E-003   6.8074536331483415E-002
  -2.1664367286176552E-002   8.7004164604705392E-003   6.8677452289533425E-002
  -3.0172237524166829E-002   9.6288270405437415E-003   6.1930857621269042E-002
  -2.9454900482393617E-002   9.7777047917403520E-003   6.2361238505953445E-002
  -2.8737563440620395E-002   9.8029261034164872E-003   6.2808473084648833E-002
  -2.8020226398847201E-002   9.7044909755722580E-003   6.3272561357355372E-002
  -2.7302889357073958E-002   9.4823994082074980E-003   6.3753503324072869E-002
  -3.5951502775159128E-002   1.1118988171355190E-002   5.7617803484324291E-002
  -3.5191033429124642E-002   1.1079346441247057E-002   5.7776188673198933E-002
  -3.4430564083090164E-002   1.0923698228642541E-002   5.8003984776585069E-002
  -3.3670094737055713E-002   1.0652043533541693E-002   5.8301191794482753E-002
  -3.2909625391021206E-002   1.0264382355944429E-002   5.8667809726891798E-002
  -4.1909210871202952E-002   1.2609149302166590E-002   5.3112404887562602E-002
  -4.1053052000406764E-002   1.2380988090753831E-002   5.3006444337651670E-002
  -4.0196893129610604E-002   1.2044470353868608E-002   5.3022451922752588E-002
  -3.9340734258814458E-002   1.1599596091511141E-002   5.3160427642865465E-002
  -3.8484575388018291E-002   1.1046365303681374E-002   5.3420371497990185E-002
  -4.8045361812298196E-002   1.4099310432978102E-002   4.8414661830984251E-002
  -4.7040956196239957E-002   1.3682629740260521E-002   4.8052005499311795E-002
  -4.6036550580181690E-002   1.3165242479094681E-002   4.7863874523151564E-002
  -4.5032144964123423E-002   1.2547148649480632E-002   4.7850268902503705E-002
  -4.4027739348065184E-002   1.1828348251418319E-002   4.8011188637368085E-002
  -2.1664367286176552E-002   8.7004164604705392E-003   6.8677452289533425E-002
  -2.0940455872056292E-002   8.6379001750301609E-003   6.8352041097861138E-002
  -2.0216544457936029E-002   8.6947016295180202E-003   6.8562404228646956E-002
  -1.9492633043815766E-002   8.8708208239339503E-003   6.9308541681890906E-002
  -1.8768721629695513E-002   9.1662577582781735E-003   7.0590453457593183E-002
  -2.7302889357073958E-002   9.4823994082074980E-003   6.3753503324072869E-002
  -2.6110673980785891E-002   9.2500941992005037E-003   6.3503681257142314E-002
  -2.4918458604497793E-002   9.1210181464293771E-003   6.3654692792089254E-002
  -2.3726243228209723E-002   9.0951712498940421E-003   6.4206537928913510E-002
  -2.2534027851921625E-002   9.1725535095947275E-003   6.5159216667615344E-002
  -3.2909625391021206E-002   1.0264382355944429E-002   5.8667809726891798E-002
  -3.1384046773146074E-002   9.8622882233708048E-003   5.8477488201010661E-002
  -2.9858468155270903E-002   9.5473346633406786E-003   5.8553059556426340E-002
  -2.8332889537395763E-002   9.3195216758541893E-003   5.8894523793138642E-002
  -2.6807310919520624E-002   9.1788492609112260E-003   5.9501880911147539E-002
  -3.8484575388018291E-002   1.1046365303681374E-002   5.3420371497990185E-002
  -3.6760574249136826E-002   1.0474482247541099E-002   5.3273461929466324E-002
  -3.5036573110255369E-002   9.9736511802519801E-003   5.3257504521658450E-002
  -3.3312571971373911E-002   9.5438721018143088E-003   5.3372499274566443E-002
  -3.1588570832492474E-002   9.1851450122277523E-003   5.3618446188190352E-002
  -4.4027739348065184E-002   1.1828348251418319E-002   4.8011188637368085E-002
  -4.2240256408758184E-002   1.1086676271711504E-002   4.7891602442509146E-002
  -4.0452773469451177E-002   1.0399967697163393E-002   4.7768027687785347E-002
  -3.8665290530144183E-002   9.7682225277743867E-003   4.7640464373196634E-002
  -3.6877807590837169E-002   9.1914407635443340E-003   4.7508912498743339E-002
  -1.8768721629695513E-002   9.1662577582781735E-003   7.0590453457593183E-002
  -1.7610534193139276E-002   9.5632402549235829E-003   7.2117832510546653E-002
  -1.6452346756583025E-002   1.0043996136243363E-002   7.4486527329899882E-002
  -1.5294159320026778E-002   1.0608525402237824E-002   7.7696537915652827E-002
  -1.4135971883470537E-002   1.1256828052906453E-002   8.1747864267805503E-002
  -2.2534027851921625E-002   9.1725535095947275E-003   6.5159216667615344E-002
  -2.0599051155068819E-002   9.2928187079973357E-003   6.6147247422013999E-002
  -1.8664074458216037E-002   9.3956206275682963E-003   6.7847540930605979E-002
  -1.6729097761363259E-002   9.4809592683076441E-003   7.0260097193391269E-002
  -1.4794121064510446E-002   9.5488346302151084E-003   7.3384916210369910E-002
  -2.6807310919520624E-002   9.1788492609112260E-003   5.9501880911147539E-002
  -2.4224597974577721E-002   9.0223971610711023E-003   5.9849326703485445E-002
  -2.1641885029634877E-002   8.7472451188932224E-003   6.0779982237810150E-002
  -1.9059172084692027E-002   8.3533931343772964E-003   6.2293847514121661E-002
  -1.6476459139749156E-002   7.8408412075237355E-003   6.4390922532419972E-002
  -3.1588570832492474E-002   9.1851450122277523E-003   5.3618446188190352E-002
  -2.8487174651665954E-002   8.7519756141448621E-003   5.3224070354961205E-002
  -2.5385778470839507E-002   8.0988696102180409E-003   5.3283851251512297E-002
  -2.2284382290013047E-002   7.2258270004471438E-003   5.3797788877843783E-002
  -1.9182986109186541E-002   6.1328477848323765E-003   5.4765883233955565E-002
  -3.6877807590837169E-002   9.1914407635443340E-003   4.7508912498743339E-002
  -3.3386781186333592E-002   8.4815540672185663E-003   4.6271478376440911E-002
  -2.9895754781829972E-002   7.4504941015430259E-003   4.5359147971712477E-002
  -2.6404728377326388E-002   6.0982608665168386E-003   4.4771921284557925E-002
  -2.2913701972822775E-002   4.4248543621409619E-003   4.4509798314977200E-002
  -1.4135971883470537E-002   1.1256828052906453E-002   8.1747864267805503E-002
  -1.4549137729194452E-002   1.3039127746135415E-002   8.7289898934182653E-002
  -1.4962303574918370E-002   1.7005648139810550E-002  0.10029927321641283     
  -1.5375469420642289E-002   2.3156389233931516E-002  0.12077598711449615     
  -1.5788635266366202E-002   3.1491351028498649E-002  0.14872004062843280     
  -1.4794121064510446E-002   9.5488346302151084E-003   7.3384916210369910E-002
  -9.8011120440004498E-003   1.0246209110667703E-002   7.7571938341112812E-002
  -4.8081030234904398E-003   1.2220045107042207E-002   8.5103970588470440E-002
   1.8490599701958058E-004   1.5470342619338186E-002   9.5981012952442948E-002
   5.1779150175295455E-003   1.9997101647556192E-002  0.11020306543302949     
  -1.6476459139749156E-002   7.8408412075237355E-003   6.4390922532419972E-002
  -1.0199604752243746E-002   7.4532904751999085E-003   6.6315172943004472E-002
  -3.9227503647383212E-003   7.4344420742736353E-003   6.7462103970965109E-002
   2.3541040227670960E-003   7.7842960047448551E-003   6.7831715616302010E-002
   8.6309584102725115E-003   8.5028522666135142E-003   6.7424007879014924E-002
  -1.9182986109186541E-002   6.1328477848323765E-003   5.4765883233955565E-002
  -1.5744615853924254E-002   4.6603718397320998E-003   5.3519602739857564E-002
  -1.2306245598661955E-002   2.6488390415051223E-003   4.7373673363897029E-002
  -8.8678753433996515E-003   9.8249390151469197E-005   3.6328095106074307E-002
  -5.4295050881373718E-003  -2.9913971143289975E-003   2.0382867966388996E-002
  -2.2913701972822775E-002   4.4248543621409619E-003   4.4509798314977200E-002
  -2.6436145349042081E-002   1.8674532042642911E-003   3.9185227731672156E-002
  -2.9958588725261442E-002  -2.1367639912632103E-003   2.4838678767266281E-002
  -3.3481032101480776E-002  -7.5877972244417884E-003   1.4701514217594219E-003
  -3.7003475477700110E-002  -1.4485646495271620E-002  -3.0920354304848185E-002
  -5.7115517864386053E-002   0.0000000000000000        3.4759546610480106E-002
  -5.7897073140505351E-002   2.0609517780869379E-003   3.8430493614258127E-002
  -5.8678628416624648E-002   4.0934472243900569E-003   4.2298996595439529E-002
  -5.9460183692743945E-002   6.0974863389093616E-003   4.6365055554024315E-002
  -6.0241738968863250E-002   8.0730691216448353E-003   5.0628670490012496E-002
  -6.5765349478318191E-002   0.0000000000000000        3.7259765330487103E-002
  -6.6574742610033474E-002   2.8964850469783742E-003   4.0892949441279525E-002
  -6.7384135741748757E-002   5.7354251958432120E-003   4.4272901863476578E-002
  -6.8193528873464040E-002   8.5168204465945127E-003   4.7399622597078292E-002
  -6.9002922005179324E-002   1.1240670799232272E-002   5.0273111642084645E-002
  -7.4184549537287869E-002   0.0000000000000000        4.0610061602550387E-002
  -7.5472568190597888E-002   3.7320183158698118E-003   4.4176394254027494E-002
  -7.6760586843907894E-002   7.3774031672963671E-003   4.7038707550910483E-002
  -7.8048605497217913E-002   1.0936154554279666E-002   4.9197001493199388E-002
  -7.9336624150527904E-002   1.4408272476819708E-002   5.0651276080894189E-002
  -8.2373118041295115E-002   0.0000000000000000        4.4810435426669987E-002
  -8.4590549882198593E-002   4.5675515847612485E-003   4.8280828052502028E-002
  -8.6807981723102071E-002   9.0193811387495187E-003   5.0596413657741250E-002
  -8.9025413564005548E-002   1.3355488661964822E-002   5.1757192242387631E-002
  -9.1242845404909012E-002   1.7575874154407142E-002   5.1763163806441172E-002
  -9.0331054990339915E-002   0.0000000000000000        4.9860886802845866E-002
  -9.3928687684835588E-002   5.4030848536526857E-003   5.3206250836703155E-002
  -9.7526320379331288E-002   1.0661359110202679E-002   5.4946020183968873E-002
 -0.10112395307382697        1.5774822769649970E-002   5.5080194844643000E-002
 -0.10472158576832265        2.0743475831994578E-002   5.3608774818725571E-002
  -6.0241738968863250E-002   8.0730691216448353E-003   5.0628670490012496E-002
  -6.0494489348681429E-002   9.9329045807962750E-003   5.1527228097326239E-002
  -6.0747239728499644E-002   1.1589701724563447E-002   5.2244950707407749E-002
  -6.0999990108317838E-002   1.3043460552946355E-002   5.2781838320257055E-002
  -6.1252740488136032E-002   1.4294181065944982E-002   5.3137890935874156E-002
  -6.9002922005179324E-002   1.1240670799232272E-002   5.0273111642084645E-002
  -6.9208214963330697E-002   1.3666631404696912E-002   4.9456806103456430E-002
  -6.9413507921482057E-002   1.5554357413928905E-002   4.8916250405394067E-002
  -6.9618800879633430E-002   1.6903848826928202E-002   4.8651444547897549E-002
  -6.9824093837784845E-002   1.7715105643694828E-002   4.8662388530966917E-002
  -7.9336624150527904E-002   1.4408272476819708E-002   5.0651276080894189E-002
  -7.9037874849214387E-002   1.7400358228597569E-002   4.7784911115475615E-002
  -7.8739125547900871E-002   1.9519013103294340E-002   4.5650880828420955E-002
  -7.8440376246587354E-002   2.0764237100910046E-002   4.4249185219730244E-002
  -7.8141626945273823E-002   2.1136030221444637E-002   4.3579824289403414E-002
  -9.1242845404909012E-002   1.7575874154407142E-002   5.1763163806441172E-002
  -8.9983469006332542E-002   2.1134085052498228E-002   4.6511543133383827E-002
  -8.8724092607756072E-002   2.3483668792659805E-002   4.2448841976488461E-002
  -8.7464716209179574E-002   2.4624625374891910E-002   3.9575060335755134E-002
  -8.6205339810603090E-002   2.4556954799194473E-002   3.7890198211183716E-002
 -0.10472158576832265        2.0743475831994578E-002   5.3608774818725571E-002
 -0.10204499743468512        2.4867811876398860E-002   4.5636702157181033E-002
  -9.9368409101047606E-002   2.7448324482025232E-002   3.9310133849596564E-002
  -9.6691820767410105E-002   2.8485013648873733E-002   3.4629069895972156E-002
  -9.4015232433772578E-002   2.7977879376944279E-002   3.1593510296307789E-002
  -6.1252740488136032E-002   1.4294181065944982E-002   5.3137890935874156E-002
  -5.9908107343596313E-002   1.5244712922882160E-002   5.1738618142480000E-002
  -5.8563474199056623E-002   1.5797905783080608E-002   5.0611822328293157E-002
  -5.7218841054516904E-002   1.5953759646540378E-002   4.9757503493313537E-002
  -5.5874207909977207E-002   1.5712274513261501E-002   4.9175661637541265E-002
  -6.9824093837784845E-002   1.7715105643694828E-002   4.8662388530966917E-002
  -6.8217435466875878E-002   1.8140232349360057E-002   4.7190801915540065E-002
  -6.6610777095966939E-002   1.8331333429055262E-002   4.5970788773644411E-002
  -6.5004118725058013E-002   1.8288408882780355E-002   4.5002349105279921E-002
  -6.3397460354149046E-002   1.8011458710535472E-002   4.4285482910446566E-002
  -7.8141626945273823E-002   2.1136030221444637E-002   4.3579824289403414E-002
  -7.6293846853671785E-002   2.1035751775837972E-002   4.2199237222712550E-002
  -7.4446066762069746E-002   2.0864761075029884E-002   4.1049320123876708E-002
  -7.2598286670467721E-002   2.0623058119020342E-002   4.0130072992895893E-002
  -7.0750506578865696E-002   2.0310642907809366E-002   3.9441495829770148E-002
  -8.6205339810603090E-002   2.4556954799194473E-002   3.7890198211183716E-002
  -8.4137341503984095E-002   2.3931271202315904E-002   3.6763924063997450E-002
  -8.2069343197365058E-002   2.3398188721004496E-002   3.5847416378990034E-002
  -8.0001344890746062E-002   2.2957707355260298E-002   3.5140675156161559E-002
  -7.7933346584127039E-002   2.2609827105083340E-002   3.4643700395512018E-002
  -9.4015232433772578E-002   2.7977879376944279E-002   3.1593510296307789E-002
  -9.1747919417812740E-002   2.6826790628793777E-002   3.0884862439394742E-002
  -8.9480606401852875E-002   2.5931616366979163E-002   3.0365077538984354E-002
  -8.7213293385893009E-002   2.5292356591500267E-002   3.0034155595076908E-002
  -8.4945980369933144E-002   2.4909011302357231E-002   2.9892096607672114E-002
  -5.5874207909977207E-002   1.5712274513261501E-002   4.9175661637541265E-002
  -5.3916996385557456E-002   1.5281348284507598E-002   4.8466792989547591E-002
  -5.1959784861137712E-002   1.4868878861542440E-002   4.8103670139123554E-002
  -5.0002573336717947E-002   1.4474866244365839E-002   4.8086293086269064E-002
  -4.8045361812298196E-002   1.4099310432978102E-002   4.8414661830984251E-002
  -6.3397460354149046E-002   1.8011458710535472E-002   4.4285482910446566E-002
  -6.1133606964346485E-002   1.7606371501730347E-002   4.3705820729040543E-002
  -5.8869753574543916E-002   1.7179035845774918E-002   4.3393696480830544E-002
  -5.6605900184741355E-002   1.6729451742669228E-002   4.3349110165816523E-002
  -5.4342046794938786E-002   1.6257619192413170E-002   4.3572061783998584E-002
  -7.0750506578865696E-002   2.0310642907809366E-002   3.9441495829770148E-002
  -6.8258219188053887E-002   1.9931394718953020E-002   3.8950334862012777E-002
  -6.5765931797242091E-002   1.9489192830007419E-002   3.8648503963077813E-002
  -6.3273644406430324E-002   1.8984037240972477E-002   3.8536003132965291E-002
  -6.0781357015618549E-002   1.8415927951848279E-002   3.8612832371675156E-002
  -7.7933346584127039E-002   2.2609827105083340E-002   3.4643700395512018E-002
  -7.5290833056679593E-002   2.2256417936175745E-002   3.4200335388464315E-002
  -7.2648319529232216E-002   2.1799349814239952E-002   3.3868092585865421E-002
  -7.0005806001784812E-002   2.1238622739275764E-002   3.3646971987715324E-002
  -6.7363292474337380E-002   2.0574236711283340E-002   3.3536973594014113E-002
  -8.4945980369933144E-002   2.4909011302357231E-002   2.9892096607672114E-002
  -8.2231448570223714E-002   2.4581441153398428E-002   2.9455822308395108E-002
  -7.9516916770514270E-002   2.4109506798472409E-002   2.9052462349193273E-002
  -7.6802384970804854E-002   2.3493208237579083E-002   2.8682016730066727E-002
  -7.4087853171095397E-002   2.2732545470718485E-002   2.8344485451015311E-002
  -4.8045361812298196E-002   1.4099310432978102E-002   4.8414661830984251E-002
  -4.7040956196239957E-002   1.3682629740260521E-002   4.8052005499311795E-002
  -4.6036550580181690E-002   1.3165242479094681E-002   4.7863874523151564E-002
  -4.5032144964123423E-002   1.2547148649480632E-002   4.7850268902503705E-002
  -4.4027739348065184E-002   1.1828348251418319E-002   4.8011188637368085E-002
  -5.4342046794938786E-002   1.6257619192413170E-002   4.3572061783998584E-002
  -5.3148363369383833E-002   1.5747884383975452E-002   4.3004401349440613E-002
  -5.1954679943828894E-002   1.5184593506324416E-002   4.2640771178363762E-002
  -5.0760996518273954E-002   1.4567746559460323E-002   4.2481171270767934E-002
  -4.9567313092719022E-002   1.3897343543382901E-002   4.2525601626653253E-002
  -6.0781357015618549E-002   1.8415927951848279E-002   3.8612832371675156E-002
  -5.9368890872598105E-002   1.7813139027690383E-002   3.7887318333466792E-002
  -5.7956424729577669E-002   1.7203944533554231E-002   3.7395339466708255E-002
  -5.6543958586557211E-002   1.6588344469439929E-002   3.7136895771399621E-002
  -5.5131492443536795E-002   1.5966338835347371E-002   3.7111987247540834E-002
  -6.7363292474337380E-002   2.0574236711283340E-002   3.3536973594014113E-002
  -6.5702538705882690E-002   1.9878393671405231E-002   3.2700756451390249E-002
  -6.4041784937428015E-002   1.9223295560783907E-002   3.2127579388185154E-002
  -6.2381031168973339E-002   1.8608942379419523E-002   3.1817442404398655E-002
  -6.0720277400518649E-002   1.8035334127311980E-002   3.1770345500030800E-002
  -7.4087853171095397E-002   2.2732545470718485E-002   2.8344485451015311E-002
  -7.2149306869237678E-002   2.1943648315120204E-002   2.7444715703211081E-002
  -7.0210760567379918E-002   2.1242646588013829E-002   2.6837490942794348E-002
  -6.8272214265522158E-002   2.0629540289399256E-002   2.6522811169765133E-002
  -6.6333667963664439E-002   2.0104329419276423E-002   2.6500676384123178E-002
  -4.4027739348065184E-002   1.1828348251418319E-002   4.8011188637368085E-002
  -4.2240256408758184E-002   1.1086676271711504E-002   4.7891602442509146E-002
  -4.0452773469451177E-002   1.0399967697163393E-002   4.7768027687785347E-002
  -3.8665290530144183E-002   9.7682225277743867E-003   4.7640464373196634E-002
  -3.6877807590837169E-002   9.1914407635443340E-003   4.7508912498743339E-002
  -4.9567313092719022E-002   1.3897343543382901E-002   4.2525601626653253E-002
  -4.7748261492140405E-002   1.3188043556850826E-002   4.2432329813498093E-002
  -4.5929209891561781E-002   1.2454505698622373E-002   4.2406183882750928E-002
  -4.4110158290983165E-002   1.1696729968697719E-002   4.2447163834411841E-002
  -4.2291106690404527E-002   1.0914716367076915E-002   4.2555269668480777E-002
  -5.5131492443536795E-002   1.5966338835347371E-002   3.7111987247540834E-002
  -5.3209757739413707E-002   1.5289410841990120E-002   3.6965828539234219E-002
  -5.1288023035290647E-002   1.4509043700081409E-002   3.6957910155608620E-002
  -4.9366288331167574E-002   1.3625237409621162E-002   3.7088232096663842E-002
  -4.7444553627044521E-002   1.2637991970609580E-002   3.7356794362400025E-002
  -6.0720277400518649E-002   1.8035334127311980E-002   3.1770345500030800E-002
  -5.8624745150578181E-002   1.7390778127129455E-002   3.1492098619717607E-002
  -5.6529212900637754E-002   1.6563581701540306E-002   3.1423206506358242E-002
  -5.4433680650697279E-002   1.5553744850544577E-002   3.1563669159952637E-002
  -5.2338148400756852E-002   1.4361267574142175E-002   3.1913486580500833E-002
  -6.6333667963664439E-002   2.0104329419276423E-002   2.6500676384123178E-002
  -6.3993223725633763E-002   1.9492145412268791E-002   2.6011140054948201E-002
  -6.1652779487603115E-002   1.8618119702999383E-002   2.5802072934999892E-002
  -5.9312335249572426E-002   1.7482252291467843E-002   2.5873475024278225E-002
  -5.6971891011541764E-002   1.6084543177674882E-002   2.6225346322783338E-002
  -3.6877807590837169E-002   9.1914407635443340E-003   4.7508912498743339E-002
  -3.3386781186333592E-002   8.4815540672185663E-003   4.6271478376440911E-002
  -2.9895754781829972E-002   7.4504941015430259E-003   4.5359147971712477E-002
  -2.6404728377326388E-002   6.0982608665168386E-003   4.4771921284557925E-002
  -2.2913701972822775E-002   4.4248543621409619E-003   4.4509798314977200E-002
  -4.2291106690404527E-002   1.0914716367076915E-002   4.2555269668480777E-002
  -3.8579831291865256E-002   1.0057578048745658E-002   4.1249240570030377E-002
  -3.4868555893325937E-002   9.0744281686898493E-003   4.0058605742077508E-002
  -3.1157280494786610E-002   7.9652667269092779E-003   3.8983365184622212E-002
  -2.7446005096247283E-002   6.7300937234040514E-003   3.8023518897664477E-002
  -4.7444553627044521E-002   1.2637991970609580E-002   3.7356794362400025E-002
  -4.3722738681545803E-002   1.1633602030272611E-002   3.6177331995427012E-002
  -4.0000923736047106E-002   1.0698362235836617E-002   3.4903554451875207E-002
  -3.6279108790548360E-002   9.8322725873013841E-003   3.3535461731744640E-002
  -3.2557293845049698E-002   9.0353330846670576E-003   3.2073053835035184E-002
  -5.2338148400756852E-002   1.4361267574142175E-002   3.1913486580500833E-002
  -4.8815503355375156E-002   1.3209626011799577E-002   3.1055752652630834E-002
  -4.5292858309993432E-002   1.2322296302983524E-002   2.9893994101105575E-002
  -4.1770213264611736E-002   1.1699278447693712E-002   2.8428210925925301E-002
  -3.8247568219229991E-002   1.1340572445929994E-002   2.6658403127089818E-002
  -5.6971891011541764E-002   1.6084543177674882E-002   2.6225346322783338E-002
  -5.3858125313353378E-002   1.4785649993326627E-002   2.5884502541641652E-002
  -5.0744359615165005E-002   1.3946230370130250E-002   2.5029924689768501E-002
  -4.7630593916976598E-002   1.3566284308085829E-002   2.3661612767163748E-002
  -4.4516828218788190E-002   1.3645811807193153E-002   2.1779566773827641E-002
  -2.2913701972822775E-002   4.4248543621409619E-003   4.4509798314977200E-002
  -2.6436145349042081E-002   1.8674532042642911E-003   3.9185227731672156E-002
  -2.9958588725261442E-002  -2.1367639912632103E-003   2.4838678767266281E-002
  -3.3481032101480776E-002  -7.5877972244417884E-003   1.4701514217594219E-003
  -3.7003475477700110E-002  -1.4485646495271620E-002  -3.0920354304848185E-002
  -2.7446005096247283E-002   6.7300937234040514E-003   3.8023518897664477E-002
  -3.7914153071132259E-002   4.9823820256758855E-003   3.3023295539230751E-002
  -4.8382301046017206E-002   2.3356045012269400E-003   2.3153641364566768E-002
  -5.8850449020902168E-002  -1.2102388499433403E-003   8.4145563736721940E-003
  -6.9318596995787130E-002  -5.6551480278346222E-003  -1.1193959433452361E-002
  -3.2557293845049698E-002   9.0353330846670576E-003   3.2073053835035184E-002
  -4.5818598853729658E-002   8.0973108470874799E-003   2.7944927912402856E-002
  -5.9079903862409681E-002   6.8079729937169722E-003   2.3099918738410698E-002
  -7.2341208871089663E-002   5.1673195245551893E-003   1.7538026313058817E-002
  -8.5602513879769720E-002   3.1753504396023757E-003   1.1259250636347196E-002
  -3.8247568219229991E-002   1.1340572445929994E-002   2.6658403127089818E-002
  -5.0149482696834592E-002   1.1212239668499185E-002   2.3950124851188512E-002
  -6.2051397174439041E-002   1.1280341486207008E-002   2.4677510888798264E-002
  -7.3953311652043566E-002   1.1544877899053788E-002   2.8840561239918485E-002
  -8.5855226129648091E-002   1.2005848907039318E-002   3.6439275904549498E-002
  -4.4516828218788190E-002   1.3645811807193153E-002   2.1779566773827641E-002
  -5.0906804600446692E-002   1.4327168489910724E-002   2.1038886355587649E-002
  -5.7296780982105153E-002   1.5752709978697238E-002   2.7886417815729092E-002
  -6.3686757363763641E-002   1.7922436273552188E-002   4.2322161154251858E-002
  -7.0076733745422060E-002   2.0836347374476372E-002   6.4346116371155837E-002
  -9.0331054990339915E-002   0.0000000000000000        4.9860886802845866E-002
  -9.3928687684835588E-002   5.4030848536526857E-003   5.3206250836703155E-002
  -9.7526320379331288E-002   1.0661359110202679E-002   5.4946020183968873E-002
 -0.10112395307382697        1.5774822769649970E-002   5.5080194844643000E-002
 -0.10472158576832265        2.0743475831994578E-002   5.3608774818725571E-002
 -0.10328077164901930        0.0000000000000000        5.8687907192857040E-002
 -0.10680772676025946        1.0879159898100104E-002   5.2123556494060259E-002
 -0.11033468187149958        1.9159538336763808E-002   4.7306155648366148E-002
 -0.11386163698273971        2.4841135315991116E-002   4.4235704655774727E-002
 -0.11738859209397985        2.7923950835782002E-002   4.2912203516285954E-002
 -0.12644467928193037        0.0000000000000000        7.4217988058482495E-002
 -0.12654841227022068        1.6355234942547529E-002   5.5289951764697913E-002
 -0.12665214525851104        2.7657717563324930E-002   4.1461409863710275E-002
 -0.12675587824680137        3.3907447862332234E-002   3.2732362355519559E-002
 -0.12685961123509171        3.5104425839569409E-002   2.9102809240125743E-002
 -0.15982277788907306        0.0000000000000000        9.6451129399722210E-002
 -0.15315074421471936        2.1831309986994948E-002   6.2705436648616136E-002
 -0.14647871054036563        3.6155896789886073E-002   3.7411782830001274E-002
 -0.13980667686601189        4.2973760408673359E-002   2.0570167943877546E-002
 -0.13313464319165821        4.2284900843356836E-002   1.2180591990245028E-002
 -0.20341506747044741        0.0000000000000000       0.12538733121657619     
 -0.18661472259375539        2.7307385031442366E-002   7.4370011145814929E-002
 -0.16981437771706337        4.4654076016447199E-002   3.5157274547239110E-002
 -0.15301403284037138        5.2040072955014505E-002   7.7491214208487008E-003
 -0.13621368796367936        4.9465375847144256E-002  -7.8544482333562926E-003
 -0.10472158576832265        2.0743475831994578E-002   5.3608774818725571E-002
 -0.10204499743468512        2.4867811876398860E-002   4.5636702157181033E-002
  -9.9368409101047606E-002   2.7448324482025232E-002   3.9310133849596564E-002
  -9.6691820767410105E-002   2.8485013648873733E-002   3.4629069895972156E-002
  -9.4015232433772578E-002   2.7977879376944279E-002   3.1593510296307789E-002
 -0.11738859209397985        2.7923950835782002E-002   4.2912203516285954E-002
 -0.11344261869249084        2.9388947361485281E-002   3.6669658769419841E-002
 -0.10949664529100178        3.0217087358449746E-002   3.1320379804296715E-002
 -0.10555067188951275        3.0408370826675381E-002   2.6864366620916499E-002
 -0.10160469848802373        2.9962797766162216E-002   2.3301619219279313E-002
 -0.12685961123509171        3.5104425839569409E-002   2.9102809240125743E-002
 -0.12239649133796826        3.3910082846571668E-002   2.5496759317977159E-002
 -0.11793337144084480        3.2985850234874249E-002   2.2031736605354475E-002
 -0.11347025154372134        3.2331728004477041E-002   1.8707741102257609E-002
 -0.10900713164659791        3.1947716155380161E-002   1.5524772808686624E-002
 -0.13313464319165821        4.2284900843356836E-002   1.2180591990245028E-002
 -0.12890661537111742        3.8431218331658093E-002   1.2118003802853064E-002
 -0.12467858755057667        3.5754613111298739E-002   1.1444204252769924E-002
 -0.12045055973003592        3.4255085182278718E-002   1.0159193339995407E-002
 -0.11622253190949516        3.3932634544598064E-002   8.2629710645298546E-003
 -0.13621368796367936        4.9465375847144256E-002  -7.8544482333562926E-003
 -0.13297299079193836        4.2952353816744504E-002  -3.4666077759525765E-003
 -0.12973229362019739        3.8523375987723235E-002  -4.4221725345705565E-004
 -0.12649159644845639        3.6178442360080353E-002   1.2187233341299925E-003
 -0.12325089927671540        3.5917552933816016E-002   1.5162139868088176E-003
  -9.4015232433772578E-002   2.7977879376944279E-002   3.1593510296307789E-002
  -9.1747919417812740E-002   2.6826790628793777E-002   3.0884862439394742E-002
  -8.9480606401852875E-002   2.5931616366979163E-002   3.0365077538984354E-002
  -8.7213293385893009E-002   2.5292356591500267E-002   3.0034155595076908E-002
  -8.4945980369933144E-002   2.4909011302357231E-002   2.9892096607672114E-002
 -0.10160469848802373        2.9962797766162216E-002   2.3301619219279313E-002
  -9.9161658041867079E-002   2.9218201210021121E-002   2.2914230743646530E-002
  -9.6718617595710474E-002   2.8512414191362929E-002   2.2689434171904482E-002
  -9.4275577149553827E-002   2.7845436710187580E-002   2.2627229504053180E-002
  -9.1832536703397208E-002   2.7217268766495217E-002   2.2727616740092549E-002
 -0.10900713164659791        3.1947716155380161E-002   1.5524772808686624E-002
 -0.10641463482285655        3.1609611791248451E-002   1.5241538765481320E-002
 -0.10382213799911520        3.1093212015746635E-002   1.5094625573554532E-002
 -0.10122964117537386        3.0398516828874879E-002   1.5084033232906566E-002
  -9.8637144351632511E-002   2.9525526230633148E-002   1.5209761743537289E-002
 -0.11622253190949516        3.3932634544598064E-002   8.2629710645298546E-003
 -0.11350684976078110        3.4001022372475688E-002   7.8667865048988907E-003
 -0.11079116761206707        3.3674009840130414E-002   7.5806517439345571E-003
 -0.10807548546335304        3.2951596947562188E-002   7.4045667816369561E-003
 -0.10535980331463897        3.1833783694771162E-002   7.3385316180060618E-003
 -0.12325089927671540        3.5917552933816016E-002   1.5162139868088176E-003
 -0.12043830285564072        3.6392432953703063E-002   7.8997396189947611E-004
 -0.11762570643456607        3.6254807664514145E-002   1.4751268304478288E-004
 -0.11481311001349143        3.5504677066249497E-002  -4.1116984975541303E-004
 -0.11200051359241675        3.4142041158909009E-002  -8.8607363650089477E-004
  -8.4945980369933144E-002   2.4909011302357231E-002   2.9892096607672114E-002
  -8.2231448570223714E-002   2.4581441153398428E-002   2.9455822308395108E-002
  -7.9516916770514270E-002   2.4109506798472409E-002   2.9052462349193273E-002
  -7.6802384970804854E-002   2.3493208237579083E-002   2.8682016730066727E-002
  -7.4087853171095397E-002   2.2732545470718485E-002   2.8344485451015311E-002
  -9.1832536703397208E-002   2.7217268766495217E-002   2.2727616740092549E-002
  -8.9063330020999351E-002   2.6593225105384401E-002   2.2307589079514002E-002
  -8.6294123338601453E-002   2.5938620471954006E-002   2.1963996844237152E-002
  -8.3524916656203596E-002   2.5253454866203721E-002   2.1696840034261995E-002
  -8.0755709973805712E-002   2.4537728288133803E-002   2.1506118649588388E-002
  -9.8637144351632511E-002   2.9525526230633148E-002   1.5209761743537289E-002
  -9.5769741701319772E-002   2.8605009057370338E-002   1.4919783955304806E-002
  -9.2902339051007018E-002   2.7767734145435461E-002   1.4749762677600392E-002
  -9.0034936400694265E-002   2.7013701494828415E-002   1.4699697910424232E-002
  -8.7167533750381471E-002   2.6342911105549163E-002   1.4769589653776082E-002
 -0.10535980331463897        3.1833783694771162E-002   7.3385316180060618E-003
 -0.10235068361118493        3.0616793009356307E-002   7.2924069357672341E-003
  -9.9341563907730884E-002   2.9596847818917027E-002   7.4097598492830962E-003
  -9.6332444204276821E-002   2.8773948123452957E-002   7.6905903585534480E-003
  -9.3323324500822813E-002   2.8148093922964530E-002   8.1348984635781791E-003
 -0.11200051359241675        3.4142041158909009E-002  -8.8607363650089477E-004
 -0.10880615575059494        3.2628576961342276E-002  -5.7454197909839744E-004
 -0.10561179790877312        3.1425961492398499E-002  -5.6011640714948019E-005
 -0.10241744006695133        3.0534194752077800E-002   6.6951737864932859E-004
  -9.9223082225129489E-002   2.9953276740379842E-002   1.6020450789948071E-003
  -7.4087853171095397E-002   2.2732545470718485E-002   2.8344485451015311E-002
  -7.2149306869237678E-002   2.1943648315120204E-002   2.7444715703211081E-002
  -7.0210760567379918E-002   2.1242646588013829E-002   2.6837490942794348E-002
  -6.8272214265522158E-002   2.0629540289399256E-002   2.6522811169765133E-002
  -6.6333667963664439E-002   2.0104329419276423E-002   2.6500676384123178E-002
  -8.0755709973805712E-002   2.4537728288133803E-002   2.1506118649588388E-002
  -7.8535960554817597E-002   2.3813494303711852E-002   2.0901760851715412E-002
  -7.6316211135829468E-002   2.3102806478905412E-002   2.0567264300715767E-002
  -7.4096461716841339E-002   2.2405664813714456E-002   2.0502628996589407E-002
  -7.1876712297853210E-002   2.1722069308139136E-002   2.0707854939336273E-002
  -8.7167533750381471E-002   2.6342911105549163E-002   1.4769589653776082E-002
  -8.4689264954777119E-002   2.5683340292303521E-002   1.4386294536957972E-002
  -8.2210996159172739E-002   2.4962966369797109E-002   1.4250176926498753E-002
  -7.9732727363568359E-002   2.4181789338029683E-002   1.4361236822399108E-002
  -7.7254458567964007E-002   2.3339809197001737E-002   1.4719474224658427E-002
  -9.3323324500822813E-002   2.8148093922964530E-002   8.1348984635781791E-003
  -9.0609220069116231E-002   2.7553186280895151E-002   7.8983167589383920E-003
  -8.7895115637409746E-002   2.6823126260688529E-002   7.8862288201438750E-003
  -8.5181011205703219E-002   2.5957913862345146E-002   8.0986346471942638E-003
  -8.2466906773996707E-002   2.4957549085864450E-002   8.5355342400898482E-003
  -9.9223082225129489E-002   2.9953276740379842E-002   1.6020450789948071E-003
  -9.6295825897834919E-002   2.9423032269486893E-002   1.4378275176571698E-003
  -9.3368569570540433E-002   2.8683286151580611E-002   1.4754199816506136E-003
  -9.0441313243245877E-002   2.7734038386660401E-002   1.7148224709749964E-003
  -8.7514056915951377E-002   2.6575288974726941E-002   2.1560349856302174E-003
  -6.6333667963664439E-002   2.0104329419276423E-002   2.6500676384123178E-002
  -6.3993223725633763E-002   1.9492145412268791E-002   2.6011140054948201E-002
  -6.1652779487603115E-002   1.8618119702999383E-002   2.5802072934999892E-002
  -5.9312335249572426E-002   1.7482252291467843E-002   2.5873475024278225E-002
  -5.6971891011541764E-002   1.6084543177674882E-002   2.6225346322783338E-002
  -7.1876712297853210E-002   2.1722069308139136E-002   2.0707854939336273E-002
  -6.9293122005402982E-002   2.0973210380045931E-002   2.0143336165975884E-002
  -6.6709531712952741E-002   2.0080278447302258E-002   1.9784640292228026E-002
  -6.4125941420502527E-002   1.9043273509907740E-002   1.9631767318092699E-002
  -6.1542351128052258E-002   1.7862195567862282E-002   1.9684717243569710E-002
  -7.7254458567964007E-002   2.3339809197001737E-002   1.4719474224658427E-002
  -7.4502368530708352E-002   2.2454275347823377E-002   1.4197741704723835E-002
  -7.1750278493452738E-002   2.1542437191605236E-002   1.3807185774787421E-002
  -6.8998188456197110E-002   2.0604294728347412E-002   1.3547806434849308E-002
  -6.6246098418941524E-002   1.9639847958049655E-002   1.3419603684909423E-002
  -8.2466906773996707E-002   2.4957549085864450E-002   8.5355342400898482E-003
  -7.9620963301549885E-002   2.3935340315600642E-002   8.1743566711918597E-003
  -7.6775019829103092E-002   2.3004595935908274E-002   7.8697093826778867E-003
  -7.3929076356656270E-002   2.2165315946787143E-002   7.6215923745480826E-003
  -7.1083132884209463E-002   2.1417500348237098E-002   7.4300056468023408E-003
  -8.7514056915951377E-002   2.6575288974726941E-002   2.1560349856302174E-003
  -8.4648906317927541E-002   2.5416405283377796E-002   2.0731810653799587E-003
  -8.1783755719903761E-002   2.4466754680211089E-002   1.9722111158996247E-003
  -7.8918605121880009E-002   2.3726337165226929E-002   1.8531251371893265E-003
  -7.6053454523856145E-002   2.3195152738424429E-002   1.7159231292486199E-003
  -5.6971891011541764E-002   1.6084543177674882E-002   2.6225346322783338E-002
  -5.3858125313353378E-002   1.4785649993326627E-002   2.5884502541641652E-002
  -5.0744359615165005E-002   1.3946230370130250E-002   2.5029924689768501E-002
  -4.7630593916976598E-002   1.3566284308085829E-002   2.3661612767163748E-002
  -4.4516828218788190E-002   1.3645811807193153E-002   2.1779566773827641E-002
  -6.1542351128052258E-002   1.7862195567862282E-002   1.9684717243569710E-002
  -5.8782312800350692E-002   1.6746328534528426E-002   1.9737577179906846E-002
  -5.6022274472649139E-002   1.5904956323268410E-002   1.9596716446001958E-002
  -5.3262236144947551E-002   1.5338078934082518E-002   1.9262135041854832E-002
  -5.0502197817246033E-002   1.5045696366970507E-002   1.8733832967465613E-002
  -6.6246098418941524E-002   1.9639847958049655E-002   1.3419603684909423E-002
  -6.3519774061237391E-002   1.8707007075730239E-002   1.3681188599647620E-002
  -6.0793449703533231E-002   1.7863682276406521E-002   1.4069066244633020E-002
  -5.8067125345829078E-002   1.7109873560079487E-002   1.4583236619865592E-002
  -5.5340800988124987E-002   1.6445580926747749E-002   1.5223699725345513E-002
  -7.1083132884209463E-002   2.1417500348237098E-002   7.4300056468023408E-003
  -6.8070509096013393E-002   2.0667685616931851E-002   7.7153368008636598E-003
  -6.5057885307817309E-002   1.9822408229544713E-002   8.4469740856613889E-003
  -6.2045261519621239E-002   1.8881668186076093E-002   9.6249175011958558E-003
  -5.9032637731425176E-002   1.7845465486525103E-002   1.1249167047466979E-002
  -7.6053454523856145E-002   2.3195152738424429E-002   1.7159231292486199E-003
  -7.2434517904678808E-002   2.2628364158133685E-002   1.8400217835549126E-003
  -6.8815581285501359E-002   2.1781134182682876E-002   2.7304399690871728E-003
  -6.5196644666323939E-002   2.0653462812072941E-002   4.3871776858456502E-003
  -6.1577708047146573E-002   1.9245350046302456E-002   6.8102349338301504E-003
  -4.4516828218788190E-002   1.3645811807193153E-002   2.1779566773827641E-002
  -5.0906804600446692E-002   1.4327168489910724E-002   2.1038886355587649E-002
  -5.7296780982105153E-002   1.5752709978697238E-002   2.7886417815729092E-002
  -6.3686757363763641E-002   1.7922436273552188E-002   4.2322161154251858E-002
  -7.0076733745422060E-002   2.0836347374476372E-002   6.4346116371155837E-002
  -5.0502197817246033E-002   1.5045696366970507E-002   1.8733832967465613E-002
  -5.0864869095411852E-002   1.5105219198476655E-002   1.8165762592531554E-002
  -5.1227540373577636E-002   1.5594058005145961E-002   2.2064090546201537E-002
  -5.1590211651743448E-002   1.6512212786977912E-002   3.0428816828475355E-002
  -5.1952882929909294E-002   1.7859683543972604E-002   4.3259941439353189E-002
  -5.5340800988124987E-002   1.6445580926747749E-002   1.5223699725345513E-002
  -5.2797980712575590E-002   1.5883269907042835E-002   1.4513370562811420E-002
  -5.0255160437026214E-002   1.5435406031594809E-002   1.5147626179103688E-002
  -4.7712340161476803E-002   1.5101989300403528E-002   1.7126466574222544E-002
  -4.5169519885927475E-002   1.4883019713469059E-002   2.0449891748167803E-002
  -5.9032637731425176E-002   1.7845465486525103E-002   1.1249167047466979E-002
  -5.6706139451938031E-002   1.6661320615609002E-002   1.0081710266426569E-002
  -5.4379641172450865E-002   1.5276754058043317E-002   7.1370247144356171E-003
  -5.2053142892963825E-002   1.3691765813829198E-002   2.4151103914938875E-003
  -4.9726644613476575E-002   1.1906355882965236E-002  -4.0840327023995149E-003
  -6.1577708047146573E-002   1.9245350046302456E-002   6.8102349338301504E-003
  -6.2589345313499023E-002   1.7439371324175057E-002   4.8707817033779577E-003
  -6.3600982579851528E-002   1.5118102084492185E-002  -1.9677138478029488E-003
  -6.4612619846203867E-002   1.2281542327254764E-002  -1.3705251719711632E-002
  -6.5624257112556483E-002   8.9296920524617462E-003  -3.0341831912348738E-002
 </DataArray>
 </PointData>
 </Piece>
 <Piece  NumberOfPoints="          1600 "  NumberOfCells="         1024 ">
 <Points>
 <DataArray  type="Float64" NumberOfComponents="3"  format="ascii" >
  0.50000000000000000        0.0000000000000000        0.0000000000000000     
  0.53125000000000000        0.0000000000000000        0.0000000000000000     
  0.56250000000000000        0.0000000000000000        0.0000000000000000     
  0.59375000000000000        0.0000000000000000        0.0000000000000000     
  0.62500000000000000        0.0000000000000000        0.0000000000000000     
  0.50000000000000000        3.1250000000000000E-002   0.0000000000000000     
  0.53125000000000000        3.1250000000000000E-002   0.0000000000000000     
  0.56250000000000000        3.1250000000000000E-002   0.0000000000000000     
  0.59375000000000000        3.1250000000000000E-002   0.0000000000000000     
  0.62500000000000000        3.1250000000000000E-002   0.0000000000000000     
  0.50000000000000000        6.2500000000000000E-002   0.0000000000000000     
  0.53125000000000000        6.2500000000000000E-002   0.0000000000000000     
  0.56250000000000000        6.2500000000000000E-002   0.0000000000000000     
  0.59375000000000000        6.2500000000000000E-002   0.0000000000000000     
  0.62500000000000000        6.2500000000000000E-002   0.0000000000000000     
  0.50000000000000000        9.3750000000000000E-002   0.0000000000000000     
  0.53125000000000000        9.3750000000000000E-002   0.0000000000000000     
  0.56250000000000000        9.3750000000000000E-002   0.0000000000000000     
  0.59375000000000000        9.3750000000000000E-002   0.0000000000000000     
  0.62500000000000000        9.3750000000000000E-002   0.0000000000000000     
  0.50000000000000000       0.12500000000000000        0.0000000000000000     
  0.53125000000000000       0.12500000000000000        0.0000000000000000     
  0.56250000000000000       0.12500000000000000        0.0000000000000000     
  0.59375000000000000       0.12500000000000000        0.0000000000000000     
  0.62500000000000000       0.12500000000000000        0.0000000000000000     
  0.62500000000000000        0.0000000000000000        0.0000000000000000     
  0.65625000000000000        0.0000000000000000        0.0000000000000000     
  0.68750000000000000        0.0000000000000000        0.0000000000000000     
  0.71875000000000000        0.0000000000000000        0.0000000000000000     
  0.75000000000000000        0.0000000000000000        0.0000000000000000     
  0.62500000000000000        3.1250000000000000E-002   0.0000000000000000     
  0.65625000000000000        3.1250000000000000E-002   0.0000000000000000     
  0.68750000000000000        3.1250000000000000E-002   0.0000000000000000     
  0.71875000000000000        3.1250000000000000E-002   0.0000000000000000     
  0.75000000000000000        3.1250000000000000E-002   0.0000000000000000     
  0.62500000000000000        6.2500000000000000E-002   0.0000000000000000     
  0.65625000000000000        6.2500000000000000E-002   0.0000000000000000     
  0.68750000000000000        6.2500000000000000E-002   0.0000000000000000     
  0.71875000000000000        6.2500000000000000E-002   0.0000000000000000     
  0.75000000000000000        6.2500000000000000E-002   0.0000000000000000     
  0.62500000000000000        9.3750000000000000E-002   0.0000000000000000     
  0.65625000000000000        9.3750000000000000E-002   0.0000000000000000     
  0.68750000000000000        9.3750000000000000E-002   0.0000000000000000     
  0.71875000000000000        9.3750000000000000E-002   0.0000000000000000     
  0.75000000000000000        9.3750000000000000E-002   0.0000000000000000     
  0.62500000000000000       0.12500000000000000        0.0000000000000000     
  0.65625000000000000       0.12500000000000000        0.0000000000000000     
  0.68750000000000000       0.12500000000000000        0.0000000000000000     
  0.71875000000000000       0.12500000000000000        0.0000000000000000     
  0.75000000000000000       0.12500000000000000        0.0000000000000000     
  0.75000000000000000        0.0000000000000000        0.0000000000000000     
  0.78125000000000000        0.0000000000000000        0.0000000000000000     
  0.81250000000000000        0.0000000000000000        0.0000000000000000     
  0.84375000000000000        0.0000000000000000        0.0000000000000000     
  0.87500000000000000        0.0000000000000000        0.0000000000000000     
  0.75000000000000000        3.1250000000000000E-002   0.0000000000000000     
  0.78125000000000000        3.1250000000000000E-002   0.0000000000000000     
  0.81250000000000000        3.1250000000000000E-002   0.0000000000000000     
  0.84375000000000000        3.1250000000000000E-002   0.0000000000000000     
  0.87500000000000000        3.1250000000000000E-002   0.0000000000000000     
  0.75000000000000000        6.2500000000000000E-002   0.0000000000000000     
  0.78125000000000000        6.2500000000000000E-002   0.0000000000000000     
  0.81250000000000000        6.2500000000000000E-002   0.0000000000000000     
  0.84375000000000000        6.2500000000000000E-002   0.0000000000000000     
  0.87500000000000000        6.2500000000000000E-002   0.0000000000000000     
  0.75000000000000000        9.3750000000000000E-002   0.0000000000000000     
  0.78125000000000000        9.3750000000000000E-002   0.0000000000000000     
  0.81250000000000000        9.3750000000000000E-002   0.0000000000000000     
  0.84375000000000000        9.3750000000000000E-002   0.0000000000000000     
  0.87500000000000000        9.3750000000000000E-002   0.0000000000000000     
  0.75000000000000000       0.12500000000000000        0.0000000000000000     
  0.78125000000000000       0.12500000000000000        0.0000000000000000     
  0.81250000000000000       0.12500000000000000        0.0000000000000000     
  0.84375000000000000       0.12500000000000000        0.0000000000000000     
  0.87500000000000000       0.12500000000000000        0.0000000000000000     
  0.87500000000000000        0.0000000000000000        0.0000000000000000     
  0.90625000000000000        0.0000000000000000        0.0000000000000000     
  0.93750000000000000        0.0000000000000000        0.0000000000000000     
  0.96875000000000000        0.0000000000000000        0.0000000000000000     
   1.0000000000000000        0.0000000000000000        0.0000000000000000     
  0.87500000000000000        3.1250000000000000E-002   0.0000000000000000     
  0.90625000000000000        3.1250000000000000E-002   0.0000000000000000     
  0.93750000000000000        3.1250000000000000E-002   0.0000000000000000     
  0.96875000000000000        3.1250000000000000E-002   0.0000000000000000     
   1.0000000000000000        3.1250000000000000E-002   0.0000000000000000     
  0.87500000000000000        6.2500000000000000E-002   0.0000000000000000     
  0.90625000000000000        6.2500000000000000E-002   0.0000000000000000     
  0.93750000000000000        6.2500000000000000E-002   0.0000000000000000     
  0.96875000000000000        6.2500000000000000E-002   0.0000000000000000     
   1.0000000000000000        6.2500000000000000E-002   0.0000000000000000     
  0.87500000000000000        9.3750000000000000E-002   0.0000000000000000     
  0.90625000000000000        9.3750000000000000E-002   0.0000000000000000     
  0.93750000000000000        9.3750000000000000E-002   0.0000000000000000     
  0.96875000000000000        9.3750000000000000E-002   0.0000000000000000     
   1.0000000000000000        9.3750000000000000E-002   0.0000000000000000     
  0.87500000000000000       0.12500000000000000        0.0000000000000000     
  0.90625000000000000       0.12500000000000000        0.0000000000000000     
  0.93750000000000000       0.12500000000000000        0.0000000000000000     
  0.96875000000000000       0.12500000000000000        0.0000000000000000     
   1.0000000000000000       0.12500000000000000        0.0000000000000000     
   1.0000000000000000        0.0000000000000000        0.0000000000000000     
   1.0312500000000000        0.0000000000000000        0.0000000000000000     
   1.0625000000000000        0.0000000000000000        0.0000000000000000     
   1.0937500000000000        0.0000000000000000        0.0000000000000000     
   1.1250000000000000        0.0000000000000000        0.0000000000000000     
   1.0000000000000000        3.1250000000000000E-002   0.0000000000000000     
   1.0312500000000000        3.1250000000000000E-002   0.0000000000000000     
   1.0625000000000000        3.1250000000000000E-002   0.0000000000000000     
   1.0937500000000000        3.1250000000000000E-002   0.0000000000000000     
   1.1250000000000000        3.1250000000000000E-002   0.0000000000000000     
   1.0000000000000000        6.2500000000000000E-002   0.0000000000000000     
   1.0312500000000000        6.2500000000000000E-002   0.0000000000000000     
   1.0625000000000000        6.2500000000000000E-002   0.0000000000000000     
   1.0937500000000000        6.2500000000000000E-002   0.0000000000000000     
   1.1250000000000000        6.2500000000000000E-002   0.0000000000000000     
   1.0000000000000000        9.3750000000000000E-002   0.0000000000000000     
   1.0312500000000000        9.3750000000000000E-002   0.0000000000000000     
   1.0625000000000000        9.3750000000000000E-002   0.0000000000000000     
   1.0937500000000000        9.3750000000000000E-002   0.0000000000000000     
   1.1250000000000000        9.3750000000000000E-002   0.0000000000000000     
   1.0000000000000000       0.12500000000000000        0.0000000000000000     
   1.0312500000000000       0.12500000000000000        0.0000000000000000     
   1.0625000000000000       0.12500000000000000        0.0000000000000000     
   1.0937500000000000       0.12500000000000000        0.0000000000000000     
   1.1250000000000000       0.12500000000000000        0.0000000000000000     
   1.1250000000000000        0.0000000000000000        0.0000000000000000     
   1.1562500000000000        0.0000000000000000        0.0000000000000000     
   1.1875000000000000        0.0000000000000000        0.0000000000000000     
   1.2187500000000000        0.0000000000000000        0.0000000000000000     
   1.2500000000000000        0.0000000000000000        0.0000000000000000     
   1.1250000000000000        3.1250000000000000E-002   0.0000000000000000     
   1.1562500000000000        3.1250000000000000E-002   0.0000000000000000     
   1.1875000000000000        3.1250000000000000E-002   0.0000000000000000     
   1.2187500000000000        3.1250000000000000E-002   0.0000000000000000     
   1.2500000000000000        3.1250000000000000E-002   0.0000000000000000     
   1.1250000000000000        6.2500000000000000E-002   0.0000000000000000     
   1.1562500000000000        6.2500000000000000E-002   0.0000000000000000     
   1.1875000000000000        6.2500000000000000E-002   0.0000000000000000     
   1.2187500000000000        6.2500000000000000E-002   0.0000000000000000     
   1.2500000000000000        6.2500000000000000E-002   0.0000000000000000     
   1.1250000000000000        9.3750000000000000E-002   0.0000000000000000     
   1.1562500000000000        9.3750000000000000E-002   0.0000000000000000     
   1.1875000000000000        9.3750000000000000E-002   0.0000000000000000     
   1.2187500000000000        9.3750000000000000E-002   0.0000000000000000     
   1.2500000000000000        9.3750000000000000E-002   0.0000000000000000     
   1.1250000000000000       0.12500000000000000        0.0000000000000000     
   1.1562500000000000       0.12500000000000000        0.0000000000000000     
   1.1875000000000000       0.12500000000000000        0.0000000000000000     
   1.2187500000000000       0.12500000000000000        0.0000000000000000     
   1.2500000000000000       0.12500000000000000        0.0000000000000000     
   1.2500000000000000        0.0000000000000000        0.0000000000000000     
   1.2812500000000000        0.0000000000000000        0.0000000000000000     
   1.3125000000000000        0.0000000000000000        0.0000000000000000     
   1.3437500000000000        0.0000000000000000        0.0000000000000000     
   1.3750000000000000        0.0000000000000000        0.0000000000000000     
   1.2500000000000000        3.1250000000000000E-002   0.0000000000000000     
   1.2812500000000000        3.1250000000000000E-002   0.0000000000000000     
   1.3125000000000000        3.1250000000000000E-002   0.0000000000000000     
   1.3437500000000000        3.1250000000000000E-002   0.0000000000000000     
   1.3750000000000000        3.1250000000000000E-002   0.0000000000000000     
   1.2500000000000000        6.2500000000000000E-002   0.0000000000000000     
   1.2812500000000000        6.2500000000000000E-002   0.0000000000000000     
   1.3125000000000000        6.2500000000000000E-002   0.0000000000000000     
   1.3437500000000000        6.2500000000000000E-002   0.0000000000000000     
   1.3750000000000000        6.2500000000000000E-002   0.0000000000000000     
   1.2500000000000000        9.3750000000000000E-002   0.0000000000000000     
   1.2812500000000000        9.3750000000000000E-002   0.0000000000000000     
   1.3125000000000000        9.3750000000000000E-002   0.0000000000000000     
   1.3437500000000000        9.3750000000000000E-002   0.0000000000000000     
   1.3750000000000000        9.3750000000000000E-002   0.0000000000000000     
   1.2500000000000000       0.12500000000000000        0.0000000000000000     
   1.2812500000000000       0.12500000000000000        0.0000000000000000     
   1.3125000000000000       0.12500000000000000        0.0000000000000000     
   1.3437500000000000       0.12500000000000000        0.0000000000000000     
   1.3750000000000000       0.12500000000000000        0.0000000000000000     
   1.3750000000000000        0.0000000000000000        0.0000000000000000     
   1.4062500000000000        0.0000000000000000        0.0000000000000000     
   1.4375000000000000        0.0000000000000000        0.0000000000000000     
   1.4687500000000000        0.0000000000000000        0.0000000000000000     
   1.5000000000000000        0.0000000000000000        0.0000000000000000     
   1.3750000000000000        3.1250000000000000E-002   0.0000000000000000     
   1.4062500000000000        3.1250000000000000E-002   0.0000000000000000     
   1.4375000000000000        3.1250000000000000E-002   0.0000000000000000     
   1.4687500000000000        3.1250000000000000E-002   0.0000000000000000     
   1.5000000000000000        3.1250000000000000E-002   0.0000000000000000     
   1.3750000000000000        6.2500000000000000E-002   0.0000000000000000     
   1.4062500000000000        6.2500000000000000E-002   0.0000000000000000     
   1.4375000000000000        6.2500000000000000E-002   0.0000000000000000     
   1.4687500000000000        6.2500000000000000E-002   0.0000000000000000     
   1.5000000000000000        6.2500000000000000E-002   0.0000000000000000     
   1.3750000000000000        9.3750000000000000E-002   0.0000000000000000     
   1.4062500000000000        9.3750000000000000E-002   0.0000000000000000     
   1.4375000000000000        9.3750000000000000E-002   0.0000000000000000     
   1.4687500000000000        9.3750000000000000E-002   0.0000000000000000     
   1.5000000000000000        9.3750000000000000E-002   0.0000000000000000     
   1.3750000000000000       0.12500000000000000        0.0000000000000000     
   1.4062500000000000       0.12500000000000000        0.0000000000000000     
   1.4375000000000000       0.12500000000000000        0.0000000000000000     
   1.4687500000000000       0.12500000000000000        0.0000000000000000     
   1.5000000000000000       0.12500000000000000        0.0000000000000000     
  0.50000000000000000       0.12500000000000000        0.0000000000000000     
  0.53125000000000000       0.12500000000000000        0.0000000000000000     
  0.56250000000000000       0.12500000000000000        0.0000000000000000     
  0.59375000000000000       0.12500000000000000        0.0000000000000000     
  0.62500000000000000       0.12500000000000000        0.0000000000000000     
  0.50000000000000000       0.15625000000000000        0.0000000000000000     
  0.53125000000000000       0.15625000000000000        0.0000000000000000     
  0.56250000000000000       0.15625000000000000        0.0000000000000000     
  0.59375000000000000       0.15625000000000000        0.0000000000000000     
  0.62500000000000000       0.15625000000000000        0.0000000000000000     
  0.50000000000000000       0.18750000000000000        0.0000000000000000     
  0.53125000000000000       0.18750000000000000        0.0000000000000000     
  0.56250000000000000       0.18750000000000000        0.0000000000000000     
  0.59375000000000000       0.18750000000000000        0.0000000000000000     
  0.62500000000000000       0.18750000000000000        0.0000000000000000     
  0.50000000000000000       0.21875000000000000        0.0000000000000000     
  0.53125000000000000       0.21875000000000000        0.0000000000000000     
  0.56250000000000000       0.21875000000000000        0.0000000000000000     
  0.59375000000000000       0.21875000000000000        0.0000000000000000     
  0.62500000000000000       0.21875000000000000        0.0000000000000000     
  0.50000000000000000       0.25000000000000000        0.0000000000000000     
  0.53125000000000000       0.25000000000000000        0.0000000000000000     
  0.56250000000000000       0.25000000000000000        0.0000000000000000     
  0.59375000000000000       0.25000000000000000        0.0000000000000000     
  0.62500000000000000       0.25000000000000000        0.0000000000000000     
  0.62500000000000000       0.12500000000000000        0.0000000000000000     
  0.65625000000000000       0.12500000000000000        0.0000000000000000     
  0.68750000000000000       0.12500000000000000        0.0000000000000000     
  0.71875000000000000       0.12500000000000000        0.0000000000000000     
  0.75000000000000000       0.12500000000000000        0.0000000000000000     
  0.62500000000000000       0.15625000000000000        0.0000000000000000     
  0.65625000000000000       0.15625000000000000        0.0000000000000000     
  0.68750000000000000       0.15625000000000000        0.0000000000000000     
  0.71875000000000000       0.15625000000000000        0.0000000000000000     
  0.75000000000000000       0.15625000000000000        0.0000000000000000     
  0.62500000000000000       0.18750000000000000        0.0000000000000000     
  0.65625000000000000       0.18750000000000000        0.0000000000000000     
  0.68750000000000000       0.18750000000000000        0.0000000000000000     
  0.71875000000000000       0.18750000000000000        0.0000000000000000     
  0.75000000000000000       0.18750000000000000        0.0000000000000000     
  0.62500000000000000       0.21875000000000000        0.0000000000000000     
  0.65625000000000000       0.21875000000000000        0.0000000000000000     
  0.68750000000000000       0.21875000000000000        0.0000000000000000     
  0.71875000000000000       0.21875000000000000        0.0000000000000000     
  0.75000000000000000       0.21875000000000000        0.0000000000000000     
  0.62500000000000000       0.25000000000000000        0.0000000000000000     
  0.65625000000000000       0.25000000000000000        0.0000000000000000     
  0.68750000000000000       0.25000000000000000        0.0000000000000000     
  0.71875000000000000       0.25000000000000000        0.0000000000000000     
  0.75000000000000000       0.25000000000000000        0.0000000000000000     
  0.75000000000000000       0.12500000000000000        0.0000000000000000     
  0.78125000000000000       0.12500000000000000        0.0000000000000000     
  0.81250000000000000       0.12500000000000000        0.0000000000000000     
  0.84375000000000000       0.12500000000000000        0.0000000000000000     
  0.87500000000000000       0.12500000000000000        0.0000000000000000     
  0.75000000000000000       0.15625000000000000        0.0000000000000000     
  0.78125000000000000       0.15625000000000000        0.0000000000000000     
  0.81250000000000000       0.15625000000000000        0.0000000000000000     
  0.84375000000000000       0.15625000000000000        0.0000000000000000     
  0.87500000000000000       0.15625000000000000        0.0000000000000000     
  0.75000000000000000       0.18750000000000000        0.0000000000000000     
  0.78125000000000000       0.18750000000000000        0.0000000000000000     
  0.81250000000000000       0.18750000000000000        0.0000000000000000     
  0.84375000000000000       0.18750000000000000        0.0000000000000000     
  0.87500000000000000       0.18750000000000000        0.0000000000000000     
  0.75000000000000000       0.21875000000000000        0.0000000000000000     
  0.78125000000000000       0.21875000000000000        0.0000000000000000     
  0.81250000000000000       0.21875000000000000        0.0000000000000000     
  0.84375000000000000       0.21875000000000000        0.0000000000000000     
  0.87500000000000000       0.21875000000000000        0.0000000000000000     
  0.75000000000000000       0.25000000000000000        0.0000000000000000     
  0.78125000000000000       0.25000000000000000        0.0000000000000000     
  0.81250000000000000       0.25000000000000000        0.0000000000000000     
  0.84375000000000000       0.25000000000000000        0.0000000000000000     
  0.87500000000000000       0.25000000000000000        0.0000000000000000     
  0.87500000000000000       0.12500000000000000        0.0000000000000000     
  0.90625000000000000       0.12500000000000000        0.0000000000000000     
  0.93750000000000000       0.12500000000000000        0.0000000000000000     
  0.96875000000000000       0.12500000000000000        0.0000000000000000     
   1.0000000000000000       0.12500000000000000        0.0000000000000000     
  0.87500000000000000       0.15625000000000000        0.0000000000000000     
  0.90625000000000000       0.15625000000000000        0.0000000000000000     
  0.93750000000000000       0.15625000000000000        0.0000000000000000     
  0.96875000000000000       0.15625000000000000        0.0000000000000000     
   1.0000000000000000       0.15625000000000000        0.0000000000000000     
  0.87500000000000000       0.18750000000000000        0.0000000000000000     
  0.90625000000000000       0.18750000000000000        0.0000000000000000     
  0.93750000000000000       0.18750000000000000        0.0000000000000000     
  0.96875000000000000       0.18750000000000000        0.0000000000000000     
   1.0000000000000000       0.18750000000000000        0.0000000000000000     
  0.87500000000000000       0.21875000000000000        0.0000000000000000     
  0.90625000000000000       0.21875000000000000        0.0000000000000000     
  0.93750000000000000       0.21875000000000000        0.0000000000000000     
  0.96875000000000000       0.21875000000000000        0.0000000000000000     
   1.0000000000000000       0.21875000000000000        0.0000000000000000     
  0.87500000000000000       0.25000000000000000        0.0000000000000000     
  0.90625000000000000       0.25000000000000000        0.0000000000000000     
  0.93750000000000000       0.25000000000000000        0.0000000000000000     
  0.96875000000000000       0.25000000000000000        0.0000000000000000     
   1.0000000000000000       0.25000000000000000        0.0000000000000000     
   1.0000000000000000       0.12500000000000000        0.0000000000000000     
   1.0312500000000000       0.12500000000000000        0.0000000000000000     
   1.0625000000000000       0.12500000000000000        0.0000000000000000     
   1.0937500000000000       0.12500000000000000        0.0000000000000000     
   1.1250000000000000       0.12500000000000000        0.0000000000000000     
   1.0000000000000000       0.15625000000000000        0.0000000000000000     
   1.0312500000000000       0.15625000000000000        0.0000000000000000     
   1.0625000000000000       0.15625000000000000        0.0000000000000000     
   1.0937500000000000       0.15625000000000000        0.0000000000000000     
   1.1250000000000000       0.15625000000000000        0.0000000000000000     
   1.0000000000000000       0.18750000000000000        0.0000000000000000     
   1.0312500000000000       0.18750000000000000        0.0000000000000000     
   1.0625000000000000       0.18750000000000000        0.0000000000000000     
   1.0937500000000000       0.18750000000000000        0.0000000000000000     
   1.1250000000000000       0.18750000000000000        0.0000000000000000     
   1.0000000000000000       0.21875000000000000        0.0000000000000000     
   1.0312500000000000       0.21875000000000000        0.0000000000000000     
   1.0625000000000000       0.21875000000000000        0.0000000000000000     
   1.0937500000000000       0.21875000000000000        0.0000000000000000     
   1.1250000000000000       0.21875000000000000        0.0000000000000000     
   1.0000000000000000       0.25000000000000000        0.0000000000000000     
   1.0312500000000000       0.25000000000000000        0.0000000000000000     
   1.0625000000000000       0.25000000000000000        0.0000000000000000     
   1.0937500000000000       0.25000000000000000        0.0000000000000000     
   1.1250000000000000       0.25000000000000000        0.0000000000000000     
   1.1250000000000000       0.12500000000000000        0.0000000000000000     
   1.1562500000000000       0.12500000000000000        0.0000000000000000     
   1.1875000000000000       0.12500000000000000        0.0000000000000000     
   1.2187500000000000       0.12500000000000000        0.0000000000000000     
   1.2500000000000000       0.12500000000000000        0.0000000000000000     
   1.1250000000000000       0.15625000000000000        0.0000000000000000     
   1.1562500000000000       0.15625000000000000        0.0000000000000000     
   1.1875000000000000       0.15625000000000000        0.0000000000000000     
   1.2187500000000000       0.15625000000000000        0.0000000000000000     
   1.2500000000000000       0.15625000000000000        0.0000000000000000     
   1.1250000000000000       0.18750000000000000        0.0000000000000000     
   1.1562500000000000       0.18750000000000000        0.0000000000000000     
   1.1875000000000000       0.18750000000000000        0.0000000000000000     
   1.2187500000000000       0.18750000000000000        0.0000000000000000     
   1.2500000000000000       0.18750000000000000        0.0000000000000000     
   1.1250000000000000       0.21875000000000000        0.0000000000000000     
   1.1562500000000000       0.21875000000000000        0.0000000000000000     
   1.1875000000000000       0.21875000000000000        0.0000000000000000     
   1.2187500000000000       0.21875000000000000        0.0000000000000000     
   1.2500000000000000       0.21875000000000000        0.0000000000000000     
   1.1250000000000000       0.25000000000000000        0.0000000000000000     
   1.1562500000000000       0.25000000000000000        0.0000000000000000     
   1.1875000000000000       0.25000000000000000        0.0000000000000000     
   1.2187500000000000       0.25000000000000000        0.0000000000000000     
   1.2500000000000000       0.25000000000000000        0.0000000000000000     
   1.2500000000000000       0.12500000000000000        0.0000000000000000     
   1.2812500000000000       0.12500000000000000        0.0000000000000000     
   1.3125000000000000       0.12500000000000000        0.0000000000000000     
   1.3437500000000000       0.12500000000000000        0.0000000000000000     
   1.3750000000000000       0.12500000000000000        0.0000000000000000     
   1.2500000000000000       0.15625000000000000        0.0000000000000000     
   1.2812500000000000       0.15625000000000000        0.0000000000000000     
   1.3125000000000000       0.15625000000000000        0.0000000000000000     
   1.3437500000000000       0.15625000000000000        0.0000000000000000     
   1.3750000000000000       0.15625000000000000        0.0000000000000000     
   1.2500000000000000       0.18750000000000000        0.0000000000000000     
   1.2812500000000000       0.18750000000000000        0.0000000000000000     
   1.3125000000000000       0.18750000000000000        0.0000000000000000     
   1.3437500000000000       0.18750000000000000        0.0000000000000000     
   1.3750000000000000       0.18750000000000000        0.0000000000000000     
   1.2500000000000000       0.21875000000000000        0.0000000000000000     
   1.2812500000000000       0.21875000000000000        0.0000000000000000     
   1.3125000000000000       0.21875000000000000        0.0000000000000000     
   1.3437500000000000       0.21875000000000000        0.0000000000000000     
   1.3750000000000000       0.21875000000000000        0.0000000000000000     
   1.2500000000000000       0.25000000000000000        0.0000000000000000     
   1.2812500000000000       0.25000000000000000        0.0000000000000000     
   1.3125000000000000       0.25000000000000000        0.0000000000000000     
   1.3437500000000000       0.25000000000000000        0.0000000000000000     
   1.3750000000000000       0.25000000000000000        0.0000000000000000     
   1.3750000000000000       0.12500000000000000        0.0000000000000000     
   1.4062500000000000       0.12500000000000000        0.0000000000000000     
   1.4375000000000000       0.12500000000000000        0.0000000000000000     
   1.4687500000000000       0.12500000000000000        0.0000000000000000     
   1.5000000000000000       0.12500000000000000        0.0000000000000000     
   1.3750000000000000       0.15625000000000000        0.0000000000000000     
   1.4062500000000000       0.15625000000000000        0.0000000000000000     
   1.4375000000000000       0.15625000000000000        0.0000000000000000     
   1.4687500000000000       0.15625000000000000        0.0000000000000000     
   1.5000000000000000       0.15625000000000000        0.0000000000000000     
   1.3750000000000000       0.18750000000000000        0.0000000000000000     
   1.4062500000000000       0.18750000000000000        0.0000000000000000     
   1.4375000000000000       0.18750000000000000        0.0000000000000000     
   1.4687500000000000       0.18750000000000000        0.0000000000000000     
   1.5000000000000000       0.18750000000000000        0.0000000000000000     
   1.3750000000000000       0.21875000000000000        0.0000000000000000     
   1.4062500000000000       0.21875000000000000        0.0000000000000000     
   1.4375000000000000       0.21875000000000000        0.0000000000000000     
   1.4687500000000000       0.21875000000000000        0.0000000000000000     
   1.5000000000000000       0.21875000000000000        0.0000000000000000     
   1.3750000000000000       0.25000000000000000        0.0000000000000000     
   1.4062500000000000       0.25000000000000000        0.0000000000000000     
   1.4375000000000000       0.25000000000000000        0.0000000000000000     
   1.4687500000000000       0.25000000000000000        0.0000000000000000     
   1.5000000000000000       0.25000000000000000        0.0000000000000000     
  0.50000000000000000       0.25000000000000000        0.0000000000000000     
  0.53125000000000000       0.25000000000000000        0.0000000000000000     
  0.56250000000000000       0.25000000000000000        0.0000000000000000     
  0.59375000000000000       0.25000000000000000        0.0000000000000000     
  0.62500000000000000       0.25000000000000000        0.0000000000000000     
  0.50000000000000000       0.28125000000000000        0.0000000000000000     
  0.53125000000000000       0.28125000000000000        0.0000000000000000     
  0.56250000000000000       0.28125000000000000        0.0000000000000000     
  0.59375000000000000       0.28125000000000000        0.0000000000000000     
  0.62500000000000000       0.28125000000000000        0.0000000000000000     
  0.50000000000000000       0.31250000000000000        0.0000000000000000     
  0.53125000000000000       0.31250000000000000        0.0000000000000000     
  0.56250000000000000       0.31250000000000000        0.0000000000000000     
  0.59375000000000000       0.31250000000000000        0.0000000000000000     
  0.62500000000000000       0.31250000000000000        0.0000000000000000     
  0.50000000000000000       0.34375000000000000        0.0000000000000000     
  0.53125000000000000       0.34375000000000000        0.0000000000000000     
  0.56250000000000000       0.34375000000000000        0.0000000000000000     
  0.59375000000000000       0.34375000000000000        0.0000000000000000     
  0.62500000000000000       0.34375000000000000        0.0000000000000000     
  0.50000000000000000       0.37500000000000000        0.0000000000000000     
  0.53125000000000000       0.37500000000000000        0.0000000000000000     
  0.56250000000000000       0.37500000000000000        0.0000000000000000     
  0.59375000000000000       0.37500000000000000        0.0000000000000000     
  0.62500000000000000       0.37500000000000000        0.0000000000000000     
  0.62500000000000000       0.25000000000000000        0.0000000000000000     
  0.65625000000000000       0.25000000000000000        0.0000000000000000     
  0.68750000000000000       0.25000000000000000        0.0000000000000000     
  0.71875000000000000       0.25000000000000000        0.0000000000000000     
  0.75000000000000000       0.25000000000000000        0.0000000000000000     
  0.62500000000000000       0.28125000000000000        0.0000000000000000     
  0.65625000000000000       0.28125000000000000        0.0000000000000000     
  0.68750000000000000       0.28125000000000000        0.0000000000000000     
  0.71875000000000000       0.28125000000000000        0.0000000000000000     
  0.75000000000000000       0.28125000000000000        0.0000000000000000     
  0.62500000000000000       0.31250000000000000        0.0000000000000000     
  0.65625000000000000       0.31250000000000000        0.0000000000000000     
  0.68750000000000000       0.31250000000000000        0.0000000000000000     
  0.71875000000000000       0.31250000000000000        0.0000000000000000     
  0.75000000000000000       0.31250000000000000        0.0000000000000000     
  0.62500000000000000       0.34375000000000000        0.0000000000000000     
  0.65625000000000000       0.34375000000000000        0.0000000000000000     
  0.68750000000000000       0.34375000000000000        0.0000000000000000     
  0.71875000000000000       0.34375000000000000        0.0000000000000000     
  0.75000000000000000       0.34375000000000000        0.0000000000000000     
  0.62500000000000000       0.37500000000000000        0.0000000000000000     
  0.65625000000000000       0.37500000000000000        0.0000000000000000     
  0.68750000000000000       0.37500000000000000        0.0000000000000000     
  0.71875000000000000       0.37500000000000000        0.0000000000000000     
  0.75000000000000000       0.37500000000000000        0.0000000000000000     
  0.75000000000000000       0.25000000000000000        0.0000000000000000     
  0.78125000000000000       0.25000000000000000        0.0000000000000000     
  0.81250000000000000       0.25000000000000000        0.0000000000000000     
  0.84375000000000000       0.25000000000000000        0.0000000000000000     
  0.87500000000000000       0.25000000000000000        0.0000000000000000     
  0.75000000000000000       0.28125000000000000        0.0000000000000000     
  0.78125000000000000       0.28125000000000000        0.0000000000000000     
  0.81250000000000000       0.28125000000000000        0.0000000000000000     
  0.84375000000000000       0.28125000000000000        0.0000000000000000     
  0.87500000000000000       0.28125000000000000        0.0000000000000000     
  0.75000000000000000       0.31250000000000000        0.0000000000000000     
  0.78125000000000000       0.31250000000000000        0.0000000000000000     
  0.81250000000000000       0.31250000000000000        0.0000000000000000     
  0.84375000000000000       0.31250000000000000        0.0000000000000000     
  0.87500000000000000       0.31250000000000000        0.0000000000000000     
  0.75000000000000000       0.34375000000000000        0.0000000000000000     
  0.78125000000000000       0.34375000000000000        0.0000000000000000     
  0.81250000000000000       0.34375000000000000        0.0000000000000000     
  0.84375000000000000       0.34375000000000000        0.0000000000000000     
  0.87500000000000000       0.34375000000000000        0.0000000000000000     
  0.75000000000000000       0.37500000000000000        0.0000000000000000     
  0.78125000000000000       0.37500000000000000        0.0000000000000000     
  0.81250000000000000       0.37500000000000000        0.0000000000000000     
  0.84375000000000000       0.37500000000000000        0.0000000000000000     
  0.87500000000000000       0.37500000000000000        0.0000000000000000     
  0.87500000000000000       0.25000000000000000        0.0000000000000000     
  0.90625000000000000       0.25000000000000000        0.0000000000000000     
  0.93750000000000000       0.25000000000000000        0.0000000000000000     
  0.96875000000000000       0.25000000000000000        0.0000000000000000     
   1.0000000000000000       0.25000000000000000        0.0000000000000000     
  0.87500000000000000       0.28125000000000000        0.0000000000000000     
  0.90625000000000000       0.28125000000000000        0.0000000000000000     
  0.93750000000000000       0.28125000000000000        0.0000000000000000     
  0.96875000000000000       0.28125000000000000        0.0000000000000000     
   1.0000000000000000       0.28125000000000000        0.0000000000000000     
  0.87500000000000000       0.31250000000000000        0.0000000000000000     
  0.90625000000000000       0.31250000000000000        0.0000000000000000     
  0.93750000000000000       0.31250000000000000        0.0000000000000000     
  0.96875000000000000       0.31250000000000000        0.0000000000000000     
   1.0000000000000000       0.31250000000000000        0.0000000000000000     
  0.87500000000000000       0.34375000000000000        0.0000000000000000     
  0.90625000000000000       0.34375000000000000        0.0000000000000000     
  0.93750000000000000       0.34375000000000000        0.0000000000000000     
  0.96875000000000000       0.34375000000000000        0.0000000000000000     
   1.0000000000000000       0.34375000000000000        0.0000000000000000     
  0.87500000000000000       0.37500000000000000        0.0000000000000000     
  0.90625000000000000       0.37500000000000000        0.0000000000000000     
  0.93750000000000000       0.37500000000000000        0.0000000000000000     
  0.96875000000000000       0.37500000000000000        0.0000000000000000     
   1.0000000000000000       0.37500000000000000        0.0000000000000000     
   1.0000000000000000       0.25000000000000000        0.0000000000000000     
   1.0312500000000000       0.25000000000000000        0.0000000000000000     
   1.0625000000000000       0.25000000000000000        0.0000000000000000     
   1.0937500000000000       0.25000000000000000        0.0000000000000000     
   1.1250000000000000       0.25000000000000000        0.0000000000000000     
   1.0000000000000000       0.28125000000000000        0.0000000000000000     
   1.0312500000000000       0.28125000000000000        0.0000000000000000     
   1.0625000000000000       0.28125000000000000        0.0000000000000000     
   1.0937500000000000       0.28125000000000000        0.0000000000000000     
   1.1250000000000000       0.28125000000000000        0.0000000000000000     
   1.0000000000000000       0.31250000000000000        0.0000000000000000     
   1.0312500000000000       0.31250000000000000        0.0000000000000000     
   1.0625000000000000       0.31250000000000000        0.0000000000000000     
   1.0937500000000000       0.31250000000000000        0.0000000000000000     
   1.1250000000000000       0.31250000000000000        0.0000000000000000     
   1.0000000000000000       0.34375000000000000        0.0000000000000000     
   1.0312500000000000       0.34375000000000000        0.0000000000000000     
   1.0625000000000000       0.34375000000000000        0.0000000000000000     
   1.0937500000000000       0.34375000000000000        0.0000000000000000     
   1.1250000000000000       0.34375000000000000        0.0000000000000000     
   1.0000000000000000       0.37500000000000000        0.0000000000000000     
   1.0312500000000000       0.37500000000000000        0.0000000000000000     
   1.0625000000000000       0.37500000000000000        0.0000000000000000     
   1.0937500000000000       0.37500000000000000        0.0000000000000000     
   1.1250000000000000       0.37500000000000000        0.0000000000000000     
   1.1250000000000000       0.25000000000000000        0.0000000000000000     
   1.1562500000000000       0.25000000000000000        0.0000000000000000     
   1.1875000000000000       0.25000000000000000        0.0000000000000000     
   1.2187500000000000       0.25000000000000000        0.0000000000000000     
   1.2500000000000000       0.25000000000000000        0.0000000000000000     
   1.1250000000000000       0.28125000000000000        0.0000000000000000     
   1.1562500000000000       0.28125000000000000        0.0000000000000000     
   1.1875000000000000       0.28125000000000000        0.0000000000000000     
   1.2187500000000000       0.28125000000000000        0.0000000000000000     
   1.2500000000000000       0.28125000000000000        0.0000000000000000     
   1.1250000000000000       0.31250000000000000        0.0000000000000000     
   1.1562500000000000       0.31250000000000000        0.0000000000000000     
   1.1875000000000000       0.31250000000000000        0.0000000000000000     
   1.2187500000000000       0.31250000000000000        0.0000000000000000     
   1.2500000000000000       0.31250000000000000        0.0000000000000000     
   1.1250000000000000       0.34375000000000000        0.0000000000000000     
   1.1562500000000000       0.34375000000000000        0.0000000000000000     
   1.1875000000000000       0.34375000000000000        0.0000000000000000     
   1.2187500000000000       0.34375000000000000        0.0000000000000000     
   1.2500000000000000       0.34375000000000000        0.0000000000000000     
   1.1250000000000000       0.37500000000000000        0.0000000000000000     
   1.1562500000000000       0.37500000000000000        0.0000000000000000     
   1.1875000000000000       0.37500000000000000        0.0000000000000000     
   1.2187500000000000       0.37500000000000000        0.0000000000000000     
   1.2500000000000000       0.37500000000000000        0.0000000000000000     
   1.2500000000000000       0.25000000000000000        0.0000000000000000     
   1.2812500000000000       0.25000000000000000        0.0000000000000000     
   1.3125000000000000       0.25000000000000000        0.0000000000000000     
   1.3437500000000000       0.25000000000000000        0.0000000000000000     
   1.3750000000000000       0.25000000000000000        0.0000000000000000     
   1.2500000000000000       0.28125000000000000        0.0000000000000000     
   1.2812500000000000       0.28125000000000000        0.0000000000000000     
   1.3125000000000000       0.28125000000000000        0.0000000000000000     
   1.3437500000000000       0.28125000000000000        0.0000000000000000     
   1.3750000000000000       0.28125000000000000        0.0000000000000000     
   1.2500000000000000       0.31250000000000000        0.0000000000000000     
   1.2812500000000000       0.31250000000000000        0.0000000000000000     
   1.3125000000000000       0.31250000000000000        0.0000000000000000     
   1.3437500000000000       0.31250000000000000        0.0000000000000000     
   1.3750000000000000       0.31250000000000000        0.0000000000000000     
   1.2500000000000000       0.34375000000000000        0.0000000000000000     
   1.2812500000000000       0.34375000000000000        0.0000000000000000     
   1.3125000000000000       0.34375000000000000        0.0000000000000000     
   1.3437500000000000       0.34375000000000000        0.0000000000000000     
   1.3750000000000000       0.34375000000000000        0.0000000000000000     
   1.2500000000000000       0.37500000000000000        0.0000000000000000     
   1.2812500000000000       0.37500000000000000        0.0000000000000000     
   1.3125000000000000       0.37500000000000000        0.0000000000000000     
   1.3437500000000000       0.37500000000000000        0.0000000000000000     
   1.3750000000000000       0.37500000000000000        0.0000000000000000     
   1.3750000000000000       0.25000000000000000        0.0000000000000000     
   1.4062500000000000       0.25000000000000000        0.0000000000000000     
   1.4375000000000000       0.25000000000000000        0.0000000000000000     
   1.4687500000000000       0.25000000000000000        0.0000000000000000     
   1.5000000000000000       0.25000000000000000        0.0000000000000000     
   1.3750000000000000       0.28125000000000000        0.0000000000000000     
   1.4062500000000000       0.28125000000000000        0.0000000000000000     
   1.4375000000000000       0.28125000000000000        0.0000000000000000     
   1.4687500000000000       0.28125000000000000        0.0000000000000000     
   1.5000000000000000       0.28125000000000000        0.0000000000000000     
   1.3750000000000000       0.31250000000000000        0.0000000000000000     
   1.4062500000000000       0.31250000000000000        0.0000000000000000     
   1.4375000000000000       0.31250000000000000        0.0000000000000000     
   1.4687500000000000       0.31250000000000000        0.0000000000000000     
   1.5000000000000000       0.31250000000000000        0.0000000000000000     
   1.3750000000000000       0.34375000000000000        0.0000000000000000     
   1.4062500000000000       0.34375000000000000        0.0000000000000000     
   1.4375000000000000       0.34375000000000000        0.0000000000000000     
   1.4687500000000000       0.34375000000000000        0.0000000000000000     
   1.5000000000000000       0.34375000000000000        0.0000000000000000     
   1.3750000000000000       0.37500000000000000        0.0000000000000000     
   1.4062500000000000       0.37500000000000000        0.0000000000000000     
   1.4375000000000000       0.37500000000000000        0.0000000000000000     
   1.4687500000000000       0.37500000000000000        0.0000000000000000     
   1.5000000000000000       0.37500000000000000        0.0000000000000000     
  0.50000000000000000       0.37500000000000000        0.0000000000000000     
  0.53125000000000000       0.37500000000000000        0.0000000000000000     
  0.56250000000000000       0.37500000000000000        0.0000000000000000     
  0.59375000000000000       0.37500000000000000        0.0000000000000000     
  0.62500000000000000       0.37500000000000000        0.0000000000000000     
  0.50000000000000000       0.40625000000000000        0.0000000000000000     
  0.53125000000000000       0.40625000000000000        0.0000000000000000     
  0.56250000000000000       0.40625000000000000        0.0000000000000000     
  0.59375000000000000       0.40625000000000000        0.0000000000000000     
  0.62500000000000000       0.40625000000000000        0.0000000000000000     
  0.50000000000000000       0.43750000000000000        0.0000000000000000     
  0.53125000000000000       0.43750000000000000        0.0000000000000000     
  0.56250000000000000       0.43750000000000000        0.0000000000000000     
  0.59375000000000000       0.43750000000000000        0.0000000000000000     
  0.62500000000000000       0.43750000000000000        0.0000000000000000     
  0.50000000000000000       0.46875000000000000        0.0000000000000000     
  0.53125000000000000       0.46875000000000000        0.0000000000000000     
  0.56250000000000000       0.46875000000000000        0.0000000000000000     
  0.59375000000000000       0.46875000000000000        0.0000000000000000     
  0.62500000000000000       0.46875000000000000        0.0000000000000000     
  0.50000000000000000       0.50000000000000000        0.0000000000000000     
  0.53125000000000000       0.50000000000000000        0.0000000000000000     
  0.56250000000000000       0.50000000000000000        0.0000000000000000     
  0.59375000000000000       0.50000000000000000        0.0000000000000000     
  0.62500000000000000       0.50000000000000000        0.0000000000000000     
  0.62500000000000000       0.37500000000000000        0.0000000000000000     
  0.65625000000000000       0.37500000000000000        0.0000000000000000     
  0.68750000000000000       0.37500000000000000        0.0000000000000000     
  0.71875000000000000       0.37500000000000000        0.0000000000000000     
  0.75000000000000000       0.37500000000000000        0.0000000000000000     
  0.62500000000000000       0.40625000000000000        0.0000000000000000     
  0.65625000000000000       0.40625000000000000        0.0000000000000000     
  0.68750000000000000       0.40625000000000000        0.0000000000000000     
  0.71875000000000000       0.40625000000000000        0.0000000000000000     
  0.75000000000000000       0.40625000000000000        0.0000000000000000     
  0.62500000000000000       0.43750000000000000        0.0000000000000000     
  0.65625000000000000       0.43750000000000000        0.0000000000000000     
  0.68750000000000000       0.43750000000000000        0.0000000000000000     
  0.71875000000000000       0.43750000000000000        0.0000000000000000     
  0.75000000000000000       0.43750000000000000        0.0000000000000000     
  0.62500000000000000       0.46875000000000000        0.0000000000000000     
  0.65625000000000000       0.46875000000000000        0.0000000000000000     
  0.68750000000000000       0.46875000000000000        0.0000000000000000     
  0.71875000000000000       0.46875000000000000        0.0000000000000000     
  0.75000000000000000       0.46875000000000000        0.0000000000000000     
  0.62500000000000000       0.50000000000000000        0.0000000000000000     
  0.65625000000000000       0.50000000000000000        0.0000000000000000     
  0.68750000000000000       0.50000000000000000        0.0000000000000000     
  0.71875000000000000       0.50000000000000000        0.0000000000000000     
  0.75000000000000000       0.50000000000000000        0.0000000000000000     
  0.75000000000000000       0.37500000000000000        0.0000000000000000     
  0.78125000000000000       0.37500000000000000        0.0000000000000000     
  0.81250000000000000       0.37500000000000000        0.0000000000000000     
  0.84375000000000000       0.37500000000000000        0.0000000000000000     
  0.87500000000000000       0.37500000000000000        0.0000000000000000     
  0.75000000000000000       0.40625000000000000        0.0000000000000000     
  0.78125000000000000       0.40625000000000000        0.0000000000000000     
  0.81250000000000000       0.40625000000000000        0.0000000000000000     
  0.84375000000000000       0.40625000000000000        0.0000000000000000     
  0.87500000000000000       0.40625000000000000        0.0000000000000000     
  0.75000000000000000       0.43750000000000000        0.0000000000000000     
  0.78125000000000000       0.43750000000000000        0.0000000000000000     
  0.81250000000000000       0.43750000000000000        0.0000000000000000     
  0.84375000000000000       0.43750000000000000        0.0000000000000000     
  0.87500000000000000       0.43750000000000000        0.0000000000000000     
  0.75000000000000000       0.46875000000000000        0.0000000000000000     
  0.78125000000000000       0.46875000000000000        0.0000000000000000     
  0.81250000000000000       0.46875000000000000        0.0000000000000000     
  0.84375000000000000       0.46875000000000000        0.0000000000000000     
  0.87500000000000000       0.46875000000000000        0.0000000000000000     
  0.75000000000000000       0.50000000000000000        0.0000000000000000     
  0.78125000000000000       0.50000000000000000        0.0000000000000000     
  0.81250000000000000       0.50000000000000000        0.0000000000000000     
  0.84375000000000000       0.50000000000000000        0.0000000000000000     
  0.87500000000000000       0.50000000000000000        0.0000000000000000     
  0.87500000000000000       0.37500000000000000        0.0000000000000000     
  0.90625000000000000       0.37500000000000000        0.0000000000000000     
  0.93750000000000000       0.37500000000000000        0.0000000000000000     
  0.96875000000000000       0.37500000000000000        0.0000000000000000     
   1.0000000000000000       0.37500000000000000        0.0000000000000000     
  0.87500000000000000       0.40625000000000000        0.0000000000000000     
  0.90625000000000000       0.40625000000000000        0.0000000000000000     
  0.93750000000000000       0.40625000000000000        0.0000000000000000     
  0.96875000000000000       0.40625000000000000        0.0000000000000000     
   1.0000000000000000       0.40625000000000000        0.0000000000000000     
  0.87500000000000000       0.43750000000000000        0.0000000000000000     
  0.90625000000000000       0.43750000000000000        0.0000000000000000     
  0.93750000000000000       0.43750000000000000        0.0000000000000000     
  0.96875000000000000       0.43750000000000000        0.0000000000000000     
   1.0000000000000000       0.43750000000000000        0.0000000000000000     
  0.87500000000000000       0.46875000000000000        0.0000000000000000     
  0.90625000000000000       0.46875000000000000        0.0000000000000000     
  0.93750000000000000       0.46875000000000000        0.0000000000000000     
  0.96875000000000000       0.46875000000000000        0.0000000000000000     
   1.0000000000000000       0.46875000000000000        0.0000000000000000     
  0.87500000000000000       0.50000000000000000        0.0000000000000000     
  0.90625000000000000       0.50000000000000000        0.0000000000000000     
  0.93750000000000000       0.50000000000000000        0.0000000000000000     
  0.96875000000000000       0.50000000000000000        0.0000000000000000     
   1.0000000000000000       0.50000000000000000        0.0000000000000000     
   1.0000000000000000       0.37500000000000000        0.0000000000000000     
   1.0312500000000000       0.37500000000000000        0.0000000000000000     
   1.0625000000000000       0.37500000000000000        0.0000000000000000     
   1.0937500000000000       0.37500000000000000        0.0000000000000000     
   1.1250000000000000       0.37500000000000000        0.0000000000000000     
   1.0000000000000000       0.40625000000000000        0.0000000000000000     
   1.0312500000000000       0.40625000000000000        0.0000000000000000     
   1.0625000000000000       0.40625000000000000        0.0000000000000000     
   1.0937500000000000       0.40625000000000000        0.0000000000000000     
   1.1250000000000000       0.40625000000000000        0.0000000000000000     
   1.0000000000000000       0.43750000000000000        0.0000000000000000     
   1.0312500000000000       0.43750000000000000        0.0000000000000000     
   1.0625000000000000       0.43750000000000000        0.0000000000000000     
   1.0937500000000000       0.43750000000000000        0.0000000000000000     
   1.1250000000000000       0.43750000000000000        0.0000000000000000     
   1.0000000000000000       0.46875000000000000        0.0000000000000000     
   1.0312500000000000       0.46875000000000000        0.0000000000000000     
   1.0625000000000000       0.46875000000000000        0.0000000000000000     
   1.0937500000000000       0.46875000000000000        0.0000000000000000     
   1.1250000000000000       0.46875000000000000        0.0000000000000000     
   1.0000000000000000       0.50000000000000000        0.0000000000000000     
   1.0312500000000000       0.50000000000000000        0.0000000000000000     
   1.0625000000000000       0.50000000000000000        0.0000000000000000     
   1.0937500000000000       0.50000000000000000        0.0000000000000000     
   1.1250000000000000       0.50000000000000000        0.0000000000000000     
   1.1250000000000000       0.37500000000000000        0.0000000000000000     
   1.1562500000000000       0.37500000000000000        0.0000000000000000     
   1.1875000000000000       0.37500000000000000        0.0000000000000000     
   1.2187500000000000       0.37500000000000000        0.0000000000000000     
   1.2500000000000000       0.37500000000000000        0.0000000000000000     
   1.1250000000000000       0.40625000000000000        0.0000000000000000     
   1.1562500000000000       0.40625000000000000        0.0000000000000000     
   1.1875000000000000       0.40625000000000000        0.0000000000000000     
   1.2187500000000000       0.40625000000000000        0.0000000000000000     
   1.2500000000000000       0.40625000000000000        0.0000000000000000     
   1.1250000000000000       0.43750000000000000        0.0000000000000000     
   1.1562500000000000       0.43750000000000000        0.0000000000000000     
   1.1875000000000000       0.43750000000000000        0.0000000000000000     
   1.2187500000000000       0.43750000000000000        0.0000000000000000     
   1.2500000000000000       0.43750000000000000        0.0000000000000000     
   1.1250000000000000       0.46875000000000000        0.0000000000000000     
   1.1562500000000000       0.46875000000000000        0.0000000000000000     
   1.1875000000000000       0.46875000000000000        0.0000000000000000     
   1.2187500000000000       0.46875000000000000        0.0000000000000000     
   1.2500000000000000       0.46875000000000000        0.0000000000000000     
   1.1250000000000000       0.50000000000000000        0.0000000000000000     
   1.1562500000000000       0.50000000000000000        0.0000000000000000     
   1.1875000000000000       0.50000000000000000        0.0000000000000000     
   1.2187500000000000       0.50000000000000000        0.0000000000000000     
   1.2500000000000000       0.50000000000000000        0.0000000000000000     
   1.2500000000000000       0.37500000000000000        0.0000000000000000     
   1.2812500000000000       0.37500000000000000        0.0000000000000000     
   1.3125000000000000       0.37500000000000000        0.0000000000000000     
   1.3437500000000000       0.37500000000000000        0.0000000000000000     
   1.3750000000000000       0.37500000000000000        0.0000000000000000     
   1.2500000000000000       0.40625000000000000        0.0000000000000000     
   1.2812500000000000       0.40625000000000000        0.0000000000000000     
   1.3125000000000000       0.40625000000000000        0.0000000000000000     
   1.3437500000000000       0.40625000000000000        0.0000000000000000     
   1.3750000000000000       0.40625000000000000        0.0000000000000000     
   1.2500000000000000       0.43750000000000000        0.0000000000000000     
   1.2812500000000000       0.43750000000000000        0.0000000000000000     
   1.3125000000000000       0.43750000000000000        0.0000000000000000     
   1.3437500000000000       0.43750000000000000        0.0000000000000000     
   1.3750000000000000       0.43750000000000000        0.0000000000000000     
   1.2500000000000000       0.46875000000000000        0.0000000000000000     
   1.2812500000000000       0.46875000000000000        0.0000000000000000     
   1.3125000000000000       0.46875000000000000        0.0000000000000000     
   1.3437500000000000       0.46875000000000000        0.0000000000000000     
   1.3750000000000000       0.46875000000000000        0.0000000000000000     
   1.2500000000000000       0.50000000000000000        0.0000000000000000     
   1.2812500000000000       0.50000000000000000        0.0000000000000000     
   1.3125000000000000       0.50000000000000000        0.0000000000000000     
   1.3437500000000000       0.50000000000000000        0.0000000000000000     
   1.3750000000000000       0.50000000000000000        0.0000000000000000     
   1.3750000000000000       0.37500000000000000        0.0000000000000000     
   1.4062500000000000       0.37500000000000000        0.0000000000000000     
   1.4375000000000000       0.37500000000000000        0.0000000000000000     
   1.4687500000000000       0.37500000000000000        0.0000000000000000     
   1.5000000000000000       0.37500000000000000        0.0000000000000000     
   1.3750000000000000       0.40625000000000000        0.0000000000000000     
   1.4062500000000000       0.40625000000000000        0.0000000000000000     
   1.4375000000000000       0.40625000000000000        0.0000000000000000     
   1.4687500000000000       0.40625000000000000        0.0000000000000000     
   1.5000000000000000       0.40625000000000000        0.0000000000000000     
   1.3750000000000000       0.43750000000000000        0.0000000000000000     
   1.4062500000000000       0.43750000000000000        0.0000000000000000     
   1.4375000000000000       0.43750000000000000        0.0000000000000000     
   1.4687500000000000       0.43750000000000000        0.0000000000000000     
   1.5000000000000000       0.43750000000000000        0.0000000000000000     
   1.3750000000000000       0.46875000000000000        0.0000000000000000     
   1.4062500000000000       0.46875000000000000        0.0000000000000000     
   1.4375000000000000       0.46875000000000000        0.0000000000000000     
   1.4687500000000000       0.46875000000000000        0.0000000000000000     
   1.5000000000000000       0.46875000000000000        0.0000000000000000     
   1.3750000000000000       0.50000000000000000        0.0000000000000000     
   1.4062500000000000       0.50000000000000000        0.0000000000000000     
   1.4375000000000000       0.50000000000000000        0.0000000000000000     
   1.4687500000000000       0.50000000000000000        0.0000000000000000     
   1.5000000000000000       0.50000000000000000        0.0000000000000000     
  0.50000000000000000       0.50000000000000000        0.0000000000000000     
  0.53125000000000000       0.50000000000000000        0.0000000000000000     
  0.56250000000000000       0.50000000000000000        0.0000000000000000     
  0.59375000000000000       0.50000000000000000        0.0000000000000000     
  0.62500000000000000       0.50000000000000000        0.0000000000000000     
  0.50000000000000000       0.53125000000000000        0.0000000000000000     
  0.53125000000000000       0.53125000000000000        0.0000000000000000     
  0.56250000000000000       0.53125000000000000        0.0000000000000000     
  0.59375000000000000       0.53125000000000000        0.0000000000000000     
  0.62500000000000000       0.53125000000000000        0.0000000000000000     
  0.50000000000000000       0.56250000000000000        0.0000000000000000     
  0.53125000000000000       0.56250000000000000        0.0000000000000000     
  0.56250000000000000       0.56250000000000000        0.0000000000000000     
  0.59375000000000000       0.56250000000000000        0.0000000000000000     
  0.62500000000000000       0.56250000000000000        0.0000000000000000     
  0.50000000000000000       0.59375000000000000        0.0000000000000000     
  0.53125000000000000       0.59375000000000000        0.0000000000000000     
  0.56250000000000000       0.59375000000000000        0.0000000000000000     
  0.59375000000000000       0.59375000000000000        0.0000000000000000     
  0.62500000000000000       0.59375000000000000        0.0000000000000000     
  0.50000000000000000       0.62500000000000000        0.0000000000000000     
  0.53125000000000000       0.62500000000000000        0.0000000000000000     
  0.56250000000000000       0.62500000000000000        0.0000000000000000     
  0.59375000000000000       0.62500000000000000        0.0000000000000000     
  0.62500000000000000       0.62500000000000000        0.0000000000000000     
  0.62500000000000000       0.50000000000000000        0.0000000000000000     
  0.65625000000000000       0.50000000000000000        0.0000000000000000     
  0.68750000000000000       0.50000000000000000        0.0000000000000000     
  0.71875000000000000       0.50000000000000000        0.0000000000000000     
  0.75000000000000000       0.50000000000000000        0.0000000000000000     
  0.62500000000000000       0.53125000000000000        0.0000000000000000     
  0.65625000000000000       0.53125000000000000        0.0000000000000000     
  0.68750000000000000       0.53125000000000000        0.0000000000000000     
  0.71875000000000000       0.53125000000000000        0.0000000000000000     
  0.75000000000000000       0.53125000000000000        0.0000000000000000     
  0.62500000000000000       0.56250000000000000        0.0000000000000000     
  0.65625000000000000       0.56250000000000000        0.0000000000000000     
  0.68750000000000000       0.56250000000000000        0.0000000000000000     
  0.71875000000000000       0.56250000000000000        0.0000000000000000     
  0.75000000000000000       0.56250000000000000        0.0000000000000000     
  0.62500000000000000       0.59375000000000000        0.0000000000000000     
  0.65625000000000000       0.59375000000000000        0.0000000000000000     
  0.68750000000000000       0.59375000000000000        0.0000000000000000     
  0.71875000000000000       0.59375000000000000        0.0000000000000000     
  0.75000000000000000       0.59375000000000000        0.0000000000000000     
  0.62500000000000000       0.62500000000000000        0.0000000000000000     
  0.65625000000000000       0.62500000000000000        0.0000000000000000     
  0.68750000000000000       0.62500000000000000        0.0000000000000000     
  0.71875000000000000       0.62500000000000000        0.0000000000000000     
  0.75000000000000000       0.62500000000000000        0.0000000000000000     
  0.75000000000000000       0.50000000000000000        0.0000000000000000     
  0.78125000000000000       0.50000000000000000        0.0000000000000000     
  0.81250000000000000       0.50000000000000000        0.0000000000000000     
  0.84375000000000000       0.50000000000000000        0.0000000000000000     
  0.87500000000000000       0.50000000000000000        0.0000000000000000     
  0.75000000000000000       0.53125000000000000        0.0000000000000000     
  0.78125000000000000       0.53125000000000000        0.0000000000000000     
  0.81250000000000000       0.53125000000000000        0.0000000000000000     
  0.84375000000000000       0.53125000000000000        0.0000000000000000     
  0.87500000000000000       0.53125000000000000        0.0000000000000000     
  0.75000000000000000       0.56250000000000000        0.0000000000000000     
  0.78125000000000000       0.56250000000000000        0.0000000000000000     
  0.81250000000000000       0.56250000000000000        0.0000000000000000     
  0.84375000000000000       0.56250000000000000        0.0000000000000000     
  0.87500000000000000       0.56250000000000000        0.0000000000000000     
  0.75000000000000000       0.59375000000000000        0.0000000000000000     
  0.78125000000000000       0.59375000000000000        0.0000000000000000     
  0.81250000000000000       0.59375000000000000        0.0000000000000000     
  0.84375000000000000       0.59375000000000000        0.0000000000000000     
  0.87500000000000000       0.59375000000000000        0.0000000000000000     
  0.75000000000000000       0.62500000000000000        0.0000000000000000     
  0.78125000000000000       0.62500000000000000        0.0000000000000000     
  0.81250000000000000       0.62500000000000000        0.0000000000000000     
  0.84375000000000000       0.62500000000000000        0.0000000000000000     
  0.87500000000000000       0.62500000000000000        0.0000000000000000     
  0.87500000000000000       0.50000000000000000        0.0000000000000000     
  0.90625000000000000       0.50000000000000000        0.0000000000000000     
  0.93750000000000000       0.50000000000000000        0.0000000000000000     
  0.96875000000000000       0.50000000000000000        0.0000000000000000     
   1.0000000000000000       0.50000000000000000        0.0000000000000000     
  0.87500000000000000       0.53125000000000000        0.0000000000000000     
  0.90625000000000000       0.53125000000000000        0.0000000000000000     
  0.93750000000000000       0.53125000000000000        0.0000000000000000     
  0.96875000000000000       0.53125000000000000        0.0000000000000000     
   1.0000000000000000       0.53125000000000000        0.0000000000000000     
  0.87500000000000000       0.56250000000000000        0.0000000000000000     
  0.90625000000000000       0.56250000000000000        0.0000000000000000     
  0.93750000000000000       0.56250000000000000        0.0000000000000000     
  0.96875000000000000       0.56250000000000000        0.0000000000000000     
   1.0000000000000000       0.56250000000000000        0.0000000000000000     
  0.87500000000000000       0.59375000000000000        0.0000000000000000     
  0.90625000000000000       0.59375000000000000        0.0000000000000000     
  0.93750000000000000       0.59375000000000000        0.0000000000000000     
  0.96875000000000000       0.59375000000000000        0.0000000000000000     
   1.0000000000000000       0.59375000000000000        0.0000000000000000     
  0.87500000000000000       0.62500000000000000        0.0000000000000000     
  0.90625000000000000       0.62500000000000000        0.0000000000000000     
  0.93750000000000000       0.62500000000000000        0.0000000000000000     
  0.96875000000000000       0.62500000000000000        0.0000000000000000     
   1.0000000000000000       0.62500000000000000        0.0000000000000000     
   1.0000000000000000       0.50000000000000000        0.0000000000000000     
   1.0312500000000000       0.50000000000000000        0.0000000000000000     
   1.0625000000000000       0.50000000000000000        0.0000000000000000     
   1.0937500000000000       0.50000000000000000        0.0000000000000000     
   1.1250000000000000       0.50000000000000000        0.0000000000000000     
   1.0000000000000000       0.53125000000000000        0.0000000000000000     
   1.0312500000000000       0.53125000000000000        0.0000000000000000     
   1.0625000000000000       0.53125000000000000        0.0000000000000000     
   1.0937500000000000       0.53125000000000000        0.0000000000000000     
   1.1250000000000000       0.53125000000000000        0.0000000000000000     
   1.0000000000000000       0.56250000000000000        0.0000000000000000     
   1.0312500000000000       0.56250000000000000        0.0000000000000000     
   1.0625000000000000       0.56250000000000000        0.0000000000000000     
   1.0937500000000000       0.56250000000000000        0.0000000000000000     
   1.1250000000000000       0.56250000000000000        0.0000000000000000     
   1.0000000000000000       0.59375000000000000        0.0000000000000000     
   1.0312500000000000       0.59375000000000000        0.0000000000000000     
   1.0625000000000000       0.59375000000000000        0.0000000000000000     
   1.0937500000000000       0.59375000000000000        0.0000000000000000     
   1.1250000000000000       0.59375000000000000        0.0000000000000000     
   1.0000000000000000       0.62500000000000000        0.0000000000000000     
   1.0312500000000000       0.62500000000000000        0.0000000000000000     
   1.0625000000000000       0.62500000000000000        0.0000000000000000     
   1.0937500000000000       0.62500000000000000        0.0000000000000000     
   1.1250000000000000       0.62500000000000000        0.0000000000000000     
   1.1250000000000000       0.50000000000000000        0.0000000000000000     
   1.1562500000000000       0.50000000000000000        0.0000000000000000     
   1.1875000000000000       0.50000000000000000        0.0000000000000000     
   1.2187500000000000       0.50000000000000000        0.0000000000000000     
   1.2500000000000000       0.50000000000000000        0.0000000000000000     
   1.1250000000000000       0.53125000000000000        0.0000000000000000     
   1.1562500000000000       0.53125000000000000        0.0000000000000000     
   1.1875000000000000       0.53125000000000000        0.0000000000000000     
   1.2187500000000000       0.53125000000000000        0.0000000000000000     
   1.2500000000000000       0.53125000000000000        0.0000000000000000     
   1.1250000000000000       0.56250000000000000        0.0000000000000000     
   1.1562500000000000       0.56250000000000000        0.0000000000000000     
   1.1875000000000000       0.56250000000000000        0.0000000000000000     
   1.2187500000000000       0.56250000000000000        0.0000000000000000     
   1.2500000000000000       0.56250000000000000        0.0000000000000000     
   1.1250000000000000       0.59375000000000000        0.0000000000000000     
   1.1562500000000000       0.59375000000000000        0.0000000000000000     
   1.1875000000000000       0.59375000000000000        0.0000000000000000     
   1.2187500000000000       0.59375000000000000        0.0000000000000000     
   1.2500000000000000       0.59375000000000000        0.0000000000000000     
   1.1250000000000000       0.62500000000000000        0.0000000000000000     
   1.1562500000000000       0.62500000000000000        0.0000000000000000     
   1.1875000000000000       0.62500000000000000        0.0000000000000000     
   1.2187500000000000       0.62500000000000000        0.0000000000000000     
   1.2500000000000000       0.62500000000000000        0.0000000000000000     
   1.2500000000000000       0.50000000000000000        0.0000000000000000     
   1.2812500000000000       0.50000000000000000        0.0000000000000000     
   1.3125000000000000       0.50000000000000000        0.0000000000000000     
   1.3437500000000000       0.50000000000000000        0.0000000000000000     
   1.3750000000000000       0.50000000000000000        0.0000000000000000     
   1.2500000000000000       0.53125000000000000        0.0000000000000000     
   1.2812500000000000       0.53125000000000000        0.0000000000000000     
   1.3125000000000000       0.53125000000000000        0.0000000000000000     
   1.3437500000000000       0.53125000000000000        0.0000000000000000     
   1.3750000000000000       0.53125000000000000        0.0000000000000000     
   1.2500000000000000       0.56250000000000000        0.0000000000000000     
   1.2812500000000000       0.56250000000000000        0.0000000000000000     
   1.3125000000000000       0.56250000000000000        0.0000000000000000     
   1.3437500000000000       0.56250000000000000        0.0000000000000000     
   1.3750000000000000       0.56250000000000000        0.0000000000000000     
   1.2500000000000000       0.59375000000000000        0.0000000000000000     
   1.2812500000000000       0.59375000000000000        0.0000000000000000     
   1.3125000000000000       0.59375000000000000        0.0000000000000000     
   1.3437500000000000       0.59375000000000000        0.0000000000000000     
   1.3750000000000000       0.59375000000000000        0.0000000000000000     
   1.2500000000000000       0.62500000000000000        0.0000000000000000     
   1.2812500000000000       0.62500000000000000        0.0000000000000000     
   1.3125000000000000       0.62500000000000000        0.0000000000000000     
   1.3437500000000000       0.62500000000000000        0.0000000000000000     
   1.3750000000000000       0.62500000000000000        0.0000000000000000     
   1.3750000000000000       0.50000000000000000        0.0000000000000000     
   1.4062500000000000       0.50000000000000000        0.0000000000000000     
   1.4375000000000000       0.50000000000000000        0.0000000000000000     
   1.4687500000000000       0.50000000000000000        0.0000000000000000     
   1.5000000000000000       0.50000000000000000        0.0000000000000000     
   1.3750000000000000       0.53125000000000000        0.0000000000000000     
   1.4062500000000000       0.53125000000000000        0.0000000000000000     
   1.4375000000000000       0.53125000000000000        0.0000000000000000     
   1.4687500000000000       0.53125000000000000        0.0000000000000000     
   1.5000000000000000       0.53125000000000000        0.0000000000000000     
   1.3750000000000000       0.56250000000000000        0.0000000000000000     
   1.4062500000000000       0.56250000000000000        0.0000000000000000     
   1.4375000000000000       0.56250000000000000        0.0000000000000000     
   1.4687500000000000       0.56250000000000000        0.0000000000000000     
   1.5000000000000000       0.56250000000000000        0.0000000000000000     
   1.3750000000000000       0.59375000000000000        0.0000000000000000     
   1.4062500000000000       0.59375000000000000        0.0000000000000000     
   1.4375000000000000       0.59375000000000000        0.0000000000000000     
   1.4687500000000000       0.59375000000000000        0.0000000000000000     
   1.5000000000000000       0.59375000000000000        0.0000000000000000     
   1.3750000000000000       0.62500000000000000        0.0000000000000000     
   1.4062500000000000       0.62500000000000000        0.0000000000000000     
   1.4375000000000000       0.62500000000000000        0.0000000000000000     
   1.4687500000000000       0.62500000000000000        0.0000000000000000     
   1.5000000000000000       0.62500000000000000        0.0000000000000000     
  0.50000000000000000       0.62500000000000000        0.0000000000000000     
  0.53125000000000000       0.62500000000000000        0.0000000000000000     
  0.56250000000000000       0.62500000000000000        0.0000000000000000     
  0.59375000000000000       0.62500000000000000        0.0000000000000000     
  0.62500000000000000       0.62500000000000000        0.0000000000000000     
  0.50000000000000000       0.65625000000000000        0.0000000000000000     
  0.53125000000000000       0.65625000000000000        0.0000000000000000     
  0.56250000000000000       0.65625000000000000        0.0000000000000000     
  0.59375000000000000       0.65625000000000000        0.0000000000000000     
  0.62500000000000000       0.65625000000000000        0.0000000000000000     
  0.50000000000000000       0.68750000000000000        0.0000000000000000     
  0.53125000000000000       0.68750000000000000        0.0000000000000000     
  0.56250000000000000       0.68750000000000000        0.0000000000000000     
  0.59375000000000000       0.68750000000000000        0.0000000000000000     
  0.62500000000000000       0.68750000000000000        0.0000000000000000     
  0.50000000000000000       0.71875000000000000        0.0000000000000000     
  0.53125000000000000       0.71875000000000000        0.0000000000000000     
  0.56250000000000000       0.71875000000000000        0.0000000000000000     
  0.59375000000000000       0.71875000000000000        0.0000000000000000     
  0.62500000000000000       0.71875000000000000        0.0000000000000000     
  0.50000000000000000       0.75000000000000000        0.0000000000000000     
  0.53125000000000000       0.75000000000000000        0.0000000000000000     
  0.56250000000000000       0.75000000000000000        0.0000000000000000     
  0.59375000000000000       0.75000000000000000        0.0000000000000000     
  0.62500000000000000       0.75000000000000000        0.0000000000000000     
  0.62500000000000000       0.62500000000000000        0.0000000000000000     
  0.65625000000000000       0.62500000000000000        0.0000000000000000     
  0.68750000000000000       0.62500000000000000        0.0000000000000000     
  0.71875000000000000       0.62500000000000000        0.0000000000000000     
  0.75000000000000000       0.62500000000000000        0.0000000000000000     
  0.62500000000000000       0.65625000000000000        0.0000000000000000     
  0.65625000000000000       0.65625000000000000        0.0000000000000000     
  0.68750000000000000       0.65625000000000000        0.0000000000000000     
  0.71875000000000000       0.65625000000000000        0.0000000000000000     
  0.75000000000000000       0.65625000000000000        0.0000000000000000     
  0.62500000000000000       0.68750000000000000        0.0000000000000000     
  0.65625000000000000       0.68750000000000000        0.0000000000000000     
  0.68750000000000000       0.68750000000000000        0.0000000000000000     
  0.71875000000000000       0.68750000000000000        0.0000000000000000     
  0.75000000000000000       0.68750000000000000        0.0000000000000000     
  0.62500000000000000       0.71875000000000000        0.0000000000000000     
  0.65625000000000000       0.71875000000000000        0.0000000000000000     
  0.68750000000000000       0.71875000000000000        0.0000000000000000     
  0.71875000000000000       0.71875000000000000        0.0000000000000000     
  0.75000000000000000       0.71875000000000000        0.0000000000000000     
  0.62500000000000000       0.75000000000000000        0.0000000000000000     
  0.65625000000000000       0.75000000000000000        0.0000000000000000     
  0.68750000000000000       0.75000000000000000        0.0000000000000000     
  0.71875000000000000       0.75000000000000000        0.0000000000000000     
  0.75000000000000000       0.75000000000000000        0.0000000000000000     
  0.75000000000000000       0.62500000000000000        0.0000000000000000     
  0.78125000000000000       0.62500000000000000        0.0000000000000000     
  0.81250000000000000       0.62500000000000000        0.0000000000000000     
  0.84375000000000000       0.62500000000000000        0.0000000000000000     
  0.87500000000000000       0.62500000000000000        0.0000000000000000     
  0.75000000000000000       0.65625000000000000        0.0000000000000000     
  0.78125000000000000       0.65625000000000000        0.0000000000000000     
  0.81250000000000000       0.65625000000000000        0.0000000000000000     
  0.84375000000000000       0.65625000000000000        0.0000000000000000     
  0.87500000000000000       0.65625000000000000        0.0000000000000000     
  0.75000000000000000       0.68750000000000000        0.0000000000000000     
  0.78125000000000000       0.68750000000000000        0.0000000000000000     
  0.81250000000000000       0.68750000000000000        0.0000000000000000     
  0.84375000000000000       0.68750000000000000        0.0000000000000000     
  0.87500000000000000       0.68750000000000000        0.0000000000000000     
  0.75000000000000000       0.71875000000000000        0.0000000000000000     
  0.78125000000000000       0.71875000000000000        0.0000000000000000     
  0.81250000000000000       0.71875000000000000        0.0000000000000000     
  0.84375000000000000       0.71875000000000000        0.0000000000000000     
  0.87500000000000000       0.71875000000000000        0.0000000000000000     
  0.75000000000000000       0.75000000000000000        0.0000000000000000     
  0.78125000000000000       0.75000000000000000        0.0000000000000000     
  0.81250000000000000       0.75000000000000000        0.0000000000000000     
  0.84375000000000000       0.75000000000000000        0.0000000000000000     
  0.87500000000000000       0.75000000000000000        0.0000000000000000     
  0.87500000000000000       0.62500000000000000        0.0000000000000000     
  0.90625000000000000       0.62500000000000000        0.0000000000000000     
  0.93750000000000000       0.62500000000000000        0.0000000000000000     
  0.96875000000000000       0.62500000000000000        0.0000000000000000     
   1.0000000000000000       0.62500000000000000        0.0000000000000000     
  0.87500000000000000       0.65625000000000000        0.0000000000000000     
  0.90625000000000000       0.65625000000000000        0.0000000000000000     
  0.93750000000000000       0.65625000000000000        0.0000000000000000     
  0.96875000000000000       0.65625000000000000        0.0000000000000000     
   1.0000000000000000       0.65625000000000000        0.0000000000000000     
  0.87500000000000000       0.68750000000000000        0.0000000000000000     
  0.90625000000000000       0.68750000000000000        0.0000000000000000     
  0.93750000000000000       0.68750000000000000        0.0000000000000000     
  0.96875000000000000       0.68750000000000000        0.0000000000000000     
   1.0000000000000000       0.68750000000000000        0.0000000000000000     
  0.87500000000000000       0.71875000000000000        0.0000000000000000     
  0.90625000000000000       0.71875000000000000        0.0000000000000000     
  0.93750000000000000       0.71875000000000000        0.0000000000000000     
  0.96875000000000000       0.71875000000000000        0.0000000000000000     
   1.0000000000000000       0.71875000000000000        0.0000000000000000     
  0.87500000000000000       0.75000000000000000        0.0000000000000000     
  0.90625000000000000       0.75000000000000000        0.0000000000000000     
  0.93750000000000000       0.75000000000000000        0.0000000000000000     
  0.96875000000000000       0.75000000000000000        0.0000000000000000     
   1.0000000000000000       0.75000000000000000        0.0000000000000000     
   1.0000000000000000       0.62500000000000000        0.0000000000000000     
   1.0312500000000000       0.62500000000000000        0.0000000000000000     
   1.0625000000000000       0.62500000000000000        0.0000000000000000     
   1.0937500000000000       0.62500000000000000        0.0000000000000000     
   1.1250000000000000       0.62500000000000000        0.0000000000000000     
   1.0000000000000000       0.65625000000000000        0.0000000000000000     
   1.0312500000000000       0.65625000000000000        0.0000000000000000     
   1.0625000000000000       0.65625000000000000        0.0000000000000000     
   1.0937500000000000       0.65625000000000000        0.0000000000000000     
   1.1250000000000000       0.65625000000000000        0.0000000000000000     
   1.0000000000000000       0.68750000000000000        0.0000000000000000     
   1.0312500000000000       0.68750000000000000        0.0000000000000000     
   1.0625000000000000       0.68750000000000000        0.0000000000000000     
   1.0937500000000000       0.68750000000000000        0.0000000000000000     
   1.1250000000000000       0.68750000000000000        0.0000000000000000     
   1.0000000000000000       0.71875000000000000        0.0000000000000000     
   1.0312500000000000       0.71875000000000000        0.0000000000000000     
   1.0625000000000000       0.71875000000000000        0.0000000000000000     
   1.0937500000000000       0.71875000000000000        0.0000000000000000     
   1.1250000000000000       0.71875000000000000        0.0000000000000000     
   1.0000000000000000       0.75000000000000000        0.0000000000000000     
   1.0312500000000000       0.75000000000000000        0.0000000000000000     
   1.0625000000000000       0.75000000000000000        0.0000000000000000     
   1.0937500000000000       0.75000000000000000        0.0000000000000000     
   1.1250000000000000       0.75000000000000000        0.0000000000000000     
   1.1250000000000000       0.62500000000000000        0.0000000000000000     
   1.1562500000000000       0.62500000000000000        0.0000000000000000     
   1.1875000000000000       0.62500000000000000        0.0000000000000000     
   1.2187500000000000       0.62500000000000000        0.0000000000000000     
   1.2500000000000000       0.62500000000000000        0.0000000000000000     
   1.1250000000000000       0.65625000000000000        0.0000000000000000     
   1.1562500000000000       0.65625000000000000        0.0000000000000000     
   1.1875000000000000       0.65625000000000000        0.0000000000000000     
   1.2187500000000000       0.65625000000000000        0.0000000000000000     
   1.2500000000000000       0.65625000000000000        0.0000000000000000     
   1.1250000000000000       0.68750000000000000        0.0000000000000000     
   1.1562500000000000       0.68750000000000000        0.0000000000000000     
   1.1875000000000000       0.68750000000000000        0.0000000000000000     
   1.2187500000000000       0.68750000000000000        0.0000000000000000     
   1.2500000000000000       0.68750000000000000        0.0000000000000000     
   1.1250000000000000       0.71875000000000000        0.0000000000000000     
   1.1562500000000000       0.71875000000000000        0.0000000000000000     
   1.1875000000000000       0.71875000000000000        0.0000000000000000     
   1.2187500000000000       0.71875000000000000        0.0000000000000000     
   1.2500000000000000       0.71875000000000000        0.0000000000000000     
   1.1250000000000000       0.75000000000000000        0.0000000000000000     
   1.1562500000000000       0.75000000000000000        0.0000000000000000     
   1.1875000000000000       0.75000000000000000        0.0000000000000000     
   1.2187500000000000       0.75000000000000000        0.0000000000000000     
   1.2500000000000000       0.75000000000000000        0.0000000000000000     
   1.2500000000000000       0.62500000000000000        0.0000000000000000     
   1.2812500000000000       0.62500000000000000        0.0000000000000000     
   1.3125000000000000       0.62500000000000000        0.0000000000000000     
   1.3437500000000000       0.62500000000000000        0.0000000000000000     
   1.3750000000000000       0.62500000000000000        0.0000000000000000     
   1.2500000000000000       0.65625000000000000        0.0000000000000000     
   1.2812500000000000       0.65625000000000000        0.0000000000000000     
   1.3125000000000000       0.65625000000000000        0.0000000000000000     
   1.3437500000000000       0.65625000000000000        0.0000000000000000     
   1.3750000000000000       0.65625000000000000        0.0000000000000000     
   1.2500000000000000       0.68750000000000000        0.0000000000000000     
   1.2812500000000000       0.68750000000000000        0.0000000000000000     
   1.3125000000000000       0.68750000000000000        0.0000000000000000     
   1.3437500000000000       0.68750000000000000        0.0000000000000000     
   1.3750000000000000       0.68750000000000000        0.0000000000000000     
   1.2500000000000000       0.71875000000000000        0.0000000000000000     
   1.2812500000000000       0.71875000000000000        0.0000000000000000     
   1.3125000000000000       0.71875000000000000        0.0000000000000000     
   1.3437500000000000       0.71875000000000000        0.0000000000000000     
   1.3750000000000000       0.71875000000000000        0.0000000000000000     
   1.2500000000000000       0.75000000000000000        0.0000000000000000     
   1.2812500000000000       0.75000000000000000        0.0000000000000000     
   1.3125000000000000       0.75000000000000000        0.0000000000000000     
   1.3437500000000000       0.75000000000000000        0.0000000000000000     
   1.3750000000000000       0.75000000000000000        0.0000000000000000     
   1.3750000000000000       0.62500000000000000        0.0000000000000000     
   1.4062500000000000       0.62500000000000000        0.0000000000000000     
   1.4375000000000000       0.62500000000000000        0.0000000000000000     
   1.4687500000000000       0.62500000000000000        0.0000000000000000     
   1.5000000000000000       0.62500000000000000        0.0000000000000000     
   1.3750000000000000       0.65625000000000000        0.0000000000000000     
   1.4062500000000000       0.65625000000000000        0.0000000000000000     
   1.4375000000000000       0.65625000000000000        0.0000000000000000     
   1.4687500000000000       0.65625000000000000        0.0000000000000000     
   1.5000000000000000       0.65625000000000000        0.0000000000000000     
   1.3750000000000000       0.68750000000000000        0.0000000000000000     
   1.4062500000000000       0.68750000000000000        0.0000000000000000     
   1.4375000000000000       0.68750000000000000        0.0000000000000000     
   1.4687500000000000       0.68750000000000000        0.0000000000000000     
   1.5000000000000000       0.68750000000000000        0.0000000000000000     
   1.3750000000000000       0.71875000000000000        0.0000000000000000     
   1.4062500000000000       0.71875000000000000        0.0000000000000000     
   1.4375000000000000       0.71875000000000000        0.0000000000000000     
   1.4687500000000000       0.71875000000000000        0.0000000000000000     
   1.5000000000000000       0.71875000000000000        0.0000000000000000     
   1.3750000000000000       0.75000000000000000        0.0000000000000000     
   1.4062500000000000       0.75000000000000000        0.0000000000000000     
   1.4375000000000000       0.75000000000000000        0.0000000000000000     
   1.4687500000000000       0.75000000000000000        0.0000000000000000     
   1.5000000000000000       0.75000000000000000        0.0000000000000000     
  0.50000000000000000       0.75000000000000000        0.0000000000000000     
  0.53125000000000000       0.75000000000000000        0.0000000000000000     
  0.56250000000000000       0.75000000000000000        0.0000000000000000     
  0.59375000000000000       0.75000000000000000        0.0000000000000000     
  0.62500000000000000       0.75000000000000000        0.0000000000000000     
  0.50000000000000000       0.78125000000000000        0.0000000000000000     
  0.53125000000000000       0.78125000000000000        0.0000000000000000     
  0.56250000000000000       0.78125000000000000        0.0000000000000000     
  0.59375000000000000       0.78125000000000000        0.0000000000000000     
  0.62500000000000000       0.78125000000000000        0.0000000000000000     
  0.50000000000000000       0.81250000000000000        0.0000000000000000     
  0.53125000000000000       0.81250000000000000        0.0000000000000000     
  0.56250000000000000       0.81250000000000000        0.0000000000000000     
  0.59375000000000000       0.81250000000000000        0.0000000000000000     
  0.62500000000000000       0.81250000000000000        0.0000000000000000     
  0.50000000000000000       0.84375000000000000        0.0000000000000000     
  0.53125000000000000       0.84375000000000000        0.0000000000000000     
  0.56250000000000000       0.84375000000000000        0.0000000000000000     
  0.59375000000000000       0.84375000000000000        0.0000000000000000     
  0.62500000000000000       0.84375000000000000        0.0000000000000000     
  0.50000000000000000       0.87500000000000000        0.0000000000000000     
  0.53125000000000000       0.87500000000000000        0.0000000000000000     
  0.56250000000000000       0.87500000000000000        0.0000000000000000     
  0.59375000000000000       0.87500000000000000        0.0000000000000000     
  0.62500000000000000       0.87500000000000000        0.0000000000000000     
  0.62500000000000000       0.75000000000000000        0.0000000000000000     
  0.65625000000000000       0.75000000000000000        0.0000000000000000     
  0.68750000000000000       0.75000000000000000        0.0000000000000000     
  0.71875000000000000       0.75000000000000000        0.0000000000000000     
  0.75000000000000000       0.75000000000000000        0.0000000000000000     
  0.62500000000000000       0.78125000000000000        0.0000000000000000     
  0.65625000000000000       0.78125000000000000        0.0000000000000000     
  0.68750000000000000       0.78125000000000000        0.0000000000000000     
  0.71875000000000000       0.78125000000000000        0.0000000000000000     
  0.75000000000000000       0.78125000000000000        0.0000000000000000     
  0.62500000000000000       0.81250000000000000        0.0000000000000000     
  0.65625000000000000       0.81250000000000000        0.0000000000000000     
  0.68750000000000000       0.81250000000000000        0.0000000000000000     
  0.71875000000000000       0.81250000000000000        0.0000000000000000     
  0.75000000000000000       0.81250000000000000        0.0000000000000000     
  0.62500000000000000       0.84375000000000000        0.0000000000000000     
  0.65625000000000000       0.84375000000000000        0.0000000000000000     
  0.68750000000000000       0.84375000000000000        0.0000000000000000     
  0.71875000000000000       0.84375000000000000        0.0000000000000000     
  0.75000000000000000       0.84375000000000000        0.0000000000000000     
  0.62500000000000000       0.87500000000000000        0.0000000000000000     
  0.65625000000000000       0.87500000000000000        0.0000000000000000     
  0.68750000000000000       0.87500000000000000        0.0000000000000000     
  0.71875000000000000       0.87500000000000000        0.0000000000000000     
  0.75000000000000000       0.87500000000000000        0.0000000000000000     
  0.75000000000000000       0.75000000000000000        0.0000000000000000     
  0.78125000000000000       0.75000000000000000        0.0000000000000000     
  0.81250000000000000       0.75000000000000000        0.0000000000000000     
  0.84375000000000000       0.75000000000000000        0.0000000000000000     
  0.87500000000000000       0.75000000000000000        0.0000000000000000     
  0.75000000000000000       0.78125000000000000        0.0000000000000000     
  0.78125000000000000       0.78125000000000000        0.0000000000000000     
  0.81250000000000000       0.78125000000000000        0.0000000000000000     
  0.84375000000000000       0.78125000000000000        0.0000000000000000     
  0.87500000000000000       0.78125000000000000        0.0000000000000000     
  0.75000000000000000       0.81250000000000000        0.0000000000000000     
  0.78125000000000000       0.81250000000000000        0.0000000000000000     
  0.81250000000000000       0.81250000000000000        0.0000000000000000     
  0.84375000000000000       0.81250000000000000        0.0000000000000000     
  0.87500000000000000       0.81250000000000000        0.0000000000000000     
  0.75000000000000000       0.84375000000000000        0.0000000000000000     
  0.78125000000000000       0.84375000000000000        0.0000000000000000     
  0.81250000000000000       0.84375000000000000        0.0000000000000000     
  0.84375000000000000       0.84375000000000000        0.0000000000000000     
  0.87500000000000000       0.84375000000000000        0.0000000000000000     
  0.75000000000000000       0.87500000000000000        0.0000000000000000     
  0.78125000000000000       0.87500000000000000        0.0000000000000000     
  0.81250000000000000       0.87500000000000000        0.0000000000000000     
  0.84375000000000000       0.87500000000000000        0.0000000000000000     
  0.87500000000000000       0.87500000000000000        0.0000000000000000     
  0.87500000000000000       0.75000000000000000        0.0000000000000000     
  0.90625000000000000       0.75000000000000000        0.0000000000000000     
  0.93750000000000000       0.75000000000000000        0.0000000000000000     
  0.96875000000000000       0.75000000000000000        0.0000000000000000     
   1.0000000000000000       0.75000000000000000        0.0000000000000000     
  0.87500000000000000       0.78125000000000000        0.0000000000000000     
  0.90625000000000000       0.78125000000000000        0.0000000000000000     
  0.93750000000000000       0.78125000000000000        0.0000000000000000     
  0.96875000000000000       0.78125000000000000        0.0000000000000000     
   1.0000000000000000       0.78125000000000000        0.0000000000000000     
  0.87500000000000000       0.81250000000000000        0.0000000000000000     
  0.90625000000000000       0.81250000000000000        0.0000000000000000     
  0.93750000000000000       0.81250000000000000        0.0000000000000000     
  0.96875000000000000       0.81250000000000000        0.0000000000000000     
   1.0000000000000000       0.81250000000000000        0.0000000000000000     
  0.87500000000000000       0.84375000000000000        0.0000000000000000     
  0.90625000000000000       0.84375000000000000        0.0000000000000000     
  0.93750000000000000       0.84375000000000000        0.0000000000000000     
  0.96875000000000000       0.84375000000000000        0.0000000000000000     
   1.0000000000000000       0.84375000000000000        0.0000000000000000     
  0.87500000000000000       0.87500000000000000        0.0000000000000000     
  0.90625000000000000       0.87500000000000000        0.0000000000000000     
  0.93750000000000000       0.87500000000000000        0.0000000000000000     
  0.96875000000000000       0.87500000000000000        0.0000000000000000     
   1.0000000000000000       0.87500000000000000        0.0000000000000000     
   1.0000000000000000       0.75000000000000000        0.0000000000000000     
   1.0312500000000000       0.75000000000000000        0.0000000000000000     
   1.0625000000000000       0.75000000000000000        0.0000000000000000     
   1.0937500000000000       0.75000000000000000        0.0000000000000000     
   1.1250000000000000       0.75000000000000000        0.0000000000000000     
   1.0000000000000000       0.78125000000000000        0.0000000000000000     
   1.0312500000000000       0.78125000000000000        0.0000000000000000     
   1.0625000000000000       0.78125000000000000        0.0000000000000000     
   1.0937500000000000       0.78125000000000000        0.0000000000000000     
   1.1250000000000000       0.78125000000000000        0.0000000000000000     
   1.0000000000000000       0.81250000000000000        0.0000000000000000     
   1.0312500000000000       0.81250000000000000        0.0000000000000000     
   1.0625000000000000       0.81250000000000000        0.0000000000000000     
   1.0937500000000000       0.81250000000000000        0.0000000000000000     
   1.1250000000000000       0.81250000000000000        0.0000000000000000     
   1.0000000000000000       0.84375000000000000        0.0000000000000000     
   1.0312500000000000       0.84375000000000000        0.0000000000000000     
   1.0625000000000000       0.84375000000000000        0.0000000000000000     
   1.0937500000000000       0.84375000000000000        0.0000000000000000     
   1.1250000000000000       0.84375000000000000        0.0000000000000000     
   1.0000000000000000       0.87500000000000000        0.0000000000000000     
   1.0312500000000000       0.87500000000000000        0.0000000000000000     
   1.0625000000000000       0.87500000000000000        0.0000000000000000     
   1.0937500000000000       0.87500000000000000        0.0000000000000000     
   1.1250000000000000       0.87500000000000000        0.0000000000000000     
   1.1250000000000000       0.75000000000000000        0.0000000000000000     
   1.1562500000000000       0.75000000000000000        0.0000000000000000     
   1.1875000000000000       0.75000000000000000        0.0000000000000000     
   1.2187500000000000       0.75000000000000000        0.0000000000000000     
   1.2500000000000000       0.75000000000000000        0.0000000000000000     
   1.1250000000000000       0.78125000000000000        0.0000000000000000     
   1.1562500000000000       0.78125000000000000        0.0000000000000000     
   1.1875000000000000       0.78125000000000000        0.0000000000000000     
   1.2187500000000000       0.78125000000000000        0.0000000000000000     
   1.2500000000000000       0.78125000000000000        0.0000000000000000     
   1.1250000000000000       0.81250000000000000        0.0000000000000000     
   1.1562500000000000       0.81250000000000000        0.0000000000000000     
   1.1875000000000000       0.81250000000000000        0.0000000000000000     
   1.2187500000000000       0.81250000000000000        0.0000000000000000     
   1.2500000000000000       0.81250000000000000        0.0000000000000000     
   1.1250000000000000       0.84375000000000000        0.0000000000000000     
   1.1562500000000000       0.84375000000000000        0.0000000000000000     
   1.1875000000000000       0.84375000000000000        0.0000000000000000     
   1.2187500000000000       0.84375000000000000        0.0000000000000000     
   1.2500000000000000       0.84375000000000000        0.0000000000000000     
   1.1250000000000000       0.87500000000000000        0.0000000000000000     
   1.1562500000000000       0.87500000000000000        0.0000000000000000     
   1.1875000000000000       0.87500000000000000        0.0000000000000000     
   1.2187500000000000       0.87500000000000000        0.0000000000000000     
   1.2500000000000000       0.87500000000000000        0.0000000000000000     
   1.2500000000000000       0.75000000000000000        0.0000000000000000     
   1.2812500000000000       0.75000000000000000        0.0000000000000000     
   1.3125000000000000       0.75000000000000000        0.0000000000000000     
   1.3437500000000000       0.75000000000000000        0.0000000000000000     
   1.3750000000000000       0.75000000000000000        0.0000000000000000     
   1.2500000000000000       0.78125000000000000        0.0000000000000000     
   1.2812500000000000       0.78125000000000000        0.0000000000000000     
   1.3125000000000000       0.78125000000000000        0.0000000000000000     
   1.3437500000000000       0.78125000000000000        0.0000000000000000     
   1.3750000000000000       0.78125000000000000        0.0000000000000000     
   1.2500000000000000       0.81250000000000000        0.0000000000000000     
   1.2812500000000000       0.81250000000000000        0.0000000000000000     
   1.3125000000000000       0.81250000000000000        0.0000000000000000     
   1.3437500000000000       0.81250000000000000        0.0000000000000000     
   1.3750000000000000       0.81250000000000000        0.0000000000000000     
   1.2500000000000000       0.84375000000000000        0.0000000000000000     
   1.2812500000000000       0.84375000000000000        0.0000000000000000     
   1.3125000000000000       0.84375000000000000        0.0000000000000000     
   1.3437500000000000       0.84375000000000000        0.0000000000000000     
   1.3750000000000000       0.84375000000000000        0.0000000000000000     
   1.2500000000000000       0.87500000000000000        0.0000000000000000     
   1.2812500000000000       0.87500000000000000        0.0000000000000000     
   1.3125000000000000       0.87500000000000000        0.0000000000000000     
   1.3437500000000000       0.87500000000000000        0.0000000000000000     
   1.3750000000000000       0.87500000000000000        0.0000000000000000     
   1.3750000000000000       0.75000000000000000        0.0000000000000000     
   1.4062500000000000       0.75000000000000000        0.0000000000000000     
   1.4375000000000000       0.75000000000000000        0.0000000000000000     
   1.4687500000000000       0.75000000000000000        0.0000000000000000     
   1.5000000000000000       0.75000000000000000        0.0000000000000000     
   1.3750000000000000       0.78125000000000000        0.0000000000000000     
   1.4062500000000000       0.78125000000000000        0.0000000000000000     
   1.4375000000000000       0.78125000000000000        0.0000000000000000     
   1.4687500000000000       0.78125000000000000        0.0000000000000000     
   1.5000000000000000       0.78125000000000000        0.0000000000000000     
   1.3750000000000000       0.81250000000000000        0.0000000000000000     
   1.4062500000000000       0.81250000000000000        0.0000000000000000     
   1.4375000000000000       0.81250000000000000        0.0000000000000000     
   1.4687500000000000       0.81250000000000000        0.0000000000000000     
   1.5000000000000000       0.81250000000000000        0.0000000000000000     
   1.3750000000000000       0.84375000000000000        0.0000000000000000     
   1.4062500000000000       0.84375000000000000        0.0000000000000000     
   1.4375000000000000       0.84375000000000000        0.0000000000000000     
   1.4687500000000000       0.84375000000000000        0.0000000000000000     
   1.5000000000000000       0.84375000000000000        0.0000000000000000     
   1.3750000000000000       0.87500000000000000        0.0000000000000000     
   1.4062500000000000       0.87500000000000000        0.0000000000000000     
   1.4375000000000000       0.87500000000000000        0.0000000000000000     
   1.4687500000000000       0.87500000000000000        0.0000000000000000     
   1.5000000000000000       0.87500000000000000        0.0000000000000000     
  0.50000000000000000       0.87500000000000000        0.0000000000000000     
  0.53125000000000000       0.87500000000000000        0.0000000000000000     
  0.56250000000000000       0.87500000000000000        0.0000000000000000     
  0.59375000000000000       0.87500000000000000        0.0000000000000000     
  0.62500000000000000       0.87500000000000000        0.0000000000000000     
  0.50000000000000000       0.90625000000000000        0.0000000000000000     
  0.53125000000000000       0.90625000000000000        0.0000000000000000     
  0.56250000000000000       0.90625000000000000        0.0000000000000000     
  0.59375000000000000       0.90625000000000000        0.0000000000000000     
  0.62500000000000000       0.90625000000000000        0.0000000000000000     
  0.50000000000000000       0.93750000000000000        0.0000000000000000     
  0.53125000000000000       0.93750000000000000        0.0000000000000000     
  0.56250000000000000       0.93750000000000000        0.0000000000000000     
  0.59375000000000000       0.93750000000000000        0.0000000000000000     
  0.62500000000000000       0.93750000000000000        0.0000000000000000     
  0.50000000000000000       0.96875000000000000        0.0000000000000000     
  0.53125000000000000       0.96875000000000000        0.0000000000000000     
  0.56250000000000000       0.96875000000000000        0.0000000000000000     
  0.59375000000000000       0.96875000000000000        0.0000000000000000     
  0.62500000000000000       0.96875000000000000        0.0000000000000000     
  0.50000000000000000        1.0000000000000000        0.0000000000000000     
  0.53125000000000000        1.0000000000000000        0.0000000000000000     
  0.56250000000000000        1.0000000000000000        0.0000000000000000     
  0.59375000000000000        1.0000000000000000        0.0000000000000000     
  0.62500000000000000        1.0000000000000000        0.0000000000000000     
  0.62500000000000000       0.87500000000000000        0.0000000000000000     
  0.65625000000000000       0.87500000000000000        0.0000000000000000     
  0.68750000000000000       0.87500000000000000        0.0000000000000000     
  0.71875000000000000       0.87500000000000000        0.0000000000000000     
  0.75000000000000000       0.87500000000000000        0.0000000000000000     
  0.62500000000000000       0.90625000000000000        0.0000000000000000     
  0.65625000000000000       0.90625000000000000        0.0000000000000000     
  0.68750000000000000       0.90625000000000000        0.0000000000000000     
  0.71875000000000000       0.90625000000000000        0.0000000000000000     
  0.75000000000000000       0.90625000000000000        0.0000000000000000     
  0.62500000000000000       0.93750000000000000        0.0000000000000000     
  0.65625000000000000       0.93750000000000000        0.0000000000000000     
  0.68750000000000000       0.93750000000000000        0.0000000000000000     
  0.71875000000000000       0.93750000000000000        0.0000000000000000     
  0.75000000000000000       0.93750000000000000        0.0000000000000000     
  0.62500000000000000       0.96875000000000000        0.0000000000000000     
  0.65625000000000000       0.96875000000000000        0.0000000000000000     
  0.68750000000000000       0.96875000000000000        0.0000000000000000     
  0.71875000000000000       0.96875000000000000        0.0000000000000000     
  0.75000000000000000       0.96875000000000000        0.0000000000000000     
  0.62500000000000000        1.0000000000000000        0.0000000000000000     
  0.65625000000000000        1.0000000000000000        0.0000000000000000     
  0.68750000000000000        1.0000000000000000        0.0000000000000000     
  0.71875000000000000        1.0000000000000000        0.0000000000000000     
  0.75000000000000000        1.0000000000000000        0.0000000000000000     
  0.75000000000000000       0.87500000000000000        0.0000000000000000     
  0.78125000000000000       0.87500000000000000        0.0000000000000000     
  0.81250000000000000       0.87500000000000000        0.0000000000000000     
  0.84375000000000000       0.87500000000000000        0.0000000000000000     
  0.87500000000000000       0.87500000000000000        0.0000000000000000     
  0.75000000000000000       0.90625000000000000        0.0000000000000000     
  0.78125000000000000       0.90625000000000000        0.0000000000000000     
  0.81250000000000000       0.90625000000000000        0.0000000000000000     
  0.84375000000000000       0.90625000000000000        0.0000000000000000     
  0.87500000000000000       0.90625000000000000        0.0000000000000000     
  0.75000000000000000       0.93750000000000000        0.0000000000000000     
  0.78125000000000000       0.93750000000000000        0.0000000000000000     
  0.81250000000000000       0.93750000000000000        0.0000000000000000     
  0.84375000000000000       0.93750000000000000        0.0000000000000000     
  0.87500000000000000       0.93750000000000000        0.0000000000000000     
  0.75000000000000000       0.96875000000000000        0.0000000000000000     
  0.78125000000000000       0.96875000000000000        0.0000000000000000     
  0.81250000000000000       0.96875000000000000        0.0000000000000000     
  0.84375000000000000       0.96875000000000000        0.0000000000000000     
  0.87500000000000000       0.96875000000000000        0.0000000000000000     
  0.75000000000000000        1.0000000000000000        0.0000000000000000     
  0.78125000000000000        1.0000000000000000        0.0000000000000000     
  0.81250000000000000        1.0000000000000000        0.0000000000000000     
  0.84375000000000000        1.0000000000000000        0.0000000000000000     
  0.87500000000000000        1.0000000000000000        0.0000000000000000     
  0.87500000000000000       0.87500000000000000        0.0000000000000000     
  0.90625000000000000       0.87500000000000000        0.0000000000000000     
  0.93750000000000000       0.87500000000000000        0.0000000000000000     
  0.96875000000000000       0.87500000000000000        0.0000000000000000     
   1.0000000000000000       0.87500000000000000        0.0000000000000000     
  0.87500000000000000       0.90625000000000000        0.0000000000000000     
  0.90625000000000000       0.90625000000000000        0.0000000000000000     
  0.93750000000000000       0.90625000000000000        0.0000000000000000     
  0.96875000000000000       0.90625000000000000        0.0000000000000000     
   1.0000000000000000       0.90625000000000000        0.0000000000000000     
  0.87500000000000000       0.93750000000000000        0.0000000000000000     
  0.90625000000000000       0.93750000000000000        0.0000000000000000     
  0.93750000000000000       0.93750000000000000        0.0000000000000000     
  0.96875000000000000       0.93750000000000000        0.0000000000000000     
   1.0000000000000000       0.93750000000000000        0.0000000000000000     
  0.87500000000000000       0.96875000000000000        0.0000000000000000     
  0.90625000000000000       0.96875000000000000        0.0000000000000000     
  0.93750000000000000       0.96875000000000000        0.0000000000000000     
  0.96875000000000000       0.96875000000000000        0.0000000000000000     
   1.0000000000000000       0.96875000000000000        0.0000000000000000     
  0.87500000000000000        1.0000000000000000        0.0000000000000000     
  0.90625000000000000        1.0000000000000000        0.0000000000000000     
  0.93750000000000000        1.0000000000000000        0.0000000000000000     
  0.96875000000000000        1.0000000000000000        0.0000000000000000     
   1.0000000000000000        1.0000000000000000        0.0000000000000000     
   1.0000000000000000       0.87500000000000000        0.0000000000000000     
   1.0312500000000000       0.87500000000000000        0.0000000000000000     
   1.0625000000000000       0.87500000000000000        0.0000000000000000     
   1.0937500000000000       0.87500000000000000        0.0000000000000000     
   1.1250000000000000       0.87500000000000000        0.0000000000000000     
   1.0000000000000000       0.90625000000000000        0.0000000000000000     
   1.0312500000000000       0.90625000000000000        0.0000000000000000     
   1.0625000000000000       0.90625000000000000        0.0000000000000000     
   1.0937500000000000       0.90625000000000000        0.0000000000000000     
   1.1250000000000000       0.90625000000000000        0.0000000000000000     
   1.0000000000000000       0.93750000000000000        0.0000000000000000     
   1.0312500000000000       0.93750000000000000        0.0000000000000000     
   1.0625000000000000       0.93750000000000000        0.0000000000000000     
   1.0937500000000000       0.93750000000000000        0.0000000000000000     
   1.1250000000000000       0.93750000000000000        0.0000000000000000     
   1.0000000000000000       0.96875000000000000        0.0000000000000000     
   1.0312500000000000       0.96875000000000000        0.0000000000000000     
   1.0625000000000000       0.96875000000000000        0.0000000000000000     
   1.0937500000000000       0.96875000000000000        0.0000000000000000     
   1.1250000000000000       0.96875000000000000        0.0000000000000000     
   1.0000000000000000        1.0000000000000000        0.0000000000000000     
   1.0312500000000000        1.0000000000000000        0.0000000000000000     
   1.0625000000000000        1.0000000000000000        0.0000000000000000     
   1.0937500000000000        1.0000000000000000        0.0000000000000000     
   1.1250000000000000        1.0000000000000000        0.0000000000000000     
   1.1250000000000000       0.87500000000000000        0.0000000000000000     
   1.1562500000000000       0.87500000000000000        0.0000000000000000     
   1.1875000000000000       0.87500000000000000        0.0000000000000000     
   1.2187500000000000       0.87500000000000000        0.0000000000000000     
   1.2500000000000000       0.87500000000000000        0.0000000000000000     
   1.1250000000000000       0.90625000000000000        0.0000000000000000     
   1.1562500000000000       0.90625000000000000        0.0000000000000000     
   1.1875000000000000       0.90625000000000000        0.0000000000000000     
   1.2187500000000000       0.90625000000000000        0.0000000000000000     
   1.2500000000000000       0.90625000000000000        0.0000000000000000     
   1.1250000000000000       0.93750000000000000        0.0000000000000000     
   1.1562500000000000       0.93750000000000000        0.0000000000000000     
   1.1875000000000000       0.93750000000000000        0.0000000000000000     
   1.2187500000000000       0.93750000000000000        0.0000000000000000     
   1.2500000000000000       0.93750000000000000        0.0000000000000000     
   1.1250000000000000       0.96875000000000000        0.0000000000000000     
   1.1562500000000000       0.96875000000000000        0.0000000000000000     
   1.1875000000000000       0.96875000000000000        0.0000000000000000     
   1.2187500000000000       0.96875000000000000        0.0000000000000000     
   1.2500000000000000       0.96875000000000000        0.0000000000000000     
   1.1250000000000000        1.0000000000000000        0.0000000000000000     
   1.1562500000000000        1.0000000000000000        0.0000000000000000     
   1.1875000000000000        1.0000000000000000        0.0000000000000000     
   1.2187500000000000        1.0000000000000000        0.0000000000000000     
   1.2500000000000000        1.0000000000000000        0.0000000000000000     
   1.2500000000000000       0.87500000000000000        0.0000000000000000     
   1.2812500000000000       0.87500000000000000        0.0000000000000000     
   1.3125000000000000       0.87500000000000000        0.0000000000000000     
   1.3437500000000000       0.87500000000000000        0.0000000000000000     
   1.3750000000000000       0.87500000000000000        0.0000000000000000     
   1.2500000000000000       0.90625000000000000        0.0000000000000000     
   1.2812500000000000       0.90625000000000000        0.0000000000000000     
   1.3125000000000000       0.90625000000000000        0.0000000000000000     
   1.3437500000000000       0.90625000000000000        0.0000000000000000     
   1.3750000000000000       0.90625000000000000        0.0000000000000000     
   1.2500000000000000       0.93750000000000000        0.0000000000000000     
   1.2812500000000000       0.93750000000000000        0.0000000000000000     
   1.3125000000000000       0.93750000000000000        0.0000000000000000     
   1.3437500000000000       0.93750000000000000        0.0000000000000000     
   1.3750000000000000       0.93750000000000000        0.0000000000000000     
   1.2500000000000000       0.96875000000000000        0.0000000000000000     
   1.2812500000000000       0.96875000000000000        0.0000000000000000     
   1.3125000000000000       0.96875000000000000        0.0000000000000000     
   1.3437500000000000       0.96875000000000000        0.0000000000000000     
   1.3750000000000000       0.96875000000000000        0.0000000000000000     
   1.2500000000000000        1.0000000000000000        0.0000000000000000     
   1.2812500000000000        1.0000000000000000        0.0000000000000000     
   1.3125000000000000        1.0000000000000000        0.0000000000000000     
   1.3437500000000000        1.0000000000000000        0.0000000000000000     
   1.3750000000000000        1.0000000000000000        0.0000000000000000     
   1.3750000000000000       0.87500000000000000        0.0000000000000000     
   1.4062500000000000       0.87500000000000000        0.0000000000000000     
   1.4375000000000000       0.87500000000000000        0.0000000000000000     
   1.4687500000000000       0.87500000000000000        0.0000000000000000     
   1.5000000000000000       0.87500000000000000        0.0000000000000000     
   1.3750000000000000       0.90625000000000000        0.0000000000000000     
   1.4062500000000000       0.90625000000000000        0.0000000000000000     
   1.4375000000000000       0.90625000000000000        0.0000000000000000     
   1.4687500000000000       0.90625000000000000        0.0000000000000000     
   1.5000000000000000       0.90625000000000000        0.0000000000000000     
   1.3750000000000000       0.93750000000000000        0.0000000000000000     
   1.4062500000000000       0.93750000000000000        0.0000000000000000     
   1.4375000000000000       0.93750000000000000        0.0000000000000000     
   1.4687500000000000       0.93750000000000000        0.0000000000000000     
   1.5000000000000000       0.93750000000000000        0.0000000000000000     
   1.3750000000000000       0.96875000000000000        0.0000000000000000     
   1.4062500000000000       0.96875000000000000        0.0000000000000000     
   1.4375000000000000       0.96875000000000000        0.0000000000000000     
   1.4687500000000000       0.96875000000000000        0.0000000000000000     
   1.5000000000000000       0.96875000000000000        0.0000000000000000     
   1.3750000000000000        1.0000000000000000        0.0000000000000000     
   1.4062500000000000        1.0000000000000000        0.0000000000000000     
   1.4375000000000000        1.0000000000000000        0.0000000000000000     
   1.4687500000000000        1.0000000000000000        0.0000000000000000     
   1.5000000000000000        1.0000000000000000        0.0000000000000000     
 </DataArray>
 </Points>
 <Cells>
 <DataArray  type="Int32"  Name="connectivity"  format="ascii">
           0           1           6           5
           1           2           7           6
           2           3           8           7
           3           4           9           8
           5           6          11          10
           6           7          12          11
           7           8          13          12
           8           9          14          13
          10          11          16          15
          11          12          17          16
          12          13          18          17
          13          14          19          18
          15          16          21          20
          16          17          22          21
          17          18          23          22
          18          19          24          23
          25          26          31          30
          26          27          32          31
          27          28          33          32
          28          29          34          33
          30          31          36          35
          31          32          37          36
          32          33          38          37
          33          34          39          38
          35          36          41          40
          36          37          42          41
          37          38          43          42
          38          39          44          43
          40          41          46          45
          41          42          47          46
          42          43          48          47
          43          44          49          48
          50          51          56          55
          51          52          57          56
          52          53          58          57
          53          54          59          58
          55          56          61          60
          56          57          62          61
          57          58          63          62
          58          59          64          63
          60          61          66          65
          61          62          67          66
          62          63          68          67
          63          64          69          68
          65          66          71          70
          66          67          72          71
          67          68          73          72
          68          69          74          73
          75          76          81          80
          76          77          82          81
          77          78          83          82
          78          79          84          83
          80          81          86          85
          81          82          87          86
          82          83          88          87
          83          84          89          88
          85          86          91          90
          86          87          92          91
          87          88          93          92
          88          89          94          93
          90          91          96          95
          91          92          97          96
          92          93          98          97
          93          94          99          98
         100         101         106         105
         101         102         107         106
         102         103         108         107
         103         104         109         108
         105         106         111         110
         106         107         112         111
         107         108         113         112
         108         109         114         113
         110         111         116         115
         111         112         117         116
         112         113         118         117
         113         114         119         118
         115         116         121         120
         116         117         122         121
         117         118         123         122
         118         119         124         123
         125         126         131         130
         126         127         132         131
         127         128         133         132
         128         129         134         133
         130         131         136         135
         131         132         137         136
         132         133         138         137
         133         134         139         138
         135         136         141         140
         136         137         142         141
         137         138         143         142
         138         139         144         143
         140         141         146         145
         141         142         147         146
         142         143         148         147
         143         144         149         148
         150         151         156         155
         151         152         157         156
         152         153         158         157
         153         154         159         158
         155         156         161         160
         156         157         162         161
         157         158         163         162
         158         159         164         163
         160         161         166         165
         161         162         167         166
         162         163         168         167
         163         164         169         168
         165         166         171         170
         166         167         172         171
         167         168         173         172
         168         169         174         173
         175         176         181         180
         176         177         182         181
         177         178         183         182
         178         179         184         183
         180         181         186         185
         181         182         187         186
         182         183         188         187
         183         184         189         188
         185         186         191         190
         186         187         192         191
         187         188         193         192
         188         189         194         193
         190         191         196         195
         191         192         197         196
         192         193         198         197
         193         194         199         198
         200         201         206         205
         201         202         207         206
         202         203         208         207
         203         204         209         208
         205         206         211         210
         206         207         212         211
         207         208         213         212
         208         209         214         213
         210         211         216         215
         211         212         217         216
         212         213         218         217
         213         214         219         218
         215         216         221         220
         216         217         222         221
         217         218         223         222
         218         219         224         223
         225         226         231         230
         226         227         232         231
         227         228         233         232
         228         229         234         233
         230         231         236         235
         231         232         237         236
         232         233         238         237
         233         234         239         238
         235         236         241         240
         236         237         242         241
         237         238         243         242
         238         239         244         243
         240         241         246         245
         241         242         247         246
         242         243         248         247
         243         244         249         248
         250         251         256         255
         251         252         257         256
         252         253         258         257
         253         254         259         258
         255         256         261         260
         256         257         262         261
         257         258         263         262
         258         259         264         263
         260         261         266         265
         261         262         267         266
         262         263         268         267
         263         264         269         268
         265         266         271         270
         266         267         272         271
         267         268         273         272
         268         269         274         273
         275         276         281         280
         276         277         282         281
         277         278         283         282
         278         279         284         283
         280         281         286         285
         281         282         287         286
         282         283         288         287
         283         284         289         288
         285         286         291         290
         286         287         292         291
         287         288         293         292
         288         289         294         293
         290         291         296         295
         291         292         297         296
         292         293         298         297
         293         294         299         298
         300         301         306         305
         301         302         307         306
         302         303         308         307
         303         304         309         308
         305         306         311         310
         306         307         312         311
         307         308         313         312
         308         309         314         313
         310         311         316         315
         311         312         317         316
         312         313         318         317
         313         314         319         318
         315         316         321         320
         316         317         322         321
         317         318         323         322
         318         319         324         323
         325         326         331         330
         326         327         332         331
         327         328         333         332
         328         329         334         333
         330         331         336         335
         331         332         337         336
         332         333         338         337
         333         334         339         338
         335         336         341         340
         336         337         342         341
         337         338         343         342
         338         339         344         343
         340         341         346         345
         341         342         347         346
         342         343         348         347
         343         344         349         348
         350         351         356         355
         351         352         357         356
         352         353         358         357
         353         354         359         358
         355         356         361         360
         356         357         362         361
         357         358         363         362
         358         359         364         363
         360         361         366         365
         361         362         367         366
         362         363         368         367
         363         364         369         368
         365         366         371         370
         366         367         372         371
         367         368         373         372
         368         369         374         373
         375         376         381         380
         376         377         382         381
         377         378         383         382
         378         379         384         383
         380         381         386         385
         381         382         387         386
         382         383         388         387
         383         384         389         388
         385         386         391         390
         386         387         392         391
         387         388         393         392
         388         389         394         393
         390         391         396         395
         391         392         397         396
         392         393         398         397
         393         394         399         398
         400         401         406         405
         401         402         407         406
         402         403         408         407
         403         404         409         408
         405         406         411         410
         406         407         412         411
         407         408         413         412
         408         409         414         413
         410         411         416         415
         411         412         417         416
         412         413         418         417
         413         414         419         418
         415         416         421         420
         416         417         422         421
         417         418         423         422
         418         419         424         423
         425         426         431         430
         426         427         432         431
         427         428         433         432
         428         429         434         433
         430         431         436         435
         431         432         437         436
         432         433         438         437
         433         434         439         438
         435         436         441         440
         436         437         442         441
         437         438         443         442
         438         439         444         443
         440         441         446         445
         441         442         447         446
         442         443         448         447
         443         444         449         448
         450         451         456         455
         451         452         457         456
         452         453         458         457
         453         454         459         458
         455         456         461         460
         456         457         462         461
         457         458         463         462
         458         459         464         463
         460         461         466         465
         461         462         467         466
         462         463         468         467
         463         464         469         468
         465         466         471         470
         466         467         472         471
         467         468         473         472
         468         469         474         473
         475         476         481         480
         476         477         482         481
         477         478         483         482
         478         479         484         483
         480         481         486         485
         481         482         487         486
         482         483         488         487
         483         484         489         488
         485         486         491         490
         486         487         492         491
         487         488         493         492
         488         489         494         493
         490         491         496         495
         491         492         497         496
         492         493         498         497
         493         494         499         498
         500         501         506         505
         501         502         507         506
         502         503         508         507
         503         504         509         508
         505         506         511         510
         506         507         512         511
         507         508         513         512
         508         509         514         513
         510         511         516         515
         511         512         517         516
         512         513         518         517
         513         514         519         518
         515         516         521         520
         516         517         522         521
         517         518         523         522
         518         519         524         523
         525         526         531         530
         526         527         532         531
         527         528         533         532
         528         529         534         533
         530         531         536         535
         531         532         537         536
         532         533         538         537
         533         534         539         538
         535         536         541         540
         536         537         542         541
         537         538         543         542
         538         539         544         543
         540         541         546         545
         541         542         547         546
         542         543         548         547
         543         544         549         548
         550         551         556         555
         551         552         557         556
         552         553         558         557
         553         554         559         558
         555         556         561         560
         556         557         562         561
         557         558         563         562
         558         559         564         563
         560         561         566         565
         561         562         567         566
         562         563         568         567
         563         564         569         568
         565         566         571         570
         566         567         572         571
         567         568         573         572
         568         569         574         573
         575         576         581         580
         576         577         582         581
         577         578         583         582
         578         579         584         583
         580         581         586         585
         581         582         587         586
         582         583         588         587
         583         584         589         588
         585         586         591         590
         586         587         592         591
         587         588         593         592
         588         589         594         593
         590         591         596         595
         591         592         597         596
         592         593         598         597
         593         594         599         598
         600         601         606         605
         601         602         607         606
         602         603         608         607
         603         604         609         608
         605         606         611         610
         606         607         612         611
         607         608         613         612
         608         609         614         613
         610         611         616         615
         611         612         617         616
         612         613         618         617
         613         614         619         618
         615         616         621         620
         616         617         622         621
         617         618         623         622
         618         619         624         623
         625         626         631         630
         626         627         632         631
         627         628         633         632
         628         629         634         633
         630         631         636         635
         631         632         637         636
         632         633         638         637
         633         634         639         638
         635         636         641         640
         636         637         642         641
         637         638         643         642
         638         639         644         643
         640         641         646         645
         641         642         647         646
         642         643         648         647
         643         644         649         648
         650         651         656         655
         651         652         657         656
         652         653         658         657
         653         654         659         658
         655         656         661         660
         656         657         662         661
         657         658         663         662
         658         659         664         663
         660         661         666         665
         661         662         667         666
         662         663         668         667
         663         664         669         668
         665         666         671         670
         666         667         672         671
         667         668         673         672
         668         669         674         673
         675         676         681         680
         676         677         682         681
         677         678         683         682
         678         679         684         683
         680         681         686         685
         681         682         687         686
         682         683         688         687
         683         684         689         688
         685         686         691         690
         686         687         692         691
         687         688         693         692
         688         689         694         693
         690         691         696         695
         691         692         697         696
         692         693         698         697
         693         694         699         698
         700         701         706         705
         701         702         707         706
         702         703         708         707
         703         704         709         708
         705         706         711         710
         706         707         712         711
         707         708         713         712
         708         709         714         713
         710         711         716         715
         711         712         717         716
         712         713         718         717
         713         714         719         718
         715         716         721         720
         716         717         722         721
         717         718         723         722
         718         719         724         723
         725         726         731         730
         726         727         732         731
         727         728         733         732
         728         729         734         733
         730         731         736         735
         731         732         737         736
         732         733         738         737
         733         734         739         738
         735         736         741         740
         736         737         742         741
         737         738         743         742
         738         739         744         743
         740         741         746         745
         741         742         747         746
         742         743         748         747
         743         744         749         748
         750         751         756         755
         751         752         757         756
         752         753         758         757
         753         754         759         758
         755         756         761         760
         756         757         762         761
         757         758         763         762
         758         759         764         763
         760         761         766         765
         761         762         767         766
         762         763         768         767
         763         764         769         768
         765         766         771         770
         766         767         772         771
         767         768         773         772
         768         769         774         773
         775         776         781         780
         776         777         782         781
         777         778         783         782
         778         779         784         783
         780         781         786         785
         781         782         787         786
         782         783         788         787
         783         784         789         788
         785         786         791         790
         786         787         792         791
         787         788         793         792
         788         789         794         793
         790         791         796         795
         791         792         797         796
         792         793         798         797
         793         794         799         798
         800         801         806         805
         801         802         807         806
         802         803         808         807
         803         804         809         808
         805         806         811         810
         806         807         812         811
         807         808         813         812
         808         809         814         813
         810         811         816         815
         811         812         817         816
         812         813         818         817
         813         814         819         818
         815         816         821         820
         816         817         822         821
         817         818         823         822
         818         819         824         823
         825         826         831         830
         826         827         832         831
         827         828         833         832
         828         829         834         833
         830         831         836         835
         831         832         837         836
         832         833         838         837
         833         834         839         838
         835         836         841         840
         836         837         842         841
         837         838         843         842
         838         839         844         843
         840         841         846         845
         841         842         847         846
         842         843         848         847
         843         844         849         848
         850         851         856         855
         851         852         857         856
         852         853         858         857
         853         854         859         858
         855         856         861         860
         856         857         862         861
         857         858         863         862
         858         859         864         863
         860         861         866         865
         861         862         867         866
         862         863         868         867
         863         864         869         868
         865         866         871         870
         866         867         872         871
         867         868         873         872
         868         869         874         873
         875         876         881         880
         876         877         882         881
         877         878         883         882
         878         879         884         883
         880         881         886         885
         881         882         887         886
         882         883         888         887
         883         884         889         888
         885         886         891         890
         886         887         892         891
         887         888         893         892
         888         889         894         893
         890         891         896         895
         891         892         897         896
         892         893         898         897
         893         894         899         898
         900         901         906         905
         901         902         907         906
         902         903         908         907
         903         904         909         908
         905         906         911         910
         906         907         912         911
         907         908         913         912
         908         909         914         913
         910         911         916         915
         911         912         917         916
         912         913         918         917
         913         914         919         918
         915         916         921         920
         916         917         922         921
         917         918         923         922
         918         919         924         923
         925         926         931         930
         926         927         932         931
         927         928         933         932
         928         929         934         933
         930         931         936         935
         931         932         937         936
         932         933         938         937
         933         934         939         938
         935         936         941         940
         936         937         942         941
         937         938         943         942
         938         939         944         943
         940         941         946         945
         941         942         947         946
         942         943         948         947
         943         944         949         948
         950         951         956         955
         951         952         957         956
         952         953         958         957
         953         954         959         958
         955         956         961         960
         956         957         962         961
         957         958         963         962
         958         959         964         963
         960         961         966         965
         961         962         967         966
         962         963         968         967
         963         964         969         968
         965         966         971         970
         966         967         972         971
         967         968         973         972
         968         969         974         973
         975         976         981         980
         976         977         982         981
         977         978         983         982
         978         979         984         983
         980         981         986         985
         981         982         987         986
         982         983         988         987
         983         984         989         988
         985         986         991         990
         986         987         992         991
         987         988         993         992
         988         989         994         993
         990         991         996         995
         991         992         997         996
         992         993         998         997
         993         994         999         998
        1000        1001        1006        1005
        1001        1002        1007        1006
        1002        1003        1008        1007
        1003        1004        1009        1008
        1005        1006        1011        1010
        1006        1007        1012        1011
        1007        1008        1013        1012
        1008        1009        1014        1013
        1010        1011        1016        1015
        1011        1012        1017        1016
        1012        1013        1018        1017
        1013        1014        1019        1018
        1015        1016        1021        1020
        1016        1017        1022        1021
        1017        1018        1023        1022
        1018        1019        1024        1023
        1025        1026        1031        1030
        1026        1027        1032        1031
        1027        1028        1033        1032
        1028        1029        1034        1033
        1030        1031        1036        1035
        1031        1032        1037        1036
        1032        1033        1038        1037
        1033        1034        1039        1038
        1035        1036        1041        1040
        1036        1037        1042        1041
        1037        1038        1043        1042
        1038        1039        1044        1043
        1040        1041        1046        1045
        1041        1042        1047        1046
        1042        1043        1048        1047
        1043        1044        1049        1048
        1050        1051        1056        1055
        1051        1052        1057        1056
        1052        1053        1058        1057
        1053        1054        1059        1058
        1055        1056        1061        1060
        1056        1057        1062        1061
        1057        1058        1063        1062
        1058        1059        1064        1063
        1060        1061        1066        1065
        1061        1062        1067        1066
        1062        1063        1068        1067
        1063        1064        1069        1068
        1065        1066        1071        1070
        1066        1067        1072        1071
        1067        1068        1073        1072
        1068        1069        1074        1073
        1075        1076        1081        1080
        1076        1077        1082        1081
        1077        1078        1083        1082
        1078        1079        1084        1083
        1080        1081        1086        1085
        1081        1082        1087        1086
        1082        1083        1088        1087
        1083        1084        1089        1088
        1085        1086        1091        1090
        1086        1087        1092        1091
        1087        1088        1093        1092
        1088        1089        1094        1093
        1090        1091        1096        1095
        1091        1092        1097        1096
        1092        1093        1098        1097
        1093        1094        1099        1098
        1100        1101        1106        1105
        1101        1102        1107        1106
        1102        1103        1108        1107
        1103        1104        1109        1108
        1105        1106        1111        1110
        1106        1107        1112        1111
        1107        1108        1113        1112
        1108        1109        1114        1113
        1110        1111        1116        1115
        1111        1112        1117        1116
        1112        1113        1118        1117
        1113        1114        1119        1118
        1115        1116        1121        1120
        1116        1117        1122        1121
        1117        1118        1123        1122
        1118        1119        1124        1123
        1125        1126        1131        1130
        1126        1127        1132        1131
        1127        1128        1133        1132
        1128        1129        1134        1133
        1130        1131        1136        1135
        1131        1132        1137        1136
        1132        1133        1138        1137
        1133        1134        1139        1138
        1135        1136        1141        1140
        1136        1137        1142        1141
        1137        1138        1143        1142
        1138        1139        1144        1143
        1140        1141        1146        1145
        1141        1142        1147        1146
        1142        1143        1148        1147
        1143        1144        1149        1148
        1150        1151        1156        1155
        1151        1152        1157        1156
        1152        1153        1158        1157
        1153        1154        1159        1158
        1155        1156        1161        1160
        1156        1157        1162        1161
        1157        1158        1163        1162
        1158        1159        1164        1163
        1160        1161        1166        1165
        1161        1162        1167        1166
        1162        1163        1168        1167
        1163        1164        1169        1168
        1165        1166        1171        1170
        1166        1167        1172        1171
        1167        1168        1173        1172
        1168        1169        1174        1173
        1175        1176        1181        1180
        1176        1177        1182        1181
        1177        1178        1183        1182
        1178        1179        1184        1183
        1180        1181        1186        1185
        1181        1182        1187        1186
        1182        1183        1188        1187
        1183        1184        1189        1188
        1185        1186        1191        1190
        1186        1187        1192        1191
        1187        1188        1193        1192
        1188        1189        1194        1193
        1190        1191        1196        1195
        1191        1192        1197        1196
        1192        1193        1198        1197
        1193        1194        1199        1198
        1200        1201        1206        1205
        1201        1202        1207        1206
        1202        1203        1208        1207
        1203        1204        1209        1208
        1205        1206        1211        1210
        1206        1207        1212        1211
        1207        1208        1213        1212
        1208        1209        1214        1213
        1210        1211        1216        1215
        1211        1212        1217        1216
        1212        1213        1218        1217
        1213        1214        1219        1218
        1215        1216        1221        1220
        1216        1217        1222        1221
        1217        1218        1223        1222
        1218        1219        1224        1223
        1225        1226        1231        1230
        1226        1227        1232        1231
        1227        1228        1233        1232
        1228        1229        1234        1233
        1230        1231        1236        1235
        1231        1232        1237        1236
        1232        1233        1238        1237
        1233        1234        1239        1238
        1235        1236        1241        1240
        1236        1237        1242        1241
        1237        1238        1243        1242
        1238        1239        1244        1243
        1240        1241        1246        1245
        1241        1242        1247        1246
        1242        1243        1248        1247
        1243        1244        1249        1248
        1250        1251        1256        1255
        1251        1252        1257        1256
        1252        1253        1258        1257
        1253        1254        1259        1258
        1255        1256        1261        1260
        1256        1257        1262        1261
        1257        1258        1263        1262
        1258        1259        1264        1263
        1260        1261        1266        1265
        1261        1262        1267        1266
        1262        1263        1268        1267
        1263        1264        1269        1268
        1265        1266        1271        1270
        1266        1267        1272        1271
        1267        1268        1273        1272
        1268        1269        1274        1273
        1275        1276        1281        1280
        1276        1277        1282        1281
        1277        1278        1283        1282
        1278        1279        1284        1283
        1280        1281        1286        1285
        1281        1282        1287        1286
        1282        1283        1288        1287
        1283        1284        1289        1288
        1285        1286        1291        1290
        1286        1287        1292        1291
        1287        1288        1293        1292
        1288        1289        1294        1293
        1290        1291        1296        1295
        1291        1292        1297        1296
        1292        1293        1298        1297
        1293        1294        1299        1298
        1300        1301        1306        1305
        1301        1302        1307        1306
        1302        1303        1308        1307
        1303        1304        1309        1308
        1305        1306        1311        1310
        1306        1307        1312        1311
        1307        1308        1313        1312
        1308        1309        1314        1313
        1310        1311        1316        1315
        1311        1312        1317        1316
        1312        1313        1318        1317
        1313        1314        1319        1318
        1315        1316        1321        1320
        1316        1317        1322        1321
        1317        1318        1323        1322
        1318        1319        1324        1323
        1325        1326        1331        1330
        1326        1327        1332        1331
        1327        1328        1333        1332
        1328        1329        1334        1333
        1330        1331        1336        1335
        1331        1332        1337        1336
        1332        1333        1338        1337
        1333        1334        1339        1338
        1335        1336        1341        1340
        1336        1337        1342        1341
        1337        1338        1343        1342
        1338        1339        1344        1343
        1340        1341        1346        1345
        1341        1342        1347        1346
        1342        1343        1348        1347
        1343        1344        1349        1348
        1350        1351        1356        1355
        1351        1352        1357        1356
        1352        1353        1358        1357
        1353        1354        1359        1358
        1355        1356        1361        1360
        1356        1357        1362        1361
        1357        1358        1363        1362
        1358        1359        1364        1363
        1360        1361        1366        1365
        1361        1362        1367        1366
        1362        1363        1368        1367
        1363        1364        1369        1368
        1365        1366        1371        1370
        1366        1367        1372        1371
        1367        1368        1373        1372
        1368        1369        1374        1373
        1375        1376        1381        1380
        1376        1377        1382        1381
        1377        1378        1383        1382
        1378        1379        1384        1383
        1380        1381        1386        1385
        1381        1382        1387        1386
        1382        1383        1388        1387
        1383        1384        1389        1388
        1385        1386        1391        1390
        1386        1387        1392        1391
        1387        1388        1393        1392
        1388        1389        1394        1393
        1390        1391        1396        1395
        1391        1392        1397        1396
        1392        1393        1398        1397
        1393        1394        1399        1398
        1400        1401        1406        1405
        1401        1402        1407        1406
        1402        1403        1408        1407
        1403        1404        1409        1408
        1405        1406        1411        1410
        1406        1407        1412        1411
        1407        1408        1413        1412
        1408        1409        1414        1413
        1410        1411        1416        1415
        1411        1412        1417        1416
        1412        1413        1418        1417
        1413        1414        1419        1418
        1415        1416        1421        1420
        1416        1417        1422        1421
        1417        1418        1423        1422
        1418        1419        1424        1423
        1425        1426        1431        1430
        1426        1427        1432        1431
        1427        1428        1433        1432
        1428        1429        1434        1433
        1430        1431        1436        1435
        1431        1432        1437        1436
        1432        1433        1438        1437
        1433        1434        1439        1438
        1435        1436        1441        1440
        1436        1437        1442        1441
        1437        1438        1443        1442
        1438        1439        1444        1443
        1440        1441        1446        1445
        1441        1442        1447        1446
        1442        1443        1448        1447
        1443        1444        1449        1448
        1450        1451        1456        1455
        1451        1452        1457        1456
        1452        1453        1458        1457
        1453        1454        1459        1458
        1455        1456        1461        1460
        1456        1457        1462        1461
        1457        1458        1463        1462
        1458        1459        1464        1463
        1460        1461        1466        1465
        1461        1462        1467        1466
        1462        1463        1468        1467
        1463        1464        1469        1468
        1465        1466        1471        1470
        1466        1467        1472        1471
        1467        1468        1473        1472
        1468        1469        1474        1473
        1475        1476        1481        1480
        1476        1477        1482        1481
        1477        1478        1483        1482
        1478        1479        1484        1483
        1480        1481        1486        1485
        1481        1482        1487        1486
        1482        1483        1488        1487
        1483        1484        1489        1488
        1485        1486        1491        1490
        1486        1487        1492        1491
        1487        1488        1493        1492
        1488        1489        1494        1493
        1490        1491        1496        1495
        1491        1492        1497        1496
        1492        1493        1498        1497
        1493        1494        1499        1498
        1500        1501        1506        1505
        1501        1502        1507        1506
        1502        1503        1508        1507
        1503        1504        1509        1508
        1505        1506        1511        1510
        1506        1507        1512        1511
        1507        1508        1513        1512
        1508        1509        1514        1513
        1510        1511        1516        1515
        1511        1512        1517        1516
        1512        1513        1518        1517
        1513        1514        1519        1518
        1515        1516        1521        1520
        1516        1517        1522        1521
        1517        1518        1523        1522
        1518        1519        1524        1523
        1525        1526        1531        1530
        1526        1527        1532        1531
        1527        1528        1533        1532
        1528        1529        1534        1533
        1530        1531        1536        1535
        1531        1532        1537        1536
        1532        1533        1538        1537
        1533        1534        1539        1538
        1535        1536        1541        1540
        1536        1537        1542        1541
        1537        1538        1543        1542
        1538        1539        1544        1543
        1540        1541        1546        1545
        1541        1542        1547        1546
        1542        1543        1548        1547
        1543        1544        1549        1548
        1550        1551        1556        1555
        1551        1552        1557        1556
        1552        1553        1558        1557
        1553        1554        1559        1558
        1555        1556        1561        1560
        1556        1557        1562        1561
        1557        1558        1563        1562
        1558        1559        1564        1563
        1560        1561        1566        1565
        1561        1562        1567        1566
        1562        1563        1568        1567
        1563        1564        1569        1568
        1565        1566        1571        1570
        1566        1567        1572        1571
        1567        1568        1573        1572
        1568        1569        1574        1573
        1575        1576        1581        1580
        1576        1577        1582        1581
        1577        1578        1583        1582
        1578        1579        1584        1583
        1580        1581        1586        1585
        1581        1582        1587        1586
        1582        1583        1588        1587
        1583        1584        1589        1588
        1585        1586        1591        1590
        1586        1587        1592        1591
        1587        1588        1593        1592
        1588        1589        1594        1593
        1590        1591        1596        1595
        1591        1592        1597        1596
        1592        1593        1598        1597
        1593        1594        1599        1598
 </DataArray>
 <DataArray  type="Int32"  Name="offsets"  format="ascii"> 
           4
           8
          12
          16
          20
          24
          28
          32
          36
          40
          44
          48
          52
          56
          60
          64
          68
          72
          76
          80
          84
          88
          92
          96
         100
         104
         108
         112
         116
         120
         124
         128
         132
         136
         140
         144
         148
         152
         156
         160
         164
         168
         172
         176
         180
         184
         188
         192
         196
         200
         204
         208
         212
         216
         220
         224
         228
         232
         236
         240
         244
         248
         252
         256
         260
         264
         268
         272
         276
         280
         284
         288
         292
         296
         300
         304
         308
         312
         316
         320
         324
         328
         332
         336
         340
         344
         348
         352
         356
         360
         364
         368
         372
         376
         380
         384
         388
         392
         396
         400
         404
         408
         412
         416
         420
         424
         428
         432
         436
         440
         444
         448
         452
         456
         460
         464
         468
         472
         476
         480
         484
         488
         492
         496
         500
         504
         508
         512
         516
         520
         524
         528
         532
         536
         540
         544
         548
         552
         556
         560
         564
         568
         572
         576
         580
         584
         588
         592
         596
         600
         604
         608
         612
         616
         620
         624
         628
         632
         636
         640
         644
         648
         652
         656
         660
         664
         668
         672
         676
         680
         684
         688
         692
         696
         700
         704
         708
         712
         716
         720
         724
         728
         732
         736
         740
         744
         748
         752
         756
         760
         764
         768
         772
         776
         780
         784
         788
         792
         796
         800
         804
         808
         812
         816
         820
         824
         828
         832
         836
         840
         844
         848
         852
         856
         860
         864
         868
         872
         876
         880
         884
         888
         892
         896
         900
         904
         908
         912
         916
         920
         924
         928
         932
         936
         940
         944
         948
         952
         956
         960
         964
         968
         972
         976
         980
         984
         988
         992
         996
        1000
        1004
        1008
        1012
        1016
        1020
        1024
        1028
        1032
        1036
        1040
        1044
        1048
        1052
        1056
        1060
        1064
        1068
        1072
        1076
        1080
        1084
        1088
        1092
        1096
        1100
        1104
        1108
        1112
        1116
        1120
        1124
        1128
        1132
        1136
        1140
        1144
        1148
        1152
        1156
        1160
        1164
        1168
        1172
        1176
        1180
        1184
        1188
        1192
        1196
        1200
        1204
        1208
        1212
        1216
        1220
        1224
        1228
        1232
        1236
        1240
        1244
        1248
        1252
        1256
        1260
        1264
        1268
        1272
        1276
        1280
        1284
        1288
        1292
        1296
        1300
        1304
        1308
        1312
        1316
        1320
        1324
        1328
        1332
        1336
        1340
        1344
        1348
        1352
        1356
        1360
        1364
        1368
        1372
        1376
        1380
        1384
        1388
        1392
        1396
        1400
        1404
        1408
        1412
        1416
        1420
        1424
        1428
        1432
        1436
        1440
        1444
        1448
        1452
        1456
        1460
        1464
        1468
        1472
        1476
        1480
        1484
        1488
        1492
        1496
        1500
        1504
        1508
        1512
        1516
        1520
        1524
        1528
        1532
        1536
        1540
        1544
        1548
        1552
        1556
        1560
        1564
        1568
        1572
        1576
        1580
        1584
        1588
        1592
        1596
        1600
        1604
        1608
        1612
        1616
        1620
        1624
        1628
        1632
        1636
        1640
        1644
        1648
        1652
        1656
        1660
        1664
        1668
        1672
        1676
        1680
        1684
        1688
        1692
        1696
        1700
        1704
        1708
        1712
        1716
        1720
        1724
        1728
        1732
        1736
        1740
        1744
        1748
        1752
        1756
        1760
        1764
        1768
        1772
        1776
        1780
        1784
        1788
        1792
        1796
        1800
        1804
        1808
        1812
        1816
        1820
        1824
        1828
        1832
        1836
        1840
        1844
        1848
        1852
        1856
        1860
        1864
        1868
        1872
        1876
        1880
        1884
        1888
        1892
        1896
        1900
        1904
        1908
        1912
        1916
        1920
        1924
        1928
        1932
        1936
        1940
        1944
        1948
        1952
        1956
        1960
        1964
        1968
        1972
        1976
        1980
        1984
        1988
        1992
        1996
        2000
        2004
        2008
        2012
        2016
        2020
        2024
        2028
        2032
        2036
        2040
        2044
        2048
        2052
        2056
        2060
        2064
        2068
        2072
        2076
        2080
        2084
        2088
        2092
        2096
        2100
        2104
        2108
        2112
        2116
        2120
        2124
        2128
        2132
        2136
        2140
        2144
        2148
        2152
        2156
        2160
        2164
        2168
        2172
        2176
        2180
        2184
        2188
        2192
        2196
        2200
        2204
        2208
        2212
        2216
        2220
        2224
        2228
        2232
        2236
        2240
        2244
        2248
        2252
        2256
        2260
        2264
        2268
        2272
        2276
        2280
        2284
        2288
        2292
        2296
        2300
        2304
        2308
        2312
        2316
        2320
        2324
        2328
        2332
        2336
        2340
        2344
        2348
        2352
        2356
        2360
        2364
        2368
        2372
        2376
        2380
        2384
        2388
        2392
        2396
        2400
        2404
        2408
        2412
        2416
        2420
        2424
        2428
        2432
        2436
        2440
        2444
        2448
        2452
        2456
        2460
        2464
        2468
        2472
        2476
        2480
        2484
        2488
        2492
        2496
        2500
        2504
        2508
        2512
        2516
        2520
        2524
        2528
        2532
        2536
        2540
        2544
        2548
        2552
        2556
        2560
        2564
        2568
        2572
        2576
        2580
        2584
        2588
        2592
        2596
        2600
        2604
        2608
        2612
        2616
        2620
        2624
        2628
        2632
        2636
        2640
        2644
        2648
        2652
        2656
        2660
        2664
        2668
        2672
        2676
        2680
        2684
        2688
        2692
        2696
        2700
        2704
        2708
        2712
        2716
        2720
        2724
        2728
        2732
        2736
        2740
        2744
        2748
        2752
        2756
        2760
        2764
        2768
        2772
        2776
        2780
        2784
        2788
        2792
        2796
        2800
        2804
        2808
        2812
        2816
        2820
        2824
        2828
        2832
        2836
        2840
        2844
        2848
        2852
        2856
        2860
        2864
        2868
        2872
        2876
        2880
        2884
        2888
        2892
        2896
        2900
        2904
        2908
        2912
        2916
        2920
        2924
        2928
        2932
        2936
        2940
        2944
        2948
        2952
        2956
        2960
        2964
        2968
        2972
        2976
        2980
        2984
        2988
        2992
        2996
        3000
        3004
        3008
        3012
        3016
        3020
        3024
        3028
        3032
        3036
        3040
        3044
        3048
        3052
        3056
        3060
        3064
        3068
        3072
        3076
        3080
        3084
        3088
        3092
        3096
        3100
        3104
        3108
        3112
        3116
        3120
        3124
        3128
        3132
        3136
        3140
        3144
        3148
        3152
        3156
        3160
        3164
        3168
        3172
        3176
        3180
        3184
        3188
        3192
        3196
        3200
        3204
        3208
        3212
        3216
        3220
        3224
        3228
        3232
        3236
        3240
        3244
        3248
        3252
        3256
        3260
        3264
        3268
        3272
        3276
        3280
        3284
        3288
        3292
        3296
        3300
        3304
        3308
        3312
        3316
        3320
        3324
        3328
        3332
        3336
        3340
        3344
        3348
        3352
        3356
        3360
        3364
        3368
        3372
        3376
        3380
        3384
        3388
        3392
        3396
        3400
        3404
        3408
        3412
        3416
        3420
        3424
        3428
        3432
        3436
        3440
        3444
        3448
        3452
        3456
        3460
        3464
        3468
        3472
        3476
        3480
        3484
        3488
        3492
        3496
        3500
        3504
        3508
        3512
        3516
        3520
        3524
        3528
        3532
        3536
        3540
        3544
        3548
        3552
        3556
        3560
        3564
        3568
        3572
        3576
        3580
        3584
        3588
        3592
        3596
        3600
        3604
        3608
        3612
        3616
        3620
        3624
        3628
        3632
        3636
        3640
        3644
        3648
        3652
        3656
        3660
        3664
        3668
        3672
        3676
        3680
        3684
        3688
        3692
        3696
        3700
        3704
        3708
        3712
        3716
        3720
        3724
        3728
        3732
        3736
        3740
        3744
        3748
        3752
        3756
        3760
        3764
        3768
        3772
        3776
        3780
        3784
        3788
        3792
        3796
        3800
        3804
        3808
        3812
        3816
        3820
        3824
        3828
        3832
        3836
        3840
        3844
        3848
        3852
        3856
        3860
        3864
        3868
        3872
        3876
        3880
        3884
        3888
        3892
        3896
        3900
        3904
        3908
        3912
        3916
        3920
        3924
        3928
        3932
        3936
        3940
        3944
        3948
        3952
        3956
        3960
        3964
        3968
        3972
        3976
        3980
        3984
        3988
        3992
        3996
        4000
        4004
        4008
        4012
        4016
        4020
        4024
        4028
        4032
        4036
        4040
        4044
        4048
        4052
        4056
        4060
        4064
        4068
        4072
        4076
        4080
        4084
        4088
        4092
        4096
 </DataArray>
 <DataArray  type="UInt8"  Name="types"  format="ascii">
 9
 9
 9
 9
 9
 9
 9
 9
 9
 9
 9
 9
 9
 9
 9
 9
 9
 9
 9
 9
 9
 9
 9
 9
 9
 9
 9
 9
 9
 9
 9
 9
 9
 9
 9
 9
 9
 9
 9
 9
 9
 9
 9
 9
 9
 9
 9
 9
 9
 9
 9
 9
 9
 9
 9
 9
 9
 9
 9
 9
 9
 9
 9
 9
 9
 9
 9
 9
 9
 9
 9
 9
 9
 9
 9
 9
 9
 9
 9
 9
 9
 9
 9
 9
 9
 9
 9
 9
 9
 9
 9
 9
 9
 9
 9
 9
 9
 9
 9
 9
 9
 9
 9
 9
 9
 9
 9
 9
 9
 9
 9
 9
 9
 9
 9
 9
 9
 9
 9
 9
 9
 9
 9
 9
 9
 9
 9
 9
 9
 9
 9
 9
 9
 9
 9
 9
 9
 9
 9
 9
 9
 9
 9
 9
 9
 9
 9
 9
 9
 9
 9
 9
 9
 9
 9
 9
 9
 9
 9
 9
 9
 9
 9
 9
 9
 9
 9
 9
 9
 9
 9
 9
 9
 9
 9
 9
 9
 9
 9
 9
 9
 9
 9
 9
 9
 9
 9
 9
 9
 9
 9
 9
 9
 9
 9
 9
 9
 9
 9
 9
 9
 9
 9
 9
 9
 9
 9
 9
 9
 9
 9
 9
 9
 9
 9
 9
 9
 9
 9
 9
 9
 9
 9
 9
 9
 9
 9
 9
 9
 9
 9
 9
 9
 9
 9
 9
 9
 9
 9
 9
 9
 9
 9
 9
 9
 9
 9
 9
 9
 9
 9
 9
 9
 9
 9
 9
 9
 9
 9
 9
 9
 9
 9
 9
 9
 9
 9
 9
 9
 9
 9
 9
 9
 9
 9
 9
 9
 9
 9
 9
 9
 9
 9
 9
 9
 9
 9
 9
 9
 9
 9
 9
 9
 9
 9
 9
 9
 9
 9
 9
 9
 9
 9
 9
 9
 9
 9
 9
 9
 9
 9
 9
 9
 9
 9
 9
 9
 9
 9
 9
 9
 9
 9
 9
 9
 9
 9
 9
 9
 9
 9
 9
 9
 9
 9
 9
 9
 9
 9
 9
 9
 9
 9
 9
 9
 9
 9
 9
 9
 9
 9
 9
 9
 9
 9
 9
 9
 9
 9
 9
 9
 9
 9
 9
 9
 9
 9
 9
 9
 9
 9
 9
 9
 9
 9
 9
 9
 9
 9
 9
 9
 9
 9
 9
 9
 9
 9
 9
 9
 9
 9
 9
 9
 9
 9
 9
 9
 9
 9
 9
 9
 9
 9
 9
 9
 9
 9
 9
 9
 9
 9
 9
 9
 9
 9
 9
 9
 9
 9
 9
 9
 9
 9
 9
 9
 9
 9
 9
 9
 9
 9
 9
 9
 9
 9
 9
 9
 9
 9
 9
 9
 9
 9
 9
 9
 9
 9
 9
 9
 9
 9
 9
 9
 9
 9
 9
 9
 9
 9
 9
 9
 9
 9
 9
 9
 9
 9
 9
 9
 9
 9
 9
 9
 9
 9
 9
 9
 9
 9
 9
 9
 9
 9
 9
 9
 9
 9
 9
 9
 9
 9
 9
 9
 9
 9
 9
 9
 9
 9
 9
 9
 9
 9
 9
 9
 9
 9
 9
 9
 9
 9
 9
 9
 9
 9
 9
 9
 9
 9
 9
 9
 9
 9
 9
 9
 9
 9
 9
 9
 9
 9
 9
 9
 9
 9
 9
 9
 9
 9
 9
 9
 9
 9
 9
 9
 9
 9
 9
 9
 9
 9
 9
 9
 9
 9
 9
 9
 9
 9
 9
 9
 9
 9
 9
 9
 9
 9
 9
 9
 9
 9
 9
 9
 9
 9
 9
 9
 9
 9
 9
 9
 9
 9
 9
 9
 9
 9
 9
 9
 9
 9
 9
 9
 9
 9
 9
 9
 9
 9
 9
 9
 9
 9
 9
 9
 9
 9
 9
 9
 9
 9
 9
 9
 9
 9
 9
 9
 9
 9
 9
 9
 9
 9
 9
 9
 9
 9
 9
 9
 9
 9
 9
 9
 9
 9
 9
 9
 9
 9
 9
 9
 9
 9
 9
 9
 9
 9
 9
 9
 9
 9
 9
 9
 9
 9
 9
 9
 9
 9
 9
 9
 9
 9
 9
 9
 9
 9
 9
 9
 9
 9
 9
 9
 9
 9
 9
 9
 9
 9
 9
 9
 9
 9
 9
 9
 9
 9
 9
 9
 9
 9
 9
 9
 9
 9
 9
 9
 9
 9
 9
 9
 9
 9
 9
 9
 9
 9
 9
 9
 9
 9
 9
 9
 9
 9
 9
 9
 9
 9
 9
 9
 9
 9
 9
 9
 9
 9
 9
 9
 9
 9
 9
 9
 9
 9
 9
 9
 9
 9
 9
 9
 9
 9
 9
 9
 9
 9
 9
 9
 9
 9
 9
 9
 9
 9
 9
 9
 9
 9
 9
 9
 9
 9
 9
 9
 9
 9
 9
 9
 9
 9
 9
 9
 9
 9
 9
 9
 9
 9
 9
 9
 9
 9
 9
 9
 9
 9
 9
 9
 9
 9
 9
 9
 9
 9
 9
 9
 9
 9
 9
 9
 9
 9
 9
 9
 9
 9
 9
 9
 9
 9
 9
 9
 9
 9
 9
 9
 9
 9
 9
 9
 9
 9
 9
 9
 9
 9
 9
 9
 9
 9
 9
 9
 9
 9
 9
 9
 9
 9
 9
 9
 9
 9
 9
 9
 9
 9
 9
 9
 9
 9
 9
 9
 9
 9
 9
 9
 9
 9
 9
 9
 9
 9
 9
 9
 9
 9
 9
 9
 9
 9
 9
 9
 9
 9
 9
 9
 9
 9
 9
 9
 9
 9
 9
 9
 9
 9
 9
 9
 9
 9
 9
 9
 9
 9
 9
 9
 9
 9
 9
 9
 9
 9
 9
 9
 9
 9
 9
 9
 9
 9
 9
 9
 9
 9
 9
 9
 9
 9
 9
 9
 9
 9
 9
 9
 9
 9
 9
 9
 9
 9
 9
 9
 9
 9
 9
 9
 9
 9
 9
 9
 9
 9
 9
 9
 9
 9
 9
 9
 9
 9
 9
 9
 9
 9
 9
 9
 9
 9
 9
 9
 9
 9
 9
 9
 9
 9
 9
 9
 9
 9
 9
 9
 9
 9
 9
 9
 9
 9
 9
 9
 9
 9
 9
 9
 9
 9
 9
 9
 9
 9
 9
 9
 9
 9
 9
 9
 9
 9
 9
 9
 9
 9
 9
 9
 9
 9
 9
 9
 9
 9
 9
 9
 9
 9
 9
 9
 9
 9
 9
 9
 9
 9
 9
 </DataArray>
 </Cells> 
 <PointData>
 <DataArray  type="Float64" Name="disp" NumberOfComponents="3" format="ascii">
   6.5231813656227877E-002   6.2961182641649530E-002   0.0000000000000000     
   6.8537543576888252E-002   6.8267273364028477E-002   0.0000000000000000     
   7.1650922329950364E-002   7.3780910153674328E-002   0.0000000000000000     
   7.4571949915414215E-002   7.9502093010587097E-002   0.0000000000000000     
   7.7300626333279790E-002   8.5430821934766754E-002   0.0000000000000000     
   6.0228550744186538E-002   6.1986591374753916E-002   0.0000000000000000     
   6.3140366567672468E-002   6.7405542421601836E-002   0.0000000000000000     
   6.5950968025684467E-002   7.2992685795780138E-002   0.0000000000000000     
   6.8660355118222494E-002   7.8748021497288809E-002   0.0000000000000000     
   7.1268527845286589E-002   8.4671549526127876E-002   0.0000000000000000     
   5.5225424273674710E-002   6.1079703591346804E-002   0.0000000000000000     
   5.7950484018580092E-002   6.6587069471842342E-002   0.0000000000000000     
   6.0581159756335282E-002   7.2236182554782008E-002   0.0000000000000000     
   6.3117451486940257E-002   7.8027042840165817E-002   0.0000000000000000     
   6.5559359210395018E-002   8.3959650327993754E-002   0.0000000000000000     
   5.0222434244692395E-002   6.0240519291428200E-002   0.0000000000000000     
   5.2967895929611125E-002   6.5811854514749982E-002   0.0000000000000000     
   5.5541497521902829E-002   7.1511400430679939E-002   0.0000000000000000     
   5.7943239021567484E-002   7.7339157039218093E-002   0.0000000000000000     
   6.0173120428605099E-002   8.3295124340364401E-002   0.0000000000000000     
   4.5219580657239591E-002   5.9469038474998112E-002   0.0000000000000000     
   4.8192602300765566E-002   6.5079897550324756E-002   0.0000000000000000     
   5.0831981322387101E-002   7.0818339423473931E-002   0.0000000000000000     
   5.3137717722104176E-002   7.6684364094445623E-002   0.0000000000000000     
   5.5109811499916818E-002   8.2677971563239805E-002   0.0000000000000000     
   7.7300626333279790E-002   8.5430821934766754E-002   0.0000000000000000     
   7.9902791621561498E-002   9.1545780537959545E-002   0.0000000000000000     
   8.2444285818273677E-002   9.7825652431911714E-002   0.0000000000000000     
   8.4925108923416370E-002  0.10427043761662319        0.0000000000000000     
   8.7345260936989549E-002  0.11088013609209406        0.0000000000000000     
   7.1268527845286589E-002   8.4671549526127876E-002   0.0000000000000000     
   7.3783747107585160E-002   9.0770899405969357E-002   0.0000000000000000     
   7.6214273805826613E-002   9.7053700660485354E-002   0.0000000000000000     
   7.8560107940010976E-002  0.10351995328967585        0.0000000000000000     
   8.0821249510138235E-002  0.11016965729354082        0.0000000000000000     
   6.5559359210395018E-002   8.3959650327993754E-002   0.0000000000000000     
   6.7912627914438459E-002   9.0059620130129747E-002   0.0000000000000000     
   7.0183002586809401E-002   9.6352567358437710E-002   0.0000000000000000     
   7.2370483227507887E-002  0.10283849201291770        0.0000000000000000     
   7.4475069836533875E-002  0.10951739409356957        0.0000000000000000     
   6.0173120428605099E-002   8.3295124340364401E-002   0.0000000000000000     
   6.2289434042121394E-002   8.9411942710440714E-002   0.0000000000000000     
   6.4350472161222055E-002   9.5722252525768797E-002   0.0000000000000000     
   6.6356234785907103E-002  0.10222605378634866        0.0000000000000000     
   6.8306721916176524E-002  0.10892334649218031        0.0000000000000000     
   5.5109811499916818E-002   8.2677971563239805E-002   0.0000000000000000     
   5.6914165490633960E-002   8.8827867146902231E-002   0.0000000000000000     
   5.8716682529064555E-002   9.5162756162478573E-002   0.0000000000000000     
   6.0517362615208611E-002  0.10168263860996887        0.0000000000000000     
   6.2316205749066121E-002  0.10838751448937305        0.0000000000000000     
   8.7345260936989549E-002  0.11088013609209406        0.0000000000000000     
   8.9681608123878237E-002  0.11763378801235701        0.0000000000000000     
   9.1911016748967442E-002  0.12451043353144477        0.0000000000000000     
   9.4033486812257178E-002  0.13151007264935735        0.0000000000000000     
   9.6049018313747431E-002  0.13863270536609479        0.0000000000000000     
   8.0821249510138235E-002  0.11016965729354082        0.0000000000000000     
   8.2993591500130137E-002  0.11696948327134404        0.0000000000000000     
   8.5073026893908485E-002  0.12388610182234933        0.0000000000000000     
   8.7059555691473250E-002  0.13091951294655660        0.0000000000000000     
   8.8953177892824448E-002  0.13806971664396595        0.0000000000000000     
   7.4475069836533875E-002  0.10951739409356957        0.0000000000000000     
   7.6496861826973267E-002  0.11635032083602342        0.0000000000000000     
   7.8435958611911855E-002  0.12329831947590916        0.0000000000000000     
   8.0292360191349652E-002  0.13036139001322686        0.0000000000000000     
   8.2066066565286672E-002  0.13753953244797640        0.0000000000000000     
   6.8306721916176524E-002  0.10892334649218031        0.0000000000000000     
   7.0191419104407571E-002  0.11577630070639509        0.0000000000000000     
   7.1999811902977523E-002  0.12274708649212433        0.0000000000000000     
   7.3731900311886353E-002  0.12983570384936802        0.0000000000000000     
   7.5387684331134103E-002  0.13704215277812623        0.0000000000000000     
   6.2316205749066121E-002  0.10838751448937305        0.0000000000000000     
   6.4077263332433090E-002  0.11524742288245907        0.0000000000000000     
   6.5764586767105504E-002  0.12223240287099479        0.0000000000000000     
   6.7378176053083383E-002  0.12934245445498024        0.0000000000000000     
   6.8918031190366727E-002  0.13657757763441536        0.0000000000000000     
   9.6049018313747431E-002  0.13863270536609479        0.0000000000000000     
   9.7965238819736039E-002  0.14587318875668542        0.0000000000000000     
   9.9789775896520855E-002  0.15322637989615773        0.0000000000000000     
  0.10152262954410186       0.16069227878451164        0.0000000000000000     
  0.10316379976247911       0.16827088542174723        0.0000000000000000     
   8.8953177892824448E-002  0.13806971664396595        0.0000000000000000     
   9.0756659298714182E-002  0.14533454018994951        0.0000000000000000     
   9.2472765709894544E-002  0.15271181085987956        0.0000000000000000     
   9.4101497126365549E-002  0.16020152865375609        0.0000000000000000     
   9.5642853548127210E-002  0.16780369357157912        0.0000000000000000     
   8.2066066565286672E-002  0.13753953244797640        0.0000000000000000     
   8.3755905226439623E-002  0.14483091856509867        0.0000000000000000     
   8.5360703667525212E-002  0.15223372014953440        0.0000000000000000     
   8.6880461888543481E-002  0.15974793720128361        0.0000000000000000     
   8.8315179889494375E-002  0.16737356972034620        0.0000000000000000     
   7.5387684331134103E-002  0.13704215277812623        0.0000000000000000     
   7.6962976602912389E-002  0.14436232388213294        0.0000000000000000     
   7.8453589769412913E-002  0.15179210776512228        0.0000000000000000     
   7.9859523830635645E-002  0.15933150442709407        0.0000000000000000     
   8.1180778786580629E-002  0.16698051386804846        0.0000000000000000     
   6.8918031190366727E-002  0.13657757763441536        0.0000000000000000     
   7.0377873428132467E-002  0.14392875614105227        0.0000000000000000     
   7.1751424015557577E-002  0.15138697370664300        0.0000000000000000     
   7.3038682952642070E-002  0.15895223033118758        0.0000000000000000     
   7.4239650239385918E-002  0.16662452601468594        0.0000000000000000     
  0.10316379976247911       0.16827088542174723        0.0000000000000000     
  0.10471650252628051       0.17595108288837941        0.0000000000000000     
  0.10618395381013403       0.18372175426492315        0.0000000000000000     
  0.10756615361403968       0.19158289955137847        0.0000000000000000     
  0.10886310193799743       0.19953451874774530        0.0000000000000000     
   9.5642853548127210E-002  0.16780369357157912        0.0000000000000000     
   9.7098381214911655E-002  0.17550808237532212        0.0000000000000000     
   9.8469626366451068E-002  0.18330447182695858        0.0000000000000000     
   9.9756589002745449E-002  0.19119286192648854        0.0000000000000000     
  0.10095926912379478       0.19917325267391200        0.0000000000000000     
   8.8315179889494375E-002  0.16737356972034620        0.0000000000000000     
   8.9666852278881687E-002  0.17510142584480606        0.0000000000000000     
   9.0937473665209143E-002  0.18292231371274692        0.0000000000000000     
   9.2127044048476728E-002  0.19083623332416880        0.0000000000000000     
   9.3235563428684498E-002  0.19884318467907175        0.0000000000000000     
   8.1180778786580629E-002  0.16698051386804846        0.0000000000000000     
   8.2421915718190561E-002  0.17473111329683125        0.0000000000000000     
   8.3587495706408180E-002  0.18257527992228817        0.0000000000000000     
   8.4677518751233541E-002  0.19051301374441926        0.0000000000000000     
   8.5691984852666589E-002  0.19854431476322448        0.0000000000000000     
   7.4239650239385918E-002  0.16662452601468594        0.0000000000000000     
   7.5363571532838250E-002  0.17439714473139767        0.0000000000000000     
   7.6419692490048236E-002  0.18226337045558230        0.0000000000000000     
   7.7408013111015819E-002  0.19022320318723984        0.0000000000000000     
   7.8328533395741057E-002  0.19827664292637026        0.0000000000000000     
  0.10886310193799743       0.19953451874774530        0.0000000000000000     
  0.11007885428655589       0.20757217193077088        0.0000000000000000     
  0.11121746616426366       0.21569141917720233        0.0000000000000000     
  0.11227893757112072       0.22389226048703958        0.0000000000000000     
  0.11326326850712705       0.23217469586028272        0.0000000000000000     
  0.10095926912379478       0.19917325267391200        0.0000000000000000     
  0.10208264518082201       0.20723802716269640        0.0000000000000000     
  0.10313169562505008       0.21537956848630924        0.0000000000000000     
  0.10410642045647903       0.22359787664475045        0.0000000000000000     
  0.10500681967510879       0.23189295163802012        0.0000000000000000     
   9.3235563428684498E-002  0.19884318467907175        0.0000000000000000     
   9.4267002994591995E-002  0.20693361743576147        0.0000000000000000     
   9.5225333934958842E-002  0.21509798125254387        0.0000000000000000     
   9.6110556249784984E-002  0.22333627612941895        0.0000000000000000     
   9.6922669939070519E-002  0.23164850206638657        0.0000000000000000     
   8.5691984852666589E-002  0.19854431476322448        0.0000000000000000     
   8.6631927727865876E-002  0.20665894274996610        0.0000000000000000     
   8.7498381093989899E-002  0.21484665747590620        0.0000000000000000     
   8.8291344951038700E-002  0.22310745894104486        0.0000000000000000     
   8.9010819299012237E-002  0.23144134714538209        0.0000000000000000     
   7.8328533395741057E-002  0.19827664292637026        0.0000000000000000     
   7.9177419380643627E-002  0.20641400310531016        0.0000000000000000     
   7.9950837102143318E-002  0.21462559715639623        0.0000000000000000     
   8.0648786560240077E-002  0.22291142507962838        0.0000000000000000     
   8.1271267754933943E-002  0.23127148687500670        0.0000000000000000     
  0.11326326850712705       0.23217469586028272        0.0000000000000000     
  0.11419945361308721       0.24055522739721691        0.0000000000000000     
  0.11511648752980579       0.24905035719812729        0.0000000000000000     
  0.11601437025728271       0.25766008526301393        0.0000000000000000     
  0.11689310179551805       0.26638441159187687        0.0000000000000000     
  0.10500681967510879       0.23189295163802012        0.0000000000000000     
  0.10583831726311693       0.24028868651542165        0.0000000000000000     
  0.10660633720268098       0.24880897432625859        0.0000000000000000     
  0.10731087949380091       0.25745381507053089        0.0000000000000000     
  0.10795194413647674       0.26622320874823857        0.0000000000000000     
   9.6922669939070519E-002  0.23164850206638657        0.0000000000000000     
   9.7652821640627219E-002  0.24006180631619015        0.0000000000000000     
   9.8292157992266913E-002  0.24860333613157282        0.0000000000000000     
   9.8840678993989642E-002  0.25727309151253469        0.0000000000000000     
   9.9298384645795351E-002  0.26607107245907557        0.0000000000000000     
   8.9010819299012237E-002  0.23144134714538209        0.0000000000000000     
   8.9642966745618030E-002  0.23987458679952234        0.0000000000000000     
   9.0173949898563602E-002  0.24843344261407008        0.0000000000000000     
   9.0603768757848882E-002  0.25711791458902528        0.0000000000000000     
   9.0932423323473940E-002  0.26592800272438799        0.0000000000000000     
   8.1271267754933943E-002  0.23127148687500670        0.0000000000000000     
   8.1808752578089422E-002  0.23972702796541825        0.0000000000000000     
   8.2251712921571005E-002  0.24829929377375021        0.0000000000000000     
   8.2600148785378691E-002  0.25698828430000270        0.0000000000000000     
   8.2854060169512467E-002  0.26579399954417554        0.0000000000000000     
  0.11689310179551805       0.26638441159187687        0.0000000000000000     
  0.11769287337028400       0.27538792853056326        0.0000000000000000     
  0.11835387620735280       0.28483522842492065        0.0000000000000000     
  0.11887611030672447       0.29472631127494892        0.0000000000000000     
  0.11925957566839897       0.30506117708064806        0.0000000000000000     
  0.10795194413647674       0.26622320874823857        0.0000000000000000     
  0.10851056732523032       0.27524897208177063        0.0000000000000000     
  0.10896778525458349       0.28466292179351582        0.0000000000000000     
  0.10932359792453628       0.29446505788347438        0.0000000000000000     
  0.10957800533508869       0.30465538035164619        0.0000000000000000     
   9.9298384645795351E-002  0.26607107245907557        0.0000000000000000     
   9.9676368567087781E-002  0.27509503337220764        0.0000000000000000     
   9.9985724377270560E-002  0.28444272865294279        0.0000000000000000     
  0.10022645207634372       0.29411415830128090        0.0000000000000000     
  0.10039855166430724       0.30410932231722199        0.0000000000000000     
   9.0932423323473940E-002  0.26592800272438799        0.0000000000000000     
   9.1190277095856434E-002  0.27492611240187448        0.0000000000000000     
   9.1407693575414034E-002  0.28417464900320127        0.0000000000000000     
   9.1584672762146768E-002  0.29367361252836827        0.0000000000000000     
   9.1721214656054637E-002  0.30342300297737557        0.0000000000000000     
   8.2854060169512467E-002  0.26579399954417554        0.0000000000000000     
   8.3052292911536263E-002  0.27474220917077102        0.0000000000000000     
   8.3233692849013913E-002  0.28385868284429144        0.0000000000000000     
   8.3398259981945444E-002  0.29314342056473663        0.0000000000000000     
   8.3545994310330857E-002  0.30259642233210676        0.0000000000000000     
   4.5219580657239591E-002   5.9469038474998112E-002   0.0000000000000000     
   4.8192602300765566E-002   6.5079897550324756E-002   0.0000000000000000     
   5.0831981322387101E-002   7.0818339423473931E-002   0.0000000000000000     
   5.3137717722104176E-002   7.6684364094445623E-002   0.0000000000000000     
   5.5109811499916818E-002   8.2677971563239805E-002   0.0000000000000000     
   4.0427623144989676E-002   5.8770707084287339E-002   0.0000000000000000     
   4.3585729693924387E-002   6.4400432936170440E-002   0.0000000000000000     
   4.6265023445339025E-002   7.0165552798896691E-002   0.0000000000000000     
   4.8465504399233611E-002   7.6066066672466140E-002   0.0000000000000000     
   5.0187172555608117E-002   8.2101974556878746E-002   0.0000000000000000     
   3.6057321341616023E-002   5.8150971061526682E-002   0.0000000000000000     
   3.9108404670968551E-002   6.3782695029890701E-002   0.0000000000000000     
   4.1653036178309552E-002   6.9561593822680928E-002   0.0000000000000000     
   4.3691215863639027E-002   7.5487667439897349E-002   0.0000000000000000     
   4.5222943726956975E-002   8.1560915881539950E-002   0.0000000000000000     
   3.2108675247118641E-002   5.7609830406716162E-002   0.0000000000000000     
   3.4760627231898086E-002   6.3226683831485594E-002   0.0000000000000000     
   3.6996019521298683E-002   6.9006462494826643E-002   0.0000000000000000     
   3.8814852115320445E-002   7.4949166396739222E-002   0.0000000000000000     
   4.0217125013963372E-002   8.1054795537223431E-002   0.0000000000000000     
   2.8581684861497515E-002   5.7147285119855756E-002   0.0000000000000000     
   3.0542397376712958E-002   6.2732399340955092E-002   0.0000000000000000     
   3.2293973474306410E-002   6.8500158815333778E-002   0.0000000000000000     
   3.3836413154277871E-002   7.4450563542991802E-002   0.0000000000000000     
   3.5169716416627320E-002   8.0583613523929162E-002   0.0000000000000000     
   5.5109811499916818E-002   8.2677971563239805E-002   0.0000000000000000     
   5.6914165490633960E-002   8.8827867146902231E-002   0.0000000000000000     
   5.8716682529064555E-002   9.5162756162478573E-002   0.0000000000000000     
   6.0517362615208611E-002  0.10168263860996887        0.0000000000000000     
   6.2316205749066121E-002  0.10838751448937305        0.0000000000000000     
   5.0187172555608117E-002   8.2101974556878746E-002   0.0000000000000000     
   5.1693232711216952E-002   8.8292024507698796E-002   0.0000000000000000     
   5.3246889662814489E-002   9.4654964580490511E-002   0.0000000000000000     
   5.4848143410400729E-002  0.10119079477525392        0.0000000000000000     
   5.6496993953975672E-002  0.10789951509198900        0.0000000000000000     
   4.5222943726956975E-002   8.1560915881539950E-002   0.0000000000000000     
   4.6533046155111168E-002   8.7789045861014825E-002   0.0000000000000000     
   4.7906349534949440E-002   9.4179764091728027E-002   0.0000000000000000     
   4.9342853866471761E-002  0.10073307057367956        0.0000000000000000     
   5.0842559149678127E-002  0.10744896530686938        0.0000000000000000     
   4.0217125013963372E-002   8.1054795537223431E-002   0.0000000000000000     
   4.1433605822316630E-002   8.7318931206850345E-002   0.0000000000000000     
   4.2695062145469406E-002   9.3737154696191108E-002   0.0000000000000000     
   4.4001493983421708E-002  0.10030946600524573        0.0000000000000000     
   4.5352901336173528E-002  0.10703586513401424        0.0000000000000000     
   3.5169716416627320E-002   8.0583613523929162E-002   0.0000000000000000     
   3.6394911712833315E-002   8.6881680545205342E-002   0.0000000000000000     
   3.7613027494374396E-002   9.3327136393879767E-002   0.0000000000000000     
   3.8824063761250568E-002   9.9919981069952507E-002   0.0000000000000000     
   4.0028020513461812E-002  0.10666021457342351        0.0000000000000000     
   6.2316205749066121E-002  0.10838751448937305        0.0000000000000000     
   6.4077263332433090E-002  0.11524742288245907        0.0000000000000000     
   6.5764586767105504E-002  0.12223240287099479        0.0000000000000000     
   6.7378176053083383E-002  0.12934245445498024        0.0000000000000000     
   6.8918031190366727E-002  0.13657757763441536        0.0000000000000000     
   5.6496993953975672E-002  0.10789951509198900        0.0000000000000000     
   5.8133783951069502E-002  0.11476142851458514        0.0000000000000000     
   5.9698856059212414E-002  0.12175683802693173        0.0000000000000000     
   6.1192210278404394E-002  0.12888574362902877        0.0000000000000000     
   6.2613846608645454E-002  0.13614814532087621        0.0000000000000000     
   5.0842559149678127E-002  0.10744896530686938        0.0000000000000000     
   5.2340370400336504E-002  0.11431605875314314        0.0000000000000000     
   5.3771192634214815E-002  0.12132296137434635        0.0000000000000000     
   5.5135025851313045E-002  0.12846967317047900        0.0000000000000000     
   5.6431870051631208E-002  0.13575619414154111        0.0000000000000000     
   4.5352901336173528E-002  0.10703586513401424        0.0000000000000000     
   4.6697022680234096E-002  0.11391131359813304        0.0000000000000000     
   4.7981596492112699E-002  0.12093077291323862        0.0000000000000000     
   4.9206622771809330E-002  0.12809424307933095        0.0000000000000000     
   5.0372101519323975E-002  0.13540172409641010        0.0000000000000000     
   4.0028020513461812E-002  0.10666021457342351        0.0000000000000000     
   4.1203740790762285E-002  0.11354719304955485        0.0000000000000000     
   4.2330067632906095E-002  0.12058027264360857        0.0000000000000000     
   4.3407001039893249E-002  0.12775945335558467        0.0000000000000000     
   4.4434541011723755E-002  0.13508473518548314        0.0000000000000000     
   6.8918031190366727E-002  0.13657757763441536        0.0000000000000000     
   7.0377873428132467E-002  0.14392875614105227        0.0000000000000000     
   7.1751424015557577E-002  0.15138697370664300        0.0000000000000000     
   7.3038682952642070E-002  0.15895223033118758        0.0000000000000000     
   7.4239650239385918E-002  0.16662452601468594        0.0000000000000000     
   6.2613846608645454E-002  0.13614814532087621        0.0000000000000000     
   6.3956207224588446E-002  0.14352963728032739        0.0000000000000000     
   6.5211734300886198E-002  0.15101581368523556        0.0000000000000000     
   6.6380427837538725E-002  0.15860667453560073        0.0000000000000000     
   6.7462287834546025E-002  0.16630221983142290        0.0000000000000000     
   5.6431870051631208E-002  0.13575619414154111        0.0000000000000000     
   5.7653589514768906E-002  0.14316438923842892        0.0000000000000000     
   5.8792048520325713E-002  0.15067612341203859        0.0000000000000000     
   5.9847247068301634E-002  0.15829139666237016        0.0000000000000000     
   6.0819185158696693E-002  0.16601020898942362        0.0000000000000000     
   5.0372101519323975E-002  0.13540172409641010        0.0000000000000000     
   5.1470020298673834E-002  0.14283301201535686        0.0000000000000000     
   5.2492366673876113E-002  0.15036790288705212        0.0000000000000000     
   5.3439140644930806E-002  0.15800639671149583        0.0000000000000000     
   5.4310342211837913E-002  0.16574849348868806        0.0000000000000000     
   4.4434541011723755E-002  0.13508473518548314        0.0000000000000000     
   4.5405499576303264E-002  0.14253550561111122        0.0000000000000000     
   4.6312688761537421E-002  0.15009115211027607        0.0000000000000000     
   4.7156108567426226E-002  0.15775167468297777        0.0000000000000000     
   4.7935758993969693E-002  0.16551707332921628        0.0000000000000000     
   7.4239650239385918E-002  0.16662452601468594        0.0000000000000000     
   7.5363571532838250E-002  0.17439714473139767        0.0000000000000000     
   7.6419692490048236E-002  0.18226337045558230        0.0000000000000000     
   7.7408013111015819E-002  0.19022320318723984        0.0000000000000000     
   7.8328533395741057E-002  0.19827664292637026        0.0000000000000000     
   6.7462287834546025E-002  0.16630221983142290        0.0000000000000000     
   6.8470654861986266E-002  0.17409671752656283        0.0000000000000000     
   6.9418869489937626E-002  0.18198443557488120        0.0000000000000000     
   7.0306931718400106E-002  0.18996537397637811        0.0000000000000000     
   7.1134841547373720E-002  0.19803953273105346        0.0000000000000000     
   6.0819185158696693E-002  0.16601020898942362        0.0000000000000000     
   6.1722000844796010E-002  0.17382702906038408        0.0000000000000000     
   6.2569832179884738E-002  0.18173632554243677        0.0000000000000000     
   6.3362679163962862E-002  0.18973809843558159        0.0000000000000000     
   6.4100541797030425E-002  0.19783234773981859        0.0000000000000000     
   5.4310342211837913E-002  0.16574849348868806        0.0000000000000000     
   5.5117609481267468E-002  0.17358807933286152        0.0000000000000000     
   5.5872580559889536E-002  0.18151904035824890        0.0000000000000000     
   5.6575255447704094E-002  0.18954137656485032        0.0000000000000000     
   5.7225634144711164E-002  0.19765508795266559        0.0000000000000000     
   4.7935758993969693E-002  0.16551707332921628        0.0000000000000000     
   4.8657480771400669E-002  0.17337986834399507        0.0000000000000000     
   4.9327114629952040E-002  0.18133258002231775        0.0000000000000000     
   4.9944660569623794E-002  0.18937520836418420        0.0000000000000000     
   5.0510118590415931E-002  0.19750775336959450        0.0000000000000000     
   7.8328533395741057E-002  0.19827664292637026        0.0000000000000000     
   7.9177419380643627E-002  0.20641400310531016        0.0000000000000000     
   7.9950837102143318E-002  0.21462559715639623        0.0000000000000000     
   8.0648786560240077E-002  0.22291142507962838        0.0000000000000000     
   8.1271267754933943E-002  0.23127148687500670        0.0000000000000000     
   7.1134841547373720E-002  0.19803953273105346        0.0000000000000000     
   7.1894311662436483E-002  0.20619817218528080        0.0000000000000000     
   7.2577054749166467E-002  0.21443255268543360        0.0000000000000000     
   7.3183070807563658E-002  0.22274267423151181        0.0000000000000000     
   7.3712359837628055E-002  0.23112853682351547        0.0000000000000000     
   6.4100541797030425E-002  0.19783234773981859        0.0000000000000000     
   6.4773438282755655E-002  0.20601082367336501        0.0000000000000000     
   6.5371386824806796E-002  0.21426527645443791        0.0000000000000000     
   6.5894387423183917E-002  0.22259570608303750        0.0000000000000000     
   6.6342440077886936E-002  0.23100211255916359        0.0000000000000000     
   5.7225634144711164E-002  0.19765508795266559        0.0000000000000000     
   5.7814799241601107E-002  0.20585195756956265        0.0000000000000000     
   5.8333833329064340E-002  0.21412376846340925        0.0000000000000000     
   5.8782736407100834E-002  0.22247052063420536        0.0000000000000000     
   5.9161508475710611E-002  0.23089221408195099        0.0000000000000000     
   5.0510118590415931E-002  0.19750775336959450        0.0000000000000000     
   5.1018394538972882E-002  0.20572157387387385        0.0000000000000000     
   5.1464394261939050E-002  0.21400802871234753        0.0000000000000000     
   5.1848117759314458E-002  0.22236711788501551        0.0000000000000000     
   5.2169565031099076E-002  0.23079884139187776        0.0000000000000000     
   8.1271267754933943E-002  0.23127148687500670        0.0000000000000000     
   8.1808752578089422E-002  0.23972702796541825        0.0000000000000000     
   8.2251712921571005E-002  0.24829929377375021        0.0000000000000000     
   8.2600148785378691E-002  0.25698828430000270        0.0000000000000000     
   8.2854060169512467E-002  0.26579399954417554        0.0000000000000000     
   7.3712359837628055E-002  0.23112853682351547        0.0000000000000000     
   7.4163261299626207E-002  0.23960417028391490        0.0000000000000000     
   7.4534114653824646E-002  0.24818360443518037        0.0000000000000000     
   7.4824919900223399E-002  0.25686683927731191        0.0000000000000000     
   7.5035677038822426E-002  0.26565387481030950        0.0000000000000000     
   6.6342440077886936E-002  0.23100211255916359        0.0000000000000000     
   6.6719575071813211E-002  0.23949105422504924        0.0000000000000000     
   6.7029822687860036E-002  0.24806908942292735        0.0000000000000000     
   6.7273182926027381E-002  0.25673621815279796        0.0000000000000000     
   6.7449655786315288E-002  0.26549244041466102        0.0000000000000000     
   5.9161508475710611E-002  0.23089221408195099        0.0000000000000000     
   5.9477693894650456E-002  0.23938767978882128        0.0000000000000000     
   5.9738837023677147E-002  0.24795574873699119        0.0000000000000000     
   5.9944937862790669E-002  0.25659642092646073        0.0000000000000000     
   6.0095996411991058E-002  0.26530969635723001        0.0000000000000000     
   5.2169565031099076E-002  0.23079884139187776        0.0000000000000000     
   5.2437617768137920E-002  0.23929404697523099        0.0000000000000000     
   5.2661157661275972E-002  0.24784358237737186        0.0000000000000000     
   5.2840184710513244E-002  0.25644744759830035        0.0000000000000000     
   5.2974698915849730E-002  0.26510564263801650        0.0000000000000000     
   8.2854060169512467E-002  0.26579399954417554        0.0000000000000000     
   8.3052292911536263E-002  0.27474220917077102        0.0000000000000000     
   8.3233692849013913E-002  0.28385868284429144        0.0000000000000000     
   8.3398259981945444E-002  0.29314342056473663        0.0000000000000000     
   8.3545994310330857E-002  0.30259642233210676        0.0000000000000000     
   7.5035677038822426E-002  0.26565387481030950        0.0000000000000000     
   7.5207043989001618E-002  0.27453781606617716        0.0000000000000000     
   7.5379678670140851E-002  0.28351176807691875        0.0000000000000000     
   7.5553581082240071E-002  0.29257573084253419        0.0000000000000000     
   7.5728751225299346E-002  0.30172970436302349        0.0000000000000000     
   6.7449655786315288E-002  0.26549244041466102        0.0000000000000000     
   6.7599158303126947E-002  0.27430742547537262        0.0000000000000000     
   6.7761607510865504E-002  0.28315084260178852        0.0000000000000000     
   6.7937003409531030E-002  0.29202269179390883        0.0000000000000000     
   6.8125345999123482E-002  0.30092297305173366        0.0000000000000000     
   6.0095996411991058E-002  0.26530969635723001        0.0000000000000000     
   6.0228635853912180E-002  0.27405103739835729        0.0000000000000000     
   6.0379479371187920E-002  0.28277590641890099        0.0000000000000000     
   6.0548526963818280E-002  0.29148430341886095        0.0000000000000000     
   6.0735778631803267E-002  0.30017622839823721        0.0000000000000000     
   5.2974698915849730E-002  0.26510564263801650        0.0000000000000000     
   5.3095476641357345E-002  0.27376865183513133        0.0000000000000000     
   5.3233294251108051E-002  0.28238695952825582        0.0000000000000000     
   5.3388151745101843E-002  0.29096056571739015        0.0000000000000000     
   5.3560049123338713E-002  0.29948947040253415        0.0000000000000000     
   2.8581684861497515E-002   5.7147285119855756E-002   0.0000000000000000     
   3.0542397376712958E-002   6.2732399340955092E-002   0.0000000000000000     
   3.2293973474306410E-002   6.8500158815333778E-002   0.0000000000000000     
   3.3836413154277871E-002   7.4450563542991802E-002   0.0000000000000000     
   3.5169716416627320E-002   8.0583613523929162E-002   0.0000000000000000     
   2.5153447656492606E-002   5.6739940658844468E-002   0.0000000000000000     
   2.6437857878422975E-002   6.2300926486094053E-002   0.0000000000000000     
   2.7716473430201002E-002   6.8059678778868066E-002   0.0000000000000000     
   2.8989294311826699E-002   7.4016197537166512E-002   0.0000000000000000     
   3.0256320523300052E-002   8.0170482760989370E-002   0.0000000000000000     
   2.1501061103843859E-002   5.6364402481581269E-002   0.0000000000000000     
   2.2431151510037894E-002   6.1933350194697312E-002   0.0000000000000000     
   2.3433094781850732E-002   6.7702018380095139E-002   0.0000000000000000     
   2.4506890919282376E-002   7.3670407037774804E-002   0.0000000000000000     
   2.5652539922332820E-002   7.9838516167736268E-002   0.0000000000000000     
   1.7624525203551275E-002   5.6020670588066201E-002   0.0000000000000000     
   1.8522278271557724E-002   6.1629670466764860E-002   0.0000000000000000     
   1.9443837529255596E-002   6.7427177619015038E-002   0.0000000000000000     
   2.0389202976644896E-002   7.3413192044816680E-002   0.0000000000000000     
   2.1358374613725611E-002   7.9587713744169827E-002   0.0000000000000000     
   1.3523839955614850E-002   5.5708744978299224E-002   0.0000000000000000     
   1.4711238162982466E-002   6.1389887302296726E-002   0.0000000000000000     
   1.5748701672415599E-002   6.7235156495627696E-002   0.0000000000000000     
   1.6636230483914254E-002   7.3244552558292153E-002   0.0000000000000000     
   1.7373824597478438E-002   7.9418075490290063E-002   0.0000000000000000     
   3.5169716416627320E-002   8.0583613523929162E-002   0.0000000000000000     
   3.6394911712833315E-002   8.6881680545205342E-002   0.0000000000000000     
   3.7613027494374396E-002   9.3327136393879767E-002   0.0000000000000000     
   3.8824063761250568E-002   9.9919981069952507E-002   0.0000000000000000     
   4.0028020513461812E-002  0.10666021457342351        0.0000000000000000     
   3.0256320523300052E-002   8.0170482760989370E-002   0.0000000000000000     
   3.1490522793416936E-002   8.6495277101519372E-002   0.0000000000000000     
   3.2664871850973221E-002   9.2963323209939219E-002   0.0000000000000000     
   3.3779367695968905E-002   9.9574621086248913E-002   0.0000000000000000     
   3.4834010328403983E-002  0.10632917073044845        0.0000000000000000     
   2.5652539922332820E-002   7.9838516167736268E-002   0.0000000000000000     
   2.6793998030823205E-002   8.6177704101232031E-002   0.0000000000000000     
   2.7855221484574703E-002   9.2659329169514623E-002   0.0000000000000000     
   2.8836210283587283E-002   9.9283391372584046E-002   0.0000000000000000     
   2.9736964427860967E-002  0.10604989071044030        0.0000000000000000     
   2.1358374613725611E-002   7.9587713744169827E-002   0.0000000000000000     
   2.2305337425052134E-002   8.5928961544343319E-002   0.0000000000000000     
   2.3184076395178832E-002   9.2415154272606034E-002   0.0000000000000000     
   2.3994591524105713E-002   9.9046291928957905E-002   0.0000000000000000     
   2.4736882811832773E-002  0.10582237451339901        0.0000000000000000     
   1.7373824597478438E-002   7.9418075490290063E-002   0.0000000000000000     
   1.8024540976103703E-002   8.5749049430853208E-002   0.0000000000000000     
   1.8651436582785619E-002   9.2230798519213369E-002   0.0000000000000000     
   1.9254511417524180E-002   9.8863322755370506E-002   0.0000000000000000     
   1.9833765480319399E-002  0.10564662213932464        0.0000000000000000     
   4.0028020513461812E-002  0.10666021457342351        0.0000000000000000     
   4.1203740790762285E-002  0.11354719304955485        0.0000000000000000     
   4.2330067632906095E-002  0.12058027264360857        0.0000000000000000     
   4.3407001039893249E-002  0.12775945335558467        0.0000000000000000     
   4.4434541011723755E-002  0.13508473518548314        0.0000000000000000     
   3.4834010328403983E-002  0.10632917073044845        0.0000000000000000     
   3.5839161112001569E-002  0.11322882308248740        0.0000000000000000     
   3.6805181410484757E-002  0.12027542908231531        0.0000000000000000     
   3.7732071223853567E-002  0.12746898872993218        0.0000000000000000     
   3.8619830552107999E-002  0.13480950202533803        0.0000000000000000     
   2.9736964427860967E-002  0.10604989071044030        0.0000000000000000     
   3.0581920024032462E-002  0.11296132967200954        0.0000000000000000     
   3.1395513178738503E-002  0.12002021074621801        0.0000000000000000     
   3.2177743891979048E-002  0.12722653393306563        0.0000000000000000     
   3.2928612163754145E-002  0.13458029923255249        0.0000000000000000     
   2.4736882811832773E-002  0.10582237451339901        0.0000000000000000     
   2.5432017526854978E-002  0.11274471281812128        0.0000000000000000     
   2.6101062937667282E-002  0.11981461763531662        0.0000000000000000     
   2.6744019044269689E-002  0.12703208896498505        0.0000000000000000     
   2.7360885846662197E-002  0.13439712680712657        0.0000000000000000     
   1.9833765480319399E-002  0.10564662213932464        0.0000000000000000     
   2.0389453620469098E-002  0.11257897252082259        0.0000000000000000     
   2.0921830687271128E-002  0.11965864974961117        0.0000000000000000     
   2.1430896680725474E-002  0.12688565382569039        0.0000000000000000     
   2.1916651600832150E-002  0.13425998474906023        0.0000000000000000     
   4.4434541011723755E-002  0.13508473518548314        0.0000000000000000     
   4.5405499576303264E-002  0.14253550561111122        0.0000000000000000     
   4.6312688761537421E-002  0.15009115211027607        0.0000000000000000     
   4.7156108567426226E-002  0.15775167468297777        0.0000000000000000     
   4.7935758993969693E-002  0.16551707332921628        0.0000000000000000     
   3.8619830552107999E-002  0.13480950202533803        0.0000000000000000     
   3.9462457519763391E-002  0.14227666313339449        0.0000000000000000     
   4.0253950251335109E-002  0.14985016621896322        0.0000000000000000     
   4.0994308746823152E-002  0.15753001128204416        0.0000000000000000     
   4.1683533006227513E-002  0.16531619832263741        0.0000000000000000     
   3.2928612163754145E-002  0.13458029923255249        0.0000000000000000     
   3.3643324301160460E-002  0.14206127768990909        0.0000000000000000     
   3.4317086611294692E-002  0.14964924035036603        0.0000000000000000     
   3.4949899094156828E-002  0.15734418721392321        0.0000000000000000     
   3.5541761749746888E-002  0.16514611828058071        0.0000000000000000     
   2.7360885846662197E-002  0.13439712680712657        0.0000000000000000     
   2.7948099920494466E-002  0.14188934928065508        0.0000000000000000     
   2.8502097841416153E-002  0.14948837450448452        0.0000000000000000     
   2.9022879609427264E-002  0.15719420247861488        0.0000000000000000     
   2.9510445224527795E-002  0.16500683320304610        0.0000000000000000     
   2.1916651600832150E-002  0.13425998474906023        0.0000000000000000     
   2.2376784377765406E-002  0.14176087790563241        0.0000000000000000     
   2.2808983941699508E-002  0.14936756868131873        0.0000000000000000     
   2.3213250292634453E-002  0.15708005707611908        0.0000000000000000     
   2.3589583430570240E-002  0.16489834309003357        0.0000000000000000     
   4.7935758993969693E-002  0.16551707332921628        0.0000000000000000     
   4.8657480771400669E-002  0.17337986834399507        0.0000000000000000     
   4.9327114629952040E-002  0.18133258002231775        0.0000000000000000     
   4.9944660569623794E-002  0.18937520836418420        0.0000000000000000     
   5.0510118590415931E-002  0.19750775336959450        0.0000000000000000     
   4.1683533006227513E-002  0.16531619832263741        0.0000000000000000     
   4.2321474657612504E-002  0.17319995952704245        0.0000000000000000     
   4.2907985329042407E-002  0.18117252708155884        0.0000000000000000     
   4.3443065020517216E-002  0.18923390098618648        0.0000000000000000     
   4.3926713732036958E-002  0.19738408124092544        0.0000000000000000     
   3.5541761749746888E-002  0.16514611828058071        0.0000000000000000     
   3.6089451082319861E-002  0.17304591631526128        0.0000000000000000     
   3.6589743596130778E-002  0.18103446408288781        0.0000000000000000     
   3.7042639291179638E-002  0.18911176158346019        0.0000000000000000     
   3.7448138167466422E-002  0.19727780881697851        0.0000000000000000     
   2.9510445224527795E-002  0.16500683320304610        0.0000000000000000     
   2.9961410045522757E-002  0.17291773870865157        0.0000000000000000     
   3.0372389431217173E-002  0.18091839102630466        0.0000000000000000     
   3.0743383381611037E-002  0.18900879015600544        0.0000000000000000     
   3.1074391896704356E-002  0.19718893609775379        0.0000000000000000     
   2.3589583430570240E-002  0.16489834309003357        0.0000000000000000     
   2.3937351547221181E-002  0.17281542670721328        0.0000000000000000     
   2.4255922834301575E-002  0.18082430791180948        0.0000000000000000     
   2.4545297291811430E-002  0.18892498670382210        0.0000000000000000     
   2.4805474919750742E-002  0.19711746308325120        0.0000000000000000     
   5.0510118590415931E-002  0.19750775336959450        0.0000000000000000     
   5.1018394538972882E-002  0.20572157387387385        0.0000000000000000     
   5.1464394261939050E-002  0.21400802871234753        0.0000000000000000     
   5.1848117759314458E-002  0.22236711788501551        0.0000000000000000     
   5.2169565031099076E-002  0.23079884139187776        0.0000000000000000     
   4.3926713732036958E-002  0.19738408124092544        0.0000000000000000     
   4.4358029239106755E-002  0.20561340084322380        0.0000000000000000     
   4.4736109317231793E-002  0.21391219279052970        0.0000000000000000     
   4.5060953966412041E-002  0.22228045708284314        0.0000000000000000     
   4.5332563186647544E-002  0.23071819372016408        0.0000000000000000     
   3.7448138167466422E-002  0.19727780881697851        0.0000000000000000     
   3.7807508406238553E-002  0.20552116673453769        0.0000000000000000     
   3.8122018188743390E-002  0.21383039628723277        0.0000000000000000     
   3.8391667514980951E-002  0.22220549747506360        0.0000000000000000     
   3.8616456384951238E-002  0.23064647029803034        0.0000000000000000     
   3.1074391896704356E-002  0.19718893609775379        0.0000000000000000     
   3.1366832040368248E-002  0.20544487154781557        0.0000000000000000     
   3.1622120876473848E-002  0.21376263920245661        0.0000000000000000     
   3.1840258405021152E-002  0.22214223906167688        0.0000000000000000     
   3.2021244626010172E-002  0.23058367112547645        0.0000000000000000     
   2.4805474919750742E-002  0.19711746308325120        0.0000000000000000     
   2.5036000141495873E-002  0.20538451528305740        0.0000000000000000     
   2.5236417380423180E-002  0.21370892153620130        0.0000000000000000     
   2.5406726636532661E-002  0.22209068184268299        0.0000000000000000     
   2.5546927909824317E-002  0.23052979620250247        0.0000000000000000     
   5.2169565031099076E-002  0.23079884139187776        0.0000000000000000     
   5.2437617768137920E-002  0.23929404697523099        0.0000000000000000     
   5.2661157661275972E-002  0.24784358237737186        0.0000000000000000     
   5.2840184710513244E-002  0.25644744759830035        0.0000000000000000     
   5.2974698915849730E-002  0.26510564263801650        0.0000000000000000     
   4.5332563186647544E-002  0.23071819372016408        0.0000000000000000     
   4.5559898612119551E-002  0.23920900996496333        0.0000000000000000     
   4.5751921877009334E-002  0.24773651307971156        0.0000000000000000     
   4.5908632981316921E-002  0.25630070306440877        0.0000000000000000     
   4.6030031925042292E-002  0.26490157991905505        0.0000000000000000     
   3.8616456384951238E-002  0.23064647029803034        0.0000000000000000     
   3.8805088346439261E-002  0.23913142293870321        0.0000000000000000     
   3.8966266947230016E-002  0.24763846357965241        0.0000000000000000     
   3.9099992187323518E-002  0.25616759222087804        0.0000000000000000     
   3.9206264066719759E-002  0.26471880886238008        0.0000000000000000     
   3.2021244626010172E-002  0.23058367112547645        0.0000000000000000     
   3.2173186971097056E-002  0.23906128589645056        0.0000000000000000     
   3.2304192871938017E-002  0.24754943387719447        0.0000000000000000     
   3.2414262328533040E-002  0.25604811506770819        0.0000000000000000     
   3.2503395340882126E-002  0.26455732946799171        0.0000000000000000     
   2.5546927909824317E-002  0.23052979620250247        0.0000000000000000     
   2.5664194486092945E-002  0.23899859883820540        0.0000000000000000     
   2.5765699651133331E-002  0.24746942397233768        0.0000000000000000     
   2.5851443404945478E-002  0.25594227160489919        0.0000000000000000     
   2.5921425747529387E-002  0.26441714173588993        0.0000000000000000     
   5.2974698915849730E-002  0.26510564263801650        0.0000000000000000     
   5.3095476641357345E-002  0.27376865183513133        0.0000000000000000     
   5.3233294251108051E-002  0.28238695952825582        0.0000000000000000     
   5.3388151745101843E-002  0.29096056571739015        0.0000000000000000     
   5.3560049123338713E-002  0.29948947040253415        0.0000000000000000     
   4.6030031925042292E-002  0.26490157991905505        0.0000000000000000     
   4.6140360706109072E-002  0.27348898854910381        0.0000000000000000     
   4.6263861322440869E-002  0.28201277386000878        0.0000000000000000     
   4.6400533774037703E-002  0.29047293585176975        0.0000000000000000     
   4.6550378060899553E-002  0.29886947452438695        0.0000000000000000     
   3.9206264066719759E-002  0.26471880886238008        0.0000000000000000     
   3.9303968088813951E-002  0.27324076730368385        0.0000000000000000     
   3.9411989757001310E-002  0.28168212134431486        0.0000000000000000     
   3.9530329071281838E-002  0.29004287098427289        0.0000000000000000     
   3.9658986031655519E-002  0.29832301622355817        0.0000000000000000     
   3.2503395340882126E-002  0.26455732946799171        0.0000000000000000     
   3.2586298789471994E-002  0.27302398809887152        0.0000000000000000     
   3.2677679554789368E-002  0.28139500198117418        0.0000000000000000     
   3.2777537636834241E-002  0.28967037111489963        0.0000000000000000     
   3.2885873035606632E-002  0.29785009550004776        0.0000000000000000     
   2.5921425747529387E-002  0.26441714173588993        0.0000000000000000     
   2.5987352808083196E-002  0.27283865093466686        0.0000000000000000     
   2.6060930715805047E-002  0.28115141577058678        0.0000000000000000     
   2.6142159470694936E-002  0.28935543624364984        0.0000000000000000     
   2.6231039072752871E-002  0.29745071235385578        0.0000000000000000     
   1.3523839955614850E-002   5.5708744978299224E-002   0.0000000000000000     
   1.4711238162982466E-002   6.1389887302296726E-002   0.0000000000000000     
   1.5748701672415599E-002   6.7235156495627696E-002   0.0000000000000000     
   1.6636230483914254E-002   7.3244552558292153E-002   0.0000000000000000     
   1.7373824597478438E-002   7.9418075490290063E-002   0.0000000000000000     
   9.6788717324448655E-003   5.5510257076080996E-002   0.0000000000000000     
   1.1105620909525779E-002   6.1246069520750387E-002   0.0000000000000000     
   1.2216612906956595E-002   6.7125061719612827E-002   0.0000000000000000     
   1.3011847724737317E-002   7.3147233672668344E-002   0.0000000000000000     
   1.3491325362867944E-002   7.9312585379916867E-002   0.0000000000000000     
   6.5694869064515989E-003   5.5506838305212143E-002   0.0000000000000000     
   7.8130162364013298E-003   6.1230285941583383E-002   0.0000000000000000     
   8.7164969285044355E-003   6.7096000000650122E-002   0.0000000000000000     
   9.2799289827609193E-003   7.3103980482412359E-002   0.0000000000000000     
   9.5033123991707762E-003   7.9254227386870130E-002   0.0000000000000000     
   4.1956854776350506E-003   5.5698488665692693E-002   0.0000000000000000     
   4.8334241436091196E-003   6.1342536564795679E-002   0.0000000000000000     
   5.2483537370591219E-003   6.7147971338739523E-002   0.0000000000000000     
   5.4404742579850620E-003   7.3114792987524241E-002   0.0000000000000000     
   5.4097857063869371E-003   7.9243001511149824E-002   0.0000000000000000     
   2.5574674459952198E-003   5.6085208157522624E-002   0.0000000000000000     
   2.1668446311491453E-003   6.1582821390387288E-002   0.0000000000000000     
   1.8121833326206550E-003   6.7280975733881074E-002   0.0000000000000000     
   1.4934835504097472E-003   7.3179671188003975E-002   0.0000000000000000     
   1.2107452845164235E-003   7.9278907752756006E-002   0.0000000000000000     
   1.7373824597478438E-002   7.9418075490290063E-002   0.0000000000000000     
   1.8024540976103703E-002   8.5749049430853208E-002   0.0000000000000000     
   1.8651436582785619E-002   9.2230798519213369E-002   0.0000000000000000     
   1.9254511417524180E-002   9.8863322755370506E-002   0.0000000000000000     
   1.9833765480319399E-002  0.10564662213932464        0.0000000000000000     
   1.3491325362867944E-002   7.9312585379916867E-002   0.0000000000000000     
   1.3826100620819390E-002   8.5628312772767959E-002   0.0000000000000000     
   1.4187228298062576E-002   9.2101611782631085E-002   0.0000000000000000     
   1.4574708394597501E-002   9.8732482409506231E-002   0.0000000000000000     
   1.4988540910424158E-002  0.10552092465339345        0.0000000000000000     
   9.5033123991707762E-003   7.9254227386870130E-002   0.0000000000000000     
   9.5845082960406610E-003   8.5557096582093747E-002   0.0000000000000000     
   9.7213777916772218E-003   9.2022943936153512E-002   0.0000000000000000     
   9.9139208860804587E-003   9.8651769449049520E-002   0.0000000000000000     
   1.0162137579250372E-002  0.10544357312078168        0.0000000000000000     
   5.4097857063869371E-003   7.9243001511149824E-002   0.0000000000000000     
   5.2997640017675126E-003   8.5535400858830574E-002   0.0000000000000000     
   5.2538850636295528E-003   9.1994794979780747E-002   0.0000000000000000     
   5.2721488919730631E-003   9.8621183874000332E-002   0.0000000000000000     
   5.3545554867980381E-003  0.10541456754148934        0.0000000000000000     
   1.2107452845164235E-003   7.9278907752756006E-002   0.0000000000000000     
   9.7186773799994497E-004   8.5563225602978465E-002   0.0000000000000000     
   7.8475011391957350E-004   9.2017164913512695E-002   0.0000000000000000     
   6.4939241227531062E-004   9.8640725684358693E-002   0.0000000000000000     
   5.6579463306715393E-004  0.10543390791551646        0.0000000000000000     
   1.9833765480319399E-002  0.10564662213932464        0.0000000000000000     
   2.0389453620469098E-002  0.11257897252082259        0.0000000000000000     
   2.0921830687271128E-002  0.11965864974961117        0.0000000000000000     
   2.1430896680725474E-002  0.12688565382569039        0.0000000000000000     
   2.1916651600832150E-002  0.13425998474906023        0.0000000000000000     
   1.4988540910424158E-002  0.10552092465339345        0.0000000000000000     
   1.5405676055735118E-002  0.11246145486737776        0.0000000000000000     
   1.5803064040722934E-002  0.11954858940454427        0.0000000000000000     
   1.6180704865387606E-002  0.12678232826489300        0.0000000000000000     
   1.6538598529729134E-002  0.13416267144842386        0.0000000000000000     
   1.0162137579250372E-002  0.10544357312078168        0.0000000000000000     
   1.0432132583513306E-002  0.11238950594505100        0.0000000000000000     
   1.0690010611195601E-002  0.11948071891555849        0.0000000000000000     
   1.0935771662297252E-002  0.12671721203230410        0.0000000000000000     
   1.1169415736818268E-002  0.13409898529528788        0.0000000000000000     
   5.3545554867980381E-003  0.10541456754148934        0.0000000000000000     
   5.4688232038036634E-003  0.11236312575384233        0.0000000000000000     
   5.5826703986891248E-003  0.11945503828265380        0.0000000000000000     
   5.6960970714544229E-003  0.12669030512792379        0.0000000000000000     
   5.8091032220995561E-003  0.13406892628965225        0.0000000000000000     
   5.6579463306715393E-004  0.10543390791551646        0.0000000000000000     
   5.1574791660619177E-004  0.11238231429375173        0.0000000000000000     
   4.8104340320351117E-004  0.11947154750583025        0.0000000000000000     
   4.6168109285911197E-004  0.12670160755175200        0.0000000000000000     
   4.5766098557299467E-004  0.13407249443151698        0.0000000000000000     
   2.1916651600832150E-002  0.13425998474906023        0.0000000000000000     
   2.2376784377765406E-002  0.14176087790563241        0.0000000000000000     
   2.2808983941699508E-002  0.14936756868131873        0.0000000000000000     
   2.3213250292634453E-002  0.15708005707611908        0.0000000000000000     
   2.3589583430570240E-002  0.16489834309003357        0.0000000000000000     
   1.6538598529729134E-002  0.13416267144842386        0.0000000000000000     
   1.6874644766929684E-002  0.14166889598127821        0.0000000000000000     
   1.7186743310171421E-002  0.14928027888959733        0.0000000000000000     
   1.7474894159454340E-002  0.15699682017338115        0.0000000000000000     
   1.7739097314778442E-002  0.16481851983262974        0.0000000000000000     
   1.1169415736818268E-002  0.13409898529528788        0.0000000000000000     
   1.1386948181943687E-002  0.14160643592402961        0.0000000000000000     
   1.1584374344858551E-002  0.14921996113804906        0.0000000000000000     
   1.1761694225562861E-002  0.15693956093734626        0.0000000000000000     
   1.1918907824056614E-002  0.16476523532192117        0.0000000000000000     
   5.8091032220995561E-003  0.13406892628965225        0.0000000000000000     
   5.9136946228074199E-003  0.14157349773388653        0.0000000000000000     
   6.0018770457609082E-003  0.14918661542667386        0.0000000000000000     
   6.0736504909600190E-003  0.15690827936801430        0.0000000000000000     
   6.1290149584047569E-003  0.16473848955790782        0.0000000000000000     
   4.5766098557299467E-004  0.13407249443151698        0.0000000000000000     
   4.5488408952087814E-004  0.14157008141084898        0.0000000000000000     
   4.3925141287848540E-004  0.14918024175547179        0.0000000000000000     
   4.1076295564581531E-004  0.15690297546538537        0.0000000000000000     
   3.6941871782286825E-004  0.16473828254058981        0.0000000000000000     
   2.3589583430570240E-002  0.16489834309003357        0.0000000000000000     
   2.3937351547221181E-002  0.17281542670721328        0.0000000000000000     
   2.4255922834301575E-002  0.18082430791180948        0.0000000000000000     
   2.4545297291811430E-002  0.18892498670382210        0.0000000000000000     
   2.4805474919750742E-002  0.19711746308325120        0.0000000000000000     
   1.7739097314778442E-002  0.16481851983262974        0.0000000000000000     
   1.7982531683366380E-002  0.17273962045029242        0.0000000000000000     
   1.8208376172440807E-002  0.18075436460931874        0.0000000000000000     
   1.8416630782001717E-002  0.18886275230970861        0.0000000000000000     
   1.8607295512049114E-002  0.19706478355146201        0.0000000000000000     
   1.1918907824056614E-002  0.16476523532192117        0.0000000000000000     
   1.2062206549909622E-002  0.17269096007723503        0.0000000000000000     
   1.2197781812691690E-002  0.18071071098874905        0.0000000000000000     
   1.2325633612402825E-002  0.18882448805646321        0.0000000000000000     
   1.2445761949043021E-002  0.19703229128037753        0.0000000000000000     
   6.1290149584047569E-003  0.16473848955790782        0.0000000000000000     
   6.1763761468508985E-003  0.17266944558804101        0.0000000000000000     
   6.2241397550542267E-003  0.18069334705010037        0.0000000000000000     
   6.2723057830147439E-003  0.18881019394408596        0.0000000000000000     
   6.3208742307324468E-003  0.19701998626999773        0.0000000000000000     
   3.6941871782286825E-004  0.16473828254058981        0.0000000000000000     
   3.2504047419021267E-004  0.17267507698271042        0.0000000000000000     
   2.8744999952841626E-004  0.18070227279337281        0.0000000000000000     
   2.5664729383747717E-004  0.18881986997257685        0.0000000000000000     
   2.3263235711739900E-004  0.19702786852032259        0.0000000000000000     
   2.4805474919750742E-002  0.19711746308325120        0.0000000000000000     
   2.5036000141495873E-002  0.20538451528305740        0.0000000000000000     
   2.5236417380423180E-002  0.21370892153620130        0.0000000000000000     
   2.5406726636532661E-002  0.22209068184268299        0.0000000000000000     
   2.5546927909824317E-002  0.23052979620250247        0.0000000000000000     
   1.8607295512049114E-002  0.19706478355146201        0.0000000000000000     
   1.8777675826603678E-002  0.20534033640671456        0.0000000000000000     
   1.8925077189686074E-002  0.21366928894760162        0.0000000000000000     
   1.9049499601296312E-002  0.22205164117412329        0.0000000000000000     
   1.9150943061434379E-002  0.23048739308627952        0.0000000000000000     
   1.2445761949043021E-002  0.19703229128037753        0.0000000000000000     
   1.2554522212673939E-002  0.20531257338523842        0.0000000000000000     
   1.2648269793357250E-002  0.21364378709579224        0.0000000000000000     
   1.2727004691092945E-002  0.22202593241203900        0.0000000000000000     
   1.2790726905881032E-002  0.23045900933397873        0.0000000000000000     
   6.3208742307324468E-003  0.19701998626999773        0.0000000000000000     
   6.3665392997066571E-003  0.20530122621862906        0.0000000000000000     
   6.4059951914367001E-003  0.21363241598077318        0.0000000000000000     
   6.4392419059225705E-003  0.22201355555643026        0.0000000000000000     
   6.4662794431642719E-003  0.23044464494560021        0.0000000000000000     
   2.3263235711739900E-004  0.19702786852032259        0.0000000000000000     
   2.1372708770183118E-004  0.20530629490688637        0.0000000000000000     
   1.9825338392442612E-004  0.21363517560254447        0.0000000000000000     
   1.8621124578518190E-004  0.22201451060729699        0.0000000000000000     
   1.7760067328410033E-004  0.23044429992114382        0.0000000000000000     
   2.5546927909824317E-002  0.23052979620250247        0.0000000000000000     
   2.5664194486092945E-002  0.23899859883820540        0.0000000000000000     
   2.5765699651133331E-002  0.24746942397233768        0.0000000000000000     
   2.5851443404945478E-002  0.25594227160489919        0.0000000000000000     
   2.5921425747529387E-002  0.26441714173588993        0.0000000000000000     
   1.9150943061434379E-002  0.23048739308627952        0.0000000000000000     
   1.9235227803624331E-002  0.23894780134176616        0.0000000000000000     
   1.9308174061390189E-002  0.24740412259827899        0.0000000000000000     
   1.9369781834731963E-002  0.25585635685581803        0.0000000000000000     
   1.9420051123649654E-002  0.26430450411438333        0.0000000000000000     
   1.2790726905881032E-002  0.23045900933397873        0.0000000000000000     
   1.2843403835888620E-002  0.23891333298493103        0.0000000000000000     
   1.2889002879282813E-002  0.24735921848821546        0.0000000000000000     
   1.2927524036063618E-002  0.25579666584383198        0.0000000000000000     
   1.2958967306231028E-002  0.26422567505178057        0.0000000000000000     
   6.4662794431642719E-003  0.23044464494560021        0.0000000000000000     
   6.4887225828858131E-003  0.23889519376770005        0.0000000000000000     
   6.5081861048112005E-003  0.24733471164214696        0.0000000000000000     
   6.5246700089404341E-003  0.25576319856894081        0.0000000000000000     
   6.5381742952735165E-003  0.26418065454808176        0.0000000000000000     
   1.7760067328410033E-004  0.23044429992114382        0.0000000000000000     
   1.7118404461591297E-004  0.23889338369007329        0.0000000000000000     
   1.6572373797535270E-004  0.24733060206007357        0.0000000000000000     
   1.6121975336241899E-004  0.25575595503114468        0.0000000000000000     
   1.5767209077710998E-004  0.26416944260328667        0.0000000000000000     
   2.5921425747529387E-002  0.26441714173588993        0.0000000000000000     
   2.5987352808083196E-002  0.27283865093466686        0.0000000000000000     
   2.6060930715805047E-002  0.28115141577058678        0.0000000000000000     
   2.6142159470694936E-002  0.28935543624364984        0.0000000000000000     
   2.6231039072752871E-002  0.29745071235385578        0.0000000000000000     
   1.9420051123649654E-002  0.26430450411438333        0.0000000000000000     
   1.9468126005118339E-002  0.27269095951244571        0.0000000000000000     
   1.9523150556113103E-002  0.28095811818847594        0.0000000000000000     
   1.9585124776633940E-002  0.28910598014247413        0.0000000000000000     
   1.9654048666680857E-002  0.29713454537444023        0.0000000000000000     
   1.2958967306231028E-002  0.26422567505178057        0.0000000000000000     
   1.2989614241048207E-002  0.27258711753358400        0.0000000000000000     
   1.3025746391778293E-002  0.28082186471076498        0.0000000000000000     
   1.3067363758421290E-002  0.28892991658332334        0.0000000000000000     
   1.3114466340977201E-002  0.29691127315125915        0.0000000000000000     
   6.5381742952735165E-003  0.26418065454808176        0.0000000000000000     
   6.5518175158727938E-003  0.27252712499808196        0.0000000000000000     
   6.5687182228006194E-003  0.28074265533745379        0.0000000000000000     
   6.5888764160569879E-003  0.28882724556619727        0.0000000000000000     
   6.6122920956419029E-003  0.29678089568431248        0.0000000000000000     
   1.5767209077710998E-004  0.26416944260328667        0.0000000000000000     
   1.5473582959210424E-004  0.27251098190593931        0.0000000000000000     
   1.5206604918007903E-004  0.28072049006854249        0.0000000000000000     
   1.4966274954103010E-004  0.28879796709109612        0.0000000000000000     
   1.4752593067496149E-004  0.29674341297360030        0.0000000000000000     
   2.5574674459952198E-003   5.6085208157522624E-002   0.0000000000000000     
   2.1668446311491453E-003   6.1582821390387288E-002   0.0000000000000000     
   1.8121833326206550E-003   6.7280975733881074E-002   0.0000000000000000     
   1.4934835504097472E-003   7.3179671188003975E-002   0.0000000000000000     
   1.2107452845164235E-003   7.9278907752756006E-002   0.0000000000000000     
   5.7563469083480874E-004   5.6430742705410514E-002   0.0000000000000000     
  -7.7532292460337363E-004   6.1798345562991588E-002   0.0000000000000000     
  -1.8412590960473828E-003   6.7403450500887988E-002   0.0000000000000000     
  -2.6221738234972198E-003   7.3246057519099739E-002   0.0000000000000000     
  -3.1180671069528836E-003   7.9326166617626828E-002   0.0000000000000000     
  -2.8290109085434808E-003   5.6498838234064958E-002   0.0000000000000000     
  -4.5816791472732240E-003   6.1836314227241923E-002   0.0000000000000000     
  -5.9612183601814098E-003   6.7423832954573507E-002   0.0000000000000000     
  -6.9676285472680365E-003   7.3261394416059694E-002   0.0000000000000000     
  -7.6009097085331066E-003   7.9348998611700500E-002   0.0000000000000000     
  -7.6564693521396499E-003   5.6289494743485935E-002   0.0000000000000000     
  -9.2522240368604017E-003   6.1696727383138306E-002   0.0000000000000000     
  -1.0547694459781425E-002   6.7342123094937617E-002   0.0000000000000000     
  -1.1542880620902704E-002   7.3225681878883869E-002   0.0000000000000000     
  -1.2237782520224250E-002   7.9347403734977048E-002   0.0000000000000000     
  -1.3906740639953695E-002   5.5802712233673446E-002   0.0000000000000000     
  -1.4786957593364916E-002   6.1379585030680729E-002   0.0000000000000000     
  -1.5600687394847426E-002   6.7158320921980333E-002   0.0000000000000000     
  -1.6347930044401222E-002   7.3138919907572236E-002   0.0000000000000000     
  -1.7028685542026308E-002   7.9321381987456460E-002   0.0000000000000000     
   1.2107452845164235E-003   7.9278907752756006E-002   0.0000000000000000     
   9.7186773799994497E-004   8.5563225602978465E-002   0.0000000000000000     
   7.8475011391957350E-004   9.2017164913512695E-002   0.0000000000000000     
   6.4939241227531062E-004   9.8640725684358693E-002   0.0000000000000000     
   5.6579463306715393E-004  0.10543390791551646        0.0000000000000000     
  -3.1180671069528836E-003   7.9326166617626828E-002   0.0000000000000000     
  -3.4552035194729816E-003   8.5609867717080929E-002   0.0000000000000000     
  -3.7598476341161166E-003   9.2063250738073810E-002   0.0000000000000000     
  -4.0319994508822886E-003   9.8686315680605430E-002   0.0000000000000000     
  -4.2716589697714977E-003  0.10547906254467579        0.0000000000000000     
  -7.6009097085331066E-003   7.9348998611700500E-002   0.0000000000000000     
  -8.0374727948622042E-003   8.5644624103681552E-002   0.0000000000000000     
  -8.4537287571409096E-003   9.2106249454188521E-002   0.0000000000000000     
  -8.8496775953692212E-003   9.8733874663221338E-002   0.0000000000000000     
  -9.2253193095471388E-003  0.10552749973078010        0.0000000000000000     
  -1.2237782520224250E-002   7.9347403734977048E-002   0.0000000000000000     
  -1.2774940088167725E-002   8.5667494762780308E-002   0.0000000000000000     
  -1.3296893255154806E-002   9.2146161061856774E-002   0.0000000000000000     
  -1.3803642021185489E-002   9.8783402632206460E-002   0.0000000000000000     
  -1.4295186386259772E-002  0.10557921947382938        0.0000000000000000     
  -1.7028685542026308E-002   7.9321381987456460E-002   0.0000000000000000     
  -1.7667605399389549E-002   8.5678479694377196E-002   0.0000000000000000     
  -1.8289341128157808E-002   9.2182985561078623E-002   0.0000000000000000     
  -1.8893892728331089E-002   9.8834899587560754E-002   0.0000000000000000     
  -1.9481260199909388E-002  0.10563422177382363        0.0000000000000000     
   5.6579463306715393E-004  0.10543390791551646        0.0000000000000000     
   5.1574791660619177E-004  0.11238231429375173        0.0000000000000000     
   4.8104340320351117E-004  0.11947154750583025        0.0000000000000000     
   4.6168109285911197E-004  0.12670160755175200        0.0000000000000000     
   4.5766098557299467E-004  0.13407249443151698        0.0000000000000000     
  -4.2716589697714977E-003  0.10547906254467579        0.0000000000000000     
  -4.4804025382599979E-003  0.11242589839475162        0.0000000000000000     
  -4.6598065038240379E-003  0.11951123029529957        0.0000000000000000     
  -4.8098708664636178E-003  0.12673505824631970        0.0000000000000000     
  -4.9305956261787385E-003  0.13409738224781198        0.0000000000000000     
  -9.2253193095471388E-003  0.10552749973078010        0.0000000000000000     
  -9.5729374209757977E-003  0.11247270488681431        0.0000000000000000     
  -9.8848154509563173E-003  0.11955507036127354        0.0000000000000000     
  -1.0160953399488712E-002  0.12677459615415784        0.0000000000000000     
  -1.0401351266572968E-002  0.13413128226546714        0.0000000000000000     
  -1.4295186386259772E-002  0.10557921947382938        0.0000000000000000     
  -1.4761856731541201E-002  0.11252273376993982        0.0000000000000000     
  -1.5193983438193335E-002  0.11960306770375217        0.0000000000000000     
  -1.5591566506216166E-002  0.12682022127526640        0.0000000000000000     
  -1.5954605935609698E-002  0.13417419448448251        0.0000000000000000     
  -1.9481260199909388E-002  0.10563422177382363        0.0000000000000000     
  -2.0047160469956218E-002  0.11257598504412819        0.0000000000000000     
  -2.0587310465535080E-002  0.11965522232273544        0.0000000000000000     
  -2.1101710186645983E-002  0.12687193360964541        0.0000000000000000     
  -2.1590359633288914E-002  0.13422611890485805        0.0000000000000000     
   4.5766098557299467E-004  0.13407249443151698        0.0000000000000000     
   4.5488408952087814E-004  0.14157008141084898        0.0000000000000000     
   4.3925141287848540E-004  0.14918024175547179        0.0000000000000000     
   4.1076295564581531E-004  0.15690297546538537        0.0000000000000000     
   3.6941871782286825E-004  0.16473828254058981        0.0000000000000000     
  -4.9305956261787385E-003  0.13409738224781198        0.0000000000000000     
  -5.0404630498220486E-003  0.14158737798977400        0.0000000000000000     
  -5.1579554042461969E-003  0.14919422116220332        0.0000000000000000     
  -5.2830726894511808E-003  0.15691791176509995        0.0000000000000000     
  -5.4158149054370072E-003  0.16475844979846388        0.0000000000000000     
  -1.0401351266572968E-002  0.13413128226546714        0.0000000000000000     
  -1.0623326427127480E-002  0.14161657850551854        0.0000000000000000     
  -1.0844196256070625E-002  0.14922193468462899        0.0000000000000000     
  -1.1063960753402406E-002  0.15694735080279842        0.0000000000000000     
  -1.1282619919122825E-002  0.16479282686002700        0.0000000000000000     
  -1.5954605935609698E-002  0.13417419448448251        0.0000000000000000     
  -1.6293706042395408E-002  0.14165768295808259        0.0000000000000000     
  -1.6619471142594794E-002  0.14926338232274874        0.0000000000000000     
  -1.6931901236207861E-002  0.15699129257848093        0.0000000000000000     
  -1.7230996323234587E-002  0.16484141372527916        0.0000000000000000     
  -2.1590359633288914E-002  0.13422611890485805        0.0000000000000000     
  -2.2051601895625838E-002  0.14171069134746619        0.0000000000000000     
  -2.2483780063818713E-002  0.14931856407656260        0.0000000000000000     
  -2.2886894137867531E-002  0.15704973709214731        0.0000000000000000     
  -2.3260944117772298E-002  0.16490421039422032        0.0000000000000000     
   3.6941871782286825E-004  0.16473828254058981        0.0000000000000000     
   3.2504047419021267E-004  0.17267507698271042        0.0000000000000000     
   2.8744999952841626E-004  0.18070227279337281        0.0000000000000000     
   2.5664729383747717E-004  0.18881986997257685        0.0000000000000000     
   2.3263235711739900E-004  0.19702786852032259        0.0000000000000000     
  -5.4158149054370072E-003  0.16475844979846388        0.0000000000000000     
  -5.5462758395097090E-003  0.17270096264407717        0.0000000000000000     
  -5.6645492789753338E-003  0.18073057768372178        0.0000000000000000     
  -5.7706352238338764E-003  0.18884729491739777        0.0000000000000000     
  -5.8645336740853404E-003  0.19705111434510517        0.0000000000000000     
  -1.1282619919122825E-002  0.16479282686002700        0.0000000000000000     
  -1.1492048165686140E-002  0.17274021095497502        0.0000000000000000     
  -1.1684119905546606E-002  0.18077135118630297        0.0000000000000000     
  -1.1858835138704225E-002  0.18888624755401073        0.0000000000000000     
  -1.2016193865158989E-002  0.19708490005809842        0.0000000000000000     
  -1.7230996323234587E-002  0.16484141372527916        0.0000000000000000     
  -1.7512276504339078E-002  0.17279282191540402        0.0000000000000000     
  -1.7771261880185400E-002  0.18082459330111622        0.0000000000000000     
  -1.8007952450773562E-002  0.18893672788241572        0.0000000000000000     
  -1.8222348216103551E-002  0.19712922565930249        0.0000000000000000     
  -2.3260944117772298E-002  0.16490421039422032        0.0000000000000000     
  -2.3606960855468522E-002  0.17285879552536423        0.0000000000000000     
  -2.3925975202891716E-002  0.18089030402816170        0.0000000000000000     
  -2.4217987160041882E-002  0.18899873590261265        0.0000000000000000     
  -2.4482996726919028E-002  0.19718409114871721        0.0000000000000000     
   2.3263235711739900E-004  0.19702786852032259        0.0000000000000000     
   2.1372708770183118E-004  0.20530629490688637        0.0000000000000000     
   1.9825338392442612E-004  0.21363517560254447        0.0000000000000000     
   1.8621124578518190E-004  0.22201451060729699        0.0000000000000000     
   1.7760067328410033E-004  0.23044429992114382        0.0000000000000000     
  -5.8645336740853404E-003  0.19705111434510517        0.0000000000000000     
  -5.9460141588540717E-003  0.20532450461424562        0.0000000000000000     
  -6.0148462072644182E-003  0.21364993437222105        0.0000000000000000     
  -6.0710298193163807E-003  0.22202740361903142        0.0000000000000000     
  -6.1145649950099593E-003  0.23045691235467675        0.0000000000000000     
  -1.2016193865158989E-002  0.19708490005809842        0.0000000000000000     
  -1.2154784175474586E-002  0.20535258050494209        0.0000000000000000     
  -1.2273194160214683E-002  0.21367456070091798        0.0000000000000000     
  -1.2371423819379283E-002  0.22205084064602593        0.0000000000000000     
  -1.2449473152968382E-002  0.23048142034026603        0.0000000000000000     
  -1.8222348216103551E-002  0.19712922565930249        0.0000000000000000     
  -1.8412582962159717E-002  0.20539052257897583        0.0000000000000000     
  -1.8576790474926368E-002  0.21370905458863515        0.0000000000000000     
  -1.8714970754403523E-002  0.22208482168828045        0.0000000000000000     
  -1.8827123800591171E-002  0.23051782387791178        0.0000000000000000     
  -2.4482996726919028E-002  0.19718409114871721        0.0000000000000000     
  -2.4719410518909451E-002  0.20543833083634669        0.0000000000000000     
  -2.4925635151399474E-002  0.21375341603537268        0.0000000000000000     
  -2.5101670624389099E-002  0.22212934674579504        0.0000000000000000     
  -2.5247516937878325E-002  0.23056612296761381        0.0000000000000000     
   1.7760067328410033E-004  0.23044429992114382        0.0000000000000000     
   1.7118404461591297E-004  0.23889338369007329        0.0000000000000000     
   1.6572373797535270E-004  0.24733060206007357        0.0000000000000000     
   1.6121975336241899E-004  0.25575595503114468        0.0000000000000000     
   1.5767209077710998E-004  0.26416944260328667        0.0000000000000000     
  -6.1145649950099593E-003  0.23045691235467675        0.0000000000000000     
  -6.1493706136766576E-003  0.23890697215176096        0.0000000000000000     
  -6.1793655546479778E-003  0.24734609458288809        0.0000000000000000     
  -6.2045498179239241E-003  0.25577427964805810        0.0000000000000000     
  -6.2249234035044940E-003  0.26419152734727103        0.0000000000000000     
  -1.2449473152968382E-002  0.23048142034026603        0.0000000000000000     
  -1.2513100226747471E-002  0.23893502855247345        0.0000000000000000     
  -1.2568063106482034E-002  0.24738039405148332        0.0000000000000000     
  -1.2614361792172081E-002  0.25581751683729564        0.0000000000000000     
  -1.2651996283817600E-002  0.26424639690991042        0.0000000000000000     
  -1.8827123800591171E-002  0.23051782387791178        0.0000000000000000     
  -1.8920004794596532E-002  0.23897755289221076        0.0000000000000000     
  -1.9000368917526822E-002  0.24743350046585921        0.0000000000000000     
  -1.9068216169382052E-002  0.25588566659885731        0.0000000000000000     
  -1.9123546550162206E-002  0.26433405129120480        0.0000000000000000     
  -2.5247516937878325E-002  0.23056612296761381        0.0000000000000000     
  -2.5370084317223835E-002  0.23903454517097286        0.0000000000000000     
  -2.5476282987782345E-002  0.24750541382601590        0.0000000000000000     
  -2.5566112949553837E-002  0.25597872893274293        0.0000000000000000     
  -2.5639574202538318E-002  0.26445449049115405        0.0000000000000000     
   1.5767209077710998E-004  0.26416944260328667        0.0000000000000000     
   1.5473582959210424E-004  0.27251098190593931        0.0000000000000000     
   1.5206604918007903E-004  0.28072049006854249        0.0000000000000000     
   1.4966274954103010E-004  0.28879796709109612        0.0000000000000000     
   1.4752593067496149E-004  0.29674341297360030        0.0000000000000000     
  -6.2249234035044940E-003  0.26419152734727103        0.0000000000000000     
  -6.2442734737161772E-003  0.27253828100285887        0.0000000000000000     
  -6.2663871908854767E-003  0.28075498393715337        0.0000000000000000     
  -6.2912645550123863E-003  0.28884163615015462        0.0000000000000000     
  -6.3189055660969060E-003  0.29679823764186275        0.0000000000000000     
  -1.2651996283817600E-002  0.26424639690991042        0.0000000000000000     
  -1.2687853049974378E-002  0.27260861503454303        0.0000000000000000     
  -1.2728818559198201E-002  0.28084575197640882        0.0000000000000000     
  -1.2774892811489070E-002  0.28895780773550778        0.0000000000000000     
  -1.2826075806846984E-002  0.29694478231183991        0.0000000000000000     
  -1.9123546550162206E-002  0.26433405129120480        0.0000000000000000     
  -1.9176002899182486E-002  0.27272198400099185        0.0000000000000000     
  -1.9235228055758100E-002  0.28099279418630874        0.0000000000000000     
  -1.9301222019889021E-002  0.28914648184715541        0.0000000000000000     
  -1.9373984791575271E-002  0.29718304698353182        0.0000000000000000     
  -2.5639574202538318E-002  0.26445449049115405        0.0000000000000000     
  -2.5708723021340509E-002  0.27287838790220537        0.0000000000000000     
  -2.5785615680565154E-002  0.28119611056685329        0.0000000000000000     
  -2.5870252180212241E-002  0.28940765848509764        0.0000000000000000     
  -2.5962632520281768E-002  0.29751303165693854        0.0000000000000000     
  -1.3906740639953695E-002   5.5802712233673446E-002   0.0000000000000000     
  -1.4786957593364916E-002   6.1379585030680729E-002   0.0000000000000000     
  -1.5600687394847426E-002   6.7158320921980333E-002   0.0000000000000000     
  -1.6347930044401222E-002   7.3138919907572236E-002   0.0000000000000000     
  -1.7028685542026308E-002   7.9321381987456460E-002   0.0000000000000000     
  -2.0108964685522375E-002   5.5402074111723751E-002   0.0000000000000000     
  -2.0315608852225782E-002   6.1137052647597181E-002   0.0000000000000000     
  -2.0677808329304267E-002   6.7039870979305999E-002   0.0000000000000000     
  -2.1195563116757851E-002   7.3110529106850203E-002   0.0000000000000000     
  -2.1868873214586519E-002   7.9349027030229807E-002   0.0000000000000000     
  -2.4792281402382457E-002   5.5451163784733096E-002   0.0000000000000000     
  -2.4967906848882015E-002   6.1221295711615650E-002   0.0000000000000000     
  -2.5336668427076818E-002   6.7154217810519015E-002   0.0000000000000000     
  -2.5898566136966852E-002   7.3249930081443190E-002   0.0000000000000000     
  -2.6653599978552125E-002   7.9508432524388148E-002   0.0000000000000000     
  -2.7956690790533933E-002   5.5949981252701474E-002   0.0000000000000000     
  -2.8743851583333643E-002   6.1632314222736136E-002   0.0000000000000000     
  -2.9577267688165074E-002   6.7501361415619368E-002   0.0000000000000000     
  -3.0456939105028238E-002   7.3557122831351157E-002   0.0000000000000000     
  -3.1382865833923128E-002   7.9799598469931510E-002   0.0000000000000000     
  -2.9602192849976807E-002   5.6898526515628892E-002   0.0000000000000000     
  -3.1643443055580631E-002   6.2370108180958637E-002   0.0000000000000000     
  -3.3399606112569029E-002   6.8081301794607044E-002   0.0000000000000000     
  -3.4870682020941991E-002   7.4032107356574103E-002   0.0000000000000000     
  -3.6056670780699518E-002   8.0222524866859851E-002   0.0000000000000000     
  -1.7028685542026308E-002   7.9321381987456460E-002   0.0000000000000000     
  -1.7667605399389549E-002   8.5678479694377196E-002   0.0000000000000000     
  -1.8289341128157808E-002   9.2182985561078623E-002   0.0000000000000000     
  -1.8893892728331089E-002   9.8834899587560754E-002   0.0000000000000000     
  -1.9481260199909388E-002  0.10563422177382363        0.0000000000000000     
  -2.1868873214586519E-002   7.9349027030229807E-002   0.0000000000000000     
  -2.2610541148689840E-002   8.5739641235376723E-002   0.0000000000000000     
  -2.3333369444967368E-002   9.2266648208222959E-002   0.0000000000000000     
  -2.4037358103419105E-002   9.8930047948768474E-002   0.0000000000000000     
  -2.4722507124045064E-002  0.10572984045701328        0.0000000000000000     
  -2.6653599978552125E-002   7.9508432524388148E-002   0.0000000000000000     
  -2.7498819756230773E-002   8.5913041722683464E-002   0.0000000000000000     
  -2.8331275274400942E-002   9.2447074259658674E-002   0.0000000000000000     
  -2.9150966533062636E-002   9.9110530135313762E-002   0.0000000000000000     
  -2.9957893532215851E-002  0.10590340934964873        0.0000000000000000     
  -3.1382865833923128E-002   7.9799598469931510E-002   0.0000000000000000     
  -3.2332441222012349E-002   8.6198681156297363E-002   0.0000000000000000     
  -3.3283058616458541E-002   9.2724263715385752E-002   0.0000000000000000     
  -3.4234718017261669E-002   9.9376346147196606E-002   0.0000000000000000     
  -3.5187419424421766E-002  0.10615492845173000        0.0000000000000000     
  -3.6056670780699518E-002   8.0222524866859851E-002   0.0000000000000000     
  -3.7111405546034579E-002   8.6596559536218476E-002   0.0000000000000000     
  -3.8188719471140144E-002   9.3098216575404222E-002   0.0000000000000000     
  -3.9288612556016213E-002   9.9727495984417075E-002   0.0000000000000000     
  -4.0411084800662786E-002  0.10648439776325708        0.0000000000000000     
  -1.9481260199909388E-002  0.10563422177382363        0.0000000000000000     
  -2.0047160469956218E-002  0.11257598504412819        0.0000000000000000     
  -2.0587310465535080E-002  0.11965522232273544        0.0000000000000000     
  -2.1101710186645983E-002  0.12687193360964541        0.0000000000000000     
  -2.1590359633288914E-002  0.13422611890485805        0.0000000000000000     
  -2.4722507124045064E-002  0.10572984045701328        0.0000000000000000     
  -2.5389545845139205E-002  0.11266733286012603        0.0000000000000000     
  -2.6039203604995509E-002  0.11974383228527546        0.0000000000000000     
  -2.6671480403613976E-002  0.12695933873246151        0.0000000000000000     
  -2.7286376240994614E-002  0.13431385220168421        0.0000000000000000     
  -2.9957893532215851E-002  0.10590340934964873        0.0000000000000000     
  -3.0749710066008514E-002  0.11283165136868011        0.0000000000000000     
  -3.1524069928588555E-002  0.11990119565842433        0.0000000000000000     
  -3.2280973119955966E-002  0.12711204221888148        0.0000000000000000     
  -3.3020419640110751E-002  0.13446419105005147        0.0000000000000000     
  -3.5187419424421766E-002  0.10615492845173000        0.0000000000000000     
  -3.6127653132564157E-002  0.11306894056979032        0.0000000000000000     
  -3.7041909436314219E-002  0.12012731244218210        0.0000000000000000     
  -3.7930188335671952E-002  0.12733004406890525        0.0000000000000000     
  -3.8792489830637357E-002  0.13467713544995982        0.0000000000000000     
  -4.0411084800662786E-002  0.10648439776325708        0.0000000000000000     
  -4.1523375044806125E-002  0.11337920046345673        0.0000000000000000     
  -4.2592722128172507E-002  0.12042218263654866        0.0000000000000000     
  -4.3619126050761931E-002  0.12761334428253285        0.0000000000000000     
  -4.4602586812574403E-002  0.13495268540140928        0.0000000000000000     
  -2.1590359633288914E-002  0.13422611890485805        0.0000000000000000     
  -2.2051601895625838E-002  0.14171069134746619        0.0000000000000000     
  -2.2483780063818713E-002  0.14931856407656260        0.0000000000000000     
  -2.2886894137867531E-002  0.15704973709214731        0.0000000000000000     
  -2.3260944117772298E-002  0.16490421039422032        0.0000000000000000     
  -2.7286376240994614E-002  0.13431385220168421        0.0000000000000000     
  -2.7870337152594734E-002  0.14179926800807266        0.0000000000000000     
  -2.8409809173871679E-002  0.14940748146675598        0.0000000000000000     
  -2.8904792304825434E-002  0.15713849257773413        0.0000000000000000     
  -2.9355286545456022E-002  0.16499230134100720        0.0000000000000000     
  -3.3020419640110751E-002  0.13446419105005147        0.0000000000000000     
  -3.3723234979078053E-002  0.14194707727430539        0.0000000000000000     
  -3.4370244626883005E-002  0.14955013601401418        0.0000000000000000     
  -3.4961448583525588E-002  0.15727336726917787        0.0000000000000000     
  -3.5496846849005823E-002  0.16511677103979652        0.0000000000000000     
  -3.8792489830637357E-002  0.13467713544995982        0.0000000000000000     
  -3.9610295375075807E-002  0.14215411914616433        0.0000000000000000     
  -4.0365086422852678E-002  0.14974652771833721        0.0000000000000000     
  -4.1056862973967989E-002  0.15745436116647851        0.0000000000000000     
  -4.1685625028421713E-002  0.16527761949058820        0.0000000000000000     
  -4.4602586812574403E-002  0.13495268540140928        0.0000000000000000     
  -4.5531518340587968E-002  0.14242039362364953        0.0000000000000000     
  -4.6394334561780715E-002  0.14999665657972508        0.0000000000000000     
  -4.7191035476152617E-002  0.15768147426963605        0.0000000000000000     
  -4.7921621083703687E-002  0.16547484669338230        0.0000000000000000     
  -2.3260944117772298E-002  0.16490421039422032        0.0000000000000000     
  -2.3606960855468522E-002  0.17285879552536423        0.0000000000000000     
  -2.3925975202891716E-002  0.18089030402816170        0.0000000000000000     
  -2.4217987160041882E-002  0.18899873590261265        0.0000000000000000     
  -2.4482996726919028E-002  0.19718409114871721        0.0000000000000000     
  -2.9355286545456022E-002  0.16499230134100720        0.0000000000000000     
  -2.9767773789499938E-002  0.17294486982092888        0.0000000000000000     
  -3.0148735930693751E-002  0.18097216008185280        0.0000000000000000     
  -3.0498172969037438E-002  0.18907417212377908        0.0000000000000000     
  -3.0816084904531013E-002  0.19725090594670763        0.0000000000000000     
  -3.5496846849005823E-002  0.16511677103979652        0.0000000000000000     
  -3.5986387876858816E-002  0.17305778283817119        0.0000000000000000     
  -3.6440020120619712E-002  0.18107383817660311        0.0000000000000000     
  -3.6857743580288468E-002  0.18916493705509227        0.0000000000000000     
  -3.7239558255865120E-002  0.19733107947363868        0.0000000000000000     
  -4.1685625028421713E-002  0.16527761949058820        0.0000000000000000     
  -4.2262803117545149E-002  0.17319753457709125        0.0000000000000000     
  -4.2799827772669580E-002  0.18119533831241261        0.0000000000000000     
  -4.3296698993794965E-002  0.18927103069655229        0.0000000000000000     
  -4.3753416780921338E-002  0.19742461172951031        0.0000000000000000     
  -4.7921621083703687E-002  0.16547484669338230        0.0000000000000000     
  -4.8597019511558925E-002  0.17336412503768903        0.0000000000000000     
  -4.9228158886843350E-002  0.18133666048928129        0.0000000000000000     
  -4.9815039209556933E-002  0.18939245304815916        0.0000000000000000     
  -5.0357660479699681E-002  0.19753150271432252        0.0000000000000000     
  -2.4482996726919028E-002  0.19718409114871721        0.0000000000000000     
  -2.4719410518909451E-002  0.20543833083634669        0.0000000000000000     
  -2.4925635151399474E-002  0.21375341603537268        0.0000000000000000     
  -2.5101670624389099E-002  0.22212934674579504        0.0000000000000000     
  -2.5247516937878325E-002  0.23056612296761381        0.0000000000000000     
  -3.0816084904531013E-002  0.19725090594670763        0.0000000000000000     
  -3.1101001057198045E-002  0.20549727688162706        0.0000000000000000     
  -3.1351450747062137E-002  0.21380820025952596        0.0000000000000000     
  -3.1567433974123260E-002  0.22218367608040426        0.0000000000000000     
  -3.1748950738381430E-002  0.23062370434426205        0.0000000000000000     
  -3.7239558255865120E-002  0.19733107947363868        0.0000000000000000     
  -3.7583088788499745E-002  0.20556863231938913        0.0000000000000000     
  -3.7885959819342452E-002  0.21387396247949050        0.0000000000000000     
  -3.8148171348393232E-002  0.22224706995394283        0.0000000000000000     
  -3.8369723375652080E-002  0.23068795474274609        0.0000000000000000     
  -4.3753416780921338E-002  0.19742461172951031        0.0000000000000000     
  -4.4165673712814546E-002  0.20565239714963290        0.0000000000000000     
  -4.4529162368240435E-002  0.21395070269526636        0.0000000000000000     
  -4.4843882747199020E-002  0.22231952836641075        0.0000000000000000     
  -4.5109834849690271E-002  0.23075887416306595        0.0000000000000000     
  -5.0357660479699681E-002  0.19753150271432252        0.0000000000000000     
  -5.0848755830142450E-002  0.20574857137235836        0.0000000000000000     
  -5.1281058393756102E-002  0.21403842090685349        0.0000000000000000     
  -5.1654568170540614E-002  0.22240105131780794        0.0000000000000000     
  -5.1969285160496016E-002  0.23083646260522167        0.0000000000000000     
  -2.5247516937878325E-002  0.23056612296761381        0.0000000000000000     
  -2.5370084317223835E-002  0.23903454517097286        0.0000000000000000     
  -2.5476282987782345E-002  0.24750541382601590        0.0000000000000000     
  -2.5566112949553837E-002  0.25597872893274293        0.0000000000000000     
  -2.5639574202538318E-002  0.26445449049115405        0.0000000000000000     
  -3.1748950738381430E-002  0.23062370434426205        0.0000000000000000     
  -3.1902762897801175E-002  0.23910153345725144        0.0000000000000000     
  -3.2035632310347013E-002  0.24759041182552471        0.0000000000000000     
  -3.2147558976018960E-002  0.25609033944908188        0.0000000000000000     
  -3.2238542894817000E-002  0.26460131632792294        0.0000000000000000     
  -3.8369723375652080E-002  0.23068795474274609        0.0000000000000000     
  -3.8557464639500327E-002  0.23917404581953822        0.0000000000000000     
  -3.8718243878319278E-002  0.24768277215795725        0.0000000000000000     
  -3.8852061092108939E-002  0.25621413375800323        0.0000000000000000     
  -3.8958916280869310E-002  0.26476813061967597        0.0000000000000000     
  -4.5109834849690271E-002  0.23075887416306595        0.0000000000000000     
  -4.5334189542321289E-002  0.23925208225783315        0.0000000000000000     
  -4.5524117691699117E-002  0.24778249482331344        0.0000000000000000     
  -4.5679619297823777E-002  0.25635011185950679        0.0000000000000000     
  -4.5800694360695254E-002  0.26495493336641329        0.0000000000000000     
  -5.1969285160496016E-002  0.23083646260522167        0.0000000000000000     
  -5.2232937606264060E-002  0.23933564277213626        0.0000000000000000     
  -5.2453253750486553E-002  0.24788957982159335        0.0000000000000000     
  -5.2630233593163482E-002  0.25649827375359291        0.0000000000000000     
  -5.2763877134294847E-002  0.26516172456813480        0.0000000000000000     
  -2.5639574202538318E-002  0.26445449049115405        0.0000000000000000     
  -2.5708723021340509E-002  0.27287838790220537        0.0000000000000000     
  -2.5785615680565154E-002  0.28119611056685329        0.0000000000000000     
  -2.5870252180212241E-002  0.28940765848509764        0.0000000000000000     
  -2.5962632520281768E-002  0.29751303165693854        0.0000000000000000     
  -3.2238542894817000E-002  0.26460131632792294        0.0000000000000000     
  -3.2323471924307949E-002  0.27307139708883893        0.0000000000000000     
  -3.2417233922058662E-002  0.28144863635862100        0.0000000000000000     
  -3.2519828888069105E-002  0.28973303413726920        0.0000000000000000     
  -3.2631256822339291E-002  0.29792459042478342        0.0000000000000000     
  -3.8958916280869310E-002  0.26476813061967597        0.0000000000000000     
  -3.9057708115944320E-002  0.27329458191154782        0.0000000000000000     
  -3.9167335268677869E-002  0.28174330680219073        0.0000000000000000     
  -3.9287797739069992E-002  0.29011430529160481        0.0000000000000000     
  -3.9419095527120661E-002  0.29840757737978990        0.0000000000000000     
  -4.5800694360695254E-002  0.26495493336641329        0.0000000000000000     
  -4.5911431596249587E-002  0.27354794237033203        0.0000000000000000     
  -4.6035919720422806E-002  0.28208012189756237        0.0000000000000000     
  -4.6174158733214898E-002  0.29055147194810443        0.0000000000000000     
  -4.6326148634625863E-002  0.29896199252195799        0.0000000000000000     
  -5.2763877134294847E-002  0.26516172456813480        0.0000000000000000     
  -5.2884642365223791E-002  0.27383147846519168        0.0000000000000000     
  -5.3022987277293446E-002  0.28245908164473615        0.0000000000000000     
  -5.3178911870503824E-002  0.29104453410676812        0.0000000000000000     
  -5.3352416144854906E-002  0.29958783585128768        0.0000000000000000     
  -2.9602192849976807E-002   5.6898526515628892E-002   0.0000000000000000     
  -3.1643443055580631E-002   6.2370108180958637E-002   0.0000000000000000     
  -3.3399606112569029E-002   6.8081301794607044E-002   0.0000000000000000     
  -3.4870682020941991E-002   7.4032107356574103E-002   0.0000000000000000     
  -3.6056670780699518E-002   8.0222524866859851E-002   0.0000000000000000     
  -3.1152333393279878E-002   5.7966649708871006E-002   0.0000000000000000     
  -3.4466223658657272E-002   6.3226694526785990E-002   0.0000000000000000     
  -3.7166653148412110E-002   6.8774958352184362E-002   0.0000000000000000     
  -3.9253621862544420E-002   7.4611441185066157E-002   0.0000000000000000     
  -4.0727129801054182E-002   8.0736143025431362E-002   0.0000000000000000     
  -3.4030658233011948E-002   5.8824200967783472E-002   0.0000000000000000     
  -3.8011735785597800E-002   6.3994090200721013E-002   0.0000000000000000     
  -4.1241378243817746E-002   6.9463250493053658E-002   0.0000000000000000     
  -4.3719585607671807E-002   7.5231681844781392E-002   0.0000000000000000     
  -4.5446357877159976E-002   8.1299384255904217E-002   0.0000000000000000     
  -3.8237167369173021E-002   5.9471180292366289E-002   0.0000000000000000     
  -4.2279979436402229E-002   6.4672295202763727E-002   0.0000000000000000     
  -4.5623781398785944E-002   7.0146178217214888E-002   0.0000000000000000     
  -4.8268573256324172E-002   7.5892829335719780E-002   0.0000000000000000     
  -5.0214355009016928E-002   8.1912248558278375E-002   0.0000000000000000     
  -4.3771860801763096E-002   5.9907587682619466E-002   0.0000000000000000     
  -4.7270954611070545E-002   6.5261309532914119E-002   0.0000000000000000     
  -5.0313862613316683E-002   7.0823741524668082E-002   0.0000000000000000     
  -5.2900584808501502E-002   7.6594883657881335E-002   0.0000000000000000     
  -5.5031121196625010E-002   8.2574735932553905E-002   0.0000000000000000     
  -3.6056670780699518E-002   8.0222524866859851E-002   0.0000000000000000     
  -3.7111405546034579E-002   8.6596559536218476E-002   0.0000000000000000     
  -3.8188719471140144E-002   9.3098216575404222E-002   0.0000000000000000     
  -3.9288612556016213E-002   9.9727495984417075E-002   0.0000000000000000     
  -4.0411084800662786E-002  0.10648439776325708        0.0000000000000000     
  -4.0727129801054182E-002   8.0736143025431362E-002   0.0000000000000000     
  -4.1913125959987842E-002   8.7071398592919236E-002   0.0000000000000000     
  -4.3137559335391838E-002   9.3539542607169096E-002   0.0000000000000000     
  -4.4400429927266186E-002  0.10014057506818090        0.0000000000000000     
  -4.5701737735610870E-002  0.10687449597595466        0.0000000000000000     
  -4.5446357877159976E-002   8.1299384255904217E-002   0.0000000000000000     
  -4.6815015695562526E-002   8.7587920056872187E-002   0.0000000000000000     
  -4.8218879706159699E-002   9.4018851578135401E-002   0.0000000000000000     
  -4.9657949908951518E-002  0.10059217881969386        0.0000000000000000     
  -5.1132226303937968E-002  0.10730790178154753        0.0000000000000000     
  -5.0214355009016928E-002   8.1912248558278375E-002   0.0000000000000000     
  -5.1817074752758638E-002   8.8146123928077316E-002   0.0000000000000000     
  -5.3432680583443720E-002   9.4536143488303193E-002   0.0000000000000000     
  -5.5061172501072210E-002  0.10108230723895595        0.0000000000000000     
  -5.6702550505644080E-002  0.10778461518003565        0.0000000000000000     
  -5.5031121196625010E-002   8.2574735932553905E-002   0.0000000000000000     
  -5.6919303131576171E-002   8.8746010206534623E-002   0.0000000000000000     
  -5.8778961967243915E-002   9.5091418337672387E-002   0.0000000000000000     
  -6.0610097703628255E-002  0.10161096032596718        0.0000000000000000     
  -6.2412710340729198E-002  0.10830463617141901        0.0000000000000000     
  -4.0411084800662786E-002  0.10648439776325708        0.0000000000000000     
  -4.1523375044806125E-002  0.11337920046345673        0.0000000000000000     
  -4.2592722128172507E-002  0.12042218263654866        0.0000000000000000     
  -4.3619126050761931E-002  0.12761334428253285        0.0000000000000000     
  -4.4602586812574403E-002  0.13495268540140928        0.0000000000000000     
  -4.5701737735610870E-002  0.10687449597595466        0.0000000000000000     
  -4.6991663137688627E-002  0.11375004029006239        0.0000000000000000     
  -4.8220386510762180E-002  0.12077594297007598        0.0000000000000000     
  -4.9387907854831527E-002  0.12795220401599550        0.0000000000000000     
  -5.0494227169896676E-002  0.13527882342782091        0.0000000000000000     
  -5.1132226303937968E-002  0.10730790178154753        0.0000000000000000     
  -5.2587304746165853E-002  0.11416906928999027        0.0000000000000000     
  -5.3968781090681983E-002  0.12117873017131589        0.0000000000000000     
  -5.5276655337486345E-002  0.12833688442552438        0.0000000000000000     
  -5.6510927486578953E-002  0.13564353205261576        0.0000000000000000     
  -5.6702550505644080E-002  0.10778461518003565        0.0000000000000000     
  -5.8310299870237822E-002  0.11463628746324042        0.0000000000000000     
  -5.9837905867931925E-002  0.12163054424026835        0.0000000000000000     
  -6.1285368498726407E-002  0.12876738551111952        0.0000000000000000     
  -6.2652687762621229E-002  0.13604681127579388        0.0000000000000000     
  -6.2412710340729198E-002  0.10830463617141901        0.0000000000000000     
  -6.4160648509904522E-002  0.11515169480981280        0.0000000000000000     
  -6.5827760842512018E-002  0.12213138517693341        0.0000000000000000     
  -6.7414047338551678E-002  0.12924370727278087        0.0000000000000000     
  -6.8919507998023516E-002  0.13648866109735519        0.0000000000000000     
  -4.4602586812574403E-002  0.13495268540140928        0.0000000000000000     
  -4.5531518340587968E-002  0.14242039362364953        0.0000000000000000     
  -4.6394334561780715E-002  0.14999665657972508        0.0000000000000000     
  -4.7191035476152617E-002  0.15768147426963605        0.0000000000000000     
  -4.7921621083703687E-002  0.16547484669338230        0.0000000000000000     
  -5.0494227169896676E-002  0.13527882342782091        0.0000000000000000     
  -5.1536111411388925E-002  0.14273182147144575        0.0000000000000000     
  -5.2510327534739595E-002  0.15028721841276357        0.0000000000000000     
  -5.3416875539948686E-002  0.15794501425177440        0.0000000000000000     
  -5.4255755427016168E-002  0.16570520898847818        0.0000000000000000     
  -5.6510927486578953E-002  0.13564353205261576        0.0000000000000000     
  -5.7673282123253032E-002  0.14307432345423785        0.0000000000000000     
  -5.8765403832801821E-002  0.15060490903203846        0.0000000000000000     
  -5.9787292615225363E-002  0.15823528878601753        0.0000000000000000     
  -6.0738948470523586E-002  0.16596546271617513        0.0000000000000000     
  -6.2652687762621229E-002  0.13604681127579388        0.0000000000000000     
  -6.3943030476180288E-002  0.14344789957202581        0.0000000000000000     
  -6.5159563455967420E-002  0.15094972843754967        0.0000000000000000     
  -6.6302286701982613E-002  0.15855229787236544        0.0000000000000000     
  -6.7371200214225935E-002  0.16625560787647328        0.0000000000000000     
  -6.8919507998023516E-002  0.13648866109735519        0.0000000000000000     
  -7.0345356470170692E-002  0.14385254982480955        0.0000000000000000     
  -7.1692806404236351E-002  0.15132167662929724        0.0000000000000000     
  -7.2961857800220534E-002  0.15889604151081821        0.0000000000000000     
  -7.4152510658123186E-002  0.16657564446937251        0.0000000000000000     
  -4.7921621083703687E-002  0.16547484669338230        0.0000000000000000     
  -4.8597019511558925E-002  0.17336412503768903        0.0000000000000000     
  -4.9228158886843350E-002  0.18133666048928129        0.0000000000000000     
  -4.9815039209556933E-002  0.18939245304815916        0.0000000000000000     
  -5.0357660479699681E-002  0.19753150271432252        0.0000000000000000     
  -5.4255755427016168E-002  0.16570520898847818        0.0000000000000000     
  -5.5036432266150119E-002  0.17356107815661351        0.0000000000000000     
  -5.5768371127558530E-002  0.18150589728991898        0.0000000000000000     
  -5.6451572011241402E-002  0.18953966638839462        0.0000000000000000     
  -5.7086034917198741E-002  0.19766238545204037        0.0000000000000000     
  -6.0738948470523586E-002  0.16596546271617513        0.0000000000000000     
  -6.1628436588568626E-002  0.17379191787051365        0.0000000000000000     
  -6.2463822159232567E-002  0.18171114129703542        0.0000000000000000     
  -6.3245105182515415E-002  0.18972313299574045        0.0000000000000000     
  -6.3972285658417144E-002  0.19782789296662881        0.0000000000000000     
  -6.7371200214225935E-002  0.16625560787647328        0.0000000000000000     
  -6.8373032478814488E-002  0.17405664417938949        0.0000000000000000     
  -6.9314511981865487E-002  0.18195239251063067        0.0000000000000000     
  -7.0195638723378931E-002  0.18994285287019677        0.0000000000000000     
  -7.1016412703354875E-002  0.19802802525808788        0.0000000000000000     
  -7.4152510658123186E-002  0.16657564446937251        0.0000000000000000     
  -7.5270219936887664E-002  0.17435525708324101        0.0000000000000000     
  -7.6320440595457284E-002  0.18222965093070467        0.0000000000000000     
  -7.7303172633832046E-002  0.19019882601176352        0.0000000000000000     
  -7.8218416052011921E-002  0.19826278232641753        0.0000000000000000     
  -5.0357660479699681E-002  0.19753150271432252        0.0000000000000000     
  -5.0848755830142450E-002  0.20574857137235836        0.0000000000000000     
  -5.1281058393756102E-002  0.21403842090685349        0.0000000000000000     
  -5.1654568170540614E-002  0.22240105131780794        0.0000000000000000     
  -5.1969285160496016E-002  0.23083646260522167        0.0000000000000000     
  -5.7086034917198741E-002  0.19766238545204037        0.0000000000000000     
  -5.7662092483283703E-002  0.20586675124348697        0.0000000000000000     
  -5.8170077347349400E-002  0.21414546052536523        0.0000000000000000     
  -5.8609989509395846E-002  0.22249851329767503        0.0000000000000000     
  -5.8981828969423042E-002  0.23092590956041648        0.0000000000000000     
  -6.3972285658417144E-002  0.19782789296662881        0.0000000000000000     
  -6.4635441015038528E-002  0.20601653301894032        0.0000000000000000     
  -6.5224648680480321E-002  0.21428016496191499        0.0000000000000000     
  -6.5739908654742510E-002  0.22261878879555272        0.0000000000000000     
  -6.6181220937825108E-002  0.23103240451985366        0.0000000000000000     
  -7.1016412703354875E-002  0.19802802525808788        0.0000000000000000     
  -7.1768801425406925E-002  0.20619791669871831        0.0000000000000000     
  -7.2444772393148865E-002  0.21444253421650275        0.0000000000000000     
  -7.3044325606580598E-002  0.22276187781144102        0.0000000000000000     
  -7.3567461065702208E-002  0.23115594748353319        0.0000000000000000     
  -7.8218416052011921E-002  0.19826278232641753        0.0000000000000000     
  -7.9062173714388909E-002  0.20641090228282105        0.0000000000000000     
  -7.9830448485354963E-002  0.21463256828912849        0.0000000000000000     
  -8.0523240364910126E-002  0.22292778034533980        0.0000000000000000     
  -8.1140549353054342E-002  0.23129653845145509        0.0000000000000000     
  -5.1969285160496016E-002  0.23083646260522167        0.0000000000000000     
  -5.2232937606264060E-002  0.23933564277213626        0.0000000000000000     
  -5.2453253750486553E-002  0.24788957982159335        0.0000000000000000     
  -5.2630233593163482E-002  0.25649827375359291        0.0000000000000000     
  -5.2763877134294847E-002  0.26516172456813480        0.0000000000000000     
  -5.8981828969423042E-002  0.23092590956041648        0.0000000000000000     
  -5.9292784056674055E-002  0.23942694183398300        0.0000000000000000     
  -5.9550043100391956E-002  0.24800090263876814        0.0000000000000000     
  -5.9753606100576749E-002  0.25664779197477194        0.0000000000000000     
  -5.9903473057228429E-002  0.26536760984199437        0.0000000000000000     
  -6.6181220937825108E-002  0.23103240451985366        0.0000000000000000     
  -6.6552804118896663E-002  0.23952819391490873        0.0000000000000000     
  -6.6858876787125723E-002  0.24811333876080918        0.0000000000000000     
  -6.7099438942512288E-002  0.25678783905755492        0.0000000000000000     
  -6.7274490585056371E-002  0.26555169480514590        0.0000000000000000     
  -7.3567461065702208E-002  0.23115594748353319        0.0000000000000000     
  -7.4012997792931870E-002  0.23963939901491352        0.0000000000000000     
  -7.4379754810687856E-002  0.24822688818771635        0.0000000000000000     
  -7.4667732118970126E-002  0.25691841500194168        0.0000000000000000     
  -7.4876929717778692E-002  0.26571397945758946        0.0000000000000000     
  -8.1140549353054342E-002  0.23129653845145509        0.0000000000000000     
  -8.1673365078779731E-002  0.23976055713399735        0.0000000000000000     
  -8.2112677171078355E-002  0.24834155091948976        0.0000000000000000     
  -8.2458485629950229E-002  0.25703951980793233        0.0000000000000000     
  -8.2710790455395353E-002  0.26585446379932509        0.0000000000000000     
  -5.2763877134294847E-002  0.26516172456813480        0.0000000000000000     
  -5.2884642365223791E-002  0.27383147846519168        0.0000000000000000     
  -5.3022987277293446E-002  0.28245908164473615        0.0000000000000000     
  -5.3178911870503824E-002  0.29104453410676812        0.0000000000000000     
  -5.3352416144854906E-002  0.29958783585128768        0.0000000000000000     
  -5.9903473057228429E-002  0.26536760984199437        0.0000000000000000     
  -6.0035825821376891E-002  0.27411677132295204        0.0000000000000000     
  -6.0186846244051996E-002  0.28285169150016148        0.0000000000000000     
  -6.0356534325253758E-002  0.29157237037362266        0.0000000000000000     
  -6.0544890064982169E-002  0.30027880794333567        0.0000000000000000     
  -6.7274490585056371E-002  0.26555169480514590        0.0000000000000000     
  -6.7423467363218859E-002  0.27437540207043831        0.0000000000000000     
  -6.7585804925460624E-002  0.28322945692028778        0.0000000000000000     
  -6.7761503271781709E-002  0.29211385935469469        0.0000000000000000     
  -6.7950562402182044E-002  0.30102860937365872        0.0000000000000000     
  -7.4876929717778692E-002  0.26571397945758946        0.0000000000000000     
  -7.5047566990749701E-002  0.27460737070765046        0.0000000000000000     
  -7.5219863321519351E-002  0.28359237790511538        0.0000000000000000     
  -7.5393818710087629E-002  0.29266900104998417        0.0000000000000000     
  -7.5569433156454521E-002  0.30183724014225677        0.0000000000000000     
  -8.2710790455395353E-002  0.26585446379932509        0.0000000000000000     
  -8.2908124703969424E-002  0.27481267723458874        0.0000000000000000     
  -8.3089021432228141E-002  0.28394045445464416        0.0000000000000000     
  -8.3253480640171559E-002  0.29323779545949119        0.0000000000000000     
  -8.3401502327799609E-002  0.30270470024912993        0.0000000000000000     
  -4.3771860801763096E-002   5.9907587682619466E-002   0.0000000000000000     
  -4.7270954611070545E-002   6.5261309532914119E-002   0.0000000000000000     
  -5.0313862613316683E-002   7.0823741524668082E-002   0.0000000000000000     
  -5.2900584808501502E-002   7.6594883657881335E-002   0.0000000000000000     
  -5.5031121196625010E-002   8.2574735932553905E-002   0.0000000000000000     
  -4.9708914779643870E-002   6.0363595873568460E-002   0.0000000000000000     
  -5.2586391478059130E-002   6.5860875381569275E-002   0.0000000000000000     
  -5.5269878660412122E-002   7.1509751186885157E-002   0.0000000000000000     
  -5.7759376326702826E-002   7.7310223289516117E-002   0.0000000000000000     
  -6.0054884476931275E-002   8.3262291689462170E-002   0.0000000000000000     
  -5.5122505551677060E-002   6.1069377600238763E-002   0.0000000000000000     
  -5.7828020205824338E-002   6.6570734939126214E-002   0.0000000000000000     
  -6.0450086313074365E-002   7.2218017975338000E-002   0.0000000000000000     
  -6.2988703873427157E-002   7.8011226708874157E-002   0.0000000000000000     
  -6.5443872886882706E-002   8.3950361139734642E-002   0.0000000000000000     
  -6.0012633117862639E-002   6.2024932862630340E-002   0.0000000000000000     
  -6.2995840794366140E-002   6.7390888205584976E-002   0.0000000000000000     
  -6.5854485571303439E-002   7.2948541890026669E-002   0.0000000000000000     
  -6.8588567448674490E-002   7.8697893915955441E-002   0.0000000000000000     
  -7.1198086426479359E-002   8.4638944283371306E-002   0.0000000000000000     
  -6.4379297478200634E-002   6.3230261660743220E-002   0.0000000000000000     
  -6.8089853243684578E-002   6.8321335180945519E-002   0.0000000000000000     
  -7.1483076435099310E-002   7.3701322930951108E-002   0.0000000000000000     
  -7.4558967052444858E-002   7.9370224910759984E-002   0.0000000000000000     
  -7.7317525095721179E-002   8.5328041120372164E-002   0.0000000000000000     
  -5.5031121196625010E-002   8.2574735932553905E-002   0.0000000000000000     
  -5.6919303131576171E-002   8.8746010206534623E-002   0.0000000000000000     
  -5.8778961967243915E-002   9.5091418337672387E-002   0.0000000000000000     
  -6.0610097703628255E-002  0.10161096032596718        0.0000000000000000     
  -6.2412710340729198E-002  0.10830463617141901        0.0000000000000000     
  -6.0054884476931275E-002   8.3262291689462170E-002   0.0000000000000000     
  -6.2219323658628006E-002   8.9383652968751628E-002   0.0000000000000000     
  -6.4315614419323611E-002   9.5692003709412832E-002   0.0000000000000000     
  -6.6343756759018088E-002  0.10218734391144582        0.0000000000000000     
  -6.8303750677711439E-002  0.10886967357485056        0.0000000000000000     
  -6.5443872886882706E-002   8.3950361139734642E-002   0.0000000000000000     
  -6.7814759160527052E-002   9.0055126291235910E-002   0.0000000000000000     
  -7.0100528501446213E-002   9.6345227186694443E-002   0.0000000000000000     
  -7.2301180909640161E-002  0.10282066382611020        0.0000000000000000     
  -7.4416716385108911E-002  0.10948143620948320        0.0000000000000000     
  -7.1198086426479359E-002   8.4638944283371306E-002   0.0000000000000000     
  -7.3705609637273295E-002   9.0760430173987452E-002   0.0000000000000000     
  -7.6133704213611667E-002   9.7051088769517097E-002   0.0000000000000000     
  -7.8482370155494419E-002  0.10351092006996027        0.0000000000000000     
  -8.0751607462921607E-002  0.11013992407531693        0.0000000000000000     
  -7.7317525095721179E-002   8.5328041120372164E-002   0.0000000000000000     
  -7.9891875088866748E-002   9.1499564617006257E-002   0.0000000000000000     
  -8.2415141555819998E-002   9.7809588457880875E-002   0.0000000000000000     
  -8.4887324496580943E-002  0.10425811264299606        0.0000000000000000     
  -8.7308423911149541E-002  0.11084513717235175        0.0000000000000000     
  -6.2412710340729198E-002  0.10830463617141901        0.0000000000000000     
  -6.4160648509904522E-002  0.11515169480981280        0.0000000000000000     
  -6.5827760842512018E-002  0.12213138517693341        0.0000000000000000     
  -6.7414047338551678E-002  0.12924370727278087        0.0000000000000000     
  -6.8919507998023516E-002  0.13648866109735519        0.0000000000000000     
  -6.8303750677711439E-002  0.10886967357485056        0.0000000000000000     
  -7.0189162309517633E-002  0.11570743341670943        0.0000000000000000     
  -7.1993557788550655E-002  0.12266906415410482        0.0000000000000000     
  -7.3716937114810505E-002  0.12975456578703673        0.0000000000000000     
  -7.5359300288297182E-002  0.13696393831550516        0.0000000000000000     
  -7.4416716385108911E-002  0.10948143620948320        0.0000000000000000     
  -7.6446652913428836E-002  0.11629564537093230        0.0000000000000000     
  -7.8390508480176244E-002  0.12323139234457633        0.0000000000000000     
  -8.0248283085351188E-002  0.13028867713041534        0.0000000000000000     
  -8.2019976728953614E-002  0.13746749972844924        0.0000000000000000     
  -8.0751607462921607E-002  0.11013992407531693        0.0000000000000000     
  -8.2933120321638104E-002  0.11691633067248139        0.0000000000000000     
  -8.5018612917388811E-002  0.12381836974834798        0.0000000000000000     
  -8.7008085250173700E-002  0.13084604130291663        0.0000000000000000     
  -8.8901537319992840E-002  0.13799934533618743        0.0000000000000000     
  -8.7308423911149541E-002  0.11084513717235175        0.0000000000000000     
  -8.9648564534145464E-002  0.11756948932135673        0.0000000000000000     
  -9.1877871100188316E-002  0.12442999636541972        0.0000000000000000     
  -9.3996343609278096E-002  0.13142665830454073        0.0000000000000000     
  -9.6003982061414833E-002  0.13855947513871975        0.0000000000000000     
  -6.8919507998023516E-002  0.13648866109735519        0.0000000000000000     
  -7.0345356470170692E-002  0.14385254982480955        0.0000000000000000     
  -7.1692806404236351E-002  0.15132167662929724        0.0000000000000000     
  -7.2961857800220534E-002  0.15889604151081821        0.0000000000000000     
  -7.4152510658123186E-002  0.16657564446937251        0.0000000000000000     
  -7.5359300288297182E-002  0.13696393831550516        0.0000000000000000     
  -7.6919701842058125E-002  0.14429030330677789        0.0000000000000000     
  -7.8397196309140785E-002  0.15172678232812264        0.0000000000000000     
  -7.9791783689545148E-002  0.15927337537953939        0.0000000000000000     
  -8.1103463983271229E-002  0.16693008246102822        0.0000000000000000     
  -8.2019976728953614E-002  0.13746749972844924        0.0000000000000000     
  -8.3705508328676542E-002  0.14476318911211949        0.0000000000000000     
  -8.5304796802212909E-002  0.15217107425486731        0.0000000000000000     
  -8.6817842149562702E-002  0.15969115515669280        0.0000000000000000     
  -8.8244644370725905E-002  0.16732343181759585        0.0000000000000000     
  -8.8901537319992840E-002  0.13799934533618743        0.0000000000000000     
  -9.0702775930025903E-002  0.14527120724083434        0.0000000000000000     
  -9.2415607883452683E-002  0.15265455240953130        0.0000000000000000     
  -9.4040033180273111E-002  0.16014938084227828        0.0000000000000000     
  -9.5576051820487271E-002  0.16775569253907535        0.0000000000000000     
  -9.6003982061414833E-002  0.13855947513871975        0.0000000000000000     
  -9.7911504646106248E-002  0.14581435769292245        0.0000000000000000     
  -9.9729629552860119E-002  0.15317721679211455        0.0000000000000000     
 -0.10145835678167646       0.16064805243629596        0.0000000000000000     
 -0.10309768633255526       0.16822686462546677        0.0000000000000000     
  -7.4152510658123186E-002  0.16657564446937251        0.0000000000000000     
  -7.5270219936887664E-002  0.17435525708324101        0.0000000000000000     
  -7.6320440595457284E-002  0.18222965093070467        0.0000000000000000     
  -7.7303172633832046E-002  0.19019882601176352        0.0000000000000000     
  -7.8218416052011921E-002  0.19826278232641753        0.0000000000000000     
  -8.1103463983271229E-002  0.16693008246102822        0.0000000000000000     
  -8.2336529248126414E-002  0.17468890058122583        0.0000000000000000     
  -8.3495271541918117E-002  0.18254182674876906        0.0000000000000000     
  -8.4579690864646298E-002  0.19048886096365786        0.0000000000000000     
  -8.5589787216311011E-002  0.19853000322589223        0.0000000000000000     
  -8.8244644370725905E-002  0.16732343181759585        0.0000000000000000     
  -8.9588490697868936E-002  0.17505871867250170        0.0000000000000000     
  -9.0852668363158140E-002  0.18288783015633536        0.0000000000000000     
  -9.2037177366593434E-002  0.19081076626909702        0.0000000000000000     
  -9.3142017708174901E-002  0.19882752701078654        0.0000000000000000     
  -9.5576051820487271E-002  0.16775569253907535        0.0000000000000000     
  -9.7026104286115286E-002  0.17546471135706851        0.0000000000000000     
  -9.8392631059177338E-002  0.18326766115340370        0.0000000000000000     
  -9.9675632139673426E-002  0.19116454192808099        0.0000000000000000     
 -0.10087510752760358       0.19915535368110038        0.0000000000000000     
 -0.10309768633255526       0.16822686462546677        0.0000000000000000     
 -0.10464937001286539       0.17590687863492629        0.0000000000000000     
 -0.10611515962997574       0.18368131973997395        0.0000000000000000     
 -0.10749505518388627       0.19155018794060982        0.0000000000000000     
 -0.10878905667459701       0.19951348323683377        0.0000000000000000     
  -7.8218416052011921E-002  0.19826278232641753        0.0000000000000000     
  -7.9062173714388909E-002  0.20641090228282105        0.0000000000000000     
  -7.9830448485354963E-002  0.21463256828912849        0.0000000000000000     
  -8.0523240364910126E-002  0.22292778034533980        0.0000000000000000     
  -8.1140549353054342E-002  0.23129653845145509        0.0000000000000000     
  -8.5589787216311011E-002  0.19853000322589223        0.0000000000000000     
  -8.6525922480171519E-002  0.20665456259638687        0.0000000000000000     
  -8.7388458539487041E-002  0.21485184813605632        0.0000000000000000     
  -8.8177395394257604E-002  0.22312185984490060        0.0000000000000000     
  -8.8892733044483238E-002  0.23146459772291972        0.0000000000000000     
  -9.3142017708174901E-002  0.19882752701078654        0.0000000000000000     
  -9.4170412320941810E-002  0.20692797046455416        0.0000000000000000     
  -9.5125584137933372E-002  0.21510195471355023        0.0000000000000000     
  -9.6007533159149644E-002  0.22334947975777467        0.0000000000000000     
  -9.6816259384590597E-002  0.23167054559722750        0.0000000000000000     
 -0.10087510752760358       0.19915535368110038        0.0000000000000000     
 -0.10199564323669974       0.20723112588732306        0.0000000000000000     
 -0.10304182528069396       0.21538288802161029        0.0000000000000000     
 -0.10401365365958620       0.22361064008396203        0.0000000000000000     
 -0.10491112837337643       0.23191438207437842        0.0000000000000000     
 -0.10878905667459701       0.19951348323683377        0.0000000000000000     
 -0.11000161522744539       0.20756402886469344        0.0000000000000000     
 -0.11113718196776880       0.21569464806023644        0.0000000000000000     
 -0.11219575689556727       0.22390534082346278        0.0000000000000000     
 -0.11317734001084075       0.23219610715437242        0.0000000000000000     
  -8.1140549353054342E-002  0.23129653845145509        0.0000000000000000     
  -8.1673365078779731E-002  0.23976055713399735        0.0000000000000000     
  -8.2112677171078355E-002  0.24834155091948976        0.0000000000000000     
  -8.2458485629950229E-002  0.25703951980793233        0.0000000000000000     
  -8.2710790455395353E-002  0.26585446379932509        0.0000000000000000     
  -8.8892733044483238E-002  0.23146459772291972        0.0000000000000000     
  -8.9521068169944304E-002  0.23990666788657733        0.0000000000000000     
  -9.0048997450421331E-002  0.24847467645233698        0.0000000000000000     
  -9.0476520885914222E-002  0.25716862342019875        0.0000000000000000     
  -9.0803638476422990E-002  0.26598850879016256        0.0000000000000000     
  -9.6816259384590597E-002  0.23167054559722750        0.0000000000000000     
  -9.7543269259929802E-002  0.24009273088707053        0.0000000000000000     
  -9.8180069230840800E-002  0.24864361428246562        0.0000000000000000     
  -9.8726659297323632E-002  0.25732319578341267        0.0000000000000000     
  -9.9183039459378244E-002  0.26613147538991189        0.0000000000000000     
 -0.10491112837337643       0.23191438207437842        0.0000000000000000     
 -0.10573996834873617       0.24031874613547699        0.0000000000000000     
 -0.10650589251233686       0.24884836440987559        0.0000000000000000     
 -0.10720890086417852       0.25750323689757426        0.0000000000000000     
 -0.10784899340426110       0.26628336359857291        0.0000000000000000     
 -0.11317734001084075       0.23219610715437242        0.0000000000000000     
 -0.11411116543636343       0.24058471363179673        0.0000000000000000     
 -0.11502646729490947       0.24908892683456707        0.0000000000000000     
 -0.11592324558647882       0.25770874676268340        0.0000000000000000     
 -0.11680150031107153       0.26644417341614579        0.0000000000000000     
  -8.2710790455395353E-002  0.26585446379932509        0.0000000000000000     
  -8.2908124703969424E-002  0.27481267723458874        0.0000000000000000     
  -8.3089021432228141E-002  0.28394045445464416        0.0000000000000000     
  -8.3253480640171559E-002  0.29323779545949119        0.0000000000000000     
  -8.3401502327799609E-002  0.30270470024912993        0.0000000000000000     
  -9.0803638476422990E-002  0.26598850879016256        0.0000000000000000     
  -9.1060528494292789E-002  0.27499707846112054        0.0000000000000000     
  -9.1277369211868783E-002  0.28425707833196473        0.0000000000000000     
  -9.1454160629150849E-002  0.29376850840269514        0.0000000000000000     
  -9.1590902746139069E-002  0.30353136867331182        0.0000000000000000     
  -9.9183039459378244E-002  0.26613147538991189        0.0000000000000000     
  -9.9560166353134680E-002  0.27516633119711348        0.0000000000000000     
  -9.9868996614722857E-002  0.28452564130016805        0.0000000000000000     
 -0.10010953024414287       0.29420940569907555        0.0000000000000000     
 -0.10028176724139469       0.30421762439383609        0.0000000000000000     
 -0.10784899340426110       0.26628336359857291        0.0000000000000000     
 -0.10840703828049499       0.27532043544256751        0.0000000000000000     
 -0.10886390364079047       0.28474614335925402        0.0000000000000000     
 -0.10921958948514764       0.29456048734863249        0.0000000000000000     
 -0.10947409581356643       0.30476346741070293        0.0000000000000000     
 -0.11680150031107153       0.26644417341614579        0.0000000000000000     
 -0.11760114427637375       0.27545939119748269        0.0000000000000000     
 -0.11826209029007159       0.28491858450922275        0.0000000000000000     
 -0.11878433835216513       0.29482175335136590        0.0000000000000000     
 -0.11916788846265433       0.30516889772391215        0.0000000000000000     
 </DataArray>
 <DataArray  type="Float64" Name="stress" NumberOfComponents="3" format="ascii">
   6539335599.5447092        25590103.274859905        146943918.23218027     
   6212669233.0194550        167749687.48622227       -67170818.411134750     
   5857007882.6063623        213259325.40481472       -182855998.85166350     
   5472351548.3054533        162119017.03068542       -200111623.08940083     
   5058700230.1167231        14328762.363792181       -118937691.12435448     
   5654929896.1107635       -109740919.45738745        244918295.56146330     
   5505078977.2399979        38527956.673309326        154720564.69590378     
   5334403802.2494812        117382645.73820019        100695323.84193383     
   5142904371.1392469        126823147.73733950        82842572.999555349     
   4930580683.9092722        66849462.670698166        101162312.16876514     
   5296543513.2799330       -87266146.008700609        320074360.26564181     
   5145630710.0888052        13748822.448855162        363326150.90726799     
   4982064378.5460367        72585363.067618370        380493365.36929542     
   4805844518.6516314        89243475.847584963        371576003.65171820     
   4616971130.4055815        63723160.788738728        336574065.75454086     
   5464176451.0522032        93014423.620917082        372412112.34470648     
   5134324431.5658836        93412284.812899828        558645940.22296405     
   4799989611.4960203        78867477.393064260        656538125.73043132     
   4461171990.8426037        49380001.361399412        666088668.86709857     
   4117871569.6056409        4949856.7179143429        587297569.63297105     
   6157828709.4275808        431100789.43146634        401931551.79865444     
   5471160141.6712303        277518343.76542354        740679932.64299023     
   4788179501.0994253        136228988.71453309        928829604.92533565     
   4108886787.7121696        7232724.2788009644        966380568.64569271     
   3433282001.5094538       -109470449.54179382        853332823.80405295     
   5058700230.1167231        14328762.363792181       -118937691.12435448     
   4915674987.9081669       -74127058.953238010       -33667883.681477606     
   4787235901.3824654       -113962361.32739663        24329449.971570972     
   4673382970.5396347       -105177144.75866771        55054309.834807917     
   4574116195.3796721       -47771409.247038841        58506695.908234507     
   4930580683.9092722        66849462.670698166        101162312.16876514     
   4747144972.1576300       -2570499.8693103790        144733819.28656965     
   4572591096.6684418       -42384341.534481525        180099933.13558206     
   4406919057.4417171       -52592062.324775457        207260653.71580684     
   4250128854.4774256       -33193662.240285397        226215981.02724332     
   4616971130.4055815        63723160.788738728        336574065.75454086     
   4447602322.0280828        29682268.900914431        331792233.22346115     
   4281411030.4926157        6233099.8198788166        337872087.94462067     
   4118397255.7992029       -6624346.4543209076        354813629.91802102     
   3958560997.9478235       -8890069.9217388630        382616859.14364910     
   4117871569.6056409        4949856.7179143429        587297569.63297105     
   4017047037.5195041        22631247.357439280        527507358.12919545     
   3913695702.8549957        31889962.735728502        497645914.39868355     
   3807817565.6121149        32726002.852770567        497713238.44143891     
   3699412625.7908688        25139367.708601952        527709330.25746626     
   3433282001.5094538       -109470449.54179382        853332823.80405295     
   3455479118.6319032       -23723564.499753714        731879194.00376391     
   3469445113.7555676        34586247.213003397        659421412.49777329     
   3475179986.8804588        65458985.596517444        635959479.28607726     
   3472683738.0065608        68894650.650733352        661493394.36867595     
   4574116195.3796721       -47771409.247038841        58506695.908234507     
   4381851719.3801556       -4246200.3954243660        23253135.235692732     
   4184244241.7143660        21469002.901953220       -227684.74334629200     
   3981293762.3823195        29374200.645129204       -11935764.028853742     
   3773000281.3839917        19469392.834054470       -11871102.620864848     
   4250128854.4774256       -33193662.240285397        226215981.02724332     
   4079195320.4784341       -8369893.1367096901        196319347.16437966     
   3905754698.5660720        8096916.2556283474        175374106.39641833     
   3729806988.7403693        16206765.936820269        163380258.72334781     
   3551352191.0012846        15959655.906750917        160337804.14519757     
   3958560997.9478235       -8890069.9217388630        382616859.14364910     
   3800897412.8104787       -5186038.5078663826        361385718.13551706     
   3643562653.5126815       -385920.96218419075        346284622.62367505     
   3486556720.0544262        5510282.7153141499        337313572.60813570     
   3329879612.4357057        12502572.524592161        334472568.08888251     
   3699412625.7908688        25139367.708601952        527709330.25746626     
   3546957996.3762956        5305363.4911091328        518452248.14911294     
   3397668106.5541716       -3979508.7515566349        512503863.93844217     
   3251542956.3244925       -2715249.0194027424        509864177.62546861     
   3108582545.6872625        9098142.6875780821        510533189.21018106     
   3472683738.0065608        68894650.650733352        661493394.36867595     
   3317377071.1758790        23104312.860216618        667518937.20515609     
   3168071057.6905532       -2683847.1124522686        674031830.34072387     
   3024765697.5505724       -8469829.2673051357        681032073.77536941     
   2887460990.7559414        5746366.3956803083        688519667.50909185     
   3773000281.3839917        19469392.834054470       -11871102.620864848     
   3594261478.8568182        10447331.314415693       -11560600.884211821     
   3415601728.1607642        1688775.8985190392       -7339750.0369396172     
   3237021029.2958407       -6806273.4136241674        791449.92097354063     
   3058519382.2620544       -15037816.621957183        12832998.989526372     
   3551352191.0012846        15959655.906750917        160337804.14519757     
   3383110427.7036400        14353744.387824297        159788537.58173984     
   3214459678.5910101        11384546.818935394        161692148.23788866     
   3045399943.6633768        7052063.2000542879        166048636.11365882     
   2875931222.9207640        1356293.5312267542        172858001.20902655     
   3329879612.4357057        12502572.524592161        334472568.08888251     
   3167970682.9646602        17063549.385488629        332494155.97151953     
   3005164730.0325060        18634448.042687058        331511149.18274152     
   2841461753.6392508        17215268.496220589        331523547.72254467     
   2676861753.7848859        12806010.746047854        332531351.59093028     
   3108582545.6872625        9098142.6875780821        510533189.21018106     
   2948842244.6398902        18576746.307431340        506556254.28510338     
   2787716882.4852867        23438479.569857359        502117252.79758966     
   2625206459.2234631        23683342.474882007        497216184.74763852     
   2461310974.8544173        19311335.022491574        491853050.13522959     
   2887460990.7559414        5746366.3956803083        688519667.50909185     
   2725725112.7293139        18893335.153625131        681974832.52250409     
   2562116135.9493361        25796641.400415063        673510459.08244538     
   2396634060.4160156        26456285.136050582        663126547.18892348     
   2229278886.1293488        20872266.360541940        650823096.84193313     
   3058519382.2620544       -15037816.621957183        12832998.989526372     
   2894189585.9954176       -17194332.510992527        10350958.190549124     
   2730983027.1872253       -15606723.538568974        7749058.4094042936     
   2568899705.8374600       -10274989.704712868        5027299.6461085360     
   2407939621.9461298       -1199131.0094056129        2185681.9006477608     
   2875931222.9207640        1356293.5312267542        172858001.20902655     
   2713187557.1887746       -1714494.6737967730        166570341.40823850     
   2551253403.6194310       -2086909.0033483505        161833626.91996220     
   2390128762.2127151        239050.54255521297        158647857.74417654     
   2229813632.9686604        5263383.9639723301        157013033.88090137     
   2676861753.7848859        12806010.746047854        332531351.59093028     
   2520477945.1437263        10253068.191880345        322072059.94324410     
   2364589923.3694210        9352748.5272223949        314834517.90272343     
   2209197688.4619598        10105051.752046943        310818725.46936852     
   2054301240.4213536        12509977.866378784        310024682.64319390     
   2461310974.8544173        19311335.022491574        491853050.13522959     
   2316060749.8602786        18708356.086036205        476856113.79554868     
   2170992586.4372044        18712249.053130507        466751731.35770094     
   2026106484.5851805        19323013.923724771        461539902.82168508     
   1881402444.3042064        20540650.697829843        461220628.18751538     
   2229278886.1293488        20872266.360541940        650823096.84193313     
   2099935971.3384237        23651369.008663177        630922502.96515799     
   1970461392.8227794        25991592.574380875        617585267.28489292     
   1840855150.5823774        27892937.057580113        610811389.80112517     
   1711117244.6172490        29355402.458351254        610600870.51385975     
   2407939621.9461298       -1199131.0094056129        2185681.9006477608     
   2262811625.2269239        8739893.3711568117       -5938966.7131072041     
   2113997889.6428750        6393121.5355316401       -11394967.857520238     
   1961498415.1939905       -8239446.5162014961       -14182321.532555472     
   1805313201.8802667       -35157810.784042954       -14301027.738243651     
   2229813632.9686604        5263383.9639723301        157013033.88090137     
   2089698622.6839337        13897271.596121907        145648438.31383815     
   1947158398.1638479        14447111.777079821        135772524.09201491     
   1802192959.4083571        6912904.5066782236        127385291.21544251     
   1654802306.4174595       -8705350.2150675058        120486739.68412164     
   2054301240.4213536        12509977.866378784        310024682.64319390     
   1915827884.7879343        18827329.215237260        296890752.19052404     
   1776189839.5485861        21262381.877649188        284065536.95898068     
   1635387104.7033005        19815135.853610635        271549036.94857121     
   1493419680.2520845        14485591.143137634        259341252.15929782     
   1881402444.3042064        20540650.697829843        461220628.18751538     
   1741199411.5389225        23530066.228448868        447787974.91692936     
   1601092213.7971330        26838931.837401867        433484070.74336678     
   1461080851.0788786        30467247.524800181        418308915.66681761     
   1321165323.3841288        34415013.290548503        402262509.68729454     
   1711117244.6172490        29355402.458351254        610600870.51385975     
   1565813202.9368813        28005482.635711789        598340106.49306631     
   1421865520.9094832        31176761.656303883        584028125.44517994     
   1279274198.5350621        38869239.520153582        567664927.37018430     
   1138039235.8136051        51082916.227215648        549250512.26809573     
   1805313201.8802667       -35157810.784042954       -14301027.738243651     
   1773780700.3067713       -17698538.216032028       -8216156.1513433438     
   1750537337.5852683        27391197.191954136       -41137441.906452946     
   1735583113.7157509        100111395.43989176       -113064885.00356349     
   1728918028.6982007        200462056.52772039       -223998485.44268650     
   1654802306.4174595       -8705350.2150675058        120486739.68412164     
   1531243467.1797776       -14311197.631745338        136390418.13358065     
   1411997444.2735341       -5540990.6102633476        125833483.41060127     
   1297064237.6987724        17605270.849491477        88815935.515173867     
   1186443847.4554839        55127586.747456551        25337774.447288837     
   1493419680.2520845        14485591.143137634        259341252.15929782     
   1313678915.2632174       -3432052.6843853593        280424694.53071976     
   1134274644.0853021       -20228050.475413620        287593067.89924270     
   955206866.71834707       -35902402.229902029        280846372.26490778     
   776475583.16233206       -50455107.947924256        260184607.62767386     
   1321165323.3841288        34415013.290548503        402262509.68729454     
   1121087044.5571337        14938896.626139164        423886673.04006881     
   917368937.02056837       -16669982.403509378        444141311.55951208     
   710011000.77443624       -60411623.798361659        463026425.24564511     
   499013235.81874114       -116286027.55845690        480542014.09845001     
   1138039235.8136051        51082916.227215648        549250512.26809573     
   953467855.06151164        40801650.299818993        566776353.66162264     
   761280323.07932234        5133213.6054361761        595478214.39138091     
   561476639.86706877       -55922393.855832845        635356094.45738757     
   354056805.42471218       -142365172.08410090        686409993.85963452     
   1728918028.6982007        200462056.52772039       -223998485.44268650     
   1457823529.6248348        184933647.54493237       -96702477.775286645     
   1154340828.4991019        61444565.054209769        59878435.713453740     
   818469925.32098174       -170005190.94445848        245744255.02355257     
   450210820.09048915       -509415620.45101309        460894980.15501243     
   1186443847.4554839        55127586.747456551        25337774.447288837     
   978960074.47920549        12508670.322384834        156261504.76839316     
   733482902.20231426       -156754910.43808573        313083312.59874380     
   450012330.62482959       -452663155.53381771        495803197.93831128     
   128548359.74674559       -875216064.96498096        704421160.78712761     
   776475583.16233206       -50455107.947924256        260184607.62767386     
   622925883.96276248       -123067527.51146004        388196663.81289786     
   425777588.21438861       -341008602.23769927        538719969.19523680     
   185030695.91717494       -704278332.12673509        711754523.77468097     
  -99314792.928852797       -1212876717.1784790        907300327.55124652     
   499013235.81874114       -116286027.55845690        480542014.09845001     
   389720958.07555217       -221794945.95649523        599102999.35819864     
   231224886.53532308       -491316510.34467977        736788405.50294805     
   23525021.198056281       -924850720.72299790        893598232.53267610     
  -233378637.93627796       -1522397577.0915380        1069532480.4474015     
   354056805.42471218       -142365172.08410090        686409993.85963452     
   279345296.81755710       -283673585.01275921        788980511.40431786     
   149824797.16513667       -607678634.75896835        907288621.52186871     
  -34504693.532555163       -1114380321.3227682        1041334324.2122878     
  -273643175.27553189       -1803778644.7041459        1191117619.4755781     
   6157828709.4275808        431100789.43146634        401931551.79865444     
   5471160141.6712303        277518343.76542354        740679932.64299023     
   4788179501.0994253        136228988.71453309        928829604.92533565     
   4108886787.7121696        7232724.2788009644        966380568.64569271     
   3433282001.5094538       -109470449.54179382        853332823.80405295     
   6751232356.5869532        760024990.04351664        724356323.92594790     
   5747593365.3300705        478963589.98232913        853162369.77686644     
   4750154927.5477657        218570701.50304604        918161941.74209332     
   3758917043.2400289       -21153675.394334555        919355039.82162213     
   2773879712.4068604       -240209540.70981109        856741664.01546454     
   6604331053.1290436        866857705.47038078        1032858540.7129169     
   5531699451.7324772        532710695.02230120        954653648.90877736     
   4467781030.1005182        227607617.12288070        899434517.89524460     
   3412575788.2331519       -48451528.227887869        867201147.67231834     
   2366083726.1303821       -295466741.03000212        857953538.23999608     
   5717124799.0538321        751598935.71205401        1327438202.1595523     
   4823478400.8784456        438759658.88534665        1045153770.0387218     
   3941057808.7576842        163339735.57403898        872647333.38479567     
   3069863022.6915417       -74660834.221857548        809918892.19777215     
   2209894042.6800232       -275242050.50235331        856968446.47765398     
   4089613594.3613358        414248680.76854360        1608095308.2658582     
   3622930212.7679758        197110481.57145584        1124662733.1666980     
   3169985263.5192604        25767056.856519699        837800388.21073627     
   2730778746.6151948       -99781593.376252532        747508273.39798045     
   2305310662.0557742       -179535469.12687469        853786388.72842801     
   3433282001.5094538       -109470449.54179382        853332823.80405295     
   3455479118.6319032       -23723564.499753714        731879194.00376391     
   3469445113.7555676        34586247.213003397        659421412.49777329     
   3475179986.8804588        65458985.596517444        635959479.28607726     
   3472683738.0065608        68894650.650733352        661493394.36867595     
   2773879712.4068604       -240209540.70981109        856741664.01546454     
   2899063618.2225704       -127549348.98514223        801921484.83285320     
   3017156653.6706152       -38525391.819360137        771115300.96246696     
   3128158818.7510028        26862330.787561059        764323112.40429747     
   3232070113.4637227        68613818.835608125        781544919.15834820     
   2366083726.1303821       -295466741.03000212        857953538.23999608     
   2522877697.8334236       -177306259.46448886        871097103.24470484     
   2673721050.7999215       -78981173.687452912        883272810.57956266     
   2818613785.0298824       -491483.69888150692        894480660.24456489     
   2957555900.5232949        58162810.501207590        904720652.23971093     
   2209894042.6800232       -275242050.50235331        856968446.47765398     
   2326921357.4644661       -172994295.93777335        939406049.23931777     
   2439138305.1434898       -86781098.391267061        995893941.34905672     
   2546544885.7170920       -16602457.862831473        1026432122.8068645     
   2649141099.1852717        37541625.647534251        1031020593.6127489     
   2305310662.0557742       -179535469.12687469        853786388.72842801     
   2311194597.1156983       -114613458.40499938        1006848322.8166916     
   2313408416.7013202       -61925165.930798650        1108978693.2709546     
   2311952120.8126378       -21470591.704277992        1160177500.0912120     
   2306825709.4496536        6750264.2745692730        1160444743.2774675     
   3472683738.0065608        68894650.650733352        661493394.36867595     
   3317377071.1758790        23104312.860216618        667518937.20515609     
   3168071057.6905532       -2683847.1124522686        674031830.34072387     
   3024765697.5505724       -8469829.2673051357        681032073.77536941     
   2887460990.7559414        5746366.3956803083        688519667.50909185     
   3232070113.4637227        68613818.835608125        781544919.15834820     
   3083027199.7629485        30798595.785601735        782928001.05088294     
   2938648487.0403819        8530709.3296157122        786801593.18876314     
   2798933975.2960186        1810159.4676365852        793165695.57198370     
   2663883664.5298533        10636946.199669123        802020308.20055509     
   2957555900.5232949        58162810.501207590        904720652.23971093     
   2820500054.0846124        30039696.431357861        899902078.75995350     
   2686771956.2569880        13009077.731710911        899577175.47181177     
   2556371607.0404224        7070954.4022557735        903745942.37527478     
   2429299006.4349198        12225326.443007469        912408379.47035563     
   2649141099.1852717        37541625.647534251        1031020593.6127489     
   2529795634.1408629        20827614.797493577        1018441170.3323691     
   2412441465.3403687        10751258.093839765        1012358577.1898679     
   2297078592.7837982        7312555.5365830660        1012772814.1852378     
   2183707016.4711313        10511507.125684500        1019683881.3184875     
   2306825709.4496536        6750264.2745692730        1160444743.2774675     
   2210913939.9317083        3162350.8840080500        1138545275.7681286     
   2115657014.2905352        1757250.4160095453        1125145798.3429317     
   2021054932.5261307        2534962.8705778122        1120246311.0018718     
   1927107694.6384923        5495488.2477061749        1123846813.7449579     
   2887460990.7559414        5746366.3956803083        688519667.50909185     
   2725725112.7293139        18893335.153625131        681974832.52250409     
   2562116135.9493361        25796641.400415063        673510459.08244538     
   2396634060.4160156        26456285.136050582        663126547.18892348     
   2229278886.1293488        20872266.360541940        650823096.84193313     
   2663883664.5298533        10636946.199669123        802020308.20055509     
   2498719249.0061336        15823548.183409095        791403489.59843886     
   2332447146.7980165        17317861.219147086        781905880.63069677     
   2165067357.9055133        15119885.306931853        773527481.29732394     
   1996579882.3286159        9229620.4467413425        766268291.59831369     
   2429299006.4349198        12225326.443007469        912408379.47035563     
   2269388190.8079238        12056202.870670676        898612557.99982572     
   2109135100.5654893        10746163.913523555        888974694.25150692     
   1948539735.7076180        8295209.5715851784        883494788.22539032     
   1787602096.2343032        4703339.8448532820        882172839.92148924     
   2183707016.4711313        10511507.125684500        1019683881.3184875     
   2037731938.1346807        7591299.2154191732        1003602037.7266598     
   1892179997.2517531        6081549.4835420847        994716899.94486690     
   1747051193.8223343        5982257.9300336838        993028467.97312510     
   1602345527.8464267        7293424.5548959970        998536741.81142759     
   1927107694.6384923        5495488.2477061749        1123846813.7449579     
   1803750490.9864171        2428837.2176746130        1106371928.7789316     
   1681581836.8568044        3324017.9291852713        1099132497.7107933     
   1560601732.2496576        8181030.3822489381        1102128520.5405319     
   1440810177.1649776        16999874.576873600        1115359997.2681522     
   2229278886.1293488        20872266.360541940        650823096.84193313     
   2099935971.3384237        23651369.008663177        630922502.96515799     
   1970461392.8227794        25991592.574380875        617585267.28489292     
   1840855150.5823774        27892937.057580113        610811389.80112517     
   1711117244.6172490        29355402.458351254        610600870.51385975     
   1996579882.3286159        9229620.4467413425        766268291.59831369     
   1883653929.5868447        17785134.703008890        753468943.53823292     
   1770370161.7267890        25147931.898315787        745401651.56373775     
   1656728578.7484338        31318012.032622099        742066415.67482173     
   1542729180.6517844        36295375.105954766        743463235.87148964     
   1787602096.2343032        4703339.8448532820        882172839.92148924     
   1685860813.7962065        17465578.185620308        876210894.38560867     
   1583535564.8462574        28281261.486889005        873149702.82439208     
   1480626349.3844521        37150389.748633027        872989265.23784637     
   1377133167.4107985        44072962.970881760        875729581.62595856     
   1602345527.8464267        7293424.5548959970        998536741.81142759     
   1506556623.9665124        22692699.456523240        999148355.50726986     
   1409957602.1811910        35391581.340104818        1000829421.0668563     
   1312548462.4904559        45390070.205645978        1003579938.4901925     
   1214329204.8943121        52688166.053158700        1007399907.7772688     
   1440810177.1649776        16999874.576873600        1115359997.2681522     
   1345741360.0977700        33466498.515711665        1122281326.9032333     
   1249636273.7315834        46478891.457958162        1128440806.2911336     
   1152494918.0664372        56037053.403670669        1133838435.4318628     
   1054317293.1023149        62140984.352795780        1138474214.3254151     
   1711117244.6172490        29355402.458351254        610600870.51385975     
   1565813202.9368813        28005482.635711789        598340106.49306631     
   1421865520.9094832        31176761.656303883        584028125.44517994     
   1279274198.5350621        38869239.520153582        567664927.37018430     
   1138039235.8136051        51082916.227215648        549250512.26809573     
   1542729180.6517844        36295375.105954766        743463235.87148964     
   1393856041.0118911        31104557.636180162        734414347.01248229     
   1245534524.3495522        27752483.424909770        725557576.20720160     
   1097764630.6647611        26239152.472141385        716892923.45564353     
   950546359.95752561        26564564.777884066        708420388.75780690     
   1377133167.4107985        44072962.970881760        875729581.62595856     
   1231100458.6137335        36964106.494685113        868953708.47407985     
   1084814636.1188040        29011537.692262948        864613288.45674813     
   938275699.92600501        20215256.563605785        862708321.57396424     
   791483650.03533053        10575263.108711153        863238807.82572830     
   1214329204.8943121        52688166.053158700        1007399907.7772688     
   1077546455.7424195        45584129.211239636        1001958190.8778571     
   939705856.21724951        34953924.458374679        1001195262.1938227     
   800807406.31878066        20797551.794523150        1005111121.7251537     
   660851106.04702210        3115011.2197075188        1013705769.4718599     
   1054317293.1023149        62140984.352795780        1138474214.3254151     
   933194032.39795053        56964625.785864562        1133427794.2238224     
   810208184.64488029        45579643.723246962        1135303497.4184244     
   685359749.84309554        27986038.164915204        1144101323.9092193     
   558648727.99259877        4183809.1108760834        1159821273.6962001     
   1138039235.8136051        51082916.227215648        549250512.26809573     
   953467855.06151164        40801650.299818993        566776353.66162264     
   761280323.07932234        5133213.6054361761        595478214.39138091     
   561476639.86706877       -55922393.855832845        635356094.45738757     
   354056805.42471218       -142365172.08410090        686409993.85963452     
   950546359.95752561        26564564.777884066        708420388.75780690     
   792224380.57412016        11132523.417966843        725867115.83581972     
   625157586.30362988       -33448900.898908079        753518311.26870382     
   449345977.14605242       -107179708.17272899        791373975.05644989     
   264789553.10139480       -210059898.40349790        839434107.19906545     
   791483650.03533053        10575263.108711153        863238807.82572830     
   656635212.07384658       -10840311.667731553        879289646.32172811     
   511913295.56826502       -65167481.591148257        904573402.19121730     
   357317900.51859987       -152406246.66152290        939090075.43420684     
   192849026.92483461       -272556606.87889105        982839666.05068994     
   660851106.04702210        3115011.2197075188        1013705769.4718599     
   546700349.56067407       -25116854.957285494        1027043945.1193315     
   421547450.87322378       -90022528.471290916        1048643487.1589351     
   285392409.98467976       -191602009.32227367        1078504395.5906653     
   138235226.89504528       -329855297.51023465        1116626670.4145098     
   558648727.99259877        4183809.1108760834        1159821273.6962001     
   462419793.03460002       -31697106.450749874        1169130012.2286525     
   354060052.21850789       -108014041.53934264        1185728566.1718619     
   233569505.54431438       -224766996.15495127        1209616935.5258205     
   100948153.01201865       -381955970.29755610        1240795120.2905157     
   354056805.42471218       -142365172.08410090        686409993.85963452     
   279345296.81755710       -283673585.01275921        788980511.40431786     
   149824797.16513667       -607678634.75896835        907288621.52186871     
  -34504693.532555163       -1114380321.3227682        1041334324.2122878     
  -273643175.27553189       -1803778644.7041459        1191117619.4755781     
   264789553.10139480       -210059898.40349790        839434107.19906545     
   225300947.02298895       -349802063.47564030        887910889.18147612     
   141557823.81107783       -637059285.65946651        947383177.18470740     
   13560183.465672314       -1071831564.9549482        1017850971.2087649     
  -158691974.01324910       -1654118901.3621576        1099314271.2536469     
   192849026.92483461       -272556606.87889105        982839666.05068994     
   175034504.65505397       -414797169.71054804        989536265.36788929     
   123519939.16352865       -669371209.94801271        1002486284.1538637     
   38305330.450272322       -1036278727.5912465        1021689722.4086187     
  -80609321.484721839       -1515519722.6402826        1047146580.1321454     
   138235226.89504528       -329855297.51023465        1116626670.4145098     
   128545969.71373385       -478658903.71750313        1093856639.9635637     
   95711143.222482592       -704614407.62459421        1072597942.4293427     
   39730747.421251118       -1007721809.2316294        1052850577.8118528     
  -39395217.689947665       -1387981108.5385337        1034614546.1110975     
   100948153.01201865       -381955970.29755610        1240795120.2905157     
   85835342.199080497       -541387265.49640477        1200872012.9684911     
   58131435.987942368       -742788878.68924212        1157718152.0111432     
   17836434.378612697       -986160809.87606514        1111333537.4184718     
  -35049662.628933251       -1271503059.0569260        1061718169.1904885     
   4089613594.3613358        414248680.76854360        1608095308.2658582     
   3622930212.7679758        197110481.57145584        1124662733.1666980     
   3169985263.5192604        25767056.856519699        837800388.21073627     
   2730778746.6151948       -99781593.376252532        747508273.39798045     
   2305310662.0557742       -179535469.12687469        853786388.72842801     
   2468308032.5598860       -11074922.975532055        1419168528.4877877     
   2450965482.0195794       -31797535.801603198        1184674062.7748470     
   2439026956.8338966       -34506730.778917432        1053929486.2585019     
   2432492457.0028453       -19202507.907465339        1026934798.9387619     
   2431361982.5264211        14115132.812740684        1103690000.8156266     
   1658950602.7630284       -192814087.11822712        1258800923.4494505     
   1825747909.1426284       -96681405.813230991        1263521092.3010273     
   1989614833.8868382       -10316663.292869687        1279170809.4026179     
   2150551376.9956594        66280140.442866087        1305750074.7542050     
   2308557538.4690900        133109005.39396107        1343258888.3557990     
   1661541304.9707568       -130968811.65954769        1126992493.1508296     
   1747277494.1371260        2458871.5365794897        1361203821.7452550     
   1821748894.6780844        98337259.314676166        1513524357.6430840     
   1884955506.5936353        156666351.67474520        1583954100.8443136     
   1936897329.8837788        177446148.61678821        1572493051.3489480     
   2476080139.1830716        174460903.40050733        1023743237.5919440     
   2215554237.0030656        265623296.24781573        1477722251.1075215     
   1935429139.2076342        291455037.04370719        1756990130.9799013     
   1635704845.7967789        251956125.78818381        1861546877.2090857     
   1316381356.7704914        147126562.48122257        1791392489.7950752     
   2305310662.0557742       -179535469.12687469        853786388.72842801     
   2311194597.1156983       -114613458.40499938        1006848322.8166916     
   2313408416.7013202       -61925165.930798650        1108978693.2709546     
   2311952120.8126378       -21470591.704277992        1160177500.0912120     
   2306825709.4496536        6750264.2745692730        1160444743.2774675     
   2431361982.5264211        14115132.812740684        1103690000.8156266     
   2318092372.1999292        19610325.445619702        1178557575.4854419     
   2203255632.7832160        19881754.444428086        1226414021.5125589     
   2086851764.2762818        14929419.809172034        1247259338.8969693     
   1968880766.6791296        4753321.5398520231        1241093527.6386781     
   2308557538.4690900        133109005.39396107        1343258888.3557990     
   2144478482.7313223        99680609.930381536        1342385587.7219317     
   1980935284.2874191        68038405.446353555        1338421593.4366629     
   1817927943.1373732        38182391.941852689        1331366905.4999893     
   1655456459.2811959        10112569.416905224        1321221523.9119136     
   1936897329.8837788        177446148.61678821        1572493051.3489480     
   1790352928.7098794        125597395.04929888        1498332359.5261593     
   1646447371.2139261        82544787.074962020        1445001409.0432696     
   1505180657.3959160        48288324.693770587        1412500199.9002759     
   1366552787.2558510        22828007.905733347        1400828732.0971746     
   1316381356.7704914        147126562.48122257        1791392489.7950752     
   1255715710.1355996        97360680.802358449        1646397890.8981252     
   1199791893.5627429        63400899.330272496        1546153468.3323772     
   1148609907.0519071        45247218.064924479        1490659222.0978234     
   1102169750.6031017        42899637.006346881        1479915152.1944695     
   2306825709.4496536        6750264.2745692730        1160444743.2774675     
   2210913939.9317083        3162350.8840080500        1138545275.7681286     
   2115657014.2905352        1757250.4160095453        1125145798.3429317     
   2021054932.5261307        2534962.8705778122        1120246311.0018718     
   1927107694.6384923        5495488.2477061749        1123846813.7449579     
   1968880766.6791296        4753321.5398520231        1241093527.6386781     
   1894061083.5873671        5789482.6327209473        1227484646.8198297     
   1819665803.2191684        8240319.4707995653        1220533363.6715736     
   1745694925.5745363        12105832.054105163        1220239678.1939135     
   1672148450.6534672        17386020.382617593        1226603590.3868408     
   1655456459.2811959        10112569.416905224        1321221523.9119136     
   1596464884.2911882        14193611.495875895        1315634381.7714887     
   1537667270.8715394        18921192.142713547        1314862444.8881054     
   1479063619.0222547        24295311.357425869        1318905713.2617674     
   1420653928.7433255        30315969.139997065        1327764186.8924680     
   1366552787.2558510        22828007.905733347        1400828732.0971746     
   1318125342.0431724        28374737.473483086        1402994480.6231017     
   1269661417.2476475        33799868.431747437        1408133041.9925196     
   1221161012.8692777        39103400.780531526        1416244416.2054296     
   1172624128.9080656        44285334.519839704        1427328603.2618320     
   1102169750.6031017        42899637.006346881        1479915152.1944695     
   1059042456.8433206        48332860.565537870        1489564943.3746696     
   1015648242.3474921        52876348.337901473        1500345154.9848151     
   971987107.11561716        56530100.323445320        1512255787.0249047     
   928059051.14768982        59294116.522147298        1525296839.4949367     
   1927107694.6384923        5495488.2477061749        1123846813.7449579     
   1803750490.9864171        2428837.2176746130        1106371928.7789316     
   1681581836.8568044        3324017.9291852713        1099132497.7107933     
   1560601732.2496576        8181030.3822489381        1102128520.5405319     
   1440810177.1649776        16999874.576873600        1115359997.2681522     
   1672148450.6534672        17386020.382617593        1226603590.3868408     
   1573821175.7712255        16887548.377330363        1210518985.2857981     
   1476161089.1464441        18613037.230247319        1202860060.9502702     
   1379168190.7791080        22562486.941315889        1203626817.3802490     
   1282842480.6692398        28735897.510607660        1212819254.5757396     
   1420653928.7433255        30315969.139997065        1327764186.8924680     
   1342185802.2527165        30834442.045987546        1312461606.8472252     
   1263863502.7545619        31839004.926827133        1303774934.4351304     
   1185687030.2488525        33329657.782477975        1301704169.6561742     
   1107656384.7355912        35306400.612965047        1306249312.5103626     
   1172624128.9080656        44285334.519839704        1427328603.2618320     
   1108844370.4308989        44269518.223660350        1412199793.4632189     
   1044689077.6811728        43001921.018954217        1401877118.1653800     
   980158250.65888810        40482542.905720592        1396360577.3683152     
   915251889.36404264        36711383.883950770        1395650171.0720274     
   928059051.14768982        59294116.522147298        1525296839.4949367     
   873796880.30576277        57192776.910330981        1509733545.1337752     
   818637813.92627716        52101785.506649375        1497166612.1410193     
   762581852.00921643        44021142.311052680        1487596040.5166664     
   705628994.55459058        32950847.323572129        1481021830.2607245     
   1440810177.1649776        16999874.576873600        1115359997.2681522     
   1345741360.0977700        33466498.515711665        1122281326.9032333     
   1249636273.7315834        46478891.457958162        1128440806.2911336     
   1152494918.0664372        56037053.403670669        1133838435.4318628     
   1054317293.1023149        62140984.352795780        1138474214.3254151     
   1282842480.6692398        28735897.510607660        1212819254.5757396     
   1186039610.5790746        35217935.589269102        1214141195.0180535     
   1088867426.1897886        40468926.004197538        1217195233.9653158     
   991325927.50137389        44488868.755369365        1221981371.4175167     
   893415114.51384187        47277763.842808396        1228499607.3746583     
   1107656384.7355912        35306400.612965047        1306249312.5103626     
   1016245029.4856690        33941523.190433443        1302749977.9264073     
   925131314.93647122        33568781.436973542        1303476690.5995097     
   834315241.08799589        34188175.352590412        1308429450.5296712     
   743796807.94024265        35799704.937286556        1317608257.7168913     
   915251889.36404264        36711383.883950770        1395650171.0720274     
   836357616.81755960        29637261.319183350        1388107675.6282830     
   758427939.97164178        25778457.756302536        1387285176.1937144     
   681462858.82628930        25134973.195311189        1393182672.7683246     
   605462373.38151181        27706807.636223495        1405800165.3521152     
   705628994.55459058        32950847.323572129        1481021830.2607245     
   646377372.57473564        22305149.975518882        1470214288.1236784     
   588757301.29529369        17097954.962175936        1468620690.7479289     
   532768780.71625787        17329262.283522904        1476241038.1334710     
   478411810.83765131        22999071.939628303        1493075330.2803125     
   1054317293.1023149        62140984.352795780        1138474214.3254151     
   933194032.39795053        56964625.785864562        1133427794.2238224     
   810208184.64488029        45579643.723246962        1135303497.4184244     
   685359749.84309554        27986038.164915204        1144101323.9092193     
   558648727.99259877        4183809.1108760834        1159821273.6962001     
   893415114.51384187        47277763.842808396        1228499607.3746583     
   790442313.91014051        44741840.410328180        1224821692.3827462     
   685329230.52749848        35071641.048051775        1227574215.2948966     
   578075864.36591697        18267165.755973965        1236757176.1111035     
   468682215.42539513       -5671585.4658992290        1252370574.8313656     
   743796807.94024265        35799704.937286556        1317608257.7168913     
   657569652.03110969        35482772.017420709        1314974869.4827194     
   568924517.61281121        27105910.733665735        1318280233.7604840     
   477861404.68534106        10669121.086013764        1327524350.5501728     
   384380313.24870765       -13827596.925522983        1342707219.8517914     
   605462373.38151181        27706807.636223495        1405800165.3521152     
   534576046.76086521        29187420.607161611        1403887325.5237501     
   460994045.90081906        21682452.780101150        1407421552.8151872     
   384716370.80136883        5191904.1550245285        1416402847.2264276     
   305743021.46253663       -20284225.267986819        1430831208.7574518     
   478411810.83765131        22999071.939628303        1493075330.2803125     
   421461498.09939474        25855786.179514676        1491559060.5058289     
   361537815.39151156        18801267.187315315        1494998172.4590116     
   298640762.71401072        1835514.9630528688        1503392666.1398661     
   232770340.06688207       -25041470.493302390        1516742541.5483804     
   558648727.99259877        4183809.1108760834        1159821273.6962001     
   462419793.03460002       -31697106.450749874        1169130012.2286525     
   354060052.21850789       -108014041.53934264        1185728566.1718619     
   233569505.54431438       -224766996.15495127        1209616935.5258205     
   100948153.01201865       -381955970.29755610        1240795120.2905157     
   468682215.42539513       -5671585.4658992290        1252370574.8313656     
   390932549.70034802       -38839310.156585261        1250137823.2057104     
   302978879.87503749       -106020381.84814094        1254203957.6859736     
   204821205.94946450       -207214800.54057431        1264568978.2721527     
   96459527.923632905       -342422566.23387265        1281232884.9642527     
   384380313.24870765       -13827596.925522983        1342707219.8517914     
   322278690.17137003       -45131498.720855057        1331180913.4521637     
   251899864.75161213       -104026074.99092574        1324962563.8536224     
   173243836.98942998       -190511325.73573947        1324052171.0561671     
   86310606.884821355       -304587250.95530695        1328449735.0597956     
   305743021.46253663       -20284225.267986819        1430831208.7574518     
   256458214.44767907       -50573672.143530473        1412259282.9680133     
   200823006.84822959       -102031120.96770099        1398004384.6748135     
   138837398.66419971       -174656571.74047664        1388066513.8778744     
   70501389.895587131       -268450024.46186638        1382445670.5771830     
   232770340.06688207       -25041470.493302390        1516742541.5483804     
   193471122.52926758       -55165830.424618691        1493372931.7532494     
   149748306.16489464       -100035519.77846031        1473329420.1495430     
   101601890.97379002       -159650538.55474222        1456612006.7372582     
   49031876.955919966       -234010886.75357568        1443220691.5163918     
   100948153.01201865       -381955970.29755610        1240795120.2905157     
   85835342.199080497       -541387265.49640477        1200872012.9684911     
   58131435.987942368       -742788878.68924212        1157718152.0111432     
   17836434.378612697       -986160809.87606514        1111333537.4184718     
  -35049662.628933251       -1271503059.0569260        1061718169.1904885     
   96459527.923632905       -342422566.23387265        1281232884.9642527     
   79610413.676680565       -482886026.08652574        1225729989.5668812     
   51398624.435677350       -661225069.25268734        1167745037.0064785     
   11824160.200635672       -877439695.73231459        1107278027.2830265     
  -39112979.028467417       -1131529905.5254717        1044328960.3965318     
   86310606.884821355       -304587250.95530695        1328449735.0597956     
   69864321.981761962       -425441135.62842894        1258800208.7252932     
   43283782.488810897       -580075868.93452048        1187417321.7000136     
   6568988.4059746861       -768491450.87356591        1114301073.9839535     
  -40280060.266771495       -990687881.44563508        1039451465.5771245     
   70501389.895587131       -268450024.46186638        1382445670.5771830     
   56597067.114337176       -369052594.12205738        1300082670.4437099     
   33786910.147346795       -499341277.73471582        1216735006.0917292     
   2070918.9946143329       -659316075.29984856        1132402677.5212324     
  -38550906.343856096       -848976986.81744576        1047085684.7322414     
   49031876.955919966       -234010886.75357568        1443220691.5163918     
   39808649.074398473       -313720401.56744659        1349577374.7221286     
   22908007.411276162       -419021295.65331465        1255698090.1816266     
  -1670048.0334137678       -549913569.01108038        1161582837.8948891     
  -33925517.259714156       -706397221.64087546        1067231617.8619164     
   2476080139.1830716        174460903.40050733        1023743237.5919440     
   2215554237.0030656        265623296.24781573        1477722251.1075215     
   1935429139.2076342        291455037.04370719        1756990130.9799013     
   1635704845.7967789        251956125.78818381        1861546877.2090857     
   1316381356.7704914        147126562.48122257        1791392489.7950752     
   3279490319.3520508        790016689.64202428        1615049385.5935366     
   2626666302.9074903        634782584.58743227        1741507464.7202618     
   1966923815.4390488        456486909.45323837        1797769627.5717297     
   1300262856.9467237        255129664.23943105        1783835874.1479473     
   626683427.43051684        30710848.946015567        1699706204.4489086     
   3042015058.9499011        1093306843.7122042        2149455727.4721689     
   2295507835.0063334        781260712.78537297        1963187050.9001777     
   1554762864.6304295        488422093.75075066        1811237675.4208674     
   819780147.82218897        214790986.60833934        1693607601.0342491     
   90559684.581609070       -39632608.641868062        1610296827.7403183     
   1763654357.9766254        1084331365.6110473        2626962263.2278357     
   1222078833.2996016        705057680.84164238        2142761009.6472542     
   698946286.78178334        387260589.93626082        1797394274.5273075     
   194256718.42317238        130940092.89490226        1590862057.8679891     
  -291989871.77623165       -63903810.282433249        1523164359.6693029     
  -555591783.56777763        763090255.33854866        3047568992.8605309     
  -593620702.21271205        406173488.75623417        2280229340.9615064     
  -600525918.10689592        153002398.00975448        1756239424.8910532     
  -576307431.25032520        3576983.0991233587        1475599244.6491716     
  -520965241.64300573       -42102755.975678429        1438308800.2358615     
   1316381356.7704914        147126562.48122257        1791392489.7950752     
   1255715710.1355996        97360680.802358449        1646397890.8981252     
   1199791893.5627429        63400899.330272496        1546153468.3323772     
   1148609907.0519071        45247218.064924479        1490659222.0978234     
   1102169750.6031017        42899637.006346881        1479915152.1944695     
   626683427.43051684        30710848.946015567        1699706204.4489086     
   673389447.63090110        17742099.480176389        1605782297.5942750     
   723957519.67665184        17646856.165559620        1541210158.3864200     
   778387643.56777251        30425119.002174884        1505989786.8253448     
   836679819.30426061        56076887.990017444        1500121182.9110463     
   90559684.581609070       -39632608.641868062        1610296827.7403183     
   200641918.23321199       -29002861.909919515        1566417205.0085630     
   313706425.51352733       -8432203.0822628289        1536490941.2391691     
   429753206.42255306        22079367.841093346        1520518036.4321384     
   548782260.96029007        62531850.860157520        1518498490.5874670     
  -291989871.77623165       -63903810.282433249        1523164359.6693029     
  -162526878.05745605       -42874203.367899090        1528302613.1409910     
  -30961388.926629920       -14836278.413195346        1531995816.8906240     
   102706595.61625139        20209964.581692051        1534243970.9181998     
   238477075.57118556        62264525.616756521        1535047075.2237217     
  -520965241.64300573       -42102755.975678429        1438308800.2358615     
  -416116941.24110961       -23871924.893779323        1491438521.9915597     
  -310045923.64382023       -1565369.8272360861        1527724785.3407848     
  -202752188.85113388        24816909.223964438        1547167590.2835352     
  -94235736.863054112        55274912.259808317        1549766936.8198140     
   1102169750.6031017        42899637.006346881        1479915152.1944695     
   1059042456.8433206        48332860.565537870        1489564943.3746696     
   1015648242.3474921        52876348.337901473        1500345154.9848151     
   971987107.11561716        56530100.323445320        1512255787.0249047     
   928059051.14768982        59294116.522147298        1525296839.4949367     
   836679819.30426061        56076887.990017444        1500121182.9110463     
   799314100.29076934        57906317.346490026        1502896140.6258585     
   761300634.13099909        57576589.548705339        1509804303.3008082     
   722639420.82494855        55087704.596650213        1520845670.9358943     
   683330460.37261617        50439662.490324110        1536020243.5311143     
   548782260.96029007        62531850.860157520        1518498490.5874670     
   525757501.06506890        63331301.325508222        1513954317.3582830     
   501704167.61333704        60702173.269155502        1516546133.6194303     
   476622260.60509378        54644466.691099375        1526273939.3709090     
   450511780.04033983        45158181.591339976        1543137734.6127188     
   238477075.57118556        62264525.616756521        1535047075.2237217     
   238372659.16621727        64607812.502577350        1522739473.5719419     
   236858842.79450342        62253099.499249019        1520570645.9406872     
   233935626.45605138        55200386.606792204        1528540592.3299544     
   229603010.15085873        43449673.825201146        1546649312.7397523     
  -94235736.863054112        55274912.259808317        1549766936.8198140     
  -62840425.405787468        61735850.877697200        1529251609.2668347     
  -33235340.325496666        62229368.238999262        1521877840.2645741     
  -5420481.6221777573        56755464.343729019        1527645629.8130333     
   20604150.704169698        45314139.191886596        1546554977.9122086     
   928059051.14768982        59294116.522147298        1525296839.4949367     
   873796880.30576277        57192776.910330981        1509733545.1337752     
   818637813.92627716        52101785.506649375        1497166612.1410193     
   762581852.00921643        44021142.311052680        1487596040.5166664     
   705628994.55459058        32950847.323572129        1481021830.2607245     
   683330460.37261617        50439662.490324110        1536020243.5311143     
   634878789.58568501        42199334.536973506        1524100152.1298738     
   586514774.02418005        34251190.668372661        1515070004.4044185     
   538238413.68808770        26595230.884485394        1508929800.3547604     
   490049708.57741249        19231455.185319334        1505679539.9808941     
   450511780.04033983        45158181.591339976        1543137734.6127188     
   407566558.75808227        30687650.131368518        1536009488.7282109     
   365693543.46423048        19791138.632746831        1531664768.8268774     
   324892734.15877688        12468647.095456809        1530103574.9087241     
   285164130.84172869        8720175.5195148140        1531325906.9737442     
   229603010.15085873        43449673.825201146        1546649312.7397523     
   191860187.82294938        22657723.693506151        1545461554.9287879     
   156174122.24642691        8721629.3997681215        1546950905.4083946     
   122544813.42129102        1641390.9439857081        1551117364.1785588     
   90972261.347542465        1417008.3261595629        1557960931.2392945     
   20604150.704169698        45314139.191886596        1546554977.9122086     
  -12240323.219718259        18109555.223366708        1552456350.7316136     
  -42043489.629231818        1042662.9694295377        1560928414.1489670     
  -68805348.524377018       -5886537.5699492116        1571971168.1642745     
  -92525899.905149281       -2678046.3947473466        1585584612.7775259     
   705628994.55459058        32950847.323572129        1481021830.2607245     
   646377372.57473564        22305149.975518882        1470214288.1236784     
   588757301.29529369        17097954.962175936        1468620690.7479289     
   532768780.71625787        17329262.283522904        1476241038.1334710     
   478411810.83765131        22999071.939628303        1493075330.2803125     
   490049708.57741249        19231455.185319334        1505679539.9808941     
   455671773.54079795        17213567.283092469        1499335303.1547530     
   421999143.78958523        17546696.998870417        1500919693.9592412     
   389031819.32375753        20230844.332597747        1510432712.3943458     
   356769800.14331853        25266009.284290165        1527874358.4600821     
   285164130.84172869        8720175.5195148140        1531325906.9737442     
   271987548.08930194        14228396.665425196        1528364355.8076565     
   258590025.20724705        19000150.712575994        1532046115.1415205     
   244971562.19555426        23035437.660935104        1542371184.9753337     
   231132159.05423439        26334257.510536633        1559339565.3090925     
   90972261.347542465        1417008.3261595629        1557960931.2392945     
   95324696.220232204        13349638.122465823        1557301446.0823920     
   98529945.548278496        21458316.103292454        1561999954.2947686     
   100588009.33166352        25743042.268579558        1572056455.8764229     
   101498887.57039526        26203816.618358262        1587470950.8273582     
  -92525899.905149281       -2678046.3947473466        1585584612.7775259     
  -74316782.066396192        14577291.654262159        1586146573.9789515     
  -58181095.187318102        24921193.171023831        1590781211.4189842     
  -44118839.267923534        28353658.155505940        1599488525.0976241     
  -32130014.308201626        24874686.607745904        1612268515.0148687     
   478411810.83765131        22999071.939628303        1493075330.2803125     
   421461498.09939474        25855786.179514676        1491559060.5058289     
   361537815.39151156        18801267.187315315        1494998172.4590116     
   298640762.71401072        1835514.9630528688        1503392666.1398661     
   232770340.06688207       -25041470.493302390        1516742541.5483804     
   356769800.14331853        25266009.284290165        1527874358.4600821     
   312473784.57100981        24677913.465100855        1522348603.3172917     
   266145170.18364149        17314488.262383580        1522396497.3573487     
   217783956.98121628        3175733.6761391759        1528018040.5802486     
   167390144.96373144       -17738350.293633193        1539213232.9860034     
   231132159.05423439        26334257.510536633        1559339565.3090925     
   201256919.09124407        22831295.165279433        1550901891.1449919     
   170289851.46775845        15688907.285041280        1548656133.6189184     
   138230956.18377808        4907093.8698190451        1552602292.7308762     
   105080233.23931123       -9514145.0803581774        1562740368.4808543     
   101498887.57039526        26203816.618358262        1587470950.8273582     
   87810901.660088316        20315931.280021027        1577218923.9889343     
   73971859.243868709        13924524.255306985        1573777081.2437222     
   59981760.321705684        7029595.5441153180        1577145422.5917189     
   45840604.893631294       -368854.85344444215        1587323948.0329256     
  -32130014.308201626        24874686.607745904        1612268515.0148687     
  -27864267.722440373        17131821.809380718        1601299701.8491194     
  -22808806.488036759        12021339.173154635        1597759340.2317622     
  -16963630.605007086        9543238.6990161464        1601647430.1627941     
  -10328740.073320590        9697520.3870677277        1612963971.6422091     
   232770340.06688207       -25041470.493302390        1516742541.5483804     
   193471122.52926758       -55165830.424618691        1493372931.7532494     
   149748306.16489464       -100035519.77846031        1473329420.1495430     
   101601890.97379002       -159650538.55474222        1456612006.7372582     
   49031876.955919966       -234010886.75357568        1443220691.5163918     
   167390144.96373144       -17738350.293633193        1539213232.9860034     
   138884828.80719900       -40189770.501257725        1512346656.6628244     
   107068890.58914754       -73676597.580613703        1488686304.8128190     
   71942330.309591040       -118198831.53165108        1468232177.4359882     
   33505147.968517818       -173756472.35441095        1450984274.5323288     
   105080233.23931123       -9514145.0803581774        1562740368.4808543     
   87026322.126023740       -24395374.465617109        1533675298.5223951     
   66774765.716449261       -46602088.171833262        1507696579.3188686     
   44325564.010605499       -76134286.198949531        1484804210.8702667     
   19678717.008477516       -112991968.54700764        1464998193.1765983     
   45840604.893631294       -368854.85344444215        1587323948.0329256     
   37895602.485731483       -7782642.3177307434        1557358857.3319559     
   28865931.546794761       -18811991.552142635        1530360243.6676767     
   18751592.076809511       -33456902.556714304        1506328107.0400825     
   7552584.0757895522       -51717375.331400298        1485262447.4491663     
  -10328740.073320590        9697520.3870677277        1612963971.6422091     
  -8507330.1136630811        9648425.9424515758        1583397333.0915151     
  -6657611.9198209736        9693692.2784479782        1556677297.8592606     
  -4779585.4917811351        9833319.3951062523        1532803865.9454477     
  -2873250.8295525811        10067307.292390805        1511777037.3500602     
   49031876.955919966       -234010886.75357568        1443220691.5163918     
   39808649.074398473       -313720401.56744659        1349577374.7221286     
   22908007.411276162       -419021295.65331465        1255698090.1816266     
  -1670048.0334137678       -549913569.01108038        1161582837.8948891     
  -33925517.259714156       -706397221.64087546        1067231617.8619164     
   33505147.968517818       -173756472.35441095        1450984274.5323288     
   29158061.157212391       -232724646.69232154        1349861725.6828139     
   19129797.171737254       -310630078.27746451        1247939559.1390920     
   3420356.0121157765       -407472767.10976130        1145217774.9011571     
  -17970262.321677327       -523252713.18930101        1041696372.9690424     
   19678717.008477516       -112991968.54700764        1464998193.1765983     
   18597342.844627097       -151701930.93581292        1358725354.9804718     
   13831028.114045933       -202695028.54705262        1251089249.1421919     
   5379772.8167314529       -265971261.38073605        1142089875.6617470     
  -6756423.0473049432       -341530629.43682587        1031727234.5391175     
   7552584.0757895522       -51717375.331400298        1485262447.4491663     
   8126494.1366461590       -70652254.297904670        1376168262.6151268     
   7011700.2381936610       -95216146.462106094        1265147160.1909564     
   4208202.3804526553       -125409051.82393603        1152199140.1766500     
  -283999.43659118563       -161230970.38344172        1037324202.5722361     
  -2873250.8295525811        10067307.292390805        1511777037.3500602     
  -2254484.9667421388        10424383.221361371        1402190448.5867598     
  -1328186.4558092002        11806567.977406923        1290113292.2853711     
  -94355.296748777851        14213861.560546860        1175545568.4458795     
   1447008.5104555516        17646263.970828991        1058487277.0682882     
  -555591783.56777763        763090255.33854866        3047568992.8605309     
  -593620702.21271205        406173488.75623417        2280229340.9615064     
  -600525918.10689592        153002398.00975448        1756239424.8910532     
  -576307431.25032520        3576983.0991233587        1475599244.6491716     
  -520965241.64300573       -42102755.975678429        1438308800.2358615     
  -3020146973.4412341       -508959218.55173039        1887221641.9599152     
  -2469463844.3876595       -497486029.93584967        1559698713.9895756     
  -1903114267.4490910       -433791348.36999428        1356668404.9130168     
  -1321098242.6255310       -317875173.85416549        1278130714.7302287     
  -723415769.91698146       -149737506.38837212        1324085643.4412184     
  -4136270655.1473432       -1376479239.9918067        809651154.17533624     
  -3336467241.0661044       -1098493624.9789813        903911486.12363958     
  -2536454633.9656363       -819810699.90205145        1003807320.0309168     
  -1736232833.8459375       -540430464.76101971        1109338655.8971720     
  -935801840.70700622       -260352919.55588055        1220505493.7224061     
  -3903962828.6861000       -1839469808.9816775       -185142470.49319392     
  -3194630892.2480540       -1396849296.3731647        312867657.36368912     
  -2500547017.6565323       -1005055656.5864139        697656170.24475443     
  -1821711204.9115415       -664088889.62142730        969223068.14999926     
  -1158123454.0130816       -373948995.47820747        1127568351.0794220     
  -2323223494.0575094       -1897930925.5213428       -1097159232.0456810     
  -2043954797.9335001       -1392553044.1183972       -213432772.29026863     
  -1795391418.5217781       -989526218.42307961        438214955.55452782     
  -1577533355.8223472       -688850448.43539906        857783951.48870575     
  -1390380609.8352039       -490525734.15534174        1045274215.5122677     
  -520965241.64300573       -42102755.975678429        1438308800.2358615     
  -416116941.24110961       -23871924.893779323        1491438521.9915597     
  -310045923.64382023       -1565369.8272360861        1527724785.3407848     
  -202752188.85113388        24816909.223964438        1547167590.2835352     
  -94235736.863054112        55274912.259808317        1549766936.8198140     
  -723415769.91698146       -149737506.38837212        1324085643.4412184     
  -651281909.75188029       -117242012.25059353        1376397632.3390183     
  -580294226.85527587       -88567109.007802844        1417096280.2944009     
  -510452721.22716612       -63712796.659995794        1446181587.3073661     
  -441757392.86755526       -42679075.207183734        1463653553.3779135     
  -935801840.70700622       -260352919.55588055        1220505493.7224061     
  -881439228.02425408       -209109804.53588614        1269236039.5544343     
  -830591687.07389045       -169583595.29051727        1311583361.9081016     
  -783259217.85591507       -141774291.81977770        1347547460.7834036     
  -739441820.37032640       -125681894.12366013        1377128336.1803474     
  -1158123454.0130816       -373948995.47820747        1127568351.0794220     
  -1106588896.0582342       -299475301.74966532        1169953743.6378064     
  -1060938304.2996652       -244614828.67538309        1211186030.1818826     
  -1021171678.7373751       -209367576.25536630        1251265210.7116516     
  -987289019.37136614       -193733544.48961711        1290191285.2271163     
  -1390380609.8352039       -490525734.15534174        1045274215.5122677     
  -1326730913.8538156       -388338503.89191812        1078550744.5891318     
  -1271334078.5325987       -313660809.16239655        1115904285.1157460     
  -1224190103.8715515       -266492649.96677649        1157334837.0921073     
  -1185298989.8706748       -246834026.30505478        1202842400.5182211     
  -94235736.863054112        55274912.259808317        1549766936.8198140     
  -62840425.405787468        61735850.877697200        1529251609.2668347     
  -33235340.325496666        62229368.238999262        1521877840.2645741     
  -5420481.6221777573        56755464.343729019        1527645629.8130333     
   20604150.704169698        45314139.191886596        1546554977.9122086     
  -441757392.86755526       -42679075.207183734        1463653553.3779135     
  -380867188.88837278       -27485187.326450825        1456055044.8154325     
  -321137376.60198295       -16159271.755024895        1455988060.5815134     
  -262567956.00838596       -8701328.4929093719        1463452600.6761532     
  -205158927.10758215       -5111357.5401043370        1478448665.0993543     
  -739441820.37032640       -125681894.12366013        1377128336.1803474     
  -665085393.07539022       -106563657.74192181        1383181453.7399082     
  -591259522.78906739       -89213944.722231850        1391156061.4058726     
  -517964209.51135534       -73632755.064576134        1401052159.1782393     
  -445199453.24225718       -59820088.768965602        1412869747.0570078     
  -987289019.37136614       -193733544.48961711        1290191285.2271163     
  -915495037.96683919       -175499560.36872226        1310630836.0402625     
  -843601778.88674843       -156934650.66261610        1327381842.7376511     
  -771609242.13108802       -138038815.37127852        1340444305.3192904     
  -699517427.69985962       -118812054.49471173        1349818223.7851710     
  -1185298989.8706748       -246834026.30505478        1202842400.5182211     
  -1132096123.5627246       -234292895.20686033        1238403191.7164948     
  -1078164144.8950264       -219321389.57617950        1264665404.5768545     
  -1023503053.8675790       -201919509.41299507        1281629039.0993021     
  -968112850.48038650       -182087254.71733183        1289294095.2838399     
   20604150.704169698        45314139.191886596        1546554977.9122086     
  -12240323.219718259        18109555.223366708        1552456350.7316136     
  -42043489.629231818        1042662.9694295377        1560928414.1489670     
  -68805348.524377018       -5886537.5699492116        1571971168.1642745     
  -92525899.905149281       -2678046.3947473466        1585584612.7775259     
  -205158927.10758215       -5111357.5401043370        1478448665.0993543     
  -225136509.53838038       -22903741.978734948        1483801254.5512538     
  -242744714.77659312       -32798202.442081504        1494308716.2006805     
  -257983542.82221323       -34794738.930117957        1509971050.0476358     
  -270852993.67524177       -28893351.442848139        1530788256.0921228     
  -445199453.24225718       -59820088.768965602        1412869747.0570078     
  -444926768.18117738       -65985260.878092051        1416889634.4326601     
  -442956636.24928868       -66492276.751189515        1428648575.6054127     
  -439289057.44658852       -61341136.388248414        1448146570.5752738     
  -433924031.77307689       -50531839.789271712        1475383619.3422465     
  -699517427.69985962       -118812054.49471173        1349818223.7851710     
  -671611099.14810121       -111135001.47467639        1351721490.3758237     
  -642679254.04731715       -100039559.95789237        1363947992.3631618     
  -612721892.39750373       -85525729.944340855        1386497729.7471883     
  -581739014.19865632       -67593511.434011921        1419370702.5278962     
  -968112850.48038650       -182087254.71733183        1289294095.2838399     
  -905189502.43915689       -158352963.76850697        1288296822.3807535     
  -841912568.17068243       -133440052.06220044        1300206966.4739304     
  -778282047.67496026       -107348519.59840173        1325024527.5633750     
  -714297940.95198464       -80078366.377090126        1362749505.6490798     
  -92525899.905149281       -2678046.3947473466        1585584612.7775259     
  -74316782.066396192        14577291.654262159        1586146573.9789515     
  -58181095.187318102        24921193.171023831        1590781211.4189842     
  -44118839.267923534        28353658.155505940        1599488525.0976241     
  -32130014.308201626        24874686.607745904        1612268515.0148687     
  -270852993.67524177       -28893351.442848139        1530788256.0921228     
  -241787268.77427652       -10007567.258276343        1534168336.7562649     
  -214824650.31573170        1867862.1182273775        1541450720.5829904     
  -189965138.29960757        6732936.6866635978        1552635407.5722961     
  -167208732.72590151        4587656.4470395371        1567722397.7241805     
  -433924031.77307689       -50531839.789271712        1475383619.3422465     
  -394488480.02712268       -30161643.534316257        1481547198.0725799     
  -357185710.20632857       -16900720.363230675        1491442706.8894672     
  -322015722.31069410       -10749070.276009485        1505070145.7929080     
  -288978516.34021467       -11706693.272640824        1522429514.7829108     
  -581739014.19865632       -67593511.434011921        1419370702.5278962     
  -532420415.82493496       -45884937.173856840        1428283157.9278908     
  -485264274.85910457       -31384554.273339182        1440757170.3384125     
  -440270591.30117655       -24092362.732496321        1456792739.7594652     
  -397439365.15114856       -24008362.551319063        1476389866.1910422     
  -714297940.95198464       -80078366.377090126        1362749505.6490798     
  -655583076.16770029       -57177448.176856697        1374376216.3222001     
  -599060344.27406025       -41583639.612098247        1389394110.9298275     
  -544729745.27106225       -33296940.682816654        1407803189.4719567     
  -492591279.15869433       -32317351.388967514        1429603451.9485800     
  -32130014.308201626        24874686.607745904        1612268515.0148687     
  -27864267.722440373        17131821.809380718        1601299701.8491194     
  -22808806.488036759        12021339.173154635        1597759340.2317622     
  -16963630.605007086        9543238.6990161464        1601647430.1627941     
  -10328740.073320590        9697520.3870677277        1612963971.6422091     
  -167208732.72590151        4587656.4470395371        1567722397.7241805     
  -143922834.73829722        1257323.7120582834        1561960158.9930515     
  -119419918.36510924        1983718.9290236458        1562382077.7772393     
  -93699983.606346771        6766842.0979037434        1568988154.0767522     
  -66763030.461999334        15606693.218735844        1581778387.8915951     
  -288978516.34021467       -11706693.272640824        1522429514.7829108     
  -250227592.75953108       -11691031.686888918        1522372371.5128233     
  -209832347.05631575       -6194296.3593608886        1527255091.7249947     
  -167792779.23058358        4783512.7098888978        1537077675.4194262     
  -124108889.28231908        21242395.520911671        1551840122.5961156     
  -397439365.15114856       -24008362.551319063        1476389866.1910422     
  -346778541.78613180       -21713244.387427047        1482536339.4084330     
  -294046092.56165427       -12512706.691994995        1492378382.0750222     
  -239242017.47770321        3593250.5350125432        1505915994.1908050     
  -182366316.53428009        26604627.293595113        1523149175.7557855     
  -492591279.15869433       -32317351.388967514        1429603451.9485800     
  -433575681.81811404       -28809314.389602900        1442452062.6798878     
  -372061154.88111252       -16971512.068835050        1457751948.8273277     
  -308047698.34770709        3196055.5732800514        1475503110.3908951     
  -241535312.21788436        31693388.536785573        1495705547.3705935     
  -10328740.073320590        9697520.3870677277        1612963971.6422091     
  -8507330.1136630811        9648425.9424515758        1583397333.0915151     
  -6657611.9198209736        9693692.2784479782        1556677297.8592606     
  -4779585.4917811351        9833319.3951062523        1532803865.9454477     
  -2873250.8295525811        10067307.292390805        1511777037.3500602     
  -66763030.461999334        15606693.218735844        1581778387.8915951     
  -55181117.451922514        23424732.668585524        1552577707.1438663     
  -42452684.122384496        35064506.516639516        1526223009.9100733     
  -28577730.473389063        50526014.762886271        1502714296.1902056     
  -13556256.504945297        69809257.407291025        1482051565.9842737     
  -124108889.28231908        21242395.520911671        1551840122.5961156     
  -102768244.09183492        36927037.604243569        1524309980.4175026     
  -79162866.496626183        60160787.703326762        1499625201.9483092     
  -53292756.496694177        90943645.818150267        1477785787.1885450     
  -25157914.092040733        129275611.94871706        1458791736.1382039     
  -182366316.53428009        26604627.293595113        1523149175.7557855     
  -151268710.03340641        50155340.749403886        1498594152.9124227     
  -116788159.04254013        84982535.838522747        1476883873.9739838     
  -78924663.561689168        131086212.56092405        1458018338.9404624     
  -37678223.590845771        188466370.91663185        1441997547.8118522     
  -241535312.21788436        31693388.536785573        1495705547.3705935     
  -200682515.27664363        63109642.104051173        1475430224.6286292     
  -155328561.76014414        109529750.92217508        1457999025.9870813     
  -105473451.66838251        170953714.99117419        1443411951.4459422     
  -51117185.001372218        247381534.31100363        1431669001.0052168     
  -2873250.8295525811        10067307.292390805        1511777037.3500602     
  -2254484.9667421388        10424383.221361371        1402190448.5867598     
  -1328186.4558092002        11806567.977406923        1290113292.2853711     
  -94355.296748777851        14213861.560546860        1175545568.4458795     
   1447008.5104555516        17646263.970828991        1058487277.0682882     
  -13556256.504945297        69809257.407291025        1482051565.9842737     
  -12842741.591080450        89874980.982218221        1373858846.8858397     
  -9929679.7569858357        117272527.62457485        1263681429.7541735     
  -4817071.0026677027        152001897.33434704        1151519314.5892622     
   2495084.6718941107        194063090.11159360        1037372501.3911111     
  -25157914.092040733        129275611.94871706        1458791736.1382039     
  -22904308.684687108        169483585.60231119        1354200236.6887650     
  -16559142.085003689        223330096.56367129        1248129908.7109380     
  -6122414.2929837257        290815144.83282161        1140580752.2047312     
   8405874.6913753301        371938730.40977108        1031552767.1701424     
  -37678223.590845771        188466370.91663185        1441997547.8118522     
  -32439186.247569233        249250197.08161324        1343214617.9955328     
  -21216573.439855799        329979274.79472035        1243458729.1556661     
  -4010385.1677013636        430653604.05596566        1142729881.2922757     
   19179378.568897754        551273184.86535418        1041028074.4053456     
  -51117185.001372218        247381534.31100363        1431669001.0052168     
  -41447374.279723793        329174815.42014021        1340901990.8061211     
  -23901973.821534336        437220062.31774479        1249667891.0883574     
   1519016.3731882870        571517275.00379419        1157966701.8519087     
   34815596.304467171        732066453.47836471        1065798423.0967840     
  -2323223494.0575094       -1897930925.5213428       -1097159232.0456810     
  -2043954797.9335001       -1392553044.1183972       -213432772.29026863     
  -1795391418.5217781       -989526218.42307961        438214955.55452782     
  -1577533355.8223472       -688850448.43539906        857783951.48870575     
  -1390380609.8352039       -490525734.15534174        1045274215.5122677     
  -383153467.47831774       -452432551.22623497        153812866.51669148     
  -650194749.36413240       -347016171.11171544        537912964.45482111     
  -929601967.08972275       -282819577.12978017        826152157.67026234     
  -1221375120.6550851       -259842769.28041926        1018530446.1630152     
  -1525514210.0602241       -278085747.56364703        1115047829.9330790     
   6601193.1316984594        527971213.27812183        1303291412.9474757     
  -417556274.79842705        350184229.69386452        1209161093.4195883     
  -835740297.69581771        192308729.55207831        1155387696.3569438     
  -1247950875.5604651        54344712.852761388        1141971221.7595394     
  -1654188008.3923690       -63707820.404083073        1168911669.6273744     
  -1153959512.2274601        1043280367.9917262        2351276407.2466736     
  -1346039374.2363889        699048158.29834604        1800311614.6040380     
  -1513806410.3400679        435858701.62248659        1425921571.6145720     
  -1657260620.5384841        253711997.96415365        1228106278.2782769     
  -1776402004.8316474        152608047.32333589        1206865734.5951524     
  -3864835583.5557938        1093494912.9145761        3297767849.4142823     
  -3435644047.6780148        699575614.70172668        2311364528.0081668     
  -2963800305.0224648        447830339.08145487        1637753783.4431486     
  -2449304355.5891423        338259086.05375433        1276935615.7192328     
  -1892156199.3780496        370861855.61862433        1228910024.8364127     
  -1390380609.8352039       -490525734.15534174        1045274215.5122677     
  -1326730913.8538156       -388338503.89191812        1078550744.5891318     
  -1271334078.5325987       -313660809.16239655        1115904285.1157460     
  -1224190103.8715515       -266492649.96677649        1157334837.0921073     
  -1185298989.8706748       -246834026.30505478        1202842400.5182211     
  -1525514210.0602241       -278085747.56364703        1115047829.9330790     
  -1470728040.6740766       -216038865.02820432        1139596364.7330201     
  -1421633770.7132421       -172964980.57713741        1162512947.8702524     
  -1378231400.1777213       -148864094.21045309        1183797579.3447759     
  -1340520929.0675173       -143736205.92815256        1203450259.1565914     
  -1654188008.3923690       -63707820.404083073        1168911669.6273744     
  -1624576688.7799137       -46694682.550159931        1187719998.2577240     
  -1598096307.3579168       -40118005.331094265        1199187412.1129065     
  -1574746864.1263771       -43977788.746885657        1203313911.1929257     
  -1554528359.0852931       -58274032.797535241        1200099495.4977763     
  -1776402004.8316474        152608047.32333589        1206865734.5951524     
  -1788276858.1713321        119694043.54221332        1222921645.1632447     
  -1800721688.4666224        84880116.575741291        1225927677.8437119     
  -1813736495.7175083        48166266.423945904        1215883832.6365557     
  -1827321279.9239998        9552493.0868052244        1192790109.5417755     
  -1892156199.3780496        370861855.61862433        1228910024.8364127     
  -1961828548.8483295        283127313.24890280        1245201305.4495790     
  -2029509914.0393579        202029385.14336860        1242733745.0626640     
  -2095200294.9511263        127568071.30202579        1221507343.6756661     
  -2158899691.5836396        59743371.724865794        1181522101.2885892     
  -1185298989.8706748       -246834026.30505478        1202842400.5182211     
  -1132096123.5627246       -234292895.20686033        1238403191.7164948     
  -1078164144.8950264       -219321389.57617950        1264665404.5768545     
  -1023503053.8675790       -201919509.41299507        1281629039.0993021     
  -968112850.48038650       -182087254.71733183        1289294095.2838399     
  -1340520929.0675173       -143736205.92815256        1203450259.1565914     
  -1308128264.0016229       -146998807.63065040        1222686362.6621125     
  -1274524016.9861331       -146222802.83449894        1238860212.6579685     
  -1239708188.0210464       -141408191.53969109        1251971809.1441574     
  -1203680777.1063621       -132554973.74622336        1262021152.1206882     
  -1554528359.0852931       -58274032.797535241        1200099495.4977763     
  -1525127824.3236060       -71994946.019375980        1203573792.4987009     
  -1494033238.0224745       -80069020.776395500        1210222160.8182106     
  -1461244600.1818926       -82496257.068584204        1220044600.4563057     
  -1426761910.8018682       -79276654.895965755        1233041111.4129801     
  -1827321279.9239998        9552493.0868052244        1192790109.5417755     
  -1783094804.5286710       -9281310.3730225563        1181065481.2262661     
  -1736691808.0040421       -20860043.401856780        1178751249.0575848     
  -1688112290.3501182       -25183705.999705911        1185847413.0357342     
  -1637356251.5669003       -22252298.166576743        1202353973.1607184     
  -2158899691.5836396        59743371.724865794        1181522101.2885892     
  -2082029204.6168156        41142099.308410168        1155161428.8447976     
  -2002499726.9308436        31404129.289111972        1144447477.3760896     
  -1920311258.5257244        30529461.666971207        1149380246.8824561     
  -1835463799.4014649        38518096.441965818        1169959737.3639050     
  -968112850.48038650       -182087254.71733183        1289294095.2838399     
  -905189502.43915689       -158352963.76850697        1288296822.3807535     
  -841912568.17068243       -133440052.06220044        1300206966.4739304     
  -778282047.67496026       -107348519.59840173        1325024527.5633750     
  -714297940.95198464       -80078366.377090126        1362749505.6490798     
  -1203680777.1063621       -132554973.74622336        1262021152.1206882     
  -1110347767.7278049       -106173840.55272987        1263506282.4441433     
  -1018004646.3246442       -83092333.943900019        1274865233.2051241     
  -926651412.89688301       -63310453.919734180        1296098004.4036317     
  -836288067.44452429       -46828200.480231285        1327204596.0396669     
  -1426761910.8018682       -79276654.895965755        1233041111.4129801     
  -1311686658.8252244       -52848905.079567611        1235441258.3932204     
  -1198944769.0266311       -34199029.189996660        1244681629.2522540     
  -1088536241.4060850       -23327027.227253735        1260762223.9900725     
  -980461075.96358538       -20232899.191328943        1283683042.6066871     
  -1637356251.5669003       -22252298.166576743        1202353973.1607184     
  -1509206175.7314253        1621842.6509585381        1204101750.2279916     
  -1384732936.2766442        13239862.199493527        1209656154.6153138     
  -1263936533.2025611        12601760.479042888        1219017186.3226886     
  -1146816966.5091748       -292462.51039165258        1232184845.3501186     
  -1835463799.4014649        38518096.441965818        1169959737.3639050     
  -1702906318.4464071        57238402.638833880        1169487757.9484491     
  -1575369148.0746858        59224340.224577010        1169788809.2943091     
  -1452852288.2863171        44475909.199149311        1170862891.4014850     
  -1335355739.0812840        12993109.562596262        1172710004.2699740     
  -714297940.95198464       -80078366.377090126        1362749505.6490798     
  -655583076.16770029       -57177448.176856697        1374376216.3222001     
  -599060344.27406025       -41583639.612098247        1389394110.9298275     
  -544729745.27106225       -33296940.682816654        1407803189.4719567     
  -492591279.15869433       -32317351.388967514        1429603451.9485800     
  -836288067.44452429       -46828200.480231285        1327204596.0396669     
  -774069300.81299293       -41192969.949220985        1329390173.3373373     
  -712445469.89546096       -37540858.464874536        1334864265.2758963     
  -651416574.69192314       -35871866.027173966        1343626871.8553519     
  -590982615.20237851       -36185992.636120081        1355677993.0757003     
  -980461075.96358538       -20232899.191328943        1283683042.6066871     
  -915031748.32368672       -31951358.581208974        1278290883.2349803     
  -848600159.22113991       -40328946.428927690        1276084569.2105594     
  -781166308.65593946       -45365662.734471321        1277064100.5334246     
  -712730196.62809968       -47061507.497877091        1281229477.2035754     
  -1146816966.5091748       -292462.51039165258        1232184845.3501186     
  -1078470418.6997833       -29452614.072816074        1221078346.0151258     
  -1007524412.2511027       -49947903.504272640        1213055022.7338097     
  -933978947.16312504       -61778330.804736078        1208114875.5061722     
  -857834023.43585861       -64943895.974245399        1206257904.3322160     
  -1335355739.0812840        12993109.562596262        1172710004.2699740     
  -1264385311.9412801       -33696736.424036622        1157752561.6777785     
  -1189218228.9853432       -66397729.690892458        1145775625.8456497     
  -1109854490.2134640       -85109870.237943113        1136779196.7735949     
  -1026294095.6256553       -89833158.065225065        1130763274.4616129     
  -492591279.15869433       -32317351.388967514        1429603451.9485800     
  -433575681.81811404       -28809314.389602900        1442452062.6798878     
  -372061154.88111252       -16971512.068835050        1457751948.8273277     
  -308047698.34770709        3196055.5732800514        1475503110.3908951     
  -241535312.21788436        31693388.536785573        1495705547.3705935     
  -590982615.20237851       -36185992.636120081        1355677993.0757003     
  -523543276.60841250       -31973559.261802584        1363796692.8841980     
  -453910136.63984388       -20448454.638814524        1375781365.2310984     
  -382083195.29665780       -1610678.7671015114        1391632010.1164124     
  -308062452.57887030        24539768.353288323        1411348627.5401416     
  -712730196.62809968       -47061507.497877091        1281229477.2035754     
  -632825125.00281823       -40932080.215262711        1284262283.1638279     
  -551031380.22473109       -28507075.756632417        1292575758.7847607     
  -467348962.29383326       -9786494.1219700873        1306169904.0663838     
  -381777871.21012771        15229664.688722968        1325044719.0086961     
  -857834023.43585861       -64943895.974245399        1206257904.3322160     
  -761421227.00132096       -55684877.249947816        1203848833.5187802     
  -663424885.63578022       -41147375.422309726        1208135129.4883130     
  -563844999.33922648       -21331390.491294205        1219116792.2408097     
  -462681568.11167121        3763077.5430617630        1236793821.7762792     
  -1026294095.6256553       -89833158.065225065        1130763274.4616129     
  -909331582.60391688       -76231950.365847528        1122556343.9490557     
  -791090652.87298548       -58369353.635823816        1122459477.3417537     
  -671571306.43283951       -36245367.875085086        1130472674.6396921     
  -550773543.28349161       -9859993.0836758316        1146595935.8428764     
  -241535312.21788436        31693388.536785573        1495705547.3705935     
  -200682515.27664363        63109642.104051173        1475430224.6286292     
  -155328561.76014414        109529750.92217508        1457999025.9870813     
  -105473451.66838251        170953714.99117419        1443411951.4459422     
  -51117185.001372218        247381534.31100363        1431669001.0052168     
  -308062452.57887030        24539768.353288323        1411348627.5401416     
  -258283650.87927562        56435527.358961388        1395443874.0872180     
  -202115423.61533982        109629371.57910582        1383450498.9391422     
  -139557770.78706580        184121301.01370996        1375368502.0959091     
  -70610692.394460857        279911315.66275084        1371197883.5575161     
  -381777871.21012771        15229664.688722968        1325044719.0086961     
  -320023767.02524787        48519718.450866193        1315713515.3320878     
  -249991968.28694239        109402087.39108953        1311360944.1647489     
  -171682474.99521446        197876771.50939330        1311987005.5066819     
  -85095287.150073633        313943770.80573416        1317591699.3578861     
  -462681568.11167121        3763077.5430617630        1236793821.7762792     
  -385902863.71456337        39362215.379763052        1236239148.3632390     
  -298958195.77494085        108847898.35817364        1241730361.6639030     
  -201847564.29282618        212220126.47822416        1253267461.6782641     
  -94570969.268204674        349478899.73997205        1270850448.4063215     
  -550773543.28349161       -9859993.0836758316        1146595935.8428764     
  -455920940.94721574        28963018.145665497        1157020773.1806717     
  -349014106.07934302        107966804.48032165        1174558751.4365971     
  -230053038.67988747        227151365.92025632        1199209870.6106532     
  -99037738.748860359        386516702.46543252        1230974130.7028358     
  -51117185.001372218        247381534.31100363        1431669001.0052168     
  -41447374.279723793        329174815.42014021        1340901990.8061211     
  -23901973.821534336        437220062.31774479        1249667891.0883574     
   1519016.3731882870        571517275.00379419        1157966701.8519087     
   34815596.304467171        732066453.47836471        1065798423.0967840     
  -70610692.394460857        279911315.66275084        1371197883.5575161     
  -56790671.935583353        382509047.38803899        1291692899.4809704     
  -33967219.157696992        515118220.17668349        1211046446.8864729     
  -2140334.0608317256        677738834.02859378        1129258525.7740245     
   38689983.355025530        870370888.94381201        1046329136.1436387     
  -85095287.150073633        313943770.80573416        1317591699.3578861     
  -69051854.094716132        436767914.00501919        1250664557.7500682     
  -42877146.137921065        593362973.54241884        1181921568.6250288     
  -6571163.2796921134        783728949.41793489        1111362731.9827781     
   39866094.479973018        1007865841.6315759        1038988047.8232996     
  -94570969.268204674        349478899.73997205        1270850448.4063215     
  -78230920.757148653        491951415.27097780        1217816965.6134219     
  -50631754.762209564        671954322.41492736        1162293256.3040376     
  -11773471.283385575        889487621.17182922        1104279320.4781640     
   38343929.679319024        1144551311.5416660        1043775158.1357884     
  -99037738.748860359        386516702.46543252        1230974130.7028358     
  -84327871.922871172        548059551.18596268        1193150123.0710397     
  -57231045.030563712        750892266.79421771        1152161509.9234846     
  -17747258.071916223        995014849.29027283        1108008291.2601693     
   34123488.953049541        1280427298.6740584        1060690467.0810961     
  -3864835583.5557938        1093494912.9145761        3297767849.4142823     
  -3435644047.6780148        699575614.70172668        2311364528.0081668     
  -2963800305.0224648        447830339.08145487        1637753783.4431486     
  -2449304355.5891423        338259086.05375433        1276935615.7192328     
  -1892156199.3780496        370861855.61862433        1228910024.8364127     
  -7029667485.6062708       -260252771.61348438        2142795782.8842139     
  -5830813344.2146997       -190221264.29252481        1639390491.0632141     
  -4613078077.5593834       -57252672.759066820        1308175209.9808462     
  -3376461685.6403165        138653002.98688436        1149149939.6371081     
  -2120964168.4574981        397495762.94534481        1162314680.0320024     
  -8716199762.0982819       -1170510568.4740090        1091325574.3705289     
  -7149404632.6285477       -757044740.84993052        1043185383.7016207     
  -5587499459.4090815       -359878767.39342213        1026632637.6688778     
  -4030484242.4398899        20987351.895504475        1041667336.2722942     
  -2478358981.7209730        385553617.01685572        1088289479.5118740     
  -8924432413.0318279       -1637278477.6669910        143357223.87323540     
  -7391417912.9195452       -1000894814.9704766        522749205.92339092     
  -5887064450.5715580       -460047944.82161260        793126066.50724208     
  -4411372025.9878664       -14737867.220401287        954487805.62478828     
  -2964340639.1684752        335035417.83315933        1006834423.2760284     
  -7654365438.4068937       -1660556499.1924312       -701109268.60767734     
  -6556853185.0876961       -921771486.65417576        78081957.728517786     
  -5511773051.0468073       -357760205.04362965        607655496.49593997     
  -4519125036.2842464        31477345.639174223        887611347.69458890     
  -3578909140.7999983        245941165.39425993        917949511.32446301     
  -1892156199.3780496        370861855.61862433        1228910024.8364127     
  -1961828548.8483295        283127313.24890280        1245201305.4495790     
  -2029509914.0393579        202029385.14336860        1242733745.0626640     
  -2095200294.9511263        127568071.30202579        1221507343.6756661     
  -2158899691.5836396        59743371.724865794        1181522101.2885892     
  -2120964168.4574981        397495762.94534481        1162314680.0320024     
  -2229121453.8636084        282969663.66849792        1144537636.5082295     
  -2332603217.3633285        184028637.41295362        1122098304.0893905     
  -2431409458.9566550        100672684.17871428        1094996682.7754853     
  -2525540178.6435971        32901803.965764403        1063232772.5665183     
  -2478358981.7209730        385553617.01685572        1088289479.5118740     
  -2584725339.9057226        256318719.78003716        1039576072.4161507     
  -2683731638.5569429        151617354.32163846        1000296928.5303786     
  -2775377877.6746411        71449520.641652107        970452047.85455894     
  -2859664057.2588124        15815218.740092516        950041430.38868940     
  -2964340639.1684752        335035417.83315933        1006834423.2760284     
  -3028640206.9746680        203174481.58353102        930316613.17334569     
  -3082895177.6202040        104795535.86942947        877329618.38562977     
  -3127105551.1050787        39898580.690868020        847873438.91288507     
  -3161271327.4292917        8483616.0478379726        841948074.75510716     
  -3578909140.7999983        245941165.39425993        917949511.32446301     
  -3560866055.0704479        123536949.07897329        816759258.77981257     
  -3530093834.5531087        43563182.056332588        753196373.65514565     
  -3486592479.2479734        6019864.3263380527        727260855.95046449     
  -3430361989.1550369        10906995.889007092        738952705.66576934     
  -2158899691.5836396        59743371.724865794        1181522101.2885892     
  -2082029204.6168156        41142099.308410168        1155161428.8447976     
  -2002499726.9308436        31404129.289111972        1144447477.3760896     
  -1920311258.5257244        30529461.666971207        1149380246.8824561     
  -1835463799.4014649        38518096.441965818        1169959737.3639050     
  -2525540178.6435971        32901803.965764403        1063232772.5665183     
  -2407055606.7072563        36157391.460001945        1047698692.7119687     
  -2288471690.5980568        39744126.197100759        1043484835.7256522     
  -2169788430.3159928        43662008.177076101        1050591201.6075722     
  -2051005825.8610754        47911037.399904370        1069017790.3577279     
  -2859664057.2588124        15815218.740092516        950041430.38868940     
  -2711926823.5153689        37219239.196295500        942347688.81937790     
  -2566649892.1453485        50422251.741072416        941647672.01145601     
  -2423833263.1487565        55424256.374428511        947941379.96492922     
  -2283476936.5255966        52225253.096349597        961228812.67978740     
  -3161271327.4292917        8483616.0478379726        841948074.75510716     
  -2996642855.0411549        44327642.517282009        839108417.16703224     
  -2837034331.5727272        63438505.921018243        838935986.23350489     
  -2682445757.0240178        65816206.259027123        841430781.95452368     
  -2532877131.3950219        51460743.531330347        846592804.33009338     
  -3430361989.1550369        10906995.889007092        738952705.66576934     
  -3261203701.2846117        57482601.422972202        737980877.75492692     
  -3099625008.8801899        78792888.736931205        735349778.39179444     
  -2945625911.9417663        74837857.830899358        731059407.57636285     
  -2799206410.4693446        45617508.704848647        725109765.30863678     
  -1835463799.4014649        38518096.441965818        1169959737.3639050     
  -1702906318.4464071        57238402.638833880        1169487757.9484491     
  -1575369148.0746858        59224340.224577010        1169788809.2943091     
  -1452852288.2863171        44475909.199149311        1170862891.4014850     
  -1335355739.0812840        12993109.562596262        1172710004.2699740     
  -2051005825.8610754        47911037.399904370        1069017790.3577279     
  -1919917097.8458970        51797508.011017799        1058448443.9178910     
  -1791600941.9243054        46442071.643512845        1049399449.5904651     
  -1666057358.0963058        31844728.297360063        1041870807.3754514     
  -1543286346.3618989        8005477.9725731015        1035862517.2728512     
  -2283476936.5255966        52225253.096349597        961228812.67978740     
  -2151721757.5900187        41918449.279810309        943184460.78694761     
  -2020491412.2582784        29862200.117148399        927407782.35761547     
  -1889785900.5303824        16056505.608334303        913898777.39179158     
  -1759605222.4063246        501365.75339674950        902657445.88947582     
  -2532877131.3950219        51460743.531330347        846592804.33009338     
  -2398320297.6787686        27601226.445222259        823695808.55562556     
  -2262040559.0766101        9484725.6454668045        803813807.59576273     
  -2124037915.5885336       -2888758.8679021597        786946801.45049798     
  -1984312367.2145553       -9519227.0949192047        773094790.11984599     
  -2799206410.4693446        45617508.704848647        725109765.30863678     
  -2659712718.1121502        8845839.5072311163        699982487.22392297     
  -2516248382.3792920       -14690351.771504760        678617525.30490065     
  -2368813403.2707787       -24991065.131382823        661014879.55158305     
  -2217407780.7865949       -22056300.572371602        647174549.96396577     
  -1335355739.0812840        12993109.562596262        1172710004.2699740     
  -1264385311.9412801       -33696736.424036622        1157752561.6777785     
  -1189218228.9853432       -66397729.690892458        1145775625.8456497     
  -1109854490.2134640       -85109870.237943113        1136779196.7735949     
  -1026294095.6256553       -89833158.065225065        1130763274.4616129     
  -1543286346.3618989        8005477.9725731015        1035862517.2728512     
  -1460337073.2606168       -27420002.466538310        1022500144.4053365     
  -1374377673.2466443       -52811726.530029297        1012772292.6985387     
  -1285408146.3199890       -68169694.217898846        1006678962.1524572     
  -1193428492.4806476       -73493905.530158222        1004220152.7670927     
  -1759605222.4063246        501365.75339674950        902657445.88947582     
  -1662808490.7704842       -23099165.366189420        889505859.02618396     
  -1564188161.1252105       -40621036.454346478        880642807.72425616     
  -1463744233.4705005       -52064247.511040926        876068291.98368919     
  -1361476707.8063631       -57428798.536311805        875782311.80447900     
  -1984312367.2145553       -9519227.0949192047        773094790.11984599     
  -1871799564.4708879       -20734225.123009562        758769705.54032087     
  -1758649692.6210442       -29825659.463833451        749387170.92280078     
  -1644862751.6650200       -36793530.117390215        744947186.26728284     
  -1530438741.6028154       -41637837.083687961        745449751.57377458     
  -2217407780.7865949       -22056300.572371602        647174549.96396577     
  -2087310294.3618314       -20325181.736984968        630291683.94774365     
  -1957762267.7341502       -20425595.558520436        619005382.29417264     
  -1828763700.9035301       -22357542.036939621        613315645.00324762     
  -1700314593.8699880       -26121021.172273576        613222472.07497358     
  -1026294095.6256553       -89833158.065225065        1130763274.4616129     
  -909331582.60391688       -76231950.365847528        1122556343.9490557     
  -791090652.87298548       -58369353.635823816        1122459477.3417537     
  -671571306.43283951       -36245367.875085086        1130472674.6396921     
  -550773543.28349161       -9859993.0836758316        1146595935.8428764     
  -1193428492.4806476       -73493905.530158222        1004220152.7670927     
  -1058799756.8450754       -60396746.334812284        995590112.65063119     
  -923471271.65928197       -44967088.638735503        992555729.52510965     
  -787443036.92327380       -27204932.441933930        995117003.39053190     
  -650715052.63704455       -7110277.7444065511        1003273934.2468954     
  -1361476707.8063631       -57428798.536311805        875782311.80447900     
  -1216365769.3121040       -46990893.771528125        866054050.39862442     
  -1071133748.4266162       -36149381.035976768        859407039.06940889     
  -925780645.14989376       -24904260.329651296        855841277.81683326     
  -780306459.48193502       -13255531.652538449        855356766.64089394     
  -1530438741.6028154       -41637837.083687961        745449751.57377458     
  -1382029620.0050180       -36014392.676007867        733948157.19304359     
  -1234078083.1749837       -31916230.827525496        723013405.97464323     
  -1086584131.1126964       -29343351.538210392        712645497.91858196     
  -939547763.81816471       -28295754.808082163        702844433.02485657     
  -1700314593.8699880       -26121021.172273576        613222472.07497358     
  -1555791308.9238136       -27467243.048268795        599272433.03388762     
  -1412304275.9043741       -32267638.013366103        583374830.24082196     
  -1269853494.8116872       -40522206.067645609        565529663.69579327     
  -1128438965.6457222       -52230947.210997522        545736933.39880276     
  -550773543.28349161       -9859993.0836758316        1146595935.8428764     
  -455920940.94721574        28963018.145665497        1157020773.1806717     
  -349014106.07934302        107966804.48032165        1174558751.4365971     
  -230053038.67988747        227151365.92025632        1199209870.6106532     
  -99037738.748860359        386516702.46543252        1230974130.7028358     
  -650715052.63704455       -7110277.7444065511        1003273934.2468954     
  -538495424.84799933        23300469.607181430        1017277501.1885856     
  -415325920.49717426        90210805.498037249        1039468469.2245300     
  -281206539.58454871        193620729.92822576        1069846838.3547264     
  -136137282.11014834        333530242.89766634        1108412608.5791731     
  -780306459.48193502       -13255531.652538449        855356766.64089394     
  -647650491.45120704        9663746.2579535544        871650647.88838422     
  -505149002.82848632        65401426.141742766        897206190.40624642     
  -352801993.61377513        153957507.99883905        932023394.19448626     
  -190609463.80707744        275331991.82922447        976102259.25309575     
  -939547763.81816471       -28295754.808082163        702844433.02485657     
  -783386140.75681984       -11947151.901984245        720140213.28004777     
  -618483353.07329142        33538666.411386579        747771914.98173344     
  -444839400.76756668        108161700.13208944        785739538.12991929     
  -262454283.83965254        211921949.26007378        834043082.72460544     
  -1128438965.6457222       -52230947.210997522        545736933.39880276     
  -945702372.76485205       -41532224.872654498        562746197.36359668     
  -755328971.23158574       -5377473.6930080354        591165642.95100605     
  -557318761.04592359        56233306.327967316        630995270.16103971     
  -351671742.20787096        143300115.19024345        682235078.99369133     
  -99037738.748860359        386516702.46543252        1230974130.7028358     
  -84327871.922871172        548059551.18596268        1193150123.0710397     
  -57231045.030563712        750892266.79421771        1152161509.9234846     
  -17747258.071916223        995014849.29027283        1108008291.2601693     
   34123488.953049541        1280427298.6740584        1060690467.0810961     
  -136137282.11014834        333530242.89766634        1108412608.5791731     
  -126800286.85672054        484126574.97967088        1087479382.2173502     
  -94518774.025177479        711204632.32205689        1068103902.4628217     
  -39292743.615541220        1014764414.9247646        1050286169.3155887     
   38877804.372223914        1394805922.7878938        1034026182.7756500     
  -190609463.80707744        275331991.82922447        976102259.25309575     
  -173152905.48891160        419029537.66390991        984376964.59165740     
  -122194272.08085161        674400667.13156366        998931768.66056919     
  -37733563.582912564        1041445380.2321758        1019766671.4598294     
   80229220.004932046        1520163676.9657626        1046881672.9894389     
  -262454283.83965254        211921949.26007378        834043082.72460544     
  -223385727.81945461        352768439.23861992        883842870.19395936     
  -140257539.19757819        640480371.22275519        944645108.51672328     
  -13069717.974038661        1075057745.2124453        1016449797.6928769     
   158177735.85118270        1656500561.2077138        1099256937.7224410     
  -351671742.20787096        143300115.19024345        682235078.99369133     
  -277498753.84834158        285343279.70384008        785877099.02425945     
  -148708575.37535357        609443744.59563208        905243922.03127611     
   34698793.211082458        1115601509.8655727        1040335548.0147604     
   272723351.91097188        1803816575.5137138        1191151976.9746907     
  -7654365438.4068937       -1660556499.1924312       -701109268.60767734     
  -6556853185.0876961       -921771486.65417576        78081957.728517786     
  -5511773051.0468073       -357760205.04362965        607655496.49593997     
  -4519125036.2842464        31477345.639174223        887611347.69458890     
  -3578909140.7999983        245941165.39425993        917949511.32446301     
  -5908120549.5634260       -657117843.95450997       -187451826.91474694     
  -5452099789.6136560       -378581546.92049122        217510049.93091860     
  -5015949271.3241892       -166279388.75412917        484845861.48523504     
  -4599668994.6950150       -20211369.455406666        614555607.74819565     
  -4203258959.7261305        59622510.975672722        606639288.71981156     
  -5270586470.4772415        13707568.356230974        204210698.67020148     
  -5136081140.2471352       -72012031.019073248        272932083.24636376     
  -4988884174.0592947       -115426177.20193172        316019024.80859953     
  -4828995571.9137306       -116534870.19236970        333471523.35691088     
  -4656415333.8104334       -75338109.990364313        325289578.89128757     
  -5741763201.1483564        351919737.73977470        473878308.14716911     
  -5608797236.9881248       -2062938.9499051571        244348057.67485699     
  -5430577759.2521477       -205200570.38707709        101174986.46604234     
  -5207104767.9404030       -257493156.57172060        44359094.520723373     
  -4938378263.0529099       -158940697.50385046        73900381.838895395     
  -7321650741.5767622        357518664.19613743        621551001.51615179     
  -6870248079.8366251       -168734270.71298623        131757973.21639580     
  -6341030026.9027185       -435602568.30952334       -159686253.54244122     
  -5733996582.7750282       -443086228.59345794       -252781678.76036084     
  -5049147747.4535561       -191185251.56478810       -147528302.43736339     
  -3578909140.7999983        245941165.39425993        917949511.32446301     
  -3560866055.0704479        123536949.07897329        816759258.77981257     
  -3530093834.5531087        43563182.056332588        753196373.65514565     
  -3486592479.2479734        6019864.3263380527        727260855.95046449     
  -3430361989.1550369        10906995.889007092        738952705.66576934     
  -4203258959.7261305        59622510.975672722        606639288.71981156     
  -4080522321.2117367        32594744.949731588        566494519.75377309     
  -3954240470.1715698        17384354.009700060        547245935.44316423     
  -3824413406.6056209        13991338.155612946        548893535.78798795     
  -3691041130.5138912        22415697.387450933        571437320.78824282     
  -4656415333.8104334       -75338109.990364313        325289578.89128757     
  -4476788521.8384981       -21330439.525164366        335475717.53151196     
  -4302800419.6028013        13881531.819232702        349826858.06261200     
  -4134451027.1033378        30297804.042857885        368343000.48458517     
  -3971740344.3401151        27918377.145675898        391024144.79743969     
  -4938378263.0529099       -158940697.50385046        73900381.838895395     
  -4749664656.9507294       -38238604.345698118        123702852.11303140     
  -4575773682.8468056        33054715.484929085        160939141.51348704     
  -4416705340.7411299        54939261.988078356        185609250.04026455     
  -4272459630.6337066        27415035.163694620        197713177.69336060     
  -5049147747.4535561       -191185251.56478810       -147528302.43736339     
  -4899150726.5484304       -18129749.511866093       -68824076.501671895     
  -4773160259.9035721        74903905.006816626       -19417214.204218883     
  -4671176347.5189781        87915711.991286278        692284.45500735904     
  -4593198989.3946609        20905671.441511154       -8495580.5239987746     
  -3430361989.1550369        10906995.889007092        738952705.66576934     
  -3261203701.2846117        57482601.422972202        737980877.75492692     
  -3099625008.8801899        78792888.736931205        735349778.39179444     
  -2945625911.9417663        74837857.830899358        731059407.57636285     
  -2799206410.4693446        45617508.704848647        725109765.30863678     
  -3691041130.5138912        22415697.387450933        571437320.78824282     
  -3530502269.0145340        39041857.970360756        558788741.80798471     
  -3373474449.2307615        43964546.167980909        548080516.67559767     
  -3219957671.1625791        37183761.980304122        539312645.39108562     
  -3069951934.8099852        18699505.407330394        532485127.95445007     
  -3971740344.3401151        27918377.145675898        391024144.79743969     
  -3809536265.4970489        17680485.891978979        371445460.78990585     
  -3646774674.6191559        9300968.0876846313        357406755.93041891     
  -3483455571.7064457        2779823.7327897549        348908030.21897161     
  -3319578956.7589035       -1882947.1726779938        345949283.65556878     
  -4272459630.6337066        27415035.163694620        197713177.69336060     
  -4098305690.7321606       -6601514.8121938705        175951034.70070314     
  -3919525685.0453725       -25197845.503952503        163328496.15625492     
  -3736119613.5733595       -28373956.911611080        159845562.06001934     
  -3548087476.3161054       -16129849.035155058        165502232.41200188     
  -4593198989.3946609        20905671.441511154       -8495580.5239987746     
  -4396810544.7198687       -33804144.142135382       -27694536.459631748     
  -4191727480.5094180       -59531894.606949806       -34154262.646889620     
  -3977949796.7633309       -56277579.952958345       -27874759.085762791     
  -3755477493.4815984       -24041200.180152416       -8856025.7762570176     
  -2799206410.4693446        45617508.704848647        725109765.30863678     
  -2659712718.1121502        8845839.5072311163        699982487.22392297     
  -2516248382.3792920       -14690351.771504760        678617525.30490065     
  -2368813403.2707787       -24991065.131382823        661014879.55158305     
  -2217407780.7865949       -22056300.572371602        647174549.96396577     
  -3069951934.8099852        18699505.407330394        532485127.95445007     
  -2916611060.7303352       -769602.40157377720        517917103.05659294     
  -2761068194.9707222       -12898737.943924665        506245541.45906800     
  -2603323337.5311575       -17687901.219769597        497470443.16187263     
  -2443376488.4116254       -15137092.229055762        491591808.16500944     
  -3319578956.7589035       -1882947.1726779938        345949283.65556878     
  -3154864766.2864270       -4791653.1917442083        339877084.96625239     
  -2989717235.8296843       -6255892.5965917110        335835496.71190476     
  -2824136365.3886981       -6275665.3872851133        333824518.89251137     
  -2658122154.9634447       -4850971.5637831688        333844151.50808257     
  -3548087476.3161054       -16129849.035155058        165502232.41200188     
  -3374473834.7804232       -3220312.8632757664        165862432.95290783     
  -3202195504.9561915        5238184.2704612017        167387391.06340870     
  -3031252486.8434052        9245642.3660296202        170077106.74349669     
  -2861644780.4420629        8802061.4234596491        173931579.99317938     
  -3755477493.4815984       -24041200.180152416       -8856025.7762570176     
  -3575438266.2123380        3944418.5838100910       -4126852.9834475727     
  -3398503002.3502302        21583492.657263279        901224.51357669360     
  -3224671701.8952785        28876022.040201664        6228206.7148276297     
  -3053944364.8474693        25822006.732652664        11854093.620297870     
  -2217407780.7865949       -22056300.572371602        647174549.96396577     
  -2087310294.3618314       -20325181.736984968        630291683.94774365     
  -1957762267.7341502       -20425595.558520436        619005382.29417264     
  -1828763700.9035301       -22357542.036939621        613315645.00324762     
  -1700314593.8699880       -26121021.172273576        613222472.07497358     
  -2443376488.4116254       -15137092.229055762        491591808.16500944     
  -2300591558.8944287       -14854341.978081703        477590225.26506299     
  -2158109378.9862113       -15580757.090363145        468085888.51612085     
  -2015929948.6869714       -17316337.565905094        463078797.91819590     
  -1874053267.9967248       -20061083.404752851        462568953.47127408     
  -2658122154.9634447       -4850971.5637831688        333844151.50808257     
  -2505790691.5299206       -6958862.6500332355        323011680.27718180     
  -2353515267.5172968       -9253551.8059406281        315577136.98564410     
  -2201295882.9255514       -11735039.031449199        311540521.63348347     
  -2049132537.7547021       -14403324.326610804        310901834.22069204     
  -2861644780.4420629        8802061.4234596491        173931579.99317938     
  -2702907692.2683215        3361256.2471257448        166556048.98408678     
  -2543979933.3273873       -1443979.7052057981        161479127.70273218     
  -2384861503.6192474       -5613646.4335162640        158700816.14910340     
  -2225552403.1439061       -9147743.9378534555        158221114.32321510     
  -3053944364.8474693        25822006.732652664        11854093.620297870     
  -2891942561.1096249        16106014.713420510        8223331.3858037777     
  -2729503376.4164934        7847959.2118344307        5791860.6673912778     
  -2566626810.7680578        1047840.2279148102        4559681.4650771832     
  -2403312864.1643496       -4294342.2384279966        4526793.7788507650     
  -1700314593.8699880       -26121021.172273576        613222472.07497358     
  -1555791308.9238136       -27467243.048268795        599272433.03388762     
  -1412304275.9043741       -32267638.013366103        583374830.24082196     
  -1269853494.8116872       -40522206.067645609        565529663.69579327     
  -1128438965.6457222       -52230947.210997522        545736933.39880276     
  -1874053267.9967248       -20061083.404752851        462568953.47127408     
  -1733855861.4393764       -23771303.967997193        448100789.02566016     
  -1593660117.9002187       -27487067.925190628        432798127.72997385     
  -1453466037.3792427       -31208375.276336849        416660969.58420718     
  -1313273619.8764534       -34935226.021421909        399689314.58837634     
  -2049132537.7547021       -14403324.326610804        310901834.22069204     
  -1910080818.4379091       -19523486.232621551        297122564.76386356     
  -1769996173.2307534       -21200561.837409735        283621865.35885167     
  -1628878602.1332233       -19434551.140955865        270399736.00566965     
  -1486728105.1453247       -14225454.143264830        257456176.70430881     
  -2225552403.1439061       -9147743.9378534555        158221114.32321510     
  -2084466179.9194021       -14723789.842134833        146337760.24848890     
  -1941312441.8959789       -13408119.750022411        135846043.12748343     
  -1796091189.0736349       -5200733.6615040302        126745962.96018487     
  -1648802421.4523747        9898368.4234002829        119037519.74660632     
  -2403312864.1643496       -4294342.2384279966        4526793.7788507650     
  -2257011945.8838639       -9372214.7965453863       -4253624.5204577865     
  -2107608923.8959143       -4109741.6630845070       -10529338.964161588     
  -1955103798.2004673        11493077.162028909       -14300349.552256474     
  -1799496568.7975569        37436241.678665757       -15566656.284731878     
  -1128438965.6457222       -52230947.210997522        545736933.39880276     
  -945702372.76485205       -41532224.872654498        562746197.36359668     
  -755328971.23158574       -5377473.6930080354        591165642.95100605     
  -557318761.04592359        56233306.327967316        630995270.16103971     
  -351671742.20787096        143300115.19024345        682235078.99369133     
  -1313273619.8764534       -34935226.021421909        399689314.58837634     
  -1114667899.7972331       -15513566.988922060        420987525.51403785     
  -912352042.63083172        16275215.667517245        441069590.34792429     
  -706326048.37722492        60431121.947966367        459935509.09003699     
  -496589917.03644365        116954151.85234386        477585281.74036950     
  -1486728105.1453247       -14225454.143264830        257456176.70430881     
  -1308328479.9089010        3096574.9710310102        278462217.76477593     
  -1130145389.1504831        19696822.491960049        285625785.01905864     
  -952178832.87009299        35575288.419475138        278946878.46717894     
  -774428811.06771052        50731972.753609270        258425498.10912290     
  -1648802421.4523747        9898368.4234002829        119037519.74660632     
  -1526684113.0998492        14298201.007206559        135170274.11579567     
  -1408709010.7905569        4887346.7802564502        124834226.96440916     
  -1294877114.5244799       -18334194.257421672        88029378.292460054     
  -1185188424.3016424       -55366422.105898142        24755728.099938057     
  -1799496568.7975569        37436241.678665757       -15566656.284731878     
  -1769734799.3700986        18091311.119571686       -8888305.4328931384     
  -1748042907.5510499       -28153211.467576265       -41305083.816023804     
  -1734420893.3404512       -101297326.08286786       -112816991.43411267     
  -1728868756.7382615       -201341032.72621173       -223424028.28716519     
  -351671742.20787096        143300115.19024345        682235078.99369133     
  -277498753.84834158        285343279.70384008        785877099.02425945     
  -148708575.37535357        609443744.59563208        905243922.03127611     
   34698793.211082458        1115601509.8655727        1040335548.0147604     
   272723351.91097188        1803816575.5137138        1191151976.9746907     
  -496589917.03644365        116954151.85234386        477585281.74036950     
  -387834247.05583531        223157529.90697587        596871837.28133404     
  -230058283.46463051        492761886.66359371        735306372.58335018     
  -23262026.262833297        925767222.12220526        892888887.64642346     
   232554524.54956672        1522173536.2828128        1069619382.4705521     
  -774428811.06771052        50731972.753609270        258425498.10912290     
  -621309954.36716306        124029715.87893480        386826876.57380599     
  -424767700.55886251        342072116.03008223        537799411.58415961     
  -184802049.64282489        704859173.20702493        711343103.14016390     
   98586998.380942881        1212390887.4097459        907457951.24183357     
  -1185188424.3016424       -55366422.105898142        24755728.099938057     
  -977925875.78228617       -12040162.380224884        155742216.90169105     
  -732836826.65804052        157374432.69508022        312723039.03370190     
  -449921276.92890894        452877363.11999869        495698194.49597526     
  -129179226.59490460        874468628.89450550        704667683.28852534     
  -1728868756.7382615       -201341032.72621173       -223424028.28716519     
  -1457682011.3012388       -185052104.87056005       -96382141.735035226     
  -1154265661.7621541       -61331163.341369152        60077254.931983478     
  -818619708.12105858        169821791.86118096        245954161.71385249     
  -450744150.37795353        508406760.73711795        461248578.61059493     
 </DataArray>
 <DataArray  type="Float64" Name="VM" NumberOfComponents="1" format="ascii">
   6531538885.1964540     
   6131619801.5534239     
   5762054171.5431643     
   5404246087.5826969     
   5055749889.1120834     
   5726325813.3028984     
   5492457998.4007540     
   5279573356.2439651     
   5082705857.7423840     
   4900631541.1418886     
   5369407816.1540909     
   5177159042.1298275     
   4989883240.9622679     
   4805145351.1498585     
   4622350200.0319414     
   5456528300.3335114     
   5179445926.6400146     
   4894965189.7537880     
   4584236422.9837885     
   4239252669.5734963     
   5994556230.8209963     
   5489816273.2286711     
   4988096403.0232773     
   4433391333.0176153     
   3789430396.4929652     
   5055749889.1120834     
   4953497806.2388811     
   4845405604.2033358     
   4727810976.4888811     
   4599304529.3269434     
   4900631541.1418886     
   4755043445.1240721     
   4604508658.9367886     
   4447959240.0704279     
   4284774842.4817009     
   4622350200.0319414     
   4469931854.2895222     
   4318136802.4496841     
   4167277248.3632641     
   4018042194.2260585     
   4239252669.5734963     
   4108656754.7666883     
   3992014251.2895699     
   3888326935.7001648     
   3798515009.9856691     
   3789430396.4929652     
   3691858135.4663267     
   3636311361.4271321     
   3614832283.9634948     
   3624603428.8640790     
   4599304529.3269434     
   4384161364.0753479     
   4173551173.3005757     
   3966742105.5109372     
   3763359526.4300823     
   4284774842.4817009     
   4097520079.8597178     
   3913518747.6614332     
   3732472913.5633554     
   3554265517.7249398     
   4018042194.2260585     
   3854654141.4073782     
   3692789488.4232502     
   3532454890.1491718     
   3373757279.7541285     
   3798515009.9856691     
   3656295867.9944997     
   3513640004.3837342     
   3370645658.7872672     
   3227540596.7780547     
   3624603428.8640790     
   3502231191.4679394     
   3377593932.5072055     
   3250586496.1035285     
   3121385843.2911510     
   3763359526.4300823     
   3589105073.2882905     
   3414781317.6385384     
   3240429816.9858971     
   3066146516.1984296     
   3554265517.7249398     
   3387281952.2336125     
   3220980987.0426965     
   3055446063.0575266     
   2890799421.8441901     
   3373757279.7541285     
   3211530737.8112226     
   3050419911.6451297     
   2890503126.4361277     
   2731886568.2483125     
   3227540596.7780547     
   3067740781.3019257     
   2909113291.1408505     
   2751684573.8098884     
   2595506060.5884147     
   3121385843.2911510     
   2962044112.9002962     
   2803544111.4943304     
   2645819187.5599380     
   2488835472.8849969     
   3066146516.1984296     
   2902880309.2536678     
   2738852625.7206397     
   2574067309.3997240     
   2408542386.4941244     
   2890799421.8441901     
   2729336630.3009157     
   2567643450.0866675     
   2405753857.6971488     
   2243728917.2470655     
   2731886568.2483125     
   2576482641.2191978     
   2422110626.2247930     
   2268955116.8128858     
   2117299396.5045245     
   2595506060.5884147     
   2450169988.0208511     
   2307922516.2115493     
   2169190546.6377492     
   2034606902.8024788     
   2488835472.8849969     
   2356865232.6061840     
   2230787511.3703461     
   2111267511.7683206     
   1999263288.8961134     
   2408542386.4941244     
   2258477787.9473629     
   2110900859.7896240     
   1965784575.5074975     
   1823314631.8403356     
   2243728917.2470655     
   2098006854.4314258     
   1954176621.0984356     
   1812227883.1904399     
   1672244974.0932407     
   2117299396.5045245     
   1974617275.9191895     
   1832925556.6461074     
   1692245503.0488017     
   1552627695.8873351     
   2034606902.8024788     
   1895494850.6209064     
   1756408357.7907505     
   1617441634.6182630     
   1478729070.1101956     
   1999263288.8961134     
   1866209149.1035776     
   1732515783.9104645     
   1598455281.4771450     
   1464457844.8406894     
   1823314631.8403356     
   1782752661.5357256     
   1738464495.4493237     
   1699079278.1264784     
   1683236788.7217040     
   1672244974.0932407     
   1556480752.3755279     
   1431465524.0117061     
   1297503459.0586693     
   1160693015.5324476     
   1552627695.8873351     
   1402207800.0597000     
   1248223387.5014155     
   1088405906.0371382     
   920719989.28653824     
   1478729070.1101956     
   1333923259.9297633     
   1203711216.5559690     
   1092629175.1593666     
   1006641345.5454005     
   1464457844.8406894     
   1354831712.2500286     
   1280409769.2230940     
   1249325637.8298299     
   1268662863.3065109     
   1683236788.7217040     
   1384883887.6726727     
   1129648836.5743229     
   1009509601.8219578     
   1152740660.0499806     
   1160693015.5324476     
   1009716187.3737469     
   985702692.64904666     
   1161284403.1328225     
   1543911573.2565992     
   920719989.28653824     
   965367376.17714894     
   1146047493.4644065     
   1476597759.6450481     
   1957053502.6608586     
   1006641345.5454005     
   1168026871.9381506     
   1427246625.2539034     
   1809202260.2823687     
   2334215945.1593118     
   1268662863.3065109     
   1450936980.5819364     
   1718221187.5691690     
   2111329971.2051752     
   2662928805.0772343     
   5994556230.8209963     
   5489816273.2286711     
   4988096403.0232773     
   4433391333.0176153     
   3789430396.4929652     
   6526848187.7208805     
   5717954682.3412066     
   4909436255.4462833     
   4092072921.4722247     
   3258901730.7417941     
   6468694302.0478706     
   5538120151.9492311     
   4628489918.1217585     
   3750930426.5380182     
   2931382722.0295506     
   5851470631.8562098     
   4961768373.6017208     
   4147218982.1871738     
   3409800227.0357618     
   2787620919.1194830     
   4791694464.9869146     
   4030503335.7777824     
   3474696791.5326185     
   3068533239.2256269     
   2819118453.9128184     
   3789430396.4929652     
   3691858135.4663267     
   3636311361.4271321     
   3614832283.9634948     
   3624603428.8640790     
   3258901730.7417941     
   3274117679.5601983     
   3317350153.8128376     
   3384470269.2837873     
   3472989747.0678072     
   2931382722.0295506     
   3019950642.8754325     
   3115559096.4897575     
   3216559678.9271846     
   3321755323.5637083     
   2787620919.1194830     
   2914530035.5684590     
   3023906737.8396597     
   3112576763.5400271     
   3179452038.7916617     
   2819118453.9128184     
   2942937537.8833790     
   3031246056.5082579     
   3071360947.5959802     
   3057092531.0288596     
   3624603428.8640790     
   3502231191.4679394     
   3377593932.5072055     
   3250586496.1035285     
   3121385843.2911510     
   3472989747.0678072     
   3354099152.3727517     
   3235402477.0427966     
   3117098590.0041032     
   2999627220.1475325     
   3321755323.5637083     
   3209496413.3198709     
   3100270575.2394633     
   2994541699.4407187     
   2892993484.3815579     
   3179452038.7916617     
   3075593826.1343861     
   2978029935.8541899     
   2887378108.1753912     
   2804460452.0594444     
   3057092531.0288596     
   2961421077.7119870     
   2875786701.6633086     
   2800785882.4000654     
   2737202742.1680145     
   3121385843.2911510     
   2962044112.9002962     
   2803544111.4943304     
   2645819187.5599380     
   2488835472.8849969     
   2999627220.1475325     
   2843108882.1294179     
   2689674148.1876140     
   2539693681.9295526     
   2393635315.1711397     
   2892993484.3815579     
   2746893062.4198689     
   2607053751.2733583     
   2474348699.9878120     
   2349855832.6387696     
   2804460452.0594444     
   2675554371.9091220     
   2556806577.3668704     
   2449507902.6209979     
   2355229218.7120776     
   2737202742.1680145     
   2630839647.5327234     
   2538979255.0429974     
   2463095449.4576960     
   2404955953.9781499     
   2488835472.8849969     
   2356865232.6061840     
   2230787511.3703461     
   2111267511.7683206     
   1999263288.8961134     
   2393635315.1711397     
   2284319098.8175611     
   2181098953.7871103     
   2084666076.8029206     
   1995883136.3753412     
   2349855832.6387696     
   2261907113.5618320     
   2179626468.4867477     
   2103558761.6370080     
   2034318251.4442010     
   2355229218.7120776     
   2287123147.5551853     
   2223580663.0373559     
   2164898412.5862613     
   2111386843.8729022     
   2404955953.9781499     
   2354920103.4679503     
   2307770646.1338768     
   2263530662.7566824     
   2222228780.3259563     
   1999263288.8961134     
   1866209149.1035776     
   1732515783.9104645     
   1598455281.4771450     
   1464457844.8406894     
   1995883136.3753412     
   1875777220.3276713     
   1759790091.0664768     
   1648871630.8557184     
   1544205799.0436873     
   2034318251.4442010     
   1933057112.0178032     
   1840885857.1568036     
   1759147351.9881914     
   1689299196.3020806     
   2111386843.8729022     
   2031212915.7355726     
   1964331521.0653212     
   1912018647.3233194     
   1875492865.9502244     
   2222228780.3259563     
   2162154646.6453686     
   2118567416.8506503     
   2092420660.1526945     
   2084544263.5413859     
   1464457844.8406894     
   1354831712.2500286     
   1280409769.2230940     
   1249325637.8298299     
   1268662863.3065109     
   1544205799.0436873     
   1483095801.1335979     
   1454723756.2803853     
   1463003203.3151450     
   1511227711.4846020     
   1689299196.3020806     
   1660679466.6126802     
   1659644914.7203400     
   1688499847.6377072     
   1749846151.8218148     
   1875492865.9502244     
   1864859597.2932017     
   1876889598.7379937     
   1913728588.5874062     
   1978402507.1726766     
   2084544263.5413859     
   2080886613.3053889     
   2095978460.9681287     
   2132391386.3941483     
   2193936242.0513053     
   1268662863.3065109     
   1450936980.5819364     
   1718221187.5691690     
   2111329971.2051752     
   2662928805.0772343     
   1511227711.4846020     
   1617742247.0511327     
   1791275671.2135193     
   2066785623.5338879     
   2474726790.9197159     
   1749846151.8218148     
   1792440695.9191189     
   1887043171.9912207     
   2060724524.3661776     
   2338948643.4572482     
   1978402507.1726766     
   1974014977.5914309     
   2006110808.2967086     
   2093466583.2922781     
   2254915852.0863481     
   2193936242.0513053     
   2161762894.7230091     
   2149238917.5698476     
   2166935063.1876431     
   2226009696.1059108     
   4791694464.9869146     
   4030503335.7777824     
   3474696791.5326185     
   3068533239.2256269     
   2819118453.9128184     
   3487423326.1262727     
   3208821504.0777698     
   3060475149.9087172     
   3021238734.2181864     
   3087360714.8260331     
   2804086788.1141992     
   2882477276.3291512     
   2981280544.6604662     
   3098657000.6988535     
   3233094406.4997005     
   2608796401.9527631     
   2933822743.3967738     
   3165684981.4700279     
   3287708059.7343268     
   3295082187.1901770     
   2978855641.6926208     
   3307827481.5077744     
   3539461029.7517376     
   3566925385.2787604     
   3344860624.2094817     
   2819118453.9128184     
   2942937537.8833790     
   3031246056.5082579     
   3071360947.5959802     
   3057092531.0288596     
   3087360714.8260331     
   3081472398.2677665     
   3053391579.3047709     
   2998497167.4102998     
   2913433503.1276851     
   3233094406.4997005     
   3130648249.5041113     
   3027882301.6173916     
   2924811203.3820267     
   2821484782.8792658     
   3295082187.1901770     
   3119499035.0580416     
   2974186301.6251383     
   2860190267.3683047     
   2779164509.4304032     
   3344860624.2094817     
   3097728483.2399397     
   2922195068.7355609     
   2817015331.1014051     
   2782046446.2089539     
   3057092531.0288596     
   2961421077.7119870     
   2875786701.6633086     
   2800785882.4000654     
   2737202742.1680145     
   2913433503.1276851     
   2845468493.4568806     
   2786639909.6811852     
   2737410975.9910102     
   2698329077.6944494     
   2821484782.8792658     
   2778295063.9817715     
   2742676411.1847544     
   2714925778.2766681     
   2695362934.8492188     
   2779164509.4304032     
   2757904751.8908553     
   2742040143.4973183     
   2731713104.6469555     
   2727064229.4974132     
   2782046446.2089539     
   2780131579.7997656     
   2780960309.3904781     
   2784557551.2339778     
   2790944696.4912858     
   2737202742.1680145     
   2630839647.5327234     
   2538979255.0429974     
   2463095449.4576960     
   2404955953.9781499     
   2698329077.6944494     
   2616617844.1960320     
   2548046142.3692250     
   2493521414.8930593     
   2454065725.4396310     
   2695362934.8492188     
   2632241316.5579152     
   2580234826.2363071     
   2539832138.6921878     
   2511554030.4381599     
   2727064229.4974132     
   2676813850.8287668     
   2635162074.7758307     
   2602333245.4286547     
   2578556143.1293888     
   2790944696.4912858     
   2748582046.0064712     
   2711964890.6620469     
   2681179806.9200139     
   2656317742.3183560     
   2404955953.9781499     
   2354920103.4679503     
   2307770646.1338768     
   2263530662.7566824     
   2222228780.3259563     
   2454065725.4396310     
   2405946158.6988263     
   2363873394.0830865     
   2328157812.7720408     
   2299091329.4076085     
   2511554030.4381599     
   2467971960.4722271     
   2433740686.8564272     
   2409292410.2574468     
   2395028635.8474631     
   2578556143.1293888     
   2540888395.5490451     
   2515950485.7335010     
   2504150299.6530991     
   2505872949.2877355     
   2656317742.3183560     
   2624590223.6854100     
   2609099682.6395841     
   2610128961.3940229     
   2627969865.9002571     
   2222228780.3259563     
   2162154646.6453686     
   2118567416.8506503     
   2092420660.1526945     
   2084544263.5413859     
   2299091329.4076085     
   2256545938.9151344     
   2228830616.1794939     
   2216449982.4404321     
   2219830968.1796093     
   2395028635.8474631     
   2365967286.8505697     
   2350016371.0323067     
   2347409145.1970296     
   2358355893.0776329     
   2505872949.2877355     
   2486708553.0209475     
   2479011181.7957888     
   2482866752.0027437     
   2498384647.9579873     
   2627969865.9002571     
   2615654103.7783422     
   2613297594.5168920     
   2620917785.9082975     
   2638590879.6343818     
   2084544263.5413859     
   2080886613.3053889     
   2095978460.9681287     
   2132391386.3941483     
   2193936242.0513053     
   2219830968.1796093     
   2204099369.8119206     
   2203234250.3645205     
   2219174573.5141683     
   2254830523.5702806     
   2358355893.0776329     
   2331646027.9439082     
   2316690852.7469621     
   2314876964.4161353     
   2328271487.7191606     
   2498384647.9579873     
   2462666723.8414025     
   2436078653.2746291     
   2419548624.4850006     
   2414421267.6634631     
   2638590879.6343818     
   2596465959.5528245     
   2561154144.3057108     
   2533216858.0356169     
   2513423383.8225141     
   2193936242.0513053     
   2161762894.7230091     
   2149238917.5698476     
   2166935063.1876431     
   2226009696.1059108     
   2254830523.5702806     
   2187510345.2147894     
   2136523317.0185297     
   2111541879.0664263     
   2123558612.1722107     
   2328271487.7191606     
   2229201255.2291312     
   2143209990.8558536     
   2078622410.0472629     
   2045619231.9196260     
   2414421267.6634631     
   2287123781.0045514     
   2169950849.8991051     
   2069559092.7078743     
   1994664021.2657957     
   2513423383.8225141     
   2361476503.2411113     
   2217213487.0188298     
   2085500757.1910150     
   1973102395.4221904     
   2978855641.6926208     
   3307827481.5077744     
   3539461029.7517376     
   3566925385.2787604     
   3344860624.2094817     
   4075964253.0997949     
   3838425135.5140500     
   3588205891.8158417     
   3312136816.9666352     
   3006897543.7664318     
   4580807719.5893230     
   3955836779.3682194     
   3426106963.2836833     
   3024402980.8843012     
   2791510081.8318086     
   4803816988.9866257     
   3860469035.4274821     
   3171703148.0391712     
   2760791779.4205332     
   2651560204.2040319     
   5401665108.3237524     
   4044355693.4108582     
   3119143114.7475748     
   2620378576.5594134     
   2541149339.7925215     
   3344860624.2094817     
   3097728483.2399397     
   2922195068.7355609     
   2817015331.1014051     
   2782046446.2089539     
   3006897543.7664318     
   2859620805.1955581     
   2763627432.2979341     
   2717930497.4385672     
   2721644728.3108668     
   2791510081.8318086     
   2721746886.7695327     
   2680212920.1381593     
   2666760569.5179257     
   2681094707.3105907     
   2651560204.2040319     
   2651115162.5275908     
   2653630139.9943357     
   2659059058.7063498     
   2667397250.9172797     
   2541149339.7925215     
   2614757399.8095427     
   2664108602.8633585     
   2688482596.0017519     
   2687466695.1413374     
   2782046446.2089539     
   2780131579.7997656     
   2780960309.3904781     
   2784557551.2339778     
   2790944696.4912858     
   2721644728.3108668     
   2715154003.9352489     
   2716171520.3305383     
   2724765770.7034187     
   2741002058.6359997     
   2681094707.3105907     
   2668952588.9518952     
   2669208462.9185476     
   2681910968.2852583     
   2707116184.5226874     
   2667397250.9172797     
   2646091735.2064071     
   2642278870.7078004     
   2655968495.7067304     
   2687192127.5414152     
   2687466695.1413374     
   2650937795.3502278     
   2637305780.2262397     
   2646632146.1748137     
   2679000026.5022578     
   2790944696.4912858     
   2748582046.0064712     
   2711964890.6620469     
   2681179806.9200139     
   2656317742.3183560     
   2741002058.6359997     
   2710480440.8141198     
   2685404112.9025497     
   2665839595.4348612     
   2651849699.3773036     
   2707116184.5226874     
   2689334568.2747207     
   2676728760.5359793     
   2669327749.2411504     
   2667167981.5515709     
   2687192127.5414152     
   2682970525.7940636     
   2683705580.2927256     
   2689370560.9087095     
   2699977007.6057191     
   2679000026.5022578     
   2689063333.4105334     
   2703942514.4867339     
   2723535177.4229541     
   2747827527.0226946     
   2656317742.3183560     
   2624590223.6854100     
   2609099682.6395841     
   2610128961.3940229     
   2627969865.9002571     
   2651849699.3773036     
   2635167620.7076545     
   2632349949.3739352     
   2643502513.2094007     
   2668727988.7909341     
   2667167981.5515709     
   2660451566.7786713     
   2665297817.1627941     
   2681720583.3661618     
   2709732184.9377017     
   2699977007.6057191     
   2698806373.6140342     
   2706951402.3035393     
   2724385382.4044113     
   2751094521.2966938     
   2747827527.0226946     
   2748527184.0335073     
   2756303799.6253753     
   2771117456.5782824     
   2792969674.9901614     
   2627969865.9002571     
   2615654103.7783422     
   2613297594.5168920     
   2620917785.9082975     
   2638590879.6343818     
   2668727988.7909341     
   2653897789.0091567     
   2649452426.6701612     
   2655421945.8256679     
   2671859926.0677686     
   2709732184.9377017     
   2693013309.8944263     
   2687299866.8217025     
   2692614937.6989536     
   2708985880.5090485     
   2751094521.2966938     
   2732983376.0630164     
   2726712051.1215529     
   2732286337.7171426     
   2749710958.1985192     
   2792969674.9901614     
   2773811364.8606181     
   2767569994.5152898     
   2774232181.6649528     
   2793789399.6126518     
   2638590879.6343818     
   2596465959.5528245     
   2561154144.3057108     
   2533216858.0356169     
   2513423383.8225141     
   2671859926.0677686     
   2624511991.3003416     
   2583281092.3978291     
   2548483341.6409354     
   2520555839.0486989     
   2708985880.5090485     
   2658339993.0497985     
   2613271779.4648695     
   2573920456.0728798     
   2540479697.1959033     
   2749710958.1985192     
   2697756735.8195310     
   2650988039.3706794     
   2609438915.7249641     
   2573156804.7188306     
   2793789399.6126518     
   2742569760.7275858     
   2696281783.7382932     
   2654925537.9709706     
   2618501091.1057978     
   2513423383.8225141     
   2361476503.2411113     
   2217213487.0188298     
   2085500757.1910150     
   1973102395.4221904     
   2520555839.0486989     
   2351207517.1238527     
   2185145010.0293565     
   2025342122.3459420     
   1876194910.9945664     
   2540479697.1959033     
   2358937125.1965933     
   2177097375.0689964     
   1996323713.9966106     
   1818726080.0211301     
   2573156804.7188306     
   2384774454.1490779     
   2193530240.5897841     
   1999740348.5924127     
   1803905269.3221152     
   2618501091.1057978     
   2428693355.3676734     
   2234576864.0269551     
   2036154594.9153142     
   1833432272.3563943     
   5401665108.3237524     
   4044355693.4108582     
   3119143114.7475748     
   2620378576.5594134     
   2541149339.7925215     
   4304417749.4135771     
   3523521037.2533441     
   2916523928.8196697     
   2515403592.0858655     
   2386846789.5983667     
   3908522011.8781710     
   3335383310.0264711     
   2837105294.5460844     
   2461737838.1218901     
   2273493120.0814705     
   3397967979.5878072     
   2826321831.2053318     
   2491958212.1963987     
   2316904759.2942953     
   2205048716.6396818     
   2863820285.3026223     
   1845887419.5461161     
   1732657682.1473391     
   2020846800.6646316     
   2183930132.4730940     
   2541149339.7925215     
   2614757399.8095427     
   2664108602.8633585     
   2688482596.0017519     
   2687466695.1413374     
   2386846789.5983667     
   2458651569.5987244     
   2513498785.2286215     
   2550768997.9758906     
   2570012154.3618298     
   2273493120.0814705     
   2338637383.3243346     
   2395524820.9146104     
   2443399559.7212133     
   2481749999.2096825     
   2205048716.6396818     
   2255926347.2981381     
   2307990480.3789740     
   2360046614.5261431     
   2411385898.2546291     
   2183930132.4730940     
   2210342991.2998929     
   2247583788.7103405     
   2293838236.1231503     
   2348143549.9855247     
   2687466695.1413374     
   2650937795.3502278     
   2637305780.2262397     
   2646632146.1748137     
   2679000026.5022578     
   2570012154.3618298     
   2548653747.6986589     
   2541240777.3060384     
   2547903745.8036776     
   2568754374.5405154     
   2481749999.2096825     
   2474347037.6943660     
   2471991892.8665524     
   2474754741.6655202     
   2482690454.2897577     
   2411385898.2546291     
   2421058001.9254775     
   2426876545.0142570     
   2428640837.6634569     
   2426181680.1296782     
   2348143549.9855247     
   2381642313.8349280     
   2402542630.9253864     
   2410266320.6845007     
   2404361670.1312919     
   2679000026.5022578     
   2689063333.4105334     
   2703942514.4867339     
   2723535177.4229541     
   2747827527.0226946     
   2568754374.5405154     
   2578963561.1661744     
   2598252248.3928289     
   2626561902.5923281     
   2663889707.5842915     
   2482690454.2897577     
   2489113091.7086444     
   2508842136.7150025     
   2541884456.5844836     
   2588278776.5615010     
   2426181680.1296782     
   2422854910.8828158     
   2437173273.4840426     
   2469304992.2170081     
   2519425917.6059446     
   2404361670.1312919     
   2383323386.2919188     
   2384510983.4118233     
   2408478611.2147255     
   2455746918.2373714     
   2747827527.0226946     
   2748527184.0335073     
   2756303799.6253753     
   2771117456.5782824     
   2792969674.9901614     
   2663889707.5842915     
   2667800402.7486300     
   2678575247.0438490     
   2696190133.5024633     
   2720663053.7591987     
   2588278776.5615010     
   2594143165.8742285     
   2606728718.8965025     
   2626034411.3452196     
   2652100588.0559626     
   2519425917.6059446     
   2526088911.1386886     
   2539405496.4449630     
   2559403590.0123901     
   2586150361.6472573     
   2455746918.2373714     
   2462174610.9792252     
   2475265515.4876637     
   2495081323.0208945     
   2521719537.0449452     
   2792969674.9901614     
   2773811364.8606181     
   2767569994.5152898     
   2774232181.6649528     
   2793789399.6126518     
   2720663053.7591987     
   2709253575.3708334     
   2708803281.6124268     
   2719307083.2425251     
   2740768400.7313108     
   2652100588.0559626     
   2648146148.2178397     
   2653354964.0096908     
   2667733734.5518961     
   2691303387.6130605     
   2586150361.6472573     
   2589775883.7008843     
   2600869098.1523790     
   2619438538.2296238     
   2645518342.8391871     
   2521719537.0449452     
   2533442458.3398070     
   2550985168.0757723     
   2574338055.3282638     
   2603536845.0871038     
   2793789399.6126518     
   2742569760.7275858     
   2696281783.7382932     
   2654925537.9709706     
   2618501091.1057978     
   2740768400.7313108     
   2690051837.2159333     
   2644350650.0391359     
   2603702028.1902251     
   2568157703.3779163     
   2691303387.6130605     
   2643157693.7661643     
   2600245338.2651911     
   2562715356.9272227     
   2530774070.8133397     
   2645518342.8391871     
   2601987321.2541242     
   2564048437.7278533     
   2532036939.4868541     
   2506413988.7992134     
   2603536845.0871038     
   2566632880.6089454     
   2535827341.6094542     
   2511711584.7172275     
   2495092067.0575781     
   2618501091.1057978     
   2428693355.3676734     
   2234576864.0269551     
   2036154594.9153142     
   1833432272.3563943     
   2568157703.3779163     
   2381566938.5666771     
   2192187991.6274958     
   2000462491.6540322     
   1807099229.2834988     
   2530774070.8133397     
   2352595596.4955568     
   2174243201.4553728     
   1997289358.1351657     
   1824167191.3277576     
   2506413988.7992134     
   2341781365.7781239     
   2180574770.0182543     
   2026006031.9496791     
   1882794532.3127456     
   2495092067.0575781     
   2348993789.3837018     
   2210699577.9121900     
   2085288183.1376629     
   1979753753.3665280     
   2863820285.3026223     
   1845887419.5461161     
   1732657682.1473391     
   2020846800.6646316     
   2183930132.4730940     
   499125120.55153984     
   1088850960.7371252     
   1651913816.7783792     
   2086653484.8183131     
   2389622672.6589165     
   2317545567.8459034     
   2197593117.3247051     
   2213803702.7295356     
   2353815855.4982147     
   2595009713.8757825     
   4495493523.1280098     
   3600666938.1111326     
   3039925219.0592871     
   2784974782.2417097     
   2796347840.3296046     
   7279057743.1594887     
   5542902380.8456697     
   4284700260.4345660     
   3440015143.6398792     
   2991685428.8928175     
   2183930132.4730940     
   2210342991.2998929     
   2247583788.7103405     
   2293838236.1231503     
   2348143549.9855247     
   2389622672.6589165     
   2405830203.4211483     
   2420614729.1333113     
   2433237199.4050913     
   2443328190.1217065     
   2595009713.8757825     
   2607222104.2957935     
   2608746858.9103694     
   2599307783.5588846     
   2578775299.0128703     
   2796347840.3296046     
   2812991099.2188435     
   2812711274.5981116     
   2795432249.9025607     
   2761321154.8719115     
   2991685428.8928175     
   3022574804.6912441     
   3033629589.6291647     
   3024840346.4246011     
   2996895147.1608377     
   2348143549.9855247     
   2381642313.8349280     
   2402542630.9253864     
   2410266320.6845007     
   2404361670.1312919     
   2443328190.1217065     
   2454669169.9306979     
   2462468676.6374288     
   2466549818.6436520     
   2466770464.7234931     
   2578775299.0128703     
   2562648294.1212749     
   2552025395.9619327     
   2546963031.7541199     
   2547547168.1224699     
   2761321154.8719115     
   2710666113.9260073     
   2673699615.2097774     
   2650763411.0336900     
   2642340051.9483156     
   2996895147.1608377     
   2902652427.2782731     
   2828985369.6047888     
   2776756795.6839266     
   2747276275.7803788     
   2404361670.1312919     
   2383323386.2919188     
   2384510983.4118233     
   2408478611.2147255     
   2455746918.2373714     
   2466770464.7234931     
   2432200555.0929561     
   2415469623.5671082     
   2417361049.5912018     
   2438611257.6782804     
   2547547168.1224699     
   2496585468.7557707     
   2458725779.7922201     
   2434877233.2160397     
   2425984786.2685061     
   2642340051.9483156     
   2574827505.0749879     
   2515113975.3927507     
   2464067955.9285016     
   2422744790.2265992     
   2747276275.7803788     
   2665284722.0562878     
   2585307186.5130587     
   2508014062.1445117     
   2434428158.0200720     
   2455746918.2373714     
   2462174610.9792252     
   2475265515.4876637     
   2495081323.0208945     
   2521719537.0449452     
   2438611257.6782804     
   2422979287.7127481     
   2414089863.5326796     
   2412107445.5288668     
   2417182874.2778215     
   2425984786.2685061     
   2389801294.8227735     
   2360656897.3743939     
   2338700251.9455547     
   2324070541.3018270     
   2422744790.2265992     
   2367551289.5767221     
   2319867230.4173474     
   2279705733.8166122     
   2247122656.4429297     
   2434428158.0200720     
   2361857957.3543253     
   2297409980.4983573     
   2240839560.1795101     
   2192038110.0482159     
   2521719537.0449452     
   2533442458.3398070     
   2550985168.0757723     
   2574338055.3282638     
   2603536845.0871038     
   2417182874.2778215     
   2416237692.6864228     
   2423941807.3365073     
   2440347045.7838993     
   2465518059.4598565     
   2324070541.3018270     
   2307429102.0783796     
   2302389241.3434830     
   2309150617.6553931     
   2327881259.1528106     
   2247122656.4429297     
   2210931813.6964445     
   2189360401.0903420     
   2182907664.7932777     
   2191986855.2510400     
   2192038110.0482159     
   2131612852.5900705     
   2088732100.4030893     
   2064433530.4342830     
   2059627347.9422002     
   2603536845.0871038     
   2566632880.6089454     
   2535827341.6094542     
   2511711584.7172275     
   2495092067.0575781     
   2465518059.4598565     
   2434391629.1936293     
   2411811120.1954265     
   2398747200.7009325     
   2396591716.1549029     
   2327881259.1528106     
   2305125376.3940458     
   2293647100.5228968     
   2294892540.1106319     
   2310986952.1697807     
   2191986855.2510400     
   2179569244.5291805     
   2181615848.9383402     
   2200148615.0761185     
   2238149305.6815109     
   2059627347.9422002     
   2058640040.4186115     
   2076033332.2451477     
   2114495672.0044589     
   2177929132.5846415     
   2495092067.0575781     
   2348993789.3837018     
   2210699577.9121900     
   2085288183.1376629     
   1979753753.3665280     
   2396591716.1549029     
   2275230304.2294149     
   2164231543.9345250     
   2070376668.5777538     
   2002443943.6239405     
   2310986952.1697807     
   2217696893.5284781     
   2137796894.4931579     
   2079616701.0670278     
   2053214960.9600556     
   2238149305.6815109     
   2176202327.2990284     
   2130935300.1477668     
   2111894328.0183127     
   2129784286.9443481     
   2177929132.5846415     
   2150469438.4764056     
   2143015952.5370178     
   2165889060.2468076     
   2229833768.1936584     
   7279057743.1594887     
   5542902380.8456697     
   4284700260.4345660     
   3440015143.6398792     
   2991685428.8928175     
   7837677418.6050406     
   6402204873.7006588     
   5114061332.1151905     
   3981144492.8967876     
   3090710662.9405718     
   8409090549.7009783     
   7038422507.7545319     
   5700944153.0359430     
   4425499452.8268852     
   3286270998.7445054     
   8232620935.8784313     
   7004042941.5175800     
   5835065289.0366116     
   4704098963.0830441     
   3596368992.2688336     
   7078906306.4381962     
   6149500502.6896305     
   5444582360.5605803     
   4788454206.8690557     
   4034497824.4991345     
   2991685428.8928175     
   3022574804.6912441     
   3033629589.6291647     
   3024840346.4246011     
   2996895147.1608377     
   3090710662.9405718     
   3099956005.9554429     
   3111508301.9139004     
   3124694652.1031895     
   3139095783.2616677     
   3286270998.7445054     
   3263613501.9313574     
   3260994550.1874480     
   3275890466.4839354     
   3306189802.8509221     
   3596368992.2688336     
   3525017841.0136290     
   3485314937.0738487     
   3473012554.3819814     
   3485277187.1522999     
   4034497824.4991345     
   3890528759.5480700     
   3784066157.4334431     
   3709996930.8066478     
   3666479317.6758585     
   2996895147.1608377     
   2902652427.2782731     
   2828985369.6047888     
   2776756795.6839266     
   2747276275.7803788     
   3139095783.2616677     
   3029071566.4551144     
   2931930658.9811592     
   2848833294.9058118     
   2781291658.6282382     
   3306189802.8509221     
   3181340239.7205877     
   3062637973.0433536     
   2950958703.7903590     
   2847478191.0723057     
   3485277187.1522999     
   3350668032.0605116     
   3216241009.1269841     
   3082273949.2243767     
   2949341730.0059075     
   3666479317.6758585     
   3529881532.1558123     
   3388263539.5117245     
   3241311559.1541181     
   3089123309.8643379     
   2747276275.7803788     
   2665284722.0562878     
   2585307186.5130587     
   2508014062.1445117     
   2434428158.0200720     
   2781291658.6282382     
   2673789612.3274059     
   2568835159.1385436     
   2467042903.7345691     
   2369216124.2631168     
   2847478191.0723057     
   2718575233.2878337     
   2593042460.3591700     
   2471340697.8967571     
   2354031518.4262886     
   2949341730.0059075     
   2802556514.0920849     
   2660210930.8990417     
   2522551363.8696384     
   2389921281.0981221     
   3089123309.8643379     
   2927046947.1575680     
   2770617691.2978783     
   2619832883.1763754     
   2474869820.5252151     
   2434428158.0200720     
   2361857957.3543253     
   2297409980.4983573     
   2240839560.1795101     
   2192038110.0482159     
   2369216124.2631168     
   2286878530.6287403     
   2212745570.5351725     
   2146975297.5003619     
   2089817586.6811972     
   2354031518.4262886     
   2258476960.2199059     
   2170573885.4233346     
   2090821867.4675331     
   2019829917.1575999     
   2389921281.0981221     
   2278694275.7261672     
   2173943150.1999521     
   2076353982.2158902     
   1986790952.4282117     
   2474869820.5252151     
   2346626352.3296971     
   2223232968.3513775     
   2105340379.4462733     
   1993856432.4297690     
   2192038110.0482159     
   2131612852.5900705     
   2088732100.4030893     
   2064433530.4342830     
   2059627347.9422002     
   2089817586.6811972     
   2008570548.6620526     
   1941338724.3734653     
   1889486136.8736224     
   1854327272.2038713     
   2019829917.1575999     
   1916962328.4859290     
   1823637803.7213190     
   1741271667.8816102     
   1671411408.8312833     
   1986790952.4282117     
   1864824292.5185995     
   1747233640.8902037     
   1635002416.8915527     
   1529358142.5495105     
   1993856432.4297690     
   1859002446.2953289     
   1723673815.6439729     
   1588138559.4579575     
   1452807467.0840795     
   2059627347.9422002     
   2058640040.4186115     
   2076033332.2451477     
   2114495672.0044589     
   2177929132.5846415     
   1854327272.2038713     
   1845976157.4895537     
   1859995857.8001339     
   1898612728.5549357     
   1964921681.8614430     
   1671411408.8312833     
   1644727282.2491491     
   1645426136.6311522     
   1675855452.8056104     
   1738662537.2124305     
   1529358142.5495105     
   1469790164.3078172     
   1442871483.3759460     
   1452534163.8203654     
   1502097393.1903415     
   1452807467.0840795     
   1344191440.1934106     
   1270794815.2828407     
   1240794646.8547354     
   1261323371.4940758     
   2177929132.5846415     
   2150469438.4764056     
   2143015952.5370178     
   2165889060.2468076     
   2229833768.1936584     
   1964921681.8614430     
   1964606439.5125978     
   2001126147.1922777     
   2092956456.2721057     
   2258406184.4828472     
   1738662537.2124305     
   1784689858.0152013     
   1883016100.2726047     
   2060364516.2838314     
   2341635432.3740010     
   1502097393.1903415     
   1611423236.5351505     
   1787954872.7887874     
   2066272307.3918867     
   2476305765.1641450     
   1261323371.4940758     
   1445827512.0181859     
   1715390656.4893177     
   2110439496.0191040     
   2663215811.5370688     
   7078906306.4381962     
   6149500502.6896305     
   5444582360.5605803     
   4788454206.8690557     
   4034497824.4991345     
   5617897775.3164606     
   5286452836.8954563     
   5005853920.8573284     
   4711415237.0422430     
   4361832557.4978619     
   5289293203.5276308     
   5122316989.7636604     
   4962463576.4880724     
   4806624804.1708651     
   4653441091.4492340     
   5982141248.1302662     
   5623713898.7459927     
   5333819790.1035757     
   5083832425.8862438     
   4862542187.7816963     
   7583600260.5738993     
   6791289577.3749504     
   6141070064.1552992     
   5543111312.9691010     
   4962903987.9698124     
   4034497824.4991345     
   3890528759.5480700     
   3784066157.4334431     
   3709996930.8066478     
   3666479317.6758585     
   4361832557.4978619     
   4212775396.1444845     
   4074738785.4262691     
   3947618860.0568304     
   3832316034.2578483     
   4653441091.4492340     
   4503801778.6358099     
   4352143161.7838697     
   4198439917.1010647     
   4042905513.2346435     
   4862542187.7816963     
   4735510868.2823229     
   4600842589.1213045     
   4456041662.9986372     
   4299891162.8618975     
   4962903987.9698124     
   4891563800.4919348     
   4811167102.5875301     
   4715749025.7898540     
   4603710941.9334354     
   3666479317.6758585     
   3529881532.1558123     
   3388263539.5117245     
   3241311559.1541181     
   3089123309.8643379     
   3832316034.2578483     
   3679747610.9450092     
   3525869080.4368258     
   3370729084.9756980     
   3214495663.5262823     
   4042905513.2346435     
   3872227885.9772644     
   3703537408.7319202     
   3536857967.2637215     
   3372298937.5826216     
   4299891162.8618975     
   4106333448.3210082     
   3917216041.7135386     
   3732296633.7842264     
   3551637335.5207109     
   4603710941.9334354     
   4380268967.8775187     
   4162701211.9191842     
   3950406734.8085628     
   3743546217.7910576     
   3089123309.8643379     
   2927046947.1575680     
   2770617691.2978783     
   2619832883.1763754     
   2474869820.5252151     
   3214495663.5262823     
   3051080205.0915008     
   2890830902.0710206     
   2733859627.1581984     
   2580372007.6751170     
   3372298937.5826216     
   3206965377.7869816     
   3042712832.1685128     
   2879649056.3419609     
   2717921669.2418280     
   3551637335.5207109     
   3385077282.8003316     
   3217905032.2721047     
   3050144531.6617866     
   2881845464.6984367     
   3743546217.7910576     
   3577419247.4216118     
   3409346345.7608118     
   3239224208.4280071     
   3067005622.7813196     
   2474869820.5252151     
   2346626352.3296971     
   2223232968.3513775     
   2105340379.4462733     
   1993856432.4297690     
   2580372007.6751170     
   2437836267.7526960     
   2298122509.9491801     
   2161640767.8666577     
   2028988090.0559456     
   2717921669.2418280     
   2564099763.8667955     
   2411660870.7212882     
   2260792222.2263460     
   2111780562.4809988     
   2881845464.6984367     
   2719931838.9791369     
   2558591225.0507188     
   2397866965.1038380     
   2237836044.0183220     
   3067005622.7813196     
   2900064088.8511562     
   2733454214.0759339     
   2567163039.3549433     
   2401181374.2560391     
   1993856432.4297690     
   1859002446.2953289     
   1723673815.6439729     
   1588138559.4579575     
   1452807467.0840795     
   2028988090.0559456     
   1888911898.3682933     
   1748898431.7215750     
   1609035817.4015021     
   1469449966.6646004     
   2111780562.4809988     
   1968843294.5241504     
   1826782715.9462836     
   1685619983.7050385     
   1545401076.8926437     
   2237836044.0183220     
   2092550841.3112841     
   1948898885.8692470     
   1806882185.5817077     
   1666576625.8506868     
   2401181374.2560391     
   2252352512.7035842     
   2105636041.3887472     
   1961032027.1135273     
   1818703583.3577442     
   1452807467.0840795     
   1344191440.1934106     
   1270794815.2828407     
   1240794646.8547354     
   1261323371.4940758     
   1469449966.6646004     
   1325565619.7942395     
   1196297207.7143910     
   1086211075.3653359     
   1001309730.2574615     
   1545401076.8926437     
   1395853845.3253233     
   1242828671.1199744     
   1084074836.2258039     
   917580095.70432734     
   1666576625.8506868     
   1551647725.8323629     
   1427627600.3757670     
   1294816539.1934106     
   1159291135.7557182     
   1818703583.3577442     
   1778916070.0872009     
   1735612836.4851222     
   1697341393.2967391     
   1682613460.6032925     
   1261323371.4940758     
   1445827512.0181859     
   1715390656.4893177     
   2110439496.0191040     
   2663215811.5370688     
   1001309730.2574615     
   1164272643.9063351     
   1425177683.3878047     
   1808555498.1540923     
   2334386944.8971119     
   917580095.70432734     
   963003335.53378117     
   1144738721.0431771     
   1476233281.9306433     
   1957172675.4392159     
   1159291135.7557182     
   1008700407.4901583     
   985156537.74063754     
   1161221909.4758415     
   1544025734.3321857     
   1682613460.6032925     
   1384630837.0469370     
   1129657515.9576678     
   1009691775.8376743     
   1152848580.9892356     
 </DataArray>
 <DataArray  type="Float64" Name="strain" NumberOfComponents="3" format="ascii">
  0.10886097614270418       -3.2270176276475881E-002   6.3675697900611450E-003
  0.10270573877955980       -2.8267518040326900E-002  -2.9107354644825056E-003
   9.6550501416415302E-002  -2.5730717322951568E-002  -7.9237599502387512E-003
   9.0395264053270807E-002  -2.4659774124349179E-002  -8.6715036672073698E-003
   8.4240026690126424E-002  -2.5054688444520412E-002  -5.1539666153886943E-003
   9.4797536199133003E-002  -3.0103664804843611E-002   1.0613126140996743E-002
   9.1558676503966763E-002  -2.6883262274978170E-002   6.7045578034891640E-003
   8.8319816808800355E-002  -2.4715641582277403E-002   4.3634640331504659E-003
   8.5080957113634087E-002  -2.3600802726740575E-002   3.5898448299807317E-003
   8.1842097418467707E-002  -2.3538745708368058E-002   4.3837001939798226E-003
   8.8712055951375712E-002  -2.7937153333211340E-002   1.3869888944844477E-002
   8.5691767722569145E-002  -2.5499006509629774E-002   1.5744133205981614E-002
   8.2671479493762523E-002  -2.3700565841603211E-002   1.6488045832669468E-002
   7.9651191264955928E-002  -2.2541831329131741E-002   1.6101626824907789E-002
   7.6630903036149334E-002  -2.2022802972215594E-002   1.4584876182696771E-002
   9.0604535399432140E-002  -2.5770641861579069E-002   1.6137858201603947E-002
   8.5105012435366889E-002  -2.4114750744281085E-002   2.4207990742995109E-002
   7.9605489471301680E-002  -2.2685490100929032E-002   2.8449985448318692E-002
   7.4105966507236387E-002  -2.1482859931523022E-002   2.8863842317574270E-002
   6.8606443543171108E-002  -2.0506860236062963E-002   2.5449561350762082E-002
  0.10047497454330234       -2.3604130389946798E-002   1.7417033911275026E-002
   8.9798410642360049E-002  -2.2730494978932425E-002   3.2096130414529578E-002
   7.9121846741417756E-002  -2.1670414360254908E-002   4.0249282880097881E-002
   6.8445282840475491E-002  -2.0423888533914164E-002   4.1876491307980018E-002
   5.7768718939533198E-002  -1.8990917499910498E-002   3.6977755698175629E-002
   8.4240026690126424E-002  -2.5054688444520412E-002  -5.1539666153886943E-003
   8.2298551759902305E-002  -2.5813825922094802E-002  -1.4589416261973631E-003
   8.0357076829678076E-002  -2.5835552195702272E-002   1.0542761654347421E-003
   7.8415601899453929E-002  -2.5119867265342641E-002   2.3856867595083431E-003
   7.6474126969229728E-002  -2.3666771131015674E-002   2.5352901560234953E-003
   8.1842097418467707E-002  -2.3538745708368058E-002   4.3837001939798226E-003
   7.9131935368640383E-002  -2.3778566525276656E-002   6.2717988357513521E-003
   7.6421773318813113E-002  -2.3569361175583572E-002   7.8043304358752230E-003
   7.3711611268985816E-002  -2.2911129659288171E-002   8.9812949943516296E-003
   7.1001449219158519E-002  -2.1803871976391886E-002   9.8026925111805441E-003
   7.6630903036149334E-002  -2.2022802972215594E-002   1.4584876182696771E-002
   7.3978294022630148E-002  -2.1743307128458511E-002   1.4377663439683316E-002
   7.1325685009110865E-002  -2.1303170155465095E-002   1.4641123810933562E-002
   6.8673075995591665E-002  -2.0702392053234701E-002   1.5375257296447578E-002
   6.6020466982072423E-002  -1.9940972821768099E-002   1.6580063896224795E-002
   6.8606443543171108E-002  -2.0506860236062963E-002   2.5449561350762082E-002
   6.6837627721871212E-002  -1.9708047731640199E-002   2.2858652185598471E-002
   6.5068811900571288E-002  -1.9036979135346174E-002   2.1564656290609621E-002
   6.3299996079271392E-002  -1.8493654447181065E-002   2.1567573665795686E-002
   6.1531180257971475E-002  -1.8078073667144312E-002   2.2867404311156872E-002
   5.7768718939533198E-002  -1.8990917499910498E-002   3.6977755698175629E-002
   5.7709936466363826E-002  -1.7672788334822082E-002   3.1714765073496437E-002
   5.7651153993194440E-002  -1.6770788115227780E-002   2.8574927874903511E-002
   5.7592371520025061E-002  -1.6284916841127005E-002   2.7558244102396684E-002
   5.7533589046855682E-002  -1.6215174512520580E-002   2.8664713755975957E-002
   7.6474126969229728E-002  -2.3666771131015674E-002   2.5352901560234953E-003
   7.3052092991646389E-002  -2.1980028603491186E-002   1.0076358602133517E-003
   6.9630059014062995E-002  -2.0563404493539272E-002  -9.8663388783393202E-006
   6.6208025036479684E-002  -1.9416898801159446E-002  -5.1721644125032884E-004
   6.2785991058896262E-002  -1.8540511526352388E-002  -5.1441444690414340E-004
   7.1001449219158519E-002  -2.1803871976391886E-002   9.8026925111805441E-003
   6.8028438140324110E-002  -2.0535474821337329E-002   8.5071717104564515E-003
   6.5055427061489729E-002  -1.9393824888569888E-002   7.5995446105114606E-003
   6.2082415982655390E-002  -1.8378922178088175E-002   7.0798112113450717E-003
   5.9109404903820995E-002  -1.7490766689893911E-002   6.9479715129585617E-003
   6.6020466982072423E-002  -1.9940972821768099E-002   1.6580063896224795E-002
   6.3374220406047316E-002  -1.9090921039183500E-002   1.5660047785872405E-002
   6.0727973830022278E-002  -1.8224245283599810E-002   1.5005666980359253E-002
   5.8081727253997205E-002  -1.7340945555016897E-002   1.4616921479685879E-002
   5.5435480677972132E-002  -1.6441021853435323E-002   1.4493811283851576E-002
   6.1531180257971475E-002  -1.8078073667144312E-002   2.2867404311156872E-002
   5.9089439788816048E-002  -1.7646367257029658E-002   2.2466264086461560E-002
   5.6647699319660641E-002  -1.7054665678630135E-002   2.2208500770665829E-002
   5.4205958850505227E-002  -1.6302968931945844E-002   2.2094114363770307E-002
   5.1764218381349821E-002  -1.5391277016976679E-002   2.2123104865774512E-002
   5.7533589046855682E-002  -1.6215174512520580E-002   2.8664713755975957E-002
   5.5174096288630237E-002  -1.6201813474875787E-002   2.8925820612223430E-002
   5.2814603530404819E-002  -1.5885086073660307E-002   2.9208045981431369E-002
   5.0455110772179401E-002  -1.5264992308874615E-002   2.9511389863599344E-002
   4.8095618013953956E-002  -1.4341532180518368E-002   2.9835852258727313E-002
   6.2785991058896262E-002  -1.8540511526352388E-002  -5.1441444690414340E-004
   5.9852121324374896E-002  -1.7797185205710497E-002  -5.0095937164917892E-004
   5.6918251589853475E-002  -1.7049862375828506E-002  -3.1805583493405010E-004
   5.3984381855332136E-002  -1.6298543036706276E-002   3.4296163242186761E-005
   5.1050512120810687E-002  -1.5543227188342890E-002   5.5609662287947614E-004
   5.9109404903820995E-002  -1.7490766689893911E-002   6.9479715129585617E-003
   5.6313405073121547E-002  -1.6676323065387799E-002   6.9241699618753927E-003
   5.3517405242422156E-002  -1.5882555945972793E-002   7.0066597569751754E-003
   5.0721405411722681E-002  -1.5109465331649315E-002   7.1954408982585483E-003
   4.7925405581023262E-002  -1.4357051222416706E-002   7.4905133857244843E-003
   5.5435480677972132E-002  -1.6441021853435323E-002   1.4493811283851576E-002
   5.2714193635816892E-002  -1.5555460925065157E-002   1.4408080092099179E-002
   4.9992906593661665E-002  -1.4715249516117745E-002   1.4365483131252132E-002
   4.7271619551506404E-002  -1.3920387626592576E-002   1.4366020401310270E-002
   4.4550332509351198E-002  -1.3170875256490300E-002   1.4409691902273647E-002
   5.1764218381349821E-002  -1.5391277016976679E-002   2.2123104865774512E-002
   4.9054487012461019E-002  -1.4434598784742264E-002   2.1950771019021147E-002
   4.6344755643572155E-002  -1.3547943086262143E-002   2.1758414287895551E-002
   4.3635024274683305E-002  -1.2731309921535948E-002   2.1546034672397671E-002
   4.0925292905794497E-002  -1.1984699290563894E-002   2.1313632172526617E-002
   4.8095618013953956E-002  -1.4341532180518368E-002   2.9835852258727313E-002
   4.5334285203053770E-002  -1.3313736644419483E-002   2.9552242742641843E-002
   4.2572952392153529E-002  -1.2380636656406430E-002   2.9185453226905966E-002
   3.9811619581253344E-002  -1.1542232216479237E-002   2.8735483711520016E-002
   3.7050286770353102E-002  -1.0798523324637710E-002   2.8202334196483769E-002
   5.1050512120810687E-002  -1.5543227188342890E-002   5.5609662287947614E-004
   4.8322464762478590E-002  -1.4757520138493629E-002   4.4854152159046201E-004
   4.5594417404146603E-002  -1.3915027194912277E-002   3.3579253107418605E-004
   4.2866370045814561E-002  -1.3015748357599180E-002   2.1784965133136991E-004
   4.0138322687482519E-002  -1.2059683626554074E-002   9.4712882361402961E-005
   4.7925405581023262E-002  -1.4357051222416706E-002   7.4905133857244843E-003
   4.5228365093181899E-002  -1.3594512697173822E-002   7.2180481276903352E-003
   4.2531324605340592E-002  -1.2791048834819629E-002   7.0127904998650292E-003
   3.9834284117499147E-002  -1.1946659635354323E-002   6.8747405022476504E-003
   3.7137243629657812E-002  -1.1061345098777098E-002   6.8038981348390593E-003
   4.4550332509351198E-002  -1.3170875256490300E-002   1.4409691902273647E-002
   4.1956700411436038E-002  -1.2431505255853958E-002   1.3956455930873912E-002
   3.9363068313520905E-002  -1.1667070474726732E-002   1.3642829109118015E-002
   3.6769436215605758E-002  -1.0877570913109015E-002   1.3468811437005970E-002
   3.4175804117690667E-002  -1.0063006571000455E-002   1.3434402914538401E-002
   4.0925292905794497E-002  -1.1984699290563894E-002   2.1313632172526617E-002
   3.8507470717241130E-002  -1.1268497814534123E-002   2.0663764931140444E-002
   3.6089648528687755E-002  -1.0543092114633848E-002   2.0225908358833707E-002
   3.3671826340134381E-002  -9.8084821908638216E-003   2.0000062455606354E-002
   3.1254004151580958E-002  -9.0646680432238669E-003   1.9986227221458999E-002
   3.7050286770353102E-002  -1.0798523324637710E-002   2.8202334196483769E-002
   3.4880676010597078E-002  -1.0105490373214399E-002   2.7339975128490179E-002
   3.2711065250841082E-002  -9.4191137545408810E-003   2.6762028249012026E-002
   3.0541454491085057E-002  -8.7393934686188848E-003   2.6468493558048756E-002
   2.8371843731329061E-002  -8.0663295154470571E-003   2.6459371055600589E-002
   4.0138322687482519E-002  -1.2059683626554074E-002   9.4712882361402961E-005
   3.7669827620259611E-002  -1.1168393236615337E-002  -2.5735522423464552E-004
   3.5201332553036924E-002  -1.0463437422622179E-002  -4.9378194049254365E-004
   3.2732837485814181E-002  -9.9448161845733102E-003  -6.1456726641073711E-004
   3.0264342418591328E-002  -9.6125295224687157E-003  -6.1971120199055818E-004
   3.7137243629657812E-002  -1.1061345098777098E-002   6.8038981348390593E-003
   3.4758824020084955E-002  -1.0216871920150972E-002   6.3114323269329864E-003
   3.2380404410512070E-002  -9.4950067945345773E-003   5.8834760439873124E-003
   3.0001984800939227E-002  -8.8957497219304821E-003   5.5200292860025091E-003
   2.7623565191366328E-002  -8.4191007023384223E-003   5.2210920529786042E-003
   3.4175804117690667E-002  -1.0063006571000455E-002   1.3434402914538401E-002
   3.1836328100389388E-002  -9.2653506036857181E-003   1.2865265928256042E-002
   2.9496852083088193E-002  -8.5265761664487794E-003   1.2309506601555831E-002
   2.7157376065786956E-002  -7.8466832592896593E-003   1.1767124934438086E-002
   2.4817900048485719E-002  -7.2256718822081289E-003   1.1238120926902906E-002
   3.1254004151580958E-002  -9.0646680432238669E-003   1.9986227221458999E-002
   2.8902339861173132E-002  -8.3138292872204644E-003   1.9404145579733606E-002
   2.6550675570765209E-002  -7.5581455383623014E-003   1.8784309732212560E-002
   2.4199011280357310E-002  -6.7976167966477229E-003   1.8126719678895429E-002
   2.1847346989949404E-002  -6.0322430620781686E-003   1.7431375419782763E-002
   2.8371843731329061E-002  -8.0663295154470571E-003   2.6459371055600589E-002
   2.5956859302436130E-002  -7.3623079707558770E-003   2.5928071281366205E-002
   2.3541874873543200E-002  -6.5897149102756847E-003   2.5307885435957800E-002
   2.1126890444650270E-002  -5.7485503340060848E-003   2.4598813519374652E-002
   1.8711906015757340E-002  -4.8388142419477642E-003   2.3800855531617482E-002
   3.0264342418591328E-002  -9.6125295224687157E-003  -6.1971120199055818E-004
   2.9651504362859682E-002  -9.1638791384677232E-003  -3.5603343322487824E-004
   2.9038666307128036E-002  -8.2961667347271062E-003  -1.7826224826129611E-003
   2.8425828251396390E-002  -7.0093923112472256E-003  -4.8994783501544181E-003
   2.7812990195664744E-002  -5.3035558680289974E-003  -9.7066010358497490E-003
   2.7623565191366328E-002  -8.4191007023384223E-003   5.2210920529786042E-003
   2.5592280441155024E-002  -7.8947372964279783E-003   5.9102514524551619E-003
   2.3560995690943554E-002  -7.1523370648720608E-003   5.4527842811260552E-003
   2.1529710940732083E-002  -6.1919000076690045E-003   3.8486905389908677E-003
   1.9498426190520779E-002  -5.0134261248198086E-003   1.0979702260491830E-003
   2.4817900048485719E-002  -7.2256718822081289E-003   1.1238120926902906E-002
   2.1911808851142217E-002  -6.6255954543891771E-003   1.2151736762997856E-002
   1.9005717653798770E-002  -6.0085073950167378E-003   1.2462366275633852E-002
   1.6099626456455296E-002  -5.3744077040901034E-003   1.2170009464812670E-002
   1.3193535259111822E-002  -4.7232963816103979E-003   1.1274666330532535E-002
   2.1847346989949404E-002  -6.0322430620781686E-003   1.7431375419782763E-002
   1.8610089592821531E-002  -5.3564536123500150E-003   1.8368422498402981E-002
   1.5372832195693686E-002  -4.8646777251613316E-003   1.9246123500912191E-002
   1.2135574798565744E-002  -4.5569154005115423E-003   2.0064478427311287E-002
   8.8983174014379690E-003  -4.4331666384013202E-003   2.0823487277599501E-002
   1.8711906015757340E-002  -4.8388142419477642E-003   2.3800855531617482E-002
   1.5687122666192765E-002  -4.0873117703105755E-003   2.4560308658670316E-002
   1.2662339316628191E-002  -3.7208480553060086E-003   2.5804055956959837E-002
   9.6375559670636435E-003  -3.7394230969325579E-003   2.7532097426486796E-002
   6.6127726174990409E-003  -4.1430368951919094E-003   2.9744433067250831E-002
   2.7812990195664744E-002  -5.3035558680289974E-003  -9.7066010358497490E-003
   2.3372390589355918E-002  -4.2068901890419674E-003  -4.1904407035957547E-003
   1.8931790983047314E-002  -4.7476280582586794E-003   2.5947322142496621E-003
   1.4491191376738655E-002  -6.9257694756792165E-003   1.0648917717687278E-002
   1.0050591770429884E-002  -1.0741314441302663E-002   1.9972115806717206E-002
   1.9498426190520779E-002  -5.0134261248198086E-003   1.0979702260491830E-003
   1.6253457889708167E-002  -4.6863225336896130E-003   6.7713318732970373E-003
   1.3008489588895666E-002  -6.2799963516463331E-003   1.3566943545945565E-002
   9.7635212880829159E-003  -9.7944475786877760E-003   2.1484805243993488E-002
   6.5185529872706649E-003  -1.5229676214816745E-002   3.0524916967442195E-002
   1.3193535259111822E-002  -4.7232963816103979E-003   1.1274666330532535E-002
   1.0997435703603342E-002  -5.1657548783381468E-003   1.6821855431892241E-002
   8.8013361480949737E-003  -7.8123646450335982E-003   2.3344531998460261E-002
   6.6052365925865913E-003  -1.2663125681698126E-002   3.0842696030236177E-002
   4.4091370370781813E-003  -1.9718037988330384E-002   3.9316347527220685E-002
   8.8983174014379690E-003  -4.4331666384013202E-003   2.0823487277599501E-002
   7.6043240310416788E-003  -5.6451872229860145E-003   2.5961129972188607E-002
   6.3103306606454510E-003  -9.3447329384212796E-003   3.1927497571794416E-002
   5.0163372902492613E-003  -1.5531803784706914E-002   3.8722590076415965E-002
   3.7223439198530578E-003  -2.4206399761844244E-002   4.6346407486054064E-002
   6.6127726174990409E-003  -4.1430368951919094E-003   2.9744433067250831E-002
   6.0741228720230800E-003  -6.1246195676337711E-003   3.4189155494187107E-002
   5.5354731265471191E-003  -1.0877101231808489E-002   3.9315840265947644E-002
   4.9968233810712553E-003  -1.8400481887716695E-002   4.5124487382532469E-002
   4.4581736355951973E-003  -2.8694761535358104E-002   5.1615096843941721E-002
  0.10047497454330234       -2.3604130389946798E-002   1.7417033911275026E-002
   8.9798410642360049E-002  -2.2730494978932425E-002   3.2096130414529578E-002
   7.9121846741417756E-002  -2.1670414360254908E-002   4.0249282880097881E-002
   6.8445282840475491E-002  -2.0423888533914164E-002   4.1876491307980018E-002
   5.7768718939533198E-002  -1.8990917499910498E-002   3.6977755698175629E-002
  0.10872041432623164       -2.1089078615542822E-002   3.1388774036791078E-002
   9.3398404805589530E-002  -2.0755240326944868E-002   3.6970369356997546E-002
   7.8076395284947531E-002  -2.0107929612688064E-002   3.9787017475490710E-002
   6.2754385764305490E-002  -1.9147146472772388E-002   3.9838718392270295E-002
   4.7432376243663393E-002  -1.7872890907197819E-002   3.7125472107336799E-002
  0.10573789569146549       -1.8574026841138874E-002   4.4757203430893067E-002
   8.9531437387096457E-002  -1.8779985674957367E-002   4.1368324786047017E-002
   7.3324979082727573E-002  -1.8545444865121247E-002   3.8975495775460597E-002
   5.7118520778358640E-002  -1.7870404411630555E-002   3.7578716399133794E-002
   4.0912062473989715E-002  -1.6754864314485279E-002   3.7177986657066495E-002
   9.1527418639003599E-002  -1.6058975066734926E-002   5.7522322093580602E-002
   7.8197508386880693E-002  -1.6804731022969782E-002   4.5289996701677944E-002
   6.4867598134757884E-002  -1.6982960117554444E-002   3.7814717780007813E-002
   5.1537687882634985E-002  -1.6593662350488668E-002   3.5096485328570126E-002
   3.8207777630512155E-002  -1.5636837721772670E-002   3.7135299347365008E-002
   6.6088983168846205E-002  -1.3543923292330950E-002   6.9684130024853852E-002
   5.9396617804942320E-002  -1.4829476370982281E-002   4.8735385103890250E-002
   5.2704252441038407E-002  -1.5420475369987641E-002   3.6304683489131906E-002
   4.6011887077134508E-002  -1.5316920289346850E-002   3.2392025180579154E-002
   3.9319521713230610E-002  -1.4518811129060116E-002   3.6997410178231882E-002
   5.7768718939533198E-002  -1.8990917499910498E-002   3.6977755698175629E-002
   5.7709936466363826E-002  -1.7672788334822082E-002   3.1714765073496437E-002
   5.7651153993194440E-002  -1.6770788115227780E-002   2.8574927874903511E-002
   5.7592371520025061E-002  -1.6284916841127005E-002   2.7558244102396684E-002
   5.7533589046855682E-002  -1.6215174512520580E-002   2.8664713755975957E-002
   4.7432376243663393E-002  -1.7872890907197819E-002   3.7125472107336799E-002
   4.8955473715301887E-002  -1.6621140574198556E-002   3.4749931009423640E-002
   5.0478571186940394E-002  -1.5727873132009081E-002   3.3414996375040237E-002
   5.2001668658578915E-002  -1.5193088580628998E-002   3.3120668204186222E-002
   5.3524766130217338E-002  -1.5016786920058478E-002   3.3866946496861755E-002
   4.0912062473989715E-002  -1.6754864314485279E-002   3.7177986657066495E-002
   4.2934492927879507E-002  -1.5569492813575267E-002   3.7747541140603878E-002
   4.4956923381769293E-002  -1.4684958148790492E-002   3.8275155125114382E-002
   4.6979353835659113E-002  -1.4101260320130770E-002   3.8760828610597813E-002
   4.9001784289548878E-002  -1.3818399327596348E-002   3.9204561597054141E-002
   3.8207777630512155E-002  -1.5636837721772670E-002   3.7135299347365008E-002
   3.9646994104096639E-002  -1.4517845052951887E-002   4.0707595467037103E-002
   4.1086210577681172E-002  -1.3642043165571903E-002   4.3155404125125793E-002
   4.2525427051265691E-002  -1.3009432059632653E-002   4.4478725321630795E-002
   4.3964643524850189E-002  -1.2620011735134121E-002   4.4677559056552449E-002
   3.9319521713230610E-002  -1.4518811129060116E-002   3.6997410178231882E-002
   3.9092977243953303E-002  -1.3466197292328480E-002   4.3630093988723306E-002
   3.8866432774675996E-002  -1.2599128182353245E-002   4.8055743375074705E-002
   3.8639888305398690E-002  -1.1917603799134490E-002   5.0274358337285857E-002
   3.8413343836121383E-002  -1.1421624142672115E-002   5.0285938875356928E-002
   5.7533589046855682E-002  -1.6215174512520580E-002   2.8664713755975957E-002
   5.5174096288630237E-002  -1.6201813474875787E-002   2.8925820612223430E-002
   5.2814603530404819E-002  -1.5885086073660307E-002   2.9208045981431369E-002
   5.0455110772179401E-002  -1.5264992308874615E-002   2.9511389863599344E-002
   4.8095618013953956E-002  -1.4341532180518368E-002   2.9835852258727313E-002
   5.3524766130217338E-002  -1.5016786920058478E-002   3.3866946496861755E-002
   5.1229793683787800E-002  -1.4901826069054713E-002   3.3926880045538260E-002
   4.8934821237358289E-002  -1.4551063946374981E-002   3.4094735704846404E-002
   4.6639848790928792E-002  -1.3964500552019483E-002   3.4370513474785959E-002
   4.4344876344499212E-002  -1.3142135885988115E-002   3.4754213355357388E-002
   4.9001784289548878E-002  -1.3818399327596348E-002   3.9204561597054141E-002
   4.6858135752586752E-002  -1.3601838663233765E-002   3.8995756746264654E-002
   4.4714487215624585E-002  -1.3217041819089760E-002   3.8981677603778513E-002
   4.2570838678662432E-002  -1.2664008795164517E-002   3.9162324169595239E-002
   4.0427190141700292E-002  -1.1942739591457807E-002   3.9537696443715409E-002
   4.3964643524850189E-002  -1.2620011735134121E-002   4.4677559056552449E-002
   4.2059122495026913E-002  -1.2301851257412753E-002   4.4132450714402659E-002
   4.0153601465203616E-002  -1.1883019691804515E-002   4.3868871678227610E-002
   3.8248080435380388E-002  -1.1363517038309272E-002   4.3886821948026969E-002
   3.6342559405557105E-002  -1.0743343296927582E-002   4.4186301523801125E-002
   3.8413343836121383E-002  -1.1421624142672115E-002   5.0285938875356928E-002
   3.6832753911108435E-002  -1.1001863851591742E-002   4.9336961949952240E-002
   3.5252163986095542E-002  -1.0548997564519186E-002   4.8756317928193710E-002
   3.3671574061082621E-002  -1.0063025281454356E-002   4.8544006810081114E-002
   3.2090984136069672E-002  -9.5439470023973572E-003   4.8700028595614842E-002
   4.8095618013953956E-002  -1.4341532180518368E-002   2.9835852258727313E-002
   4.5334285203053770E-002  -1.3313736644419483E-002   2.9552242742641843E-002
   4.2572952392153529E-002  -1.2380636656406430E-002   2.9185453226905966E-002
   3.9811619581253344E-002  -1.1542232216479237E-002   2.8735483711520016E-002
   3.7050286770353102E-002  -1.0798523324637710E-002   2.8202334196483769E-002
   4.4344876344499212E-002  -1.3142135885988115E-002   3.4754213355357388E-002
   4.1566203075851849E-002  -1.2229870441973850E-002   3.4294151215932350E-002
   3.8787529807204540E-002  -1.1373604713670965E-002   3.3882588160663529E-002
   3.6008856538557232E-002  -1.0573338701078704E-002   3.3519524189550703E-002
   3.3230183269909896E-002  -9.8290724041973920E-003   3.3204959302593595E-002
   4.0427190141700292E-002  -1.1942739591457807E-002   3.9537696443715409E-002
   3.7762855499112041E-002  -1.1146004239528440E-002   3.8939877513325782E-002
   3.5098520856523874E-002  -1.0366572770935389E-002   3.8522236750898636E-002
   3.2434186213935706E-002  -9.6044451856783369E-003   3.8284774156433582E-002
   2.9769851571347455E-002  -8.8596214837572962E-003   3.8227489729931202E-002
   3.6342559405557105E-002  -1.0743343296927582E-002   4.4186301523801125E-002
   3.3924242472834251E-002  -1.0062138037083085E-002   4.3489421634821925E-002
   3.1505925540111508E-002  -9.3595408281997305E-003   4.3104398997610899E-002
   2.9087608607388734E-002  -8.6355516702777760E-003   4.3031233612168755E-002
   2.6669291674665967E-002  -7.8901705633172003E-003   4.3269925478495196E-002
   3.2090984136069672E-002  -9.5439470023973572E-003   4.8700028595614842E-002
   3.0050363997018575E-002  -8.9782718346375079E-003   4.7942783580420367E-002
   2.8009743857967478E-002  -8.3525088854642660E-003   4.7629074900801038E-002
   2.5969123718916381E-002  -7.6666581548774718E-003   4.7758902556756383E-002
   2.3928503579865257E-002  -6.9207196428769935E-003   4.8332266548286595E-002
   3.7050286770353102E-002  -1.0798523324637710E-002   2.8202334196483769E-002
   3.4880676010597078E-002  -1.0105490373214399E-002   2.7339975128490179E-002
   3.2711065250841082E-002  -9.4191137545408810E-003   2.6762028249012026E-002
   3.0541454491085057E-002  -8.7393934686188848E-003   2.6468493558048756E-002
   2.8371843731329061E-002  -8.0663295154470571E-003   2.6459371055600589E-002
   3.3230183269909896E-002  -9.8290724041973920E-003   3.3204959302593595E-002
   3.1305306486265699E-002  -9.1218507362174073E-003   3.2650320886656758E-002
   2.9380429702621572E-002  -8.4327186103286822E-003   3.2300738234428639E-002
   2.7455552918977451E-002  -7.7616760265317997E-003   3.2156211345908944E-002
   2.5530676135333302E-002  -7.1087229848263433E-003   3.2216740221097884E-002
   2.9769851571347455E-002  -8.8596214837572962E-003   3.8227489729931202E-002
   2.8010352339008671E-002  -8.1382110992206935E-003   3.7969138756709708E-002
   2.6250853106669844E-002  -7.4463234661164696E-003   3.7836487122390322E-002
   2.4491353874331039E-002  -6.7839585844450441E-003   3.7829534826973342E-002
   2.2731854641992233E-002  -6.1511164542059626E-003   3.7948281870458206E-002
   2.6669291674665967E-002  -7.8901705633172003E-003   4.3269925478495196E-002
   2.4995813568825923E-002  -7.1545714622238410E-003   4.3296428738648363E-002
   2.3322335462985993E-002  -6.4599283219042083E-003   4.3369274912897104E-002
   2.1648857357146035E-002  -5.8062411423581792E-003   4.3488464001241678E-002
   1.9975379251306075E-002  -5.1935099235855819E-003   4.3653996003681646E-002
   2.3928503579865257E-002  -6.9207196428769935E-003   4.8332266548286595E-002
   2.2261690175717608E-002  -6.1709318252269885E-003   4.8632190832473443E-002
   2.0594876771569931E-002  -5.4735331776919471E-003   4.8899101605949125E-002
   1.8928063367422268E-002  -4.8285237002710091E-003   4.9132998868714056E-002
   1.7261249963274605E-002  -4.2359033929649792E-003   4.9333882620767988E-002
   2.8371843731329061E-002  -8.0663295154470571E-003   2.6459371055600589E-002
   2.5956859302436130E-002  -7.3623079707558770E-003   2.5928071281366205E-002
   2.3541874873543200E-002  -6.5897149102756847E-003   2.5307885435957800E-002
   2.1126890444650270E-002  -5.7485503340060848E-003   2.4598813519374652E-002
   1.8711906015757340E-002  -4.8388142419477642E-003   2.3800855531617482E-002
   2.5530676135333302E-002  -7.1087229848263433E-003   3.2216740221097884E-002
   2.3075411228683951E-002  -6.4508709111231188E-003   3.1824621703874234E-002
   2.0620146322034655E-002  -5.7651312313325986E-003   3.1440828302312068E-002
   1.8164881415385310E-002  -5.0515039454547828E-003   3.1065360016411220E-002
   1.5709616508736007E-002  -4.3099890534895602E-003   3.0698216846171633E-002
   2.2731854641992233E-002  -6.1511164542059626E-003   3.7948281870458206E-002
   2.0333520444422132E-002  -5.5394338514905828E-003   3.7654660700543463E-002
   1.7935186246852086E-002  -4.9405475523896375E-003   3.7466575833125751E-002
   1.5536852049282054E-002  -4.3544575569032622E-003   3.7384027268205118E-002
   1.3138517851711953E-002  -3.7811638650314672E-003   3.7407015005781558E-002
   1.9975379251306075E-002  -5.1935099235855819E-003   4.3653996003681646E-002
   1.7731186949650792E-002  -4.6279967918581022E-003   4.3418188271373809E-002
   1.5486994647995619E-002  -4.1159638734466694E-003   4.3385128028398987E-002
   1.3242802346340395E-002  -3.6574111683518509E-003   4.3554815274756659E-002
   1.0998610044685164E-002  -3.2523386765733187E-003   4.3927250010447262E-002
   1.7261249963274605E-002  -4.2359033929649792E-003   4.9333882620767988E-002
   1.5268410744369854E-002  -3.7165597322253441E-003   4.9115204416365632E-002
   1.3275571525465102E-002  -3.2913801945036181E-003   4.9196484888131720E-002
   1.1282732306560350E-002  -2.9603647798002244E-003   4.9577724036066168E-002
   9.2898930876555985E-003  -2.7235134881150591E-003   5.0258921860168670E-002
   1.8711906015757340E-002  -4.8388142419477642E-003   2.3800855531617482E-002
   1.5687122666192765E-002  -4.0873117703105755E-003   2.4560308658670316E-002
   1.2662339316628191E-002  -3.7208480553060086E-003   2.5804055956959837E-002
   9.6375559670636435E-003  -3.7394230969325579E-003   2.7532097426486796E-002
   6.6127726174990409E-003  -4.1430368951919094E-003   2.9744433067250831E-002
   1.5709616508736007E-002  -4.3099890534895602E-003   3.0698216846171633E-002
   1.3148077059145502E-002  -3.7755798459044865E-003   3.1454241686218853E-002
   1.0586537609555038E-002  -3.6832696131666176E-003   3.2652460154977164E-002
   8.0249981599645193E-003  -4.0330583552757454E-003   3.4292872252446163E-002
   5.4634587103740695E-003  -4.8249460722319393E-003   3.6375477978626169E-002
   1.3138517851711953E-002  -3.7811638650314672E-003   3.7407015005781558E-002
   1.0998121759569435E-002  -3.4638479214980922E-003   3.8102551340608221E-002
   8.8577256674268259E-003  -3.6456911710271295E-003   3.9198180761619419E-002
   6.7173295752842796E-003  -4.3266936136183813E-003   4.0693903268815633E-002
   4.5769334831416986E-003  -5.5068552492723577E-003   4.2589718862196563E-002
   1.0998610044685164E-002  -3.2523386765733187E-003   4.3927250010447262E-002
   9.2372567674643274E-003  -3.1521159970914620E-003   4.4505237621837695E-002
   7.4759034902435184E-003  -3.6081127288876344E-003   4.5441217776887186E-002
   5.7145502130226972E-003  -4.6203288719612930E-003   4.6735190475595496E-002
   3.9531969358019281E-003  -6.1887644263124708E-003   4.8387155717962087E-002
   9.2898930876555985E-003  -2.7235134881150591E-003   5.0258921860168670E-002
   7.8654820828304162E-003  -2.8403840726854979E-003   5.0662300529908277E-002
   6.4410710780051783E-003  -3.5705342867482504E-003   5.1381571200780685E-002
   5.0166600731799960E-003  -4.9139641303040937E-003   5.2416733872785559E-002
   3.5922490683547581E-003  -6.8706736033526949E-003   5.3767788545922346E-002
   6.6127726174990409E-003  -4.1430368951919094E-003   2.9744433067250831E-002
   6.0741228720230800E-003  -6.1246195676337711E-003   3.4189155494187107E-002
   5.5354731265471191E-003  -1.0877101231808489E-002   3.9315840265947644E-002
   4.9968233810712553E-003  -1.8400481887716695E-002   4.5124487382532469E-002
   4.4581736355951973E-003  -2.8694761535358104E-002   5.1615096843941721E-002
   5.4634587103740695E-003  -4.8249460722319393E-003   3.6375477978626169E-002
   5.5040261010946834E-003  -6.9565391263756160E-003   3.8476138531197301E-002
   5.5445934918152973E-003  -1.1325443880046498E-002   4.1053271011337322E-002
   5.5851608825359458E-003  -1.7931660333244163E-002   4.4106875419046482E-002
   5.6257282732566360E-003  -2.6775188485969714E-002   4.7636951754324697E-002
   4.5769334831416986E-003  -5.5068552492723577E-003   4.2589718862196563E-002
   4.9912275928036404E-003  -7.7884586851177384E-003   4.2879904832608534E-002
   5.4055217024655405E-003  -1.1773786528284522E-002   4.3441072313334092E-002
   5.8198158121274372E-003  -1.7462838778772135E-002   4.4273221304373479E-002
   6.2341099217893825E-003  -2.4855615436581102E-002   4.5376351805726300E-002
   3.9531969358019281E-003  -6.1887644263124708E-003   4.8387155717962087E-002
   4.5357273471497463E-003  -8.6203782438603882E-003   4.7400454398421089E-002
   5.1182577584976807E-003  -1.2222129176522316E-002   4.6479244171938189E-002
   5.7007881698456662E-003  -1.6994017224300079E-002   4.5623525038513621E-002
   6.2833185811935408E-003  -2.2936042387192490E-002   4.4833296998147559E-002
   3.5922490683547581E-003  -6.8706736033526949E-003   5.3767788545922346E-002
   4.1375253641333654E-003  -9.4522978026021498E-003   5.2037787228634613E-002
   4.6828016599119171E-003  -1.2670471824760415E-002   5.0167786587149543E-002
   5.2280779556905382E-003  -1.6525195669827485E-002   4.8157786621467108E-002
   5.7733542514690761E-003  -2.1016469337804100E-002   4.6007787331587835E-002
   6.6088983168846205E-002  -1.3543923292330950E-002   6.9684130024853852E-002
   5.9396617804942320E-002  -1.4829476370982281E-002   4.8735385103890250E-002
   5.2704252441038407E-002  -1.5420475369987641E-002   3.6304683489131906E-002
   4.6011887077134508E-002  -1.5316920289346850E-002   3.2392025180579154E-002
   3.9319521713230610E-002  -1.4518811129060116E-002   3.6997410178231882E-002
   4.1193841824209099E-002  -1.2526122212391633E-002   6.1497302901137474E-002
   4.1008412379334336E-002  -1.2784786340124615E-002   5.1335876053576701E-002
   4.0822982934459531E-002  -1.2770246963818108E-002   4.5670277737868414E-002
   4.0637553489584748E-002  -1.2482504083471981E-002   4.4500507954013016E-002
   4.0452124044709978E-002  -1.1921557699086427E-002   4.7826566702010492E-002
   2.8613247148308277E-002  -1.1508321132452259E-002   5.4548040016142857E-002
   3.0912538848109961E-002  -1.0740096309266992E-002   5.4752580666377851E-002
   3.3211830547911651E-002  -1.0120018557648686E-002   5.5430735074113446E-002
   3.5511122247713328E-002  -9.6480878775971959E-003   5.6582503239348880E-002
   3.7810413947515026E-002  -9.3243042691127653E-003   5.8207885162084624E-002
   2.8347199141143687E-002  -1.0490520052512914E-002   4.8836341369869279E-002
   2.9108997211269201E-002  -8.6954062784093053E-003   5.8985498942294379E-002
   2.9870795281394691E-002  -7.4697901514791526E-003   6.5586055497866974E-002
   3.0632593351520198E-002  -6.8136716717224245E-003   6.8638011036586927E-002
   3.1394391421645705E-002  -6.7270508391390899E-003   6.8141365558454417E-002
   4.0395697802715319E-002  -9.4727189725735683E-003   4.4362206962317574E-002
   3.5597787468812009E-002  -6.6507162475517301E-003   6.4034630881325938E-002
   3.0799877134908699E-002  -4.8195617453097167E-003   7.6136239009129053E-002
   2.6001966801005395E-002  -3.9792554658474970E-003   8.0667031345727044E-002
   2.1204056467102078E-002  -4.1297974091654144E-003   7.7627007891119926E-002
   3.9319521713230610E-002  -1.4518811129060116E-002   3.6997410178231882E-002
   3.9092977243953303E-002  -1.3466197292328480E-002   4.3630093988723306E-002
   3.8866432774675996E-002  -1.2599128182353245E-002   4.8055743375074705E-002
   3.8639888305398690E-002  -1.1917603799134490E-002   5.0274358337285857E-002
   3.8413343836121383E-002  -1.1421624142672115E-002   5.0285938875356928E-002
   4.0452124044709978E-002  -1.1921557699086427E-002   4.7826566702010492E-002
   3.8536821242770719E-002  -1.1263623103572651E-002   5.1070828271035817E-002
   3.6621518440831453E-002  -1.0684915589842275E-002   5.3144607598877555E-002
   3.4706215638892174E-002  -1.0185435157895210E-002   5.4047904685535338E-002
   3.2790912836952901E-002  -9.7651818077314489E-003   5.3780719531009380E-002
   3.7810413947515026E-002  -9.3243042691127653E-003   5.8207885162084624E-002
   3.5242904995870128E-002  -9.0610489148169188E-003   5.8170042134617045E-002
   3.2675396044225216E-002  -8.7707029973312020E-003   5.7998269048922059E-002
   3.0107887092580291E-002  -8.4532665166559880E-003   5.7692565904999535E-002
   2.7540378140935406E-002  -8.1087394727908935E-003   5.7252932702849590E-002
   3.1394391421645705E-002  -6.7270508391390899E-003   6.8141365558454417E-002
   2.9211228503251498E-002  -6.8584747260610826E-003   6.4927735579466905E-002
   2.7028065584857291E-002  -6.8564904048202639E-003   6.2616727725208349E-002
   2.4844902666463081E-002  -6.7210978754167370E-003   6.1208341995678622E-002
   2.2661739748068850E-002  -6.4522971378503657E-003   6.0702578390877567E-002
   2.1204056467102078E-002  -4.1297974091654144E-003   7.7627007891119926E-002
   2.0441791764914868E-002  -4.6559005373053575E-003   7.1343908605585427E-002
   1.9679527062727686E-002  -4.9422778123091732E-003   6.6999983627736348E-002
   1.8917262360540497E-002  -4.9889292341774617E-003   6.4595232957572343E-002
   1.8154997658353295E-002  -4.7958548029097270E-003   6.4129656595093676E-002
   3.8413343836121383E-002  -1.1421624142672115E-002   5.0285938875356928E-002
   3.6832753911108435E-002  -1.1001863851591742E-002   4.9336961949952240E-002
   3.5252163986095542E-002  -1.0548997564519186E-002   4.8756317928193710E-002
   3.3671574061082621E-002  -1.0063025281454356E-002   4.8544006810081114E-002
   3.2090984136069672E-002  -9.5439470023973572E-003   4.8700028595614842E-002
   3.2790912836952901E-002  -9.7651818077314489E-003   5.3780719531009380E-002
   3.1538737313292514E-002  -9.3738140407248205E-003   5.3191001362192625E-002
   3.0286561789632141E-002  -8.9609903582491823E-003   5.2889779092434863E-002
   2.9034386265971747E-002  -8.5267107603042638E-003   5.2877052721736248E-002
   2.7782210742311367E-002  -8.0709752468903773E-003   5.3152822250096432E-002
   2.7540378140935406E-002  -8.1087394727908935E-003   5.7252932702849590E-002
   2.6536780014040424E-002  -7.7457642298580098E-003   5.7010823210097844E-002
   2.5533181887145422E-002  -7.3729831519791372E-003   5.6977372611817900E-002
   2.4529583760250447E-002  -6.9903962391541750E-003   5.7152580908009919E-002
   2.3525985633355437E-002  -6.5980034913833419E-003   5.7536448098673615E-002
   2.2661739748068850E-002  -6.4522971378503657E-003   6.0702578390877567E-002
   2.1826882013352124E-002  -6.1177144189911437E-003   6.0796427493667739E-002
   2.0992024278635387E-002  -5.7849759457091129E-003   6.1019098486342516E-002
   2.0157166543918636E-002  -5.4540817180041955E-003   6.1370591368901953E-002
   1.9322308809201896E-002  -5.1250317358763342E-003   6.1850906141346050E-002
   1.8154997658353295E-002  -4.7958548029097270E-003   6.4129656595093676E-002
   1.7409043311227654E-002  -4.4896646081243052E-003   6.4547814212902344E-002
   1.6663088964102027E-002  -4.1969687394391025E-003   6.5014956716008654E-002
   1.5917134616976393E-002  -3.9177671968539975E-003   6.5531084104412538E-002
   1.5171180269850759E-002  -3.6520599803693266E-003   6.6096196378113925E-002
   3.2090984136069672E-002  -9.5439470023973572E-003   4.8700028595614842E-002
   3.0050363997018575E-002  -8.9782718346375079E-003   4.7942783580420367E-002
   2.8009743857967478E-002  -8.3525088854642660E-003   4.7629074900801038E-002
   2.5969123718916381E-002  -7.6666581548774718E-003   4.7758902556756383E-002
   2.3928503579865257E-002  -6.9207196428769935E-003   4.8332266548286595E-002
   2.7782210742311367E-002  -8.0709752468903773E-003   5.3152822250096432E-002
   2.6145915187633775E-002  -7.5876467392339553E-003   5.2455822695717913E-002
   2.4509619632956163E-002  -7.0705881585614305E-003   5.2123935974511704E-002
   2.2873324078278554E-002  -6.5197995048736079E-003   5.2157162086477457E-002
   2.1237028523600959E-002  -5.9352807781694050E-003   5.2555501031615381E-002
   2.3525985633355437E-002  -6.5980034913833419E-003   5.7536448098673615E-002
   2.2215591160648675E-002  -6.1970216438304582E-003   5.6873336296713095E-002
   2.0905196687941899E-002  -5.7886674316590253E-003   5.6496913825522313E-002
   1.9594802215235151E-002  -5.3729408548696296E-003   5.6407180685100887E-002
   1.8284407742528361E-002  -4.9498419134618721E-003   5.6604136875449046E-002
   1.9322308809201896E-002  -5.1250317358763342E-003   6.1850906141346050E-002
   1.8259391916063347E-002  -4.8063965484268223E-003   6.1195324383406149E-002
   1.7196475022924776E-002  -4.5067467047566270E-003   6.0748008453833130E-002
   1.6133558129786198E-002  -4.2260822048657640E-003   6.0508958352626992E-002
   1.5070641236647624E-002  -3.9644030487543669E-003   6.0478174079787853E-002
   1.5171180269850759E-002  -3.6520599803693266E-003   6.6096196378113925E-002
   1.4277317453877725E-002  -3.4157714530232974E-003   6.5421786955796923E-002
   1.3383454637904704E-002  -3.2248259778538957E-003   6.4877219859444168E-002
   1.2489591821931677E-002  -3.0792235548618707E-003   6.4462495089055549E-002
   1.1595729005958649E-002  -2.9789641840467507E-003   6.4177612644631399E-002
   2.3928503579865257E-002  -6.9207196428769935E-003   4.8332266548286595E-002
   2.2261690175717608E-002  -6.1709318252269885E-003   4.8632190832473443E-002
   2.0594876771569931E-002  -5.4735331776919471E-003   4.8899101605949125E-002
   1.8928063367422268E-002  -4.8285237002710091E-003   4.9132998868714056E-002
   1.7261249963274605E-002  -4.2359033929649792E-003   4.9333882620767988E-002
   2.1237028523600959E-002  -5.9352807781694050E-003   5.2555501031615381E-002
   1.9591237165038231E-002  -5.3432324597408876E-003   5.2612785117448990E-002
   1.7945445806475488E-002  -4.7698550308789833E-003   5.2745126805163689E-002
   1.6299654447912718E-002  -4.2151484915840462E-003   5.2952526094759061E-002
   1.4653863089349989E-002  -3.6791128418557362E-003   5.3234982986235191E-002
   1.8284407742528361E-002  -4.9498419134618721E-003   5.6604136875449046E-002
   1.6767709542142316E-002  -4.5155330942544536E-003   5.6452499043477655E-002
   1.5251011341756320E-002  -4.0661768840661305E-003   5.6483989925978750E-002
   1.3734313141370313E-002  -3.6017732828968058E-003   5.6698609522952415E-002
   1.2217614940984278E-002  -3.1223222907464376E-003   5.7096357834398620E-002
   1.5070641236647624E-002  -3.9644030487543669E-003   6.0478174079787853E-002
   1.3791107307030075E-002  -3.6878337287680751E-003   6.0151332610558932E-002
   1.2511573377412518E-002  -3.3624987372531667E-003   6.0115690968394295E-002
   1.1232039447794932E-002  -2.9883980742095931E-003   6.0371249153294067E-002
   9.9525055181774111E-003  -2.5655317396371669E-003   6.0918007165258324E-002
   1.1595729005958649E-002  -2.9789641840467507E-003   6.4177612644631399E-002
   1.0661430459701332E-002  -2.8601343632816967E-003   6.3709285818692729E-002
   9.7271319134440148E-003  -2.6588205904402029E-003   6.3640229932410253E-002
   8.7928333671866837E-003  -2.3750228655225747E-003   6.3970444985783748E-002
   7.8585348209293804E-003  -2.0087411885277850E-003   6.4699930978813547E-002
   1.7261249963274605E-002  -4.2359033929649792E-003   4.9333882620767988E-002
   1.5268410744369854E-002  -3.7165597322253441E-003   4.9115204416365632E-002
   1.3275571525465102E-002  -3.2913801945036181E-003   4.9196484888131720E-002
   1.1282732306560350E-002  -2.9603647798002244E-003   4.9577724036066168E-002
   9.2898930876555985E-003  -2.7235134881150591E-003   5.0258921860168670E-002
   1.4653863089349989E-002  -3.6791128418557362E-003   5.3234982986235191E-002
   1.2950329363117366E-002  -3.2065142293785653E-003   5.3075606669919007E-002
   1.1246795636884716E-002  -2.8421188018366295E-003   5.3194882662778858E-002
   9.5432619106520788E-003  -2.5859265592300187E-003   5.3592810964814483E-002
   7.8397281844194144E-003  -2.4379375015586291E-003   5.4269391576025838E-002
   1.2217614940984278E-002  -3.1223222907464376E-003   5.7096357834398620E-002
   1.0782080340431391E-002  -2.6964687265318699E-003   5.6982244344251171E-002
   9.3465457398785243E-003  -2.3928574091696270E-003   5.7125476796287641E-002
   7.9110111393256161E-003  -2.2114883386598096E-003   5.7526055190507484E-002
   6.4754765387727425E-003  -2.1523615150022546E-003   5.8183979526910956E-002
   9.9525055181774111E-003  -2.5655317396371669E-003   6.0918007165258324E-002
   8.7636636763119453E-003  -2.1864232236849662E-003   6.0835117439362506E-002
   7.5748218344464779E-003  -1.9435960165024094E-003   6.0988267288658110E-002
   6.3859799925810243E-003  -1.8370501180897687E-003   6.1377456713145193E-002
   5.1971381507155447E-003  -1.8667855284457968E-003   6.2002685712822914E-002
   7.8585348209293804E-003  -2.0087411885277850E-003   6.4699930978813547E-002
   6.8950793707590052E-003  -1.6763777208383956E-003   6.4634225955252589E-002
   5.9316239205886162E-003  -1.4943346238356359E-003   6.4783254139890500E-002
   4.9681684704182480E-003  -1.4626118975191726E-003   6.5147015532727531E-002
   4.0047130202478798E-003  -1.5812095418894501E-003   6.5725510133763154E-002
   9.2898930876555985E-003  -2.7235134881150591E-003   5.0258921860168670E-002
   7.8654820828304162E-003  -2.8403840726854979E-003   5.0662300529908277E-002
   6.4410710780051783E-003  -3.5705342867482504E-003   5.1381571200780685E-002
   5.0166600731799960E-003  -4.9139641303040937E-003   5.2416733872785559E-002
   3.5922490683547581E-003  -6.8706736033526949E-003   5.3767788545922346E-002
   7.8397281844194144E-003  -2.4379375015586291E-003   5.4269391576025838E-002
   6.7097390457887263E-003  -2.6019845844448275E-003   5.4172639005580780E-002
   5.5797499071579965E-003  -3.2819007635108699E-003   5.4348838166392188E-002
   4.4497607685272805E-003  -4.4776860387568951E-003   5.4797989058459950E-002
   3.3197716298965785E-003  -6.1893404101827088E-003   5.5520091681784289E-002
   6.4754765387727425E-003  -2.1523615150022546E-003   5.8183979526910956E-002
   5.5969689964604427E-003  -2.3635850962044347E-003   5.7684506249593759E-002
   4.7184614541481637E-003  -2.9932672402734894E-003   5.7415044433656970E-002
   3.8399539118358639E-003  -4.0414079472094744E-003   5.7375594079100575E-002
   2.9614463695235571E-003  -5.5080072170125560E-003   5.7566155185924478E-002
   5.1971381507155447E-003  -1.8667855284457968E-003   6.2002685712822914E-002
   4.5271719348456366E-003  -2.1251856079639031E-003   6.1197902261947240E-002
   3.8572057189756644E-003  -2.7046337170361645E-003   6.0580190002575252E-002
   3.1872395031057113E-003  -3.6051298556622757E-003   6.0149548934707892E-002
   2.5172732872357842E-003  -4.8266740238423755E-003   5.9905979058344598E-002
   4.0047130202478798E-003  -1.5812095418894501E-003   6.5725510133763154E-002
   3.5003478609442196E-003  -1.8867861197233160E-003   6.4712827042640808E-002
   2.9959827016405455E-003  -2.4160001937988118E-003   6.3844274873146867E-002
   2.4916175423368783E-003  -3.1688517641146538E-003   6.3119853625281191E-002
   1.9872523830332112E-003  -4.1453408306725281E-003   6.2539563299043643E-002
   3.5922490683547581E-003  -6.8706736033526949E-003   5.3767788545922346E-002
   4.1375253641333654E-003  -9.4522978026021498E-003   5.2037787228634613E-002
   4.6828016599119171E-003  -1.2670471824760415E-002   5.0167786587149543E-002
   5.2280779556905382E-003  -1.6525195669827485E-002   4.8157786621467108E-002
   5.7733542514690761E-003  -2.1016469337804100E-002   4.6007787331587835E-002
   3.3197716298965785E-003  -6.1893404101827088E-003   5.5520091681784289E-002
   3.7412703583773049E-003  -8.4461525031588325E-003   5.3114966214564852E-002
   4.1627690868580591E-003  -1.1277410943056509E-002   5.0602284936947406E-002
   4.5842678153388342E-003  -1.4683115729875088E-002   4.7982047848931147E-002
   5.0057665438195675E-003  -1.8663266863615524E-002   4.5254254950516382E-002
   2.9614463695235571E-003  -5.5080072170125560E-003   5.7566155185924478E-002
   3.2916110445048441E-003  -7.4400072037159592E-003   5.4548009044762702E-002
   3.6217757194861172E-003  -9.8843500613527285E-003   5.1454750607000596E-002
   3.9519403944674077E-003  -1.2841035789922638E-002   4.8286379872637987E-002
   4.2821050694486495E-003  -1.6310064389426726E-002   4.5042896841675395E-002
   2.5172732872357842E-003  -4.8266740238423755E-003   5.9905979058344598E-002
   2.7885474225159065E-003  -6.4338619042726419E-003   5.6336915719227429E-002
   3.0598215577960254E-003  -8.4912891796486631E-003   5.2725183597308267E-002
   3.3310956930761486E-003  -1.0998955849970548E-002   4.9070782692586738E-002
   3.6023698283562944E-003  -1.3956861915238150E-002   4.5373713005063793E-002
   1.9872523830332112E-003  -4.1453408306725281E-003   6.2539563299043643E-002
   2.2320794924105408E-003  -5.4277166048294356E-003   5.8481686237958908E-002
   2.4769066017878427E-003  -7.0982282979449585E-003   5.4413583907870489E-002
   2.7217337111651724E-003  -9.1568759100176048E-003   5.0335256308778525E-002
   2.9665608205424743E-003  -1.1603659441049352E-002   4.6246703440683046E-002
   4.0395697802715319E-002  -9.4727189725735683E-003   4.4362206962317574E-002
   3.5597787468812009E-002  -6.6507162475517301E-003   6.4034630881325938E-002
   3.0799877134908699E-002  -4.8195617453097167E-003   7.6136239009129053E-002
   2.6001966801005395E-002  -3.9792554658474970E-003   8.0667031345727044E-002
   2.1204056467102078E-002  -4.1297974091654144E-003   7.7627007891119926E-002
   5.0708088540990723E-002  -3.2305067693931822E-003   6.9985473375719920E-002
   4.0603858792187669E-002  -2.5536217714135778E-003   7.5465323471211349E-002
   3.0499629043384623E-002  -2.2265039196412706E-003   7.7903350528108289E-002
   2.0395399294581572E-002  -2.2491532140764339E-003   7.7299554546411048E-002
   1.0291169545778536E-002  -2.6215696547189915E-003   7.3653935526119374E-002
   4.5233716763937330E-002   3.0117054337872318E-003   9.3143081523793983E-002
   3.4352160352845364E-002   1.5434727047245467E-003   8.5071438872341032E-002
   2.3470603941753408E-002   3.6655390602702981E-004   7.8486965934904257E-002
   1.2589047530661453E-002  -5.1905096230528934E-004   7.3389662711484130E-002
   1.7074911195694917E-003  -1.1133419002725131E-003   6.9779529202080456E-002
   2.3972582471555190E-002   9.2539176369676596E-003  0.11383503140653954     
   1.6842692150785148E-002   5.6405671808626989E-003   9.2852977084714350E-002
   9.7128018300150845E-003   2.9596117316954308E-003   7.7887085229516664E-002
   2.5829115092450288E-003   1.2110512894658422E-003   6.8937355840946193E-002
  -4.5469788115250279E-003   3.9488585417393751E-004   6.6003788919003131E-002
  -1.3075314336155705E-002   1.5496129840148032E-002  0.13206132302395635     
  -1.1924545813993038E-002   9.7376616570007957E-003   9.8809938108331941E-002
  -1.0773777291830371E-002   5.5526695573637208E-003   7.6103708411945636E-002
  -9.6230087696677034E-003   2.9411535412370154E-003   6.3942633934797433E-002
  -8.4722402475050362E-003   1.9031136086203881E-003   6.2326714676887329E-002
   2.1204056467102078E-002  -4.1297974091654144E-003   7.7627007891119926E-002
   2.0441791764914868E-002  -4.6559005373053575E-003   7.1343908605585427E-002
   1.9679527062727686E-002  -4.9422778123091732E-003   6.6999983627736348E-002
   1.8917262360540497E-002  -4.9889292341774617E-003   6.4595232957572343E-002
   1.8154997658353295E-002  -4.7958548029097270E-003   6.4129656595093676E-002
   1.0291169545778536E-002  -2.6215696547189915E-003   7.3653935526119374E-002
   1.1134446963114136E-002  -3.0712455801515659E-003   6.9583899562418589E-002
   1.1977724380449733E-002  -3.3256733289572654E-003   6.6785773530078196E-002
   1.2821001797785335E-002  -3.3848529011359478E-003   6.5259557429098281E-002
   1.3664279215120922E-002  -3.2487842966876790E-003   6.5005251259478675E-002
   1.7074911195694917E-003  -1.1133419002725131E-003   6.9779529202080456E-002
   3.4890462801031308E-003  -1.4865906229980519E-003   6.7878078883704396E-002
   5.2706014406367699E-003  -1.7090688456053507E-003   6.6581274120363992E-002
   7.0521566011704177E-003  -1.7807765680945432E-003   6.5889114912059329E-002
   8.8337117617040481E-003  -1.7017137904654922E-003   6.5801601258790240E-002
  -4.5469788115250279E-003   3.9488585417393751E-004   6.6003788919003131E-002
  -2.4944102841181052E-003   9.8064334155628652E-005   6.6226446569442946E-002
  -4.4184175671118861E-004  -9.2464362253439486E-005   6.6386485398593709E-002
   1.6107267706957297E-003  -1.7670023505305613E-004   6.6483905406455324E-002
   3.6632952981026437E-003  -1.5464328424331930E-004   6.6518706593027943E-002
  -8.4722402475050362E-003   1.9031136086203881E-003   6.2326714676887329E-002
  -6.8159227295495964E-003   1.6827192913092259E-003   6.4629002619634252E-002
  -5.1596052115941565E-003   1.5241401210984995E-003   6.6201407364767345E-002
  -3.5032876936387201E-003   1.4273760979884101E-003   6.7043928912286527E-002
  -1.8469701756832768E-003   1.3924272219787426E-003   6.7156567262191935E-002
   1.8154997658353295E-002  -4.7958548029097270E-003   6.4129656595093676E-002
   1.7409043311227654E-002  -4.4896646081243052E-003   6.4547814212902344E-002
   1.6663088964102027E-002  -4.1969687394391025E-003   6.5014956716008654E-002
   1.5917134616976393E-002  -3.9177671968539975E-003   6.5531084104412538E-002
   1.5171180269850759E-002  -3.6520599803693266E-003   6.6096196378113925E-002
   1.3664279215120922E-002  -3.2487842966876790E-003   6.5005251259478675E-002
   1.3032370084780372E-002  -3.0314652123456798E-003   6.5125499427120537E-002
   1.2400460954439793E-002  -2.8468933448432404E-003   6.5424853143035019E-002
   1.1768551824099225E-002  -2.6950686941805725E-003   6.5903312407222081E-002
   1.1136642693758650E-002  -2.5759912603576796E-003   6.6560877219681625E-002
   8.8337117617040481E-003  -1.7017137904654922E-003   6.5801601258790240E-002
   8.4459685111236069E-003  -1.5732658165668739E-003   6.5604687085525595E-002
   8.0582252605431726E-003  -1.4968179502474269E-003   6.5716999123508646E-002
   7.6704820099627331E-003  -1.4723701915071458E-003   6.6138537372739392E-002
   7.2827387593822970E-003  -1.4999225403460326E-003   6.6869301833217820E-002
   3.6632952981026437E-003  -1.5464328424331930E-004   6.6518706593027943E-002
   3.6498385902574010E-003  -1.1506642078813051E-004   6.5985377188117478E-002
   3.6363818824121453E-003  -1.4674255565170005E-004   6.5891394657429783E-002
   3.6229251745668952E-003  -2.4967168883372002E-004   6.6236759000964693E-002
   3.6094684667216399E-003  -4.2385382033427454E-004   6.7021470218722595E-002
  -1.8469701756832768E-003   1.3924272219787426E-003   6.7156567262191935E-002
  -1.3560196778182772E-003   1.3431329749905574E-003   6.6267569734896170E-002
  -8.6506917995327406E-004   1.2033328389441378E-003   6.5948039744798209E-002
  -3.7411868208827442E-004   9.7302681383970580E-004   6.6197977291898108E-002
   1.1683181577672869E-004   6.5221489967726143E-004   6.7017382376195700E-002
   1.5171180269850759E-002  -3.6520599803693266E-003   6.6096196378113925E-002
   1.4277317453877725E-002  -3.4157714530232974E-003   6.5421786955796923E-002
   1.3383454637904704E-002  -3.2248259778538957E-003   6.4877219859444168E-002
   1.2489591821931677E-002  -3.0792235548618707E-003   6.4462495089055549E-002
   1.1595729005958649E-002  -2.9789641840467507E-003   6.4177612644631399E-002
   1.1136642693758650E-002  -2.5759912603576796E-003   6.6560877219681625E-002
   1.0370316487076550E-002  -2.4710717056455334E-003   6.6044339925627860E-002
   9.6039902803944713E-003  -2.3617206923146894E-003   6.5653033524191468E-002
   8.8376640737123681E-003  -2.2479382203656820E-003   6.5386958015372948E-002
   8.0713378670302788E-003  -2.1297242897984070E-003   6.5246113399172079E-002
   7.2827387593822970E-003  -1.4999225403460326E-003   6.6869301833217820E-002
   6.6393377286445288E-003  -1.5263719582676027E-003   6.6560411178222478E-002
   5.9959366979067744E-003  -1.4986154067753721E-003   6.6372139982498024E-002
   5.3525356671689974E-003  -1.4166528858696043E-003   6.6304488246044707E-002
   4.7091346364312378E-003  -1.2804843955500633E-003   6.6357455968862250E-002
   3.6094684667216399E-003  -4.2385382033427454E-004   6.7021470218722595E-002
   3.0843811785816258E-003  -5.8167221088964438E-004   6.6970000713580807E-002
   2.5592938904416083E-003  -6.3551012123599926E-004   6.7034539234363769E-002
   2.0342066023015886E-003  -5.8536755137336000E-004   6.7215085781070882E-002
   1.5091193141615767E-003  -4.3124450130171965E-004   6.7511640353702759E-002
   1.1683181577672869E-004   6.5221489967726143E-004   6.7017382376195700E-002
  -2.9455316311213786E-004   3.6302753648803643E-004   6.7273108531703263E-002
  -7.0593814200101135E-004   2.2759516430331805E-004   6.7640231279788576E-002
  -1.1173231208898710E-003   2.4591778312273160E-004   6.8118750620451890E-002
  -1.5287080997787514E-003   4.1799539294662402E-004   6.8708666553692788E-002
   1.1595729005958649E-002  -2.9789641840467507E-003   6.4177612644631399E-002
   1.0661430459701332E-002  -2.8601343632816967E-003   6.3709285818692729E-002
   9.7271319134440148E-003  -2.6588205904402029E-003   6.3640229932410253E-002
   8.7928333671866837E-003  -2.3750228655225747E-003   6.3970444985783748E-002
   7.8585348209293804E-003  -2.0087411885277850E-003   6.4699930978813547E-002
   8.0713378670302788E-003  -2.1297242897984070E-003   6.5246113399172079E-002
   7.5084617225978367E-003  -1.9914660796524486E-003   6.4971196470039294E-002
   6.9455855781654016E-003  -1.8175507689667525E-003   6.5039853404900455E-002
   6.3827094337329700E-003  -1.6079783577421583E-003   6.5452084203754979E-002
   5.8198332893005245E-003  -1.3627488459784232E-003   6.6207888866603559E-002
   4.7091346364312378E-003  -1.2804843955500633E-003   6.6357455968862250E-002
   4.4619838181612394E-003  -1.1227977960227564E-003   6.6229122084998454E-002
   4.2148329998912375E-003  -9.7628094749330208E-004   6.6388664989465884E-002
   3.9676821816212286E-003  -8.4093384996218601E-004   6.6836084682264457E-002
   3.7205313633512233E-003  -7.1675650342889474E-004   6.7571381163394006E-002
   1.5091193141615767E-003  -4.3124450130171965E-004   6.7511640353702759E-002
   1.5219967463915409E-003  -2.5412951239339732E-004   6.7483062663570320E-002
   1.5348741786215129E-003  -1.3501112601985166E-004   6.7686664686106637E-002
   1.5477516108514944E-003  -7.3889342181991668E-005   6.8122446421311655E-002
   1.5606290430814629E-003  -7.0764160879338567E-005   6.8790407869185527E-002
  -1.5287080997787514E-003   4.1799539294662402E-004   6.8708666553692788E-002
  -1.3114994927112475E-003   6.1453877123635037E-004   6.8733018205754559E-002
  -1.0942908856437540E-003   7.0625869545365427E-004   6.8933852494822645E-002
  -8.7708227857625533E-004   6.9315516559805002E-004   6.9311169420897045E-002
  -6.5987367150875664E-004   5.7522818167010659E-004   6.9864968983977649E-002
   7.8585348209293804E-003  -2.0087411885277850E-003   6.4699930978813547E-002
   6.8950793707590052E-003  -1.6763777208383956E-003   6.4634225955252589E-002
   5.9316239205886162E-003  -1.4943346238356359E-003   6.4783254139890500E-002
   4.9681684704182480E-003  -1.4626118975191726E-003   6.5147015532727531E-002
   4.0047130202478798E-003  -1.5812095418894501E-003   6.5725510133763154E-002
   5.8198332893005245E-003  -1.3627488459784232E-003   6.6207888866603559E-002
   5.0845068421913261E-003  -1.1510703651033682E-003   6.5968439477082641E-002
   4.3491803950821070E-003  -1.0421510465451478E-003   6.5970514885485110E-002
   3.6138539479729087E-003  -1.0359908903037618E-003   6.6214115091810771E-002
   2.8785275008636896E-003  -1.1325898963792103E-003   6.6699240096060153E-002
   3.7205313633512233E-003  -7.1675650342889474E-004   6.7571381163394006E-002
   3.2401255090276707E-003  -6.2576300936822982E-004   6.7205748616282979E-002
   2.7597196547041007E-003  -5.8996746925477073E-004   6.7108432456819800E-002
   2.2793138003805394E-003  -6.0936988308857298E-004   6.7279432685004636E-002
   1.7989079460569782E-003  -6.8397025086919250E-004   6.7718749300837017E-002
   1.5606290430814629E-003  -7.0764160879338567E-005   6.8790407869185527E-002
   1.3619353712680336E-003  -1.0045565363342446E-004   6.8346153372853824E-002
   1.1632416994546103E-003  -1.3778389196422713E-004   6.8197006853894626E-002
   9.6454802764118488E-004  -1.8274887587327315E-004   6.8342968312307822E-002
   7.6585435582774385E-004  -2.3535060535889718E-004   6.8784037748093441E-002
  -6.5987367150875664E-004   5.7522818167010659E-004   6.9864968983977649E-002
  -5.5006357108757648E-004   4.2485170210188050E-004   6.9389653746795177E-002
  -4.4025347066638590E-004   3.1439968532609441E-004   6.9236238076709700E-002
  -3.3044337024519879E-004   2.4387213134197117E-004   6.9404721973721079E-002
  -2.2063326982401515E-004   2.1326904015106507E-004   6.9895105437829064E-002
   4.0047130202478798E-003  -1.5812095418894501E-003   6.5725510133763154E-002
   3.5003478609442196E-003  -1.8867861197233160E-003   6.4712827042640808E-002
   2.9959827016405455E-003  -2.4160001937988118E-003   6.3844274873146867E-002
   2.4916175423368783E-003  -3.1688517641146538E-003   6.3119853625281191E-002
   1.9872523830332112E-003  -4.1453408306725281E-003   6.2539563299043643E-002
   2.8785275008636896E-003  -1.1325898963792103E-003   6.6699240096060153E-002
   2.5156959992929384E-003  -1.3642536523902904E-003   6.5535021788722392E-002
   2.1528644977221942E-003  -1.7632877459559659E-003   6.4509739875222155E-002
   1.7900329961514395E-003  -2.3296921770754736E-003   6.3623394355559484E-002
   1.4272014945806849E-003  -3.0634669457494379E-003   6.2875985229734255E-002
   1.7989079460569782E-003  -6.8397025086919250E-004   6.7718749300837017E-002
   1.5724155744284811E-003  -8.4172118505707050E-004   6.6459262935970459E-002
   1.3459232027999875E-003  -1.1105752981128009E-003   6.5333518437150975E-002
   1.1194308311715060E-003  -1.4905325900355197E-003   6.4341515804378219E-002
   8.9293845954299678E-004  -1.9815930608258481E-003   6.3483255037652592E-002
   7.6585435582774385E-004  -2.3535060535889718E-004   6.8784037748093441E-002
   6.7050658635084501E-004  -3.1918871772416979E-004   6.7485550484384760E-002
   5.7515881687395919E-004  -4.5786285026968437E-004   6.6315610558932661E-002
   4.7981104739706340E-004  -6.5137300299595267E-004   6.5274217971736909E-002
   3.8446327792016066E-004  -8.9971917590228601E-004   6.4361372722797211E-002
  -2.2063326982401515E-004   2.1326904015106507E-004   6.9895105437829064E-002
  -1.9003096493997590E-004   2.0334374960917501E-004   6.8613884433965655E-002
  -1.5942866005592277E-004   1.9484959757323783E-004   6.7456016240567962E-002
  -1.2882635517188351E-004   1.8778658404400989E-004   6.6421500857636068E-002
  -9.8224050287830378E-005   1.8215470902094300E-004   6.5510338285169278E-002
   1.9872523830332112E-003  -4.1453408306725281E-003   6.2539563299043643E-002
   2.2320794924105408E-003  -5.4277166048294356E-003   5.8481686237958908E-002
   2.4769066017878427E-003  -7.0982282979449585E-003   5.4413583907870489E-002
   2.7217337111651724E-003  -9.1568759100176048E-003   5.0335256308778525E-002
   2.9665608205424743E-003  -1.1603659441049352E-002   4.6246703440683046E-002
   1.4272014945806849E-003  -3.0634669457494379E-003   6.2875985229734255E-002
   1.6495909194151476E-003  -4.0245344173247544E-003   5.8494008112921936E-002
   1.8719803442496102E-003  -5.2728169571497618E-003   5.4077380896027316E-002
   2.0943697690840694E-003  -6.8083145652232668E-003   4.9626103579050146E-002
   2.3167591939185495E-003  -8.6310272415466294E-003   4.5140176161991841E-002
   8.9293845954299678E-004  -1.9815930608258481E-003   6.3483255037652592E-002
   1.0684653687561829E-003  -2.6213522298200176E-003   5.8878098715820448E-002
   1.2439922779693621E-003  -3.4474056163544403E-003   5.4213867462828316E-002
   1.4195191871825379E-003  -4.4597532204292585E-003   4.9490561278675703E-002
   1.5950460963957136E-003  -5.6583950420439066E-003   4.4708180163361755E-002
   3.8446327792016066E-004  -8.9971917590228601E-004   6.4361372722797211E-002
   4.8870284043362605E-004  -1.2181700423149755E-003   5.9633958046655500E-002
   5.9294240294709144E-004  -1.6219942755594033E-003   5.4823043608274780E-002
   6.9718196546055770E-004  -2.1111918756345303E-003   4.9928629407654836E-002
   8.0142152797402222E-004  -2.6857628425410729E-003   4.4950715444796896E-002
  -9.8224050287830378E-005   1.8215470902094300E-004   6.5510338285169278E-002
  -8.9696665552509158E-005   1.8501214518973352E-004   6.0761586105426257E-002
  -8.1169280817187939E-005   2.0341706523582803E-004   5.5904909332366082E-002
  -7.2641896081880597E-005   2.3736946915952489E-004   5.0940307965988113E-002
  -6.4114511346552439E-005   2.8686935696153881E-004   4.5867782006292490E-002
  -1.3075314336155705E-002   1.5496129840148032E-002  0.13206132302395635     
  -1.1924545813993038E-002   9.7376616570007957E-003   9.8809938108331941E-002
  -1.0773777291830371E-002   5.5526695573637208E-003   7.6103708411945636E-002
  -9.6230087696677034E-003   2.9411535412370154E-003   6.3942633934797433E-002
  -8.4722402475050362E-003   1.9031136086203881E-003   6.2326714676887329E-002
  -4.7790986797928585E-002   6.6180812246773302E-003   8.1779604484929658E-002
  -3.8670300590115073E-002   4.0558853896741354E-003   6.7586944272881616E-002
  -2.9549614382301543E-002   2.2857155310788829E-003   5.8788964212897393E-002
  -2.0428928174488020E-002   1.3075716488915624E-003   5.5385664304976573E-002
  -1.1308241966674498E-002   1.1214537431120386E-003   5.7377044549119460E-002
  -6.2055448052496687E-002  -2.2599673907933993E-003   3.5084883347597906E-002
  -5.0115319226206836E-002  -1.6258908776524972E-003   3.9169497732024383E-002
  -3.8175190399917014E-002  -9.8123849520601047E-004   4.3498317201339731E-002
  -2.6235061573627191E-002  -3.2601024345397384E-004   4.8071341755544117E-002
  -1.4294932747337369E-002   3.3979387760368907E-004   5.2888571394637596E-002
  -5.5868698099859948E-002  -1.1138016006264129E-002  -8.0228403880384033E-003
  -4.6259601722268409E-002  -7.3076671449791436E-003   1.3557598485759863E-002
  -3.6650505344676801E-002  -4.2481925214909039E-003   3.0231767377272692E-002
  -2.7041408967085224E-002  -1.9595921357994130E-003   4.1999666286499968E-002
  -1.7432312589493657E-002  -4.4186598790471598E-004   4.8861295213441618E-002
  -2.9230736940018445E-002  -2.0016064621734830E-002  -4.7543566721979513E-002
  -2.7103148078299680E-002  -1.2989443412305790E-002  -9.2487534659116410E-003
  -2.4975559216580907E-002  -7.5151465477757695E-003   1.8989314740696206E-002
  -2.2847970354862124E-002  -3.5931740281449145E-003   3.7170637897843917E-002
  -2.0720381493143356E-002  -1.2235258534130100E-003   4.5295216005531602E-002
  -8.4722402475050362E-003   1.9031136086203881E-003   6.2326714676887329E-002
  -6.8159227295495964E-003   1.6827192913092259E-003   6.4629002619634252E-002
  -5.1596052115941565E-003   1.5241401210984995E-003   6.6201407364767345E-002
  -3.5032876936387201E-003   1.4273760979884101E-003   6.7043928912286527E-002
  -1.8469701756832768E-003   1.3924272219787426E-003   6.7156567262191935E-002
  -1.1308241966674498E-002   1.1214537431120386E-003   5.7377044549119460E-002
  -1.0268488434611703E-002   1.3023760112495092E-003   5.9643897401357462E-002
  -9.2287349025489164E-003   1.4253526508129985E-003   6.1407505479424043E-002
  -8.1889813704861224E-003   1.4903836618025672E-003   6.2667868783319203E-002
  -7.1492278384233353E-003   1.4974690442180472E-003   6.3424987313042913E-002
  -1.4294932747337369E-002   3.3979387760368907E-004   5.2888571394637596E-002
  -1.3645104777724803E-002   9.2203273118983409E-004   5.5000228380692150E-002
  -1.2995276808112254E-002   1.3265651805274975E-003   5.6835279016017731E-002
  -1.2345448838499695E-002   1.5533912256166134E-003   5.8393723300614160E-002
  -1.1695620868887140E-002   1.6025108664572962E-003   5.9675561234481728E-002
  -1.7432312589493657E-002  -4.4186598790471598E-004   4.8861295213441618E-002
  -1.6945771758888912E-002   5.4168945113008266E-004   5.0697995557638278E-002
  -1.6459230928284170E-002   1.2277777102419410E-003   5.2484727974548243E-002
  -1.5972690097679421E-002   1.6163987894307705E-003   5.4221492464171565E-002
  -1.5486149267074683E-002   1.7075526886965453E-003   5.5908289026508379E-002
  -2.0720381493143356E-002  -1.2235258534130100E-003   4.5295216005531602E-002
  -2.0170489378104003E-002   1.6134617107044225E-004   4.6737198932195717E-002
  -1.9620597263064664E-002   1.1289902399563845E-003   4.8355852355015660E-002
  -1.9070705148025311E-002   1.6794063532448167E-003   5.0151176273991321E-002
  -1.8520813032985972E-002   1.8125945109357944E-003   5.2123170689122922E-002
  -1.8469701756832768E-003   1.3924272219787426E-003   6.7156567262191935E-002
  -1.3560196778182772E-003   1.3431329749905574E-003   6.6267569734896170E-002
  -8.6506917995327406E-004   1.2033328389441378E-003   6.5948039744798209E-002
  -3.7411868208827442E-004   9.7302681383970580E-004   6.6197977291898108E-002
   1.1683181577672869E-004   6.5221489967726143E-004   6.7017382376195700E-002
  -7.1492278384233353E-003   1.4974690442180472E-003   6.3424987313042913E-002
  -6.2103605448406256E-003   1.4462494890010169E-003   6.3095718608668749E-002
  -5.2714932512579245E-003   1.3363656870928331E-003   6.3092815958532250E-002
  -4.3326259576752192E-003   1.1678176384934402E-003   6.3416279362633304E-002
  -3.3937586640925138E-003   9.4060534320283828E-004   6.4066108820972023E-002
  -1.1695620868887140E-002   1.6025108664572962E-003   5.9675561234481728E-002
  -1.0551938262546894E-002   1.5493660030115874E-003   5.9937862995396024E-002
  -9.4082556562066315E-003   1.4693985352414729E-003   6.0283429327587817E-002
  -8.2645730498663757E-003   1.3626084631471747E-003   6.0712260231057039E-002
  -7.1208904435261251E-003   1.2289957867285262E-003   6.1224355705803674E-002
  -1.5486149267074683E-002   1.7075526886965453E-003   5.5908289026508379E-002
  -1.4380752830937042E-002   1.6524825170221580E-003   5.6794002895078036E-002
  -1.3275356394799393E-002   1.6024313833901405E-003   5.7519879851964884E-002
  -1.2169959958661741E-002   1.5573992878007981E-003   5.8085919897169255E-002
  -1.1064563522524103E-002   1.5173862302541030E-003   5.8492123030690749E-002
  -1.8520813032985972E-002   1.8125945109357944E-003   5.2123170689122922E-002
  -1.7696804250011109E-002   1.7555990310326175E-003   5.3664138307714770E-002
  -1.6872795467036211E-002   1.7354642315388080E-003   5.4802167531663698E-002
  -1.6048786684061341E-002   1.7521901124546435E-003   5.5537258360969760E-002
  -1.5224777901086450E-002   1.8057766737797354E-003   5.5869410795633068E-002
   1.1683181577672869E-004   6.5221489967726143E-004   6.7017382376195700E-002
  -2.9455316311213786E-004   3.6302753648803643E-004   6.7273108531703263E-002
  -7.0593814200101135E-004   2.2759516430331805E-004   6.7640231279788576E-002
  -1.1173231208898710E-003   2.4591778312273160E-004   6.8118750620451890E-002
  -1.5287080997787514E-003   4.1799539294662402E-004   6.8708666553692788E-002
  -3.3937586640925138E-003   9.4060534320283828E-004   6.4066108820972023E-002
  -3.6377564490793317E-003   7.4395351471298610E-004   6.4298054363887663E-002
  -3.8817542340661444E-003   6.6708686651494042E-004   6.4753377702029491E-002
  -4.1257520190529640E-003   7.1000539860910025E-004   6.5432078835397547E-002
  -4.3697498040397888E-003   8.7270911099540660E-004   6.6334157763991985E-002
  -7.1208904435261251E-003   1.2289957867285262E-003   6.1224355705803674E-002
  -7.0855198319624956E-003   1.1248794929376860E-003   6.1398550825415274E-002
  -7.0501492203988644E-003   1.1065785687266183E-003   6.1908104942901221E-002
  -7.0147786088352333E-003   1.1740930140954689E-003   6.2753018058261861E-002
  -6.9794079972715899E-003   1.3274228290441892E-003   6.3933290171497348E-002
  -1.1064563522524103E-002   1.5173862302541030E-003   5.8492123030690749E-002
  -1.0637843311761638E-002   1.5058054711625662E-003   5.8574597916285692E-002
  -1.0211123100999158E-002   1.5460702709383795E-003   5.9104413002403676E-002
  -9.7844028902366910E-003   1.6381806295818375E-003   6.0081568289044832E-002
  -9.3576826794742121E-003   1.7821365470930828E-003   6.1506063776208833E-002
  -1.5224777901086450E-002   1.8057766737797354E-003   5.5869410795633068E-002
  -1.4294726888476748E-002   1.8867314493873355E-003   5.5826195636499321E-002
  -1.3364675875867038E-002   1.9855619731500712E-003   5.6342301880536988E-002
  -1.2434624863257328E-002   2.1022682450681056E-003   5.7417729527746250E-002
  -1.1504573850647626E-002   2.2368502651417543E-003   5.9052478578126788E-002
  -1.5287080997787514E-003   4.1799539294662402E-004   6.8708666553692788E-002
  -1.3114994927112475E-003   6.1453877123635037E-004   6.8733018205754559E-002
  -1.0942908856437540E-003   7.0625869545365427E-004   6.8933852494822645E-002
  -8.7708227857625533E-004   6.9315516559805002E-004   6.9311169420897045E-002
  -6.5987367150875664E-004   5.7522818167010659E-004   6.9864968983977649E-002
  -4.3697498040397888E-003   8.7270911099540660E-004   6.6334157763991985E-002
  -3.9797499766132272E-003   1.0421435562334436E-003   6.6480627926104818E-002
  -3.5897501491866657E-003   1.1052542868824483E-003   6.6796197891929587E-002
  -3.1997503217601111E-003   1.0620413029424312E-003   6.7280867661466168E-002
  -2.8097504943335565E-003   9.1250460441349990E-004   6.7934637234714490E-002
  -6.9794079972715899E-003   1.3274228290441892E-003   6.3933290171497348E-002
  -6.4239997827804634E-003   1.4697483412303425E-003   6.4200378583145132E-002
  -5.8685915682893221E-003   1.5042498783111313E-003   6.4629183965210252E-002
  -5.3131833537981878E-003   1.4309274402866459E-003   6.5219706317692680E-002
  -4.7577751393070404E-003   1.2497810271570597E-003   6.5971945640592805E-002
  -9.3576826794742121E-003   1.7821365470930828E-003   6.1506063776208833E-002
  -8.6442489112129664E-003   1.8973531262270610E-003   6.1892270176875264E-002
  -7.9308151429517137E-003   1.9032454697398699E-003   6.2432810714664548E-002
  -7.2173813746904602E-003   1.7998135776309439E-003   6.3127685389576832E-002
  -6.5039476064292145E-003   1.5870574499004253E-003   6.3976894201611831E-002
  -1.1504573850647626E-002   2.2368502651417543E-003   5.9052478578126788E-002
  -1.0640497361910722E-002   2.3249579112242236E-003   5.9556302707295339E-002
  -9.7764208731738467E-003   2.3022410611686639E-003   6.0207078140292525E-002
  -8.9123443844369536E-003   2.1686997149750337E-003   6.1004804877118124E-002
  -8.0482678957000675E-003   1.9243338726440129E-003   6.1949482917771803E-002
  -6.5987367150875664E-004   5.7522818167010659E-004   6.9864968983977649E-002
  -5.5006357108757648E-004   4.2485170210188050E-004   6.9389653746795177E-002
  -4.4025347066638590E-004   3.1439968532609441E-004   6.9236238076709700E-002
  -3.3044337024519879E-004   2.4387213134197117E-004   6.9404721973721079E-002
  -2.2063326982401515E-004   2.1326904015106507E-004   6.9895105437829064E-002
  -2.8097504943335565E-003   9.1250460441349990E-004   6.7934637234714490E-002
  -2.4050005308652450E-003   7.4056956889245740E-004   6.7684940223032231E-002
  -2.0002505673969388E-003   6.3016157397594030E-004   6.7703223370347038E-002
  -1.5955006039286316E-003   5.8128061966346289E-004   6.7989486676659258E-002
  -1.1907506404603349E-003   5.9392670595559416E-004   6.8543730141969128E-002
  -4.7577751393070404E-003   1.2497810271570597E-003   6.5971945640592805E-002
  -4.1120047208910732E-003   1.0562874356828400E-003   6.5969469432222344E-002
  -3.4662343024751251E-003   9.4592346262556415E-004   6.6181053974749771E-002
  -2.8204638840591710E-003   9.1868910798439951E-004   6.6606699268175140E-002
  -2.1746934656432099E-003   9.7458437176012325E-004   6.7246405312498342E-002
  -6.5039476064292145E-003   1.5870574499004253E-003   6.3976894201611831E-002
  -5.6710761411650620E-003   1.3720053024735418E-003   6.4243241374365434E-002
  -4.8382046759009294E-003   1.2616853512750215E-003   6.4669729889917635E-002
  -4.0053332106367830E-003   1.2560975963053916E-003   6.5256359748268211E-002
  -3.1724617453726435E-003   1.3552420375646523E-003   6.6003130949417371E-002
  -8.0482678957000675E-003   1.9243338726440129E-003   6.1949482917771803E-002
  -7.0822147916872191E-003   1.6877231692638550E-003   6.2506256049461806E-002
  -6.1161616876743673E-003   1.5774472399249784E-003   6.3169251115850866E-002
  -5.1501085836615189E-003   1.5935060846265364E-003   6.3938468116938790E-002
  -4.1840554796486670E-003   1.7358997033691814E-003   6.4813907052725717E-002
  -2.2063326982401515E-004   2.1326904015106507E-004   6.9895105437829064E-002
  -1.9003096493997590E-004   2.0334374960917501E-004   6.8613884433965655E-002
  -1.5942866005592277E-004   1.9484959757323783E-004   6.7456016240567962E-002
  -1.2882635517188351E-004   1.8778658404400989E-004   6.6421500857636068E-002
  -9.8224050287830378E-005   1.8215470902094300E-004   6.5510338285169278E-002
  -1.1907506404603349E-003   5.9392670595559416E-004   6.8543730141969128E-002
  -1.0368089542083028E-003   6.6631779840270466E-004   6.7278367309567544E-002
  -8.8286726795627248E-004   7.9667186255591438E-004   6.6136330429436507E-002
  -7.2892558170424906E-004   9.8498889841504983E-004   6.5117619501575574E-002
  -5.7498389545221004E-004   1.2312689059795767E-003   6.4222234525985189E-002
  -2.1746934656432099E-003   9.7458437176012325E-004   6.7246405312498342E-002
  -1.8974392562184665E-003   1.1292918471965674E-003   6.6053432484758451E-002
  -1.6201850467937370E-003   1.3984941275385770E-003   6.4983758751093398E-002
  -1.3429308373689875E-003   1.7821912127859753E-003   6.4037384111503615E-002
  -1.0656766279442641E-003   2.2803831029388211E-003   6.3214308565988836E-002
  -3.1724617453726435E-003   1.3552420375646523E-003   6.6003130949417371E-002
  -2.7719218709704595E-003   1.5922658959904301E-003   6.4939079959538321E-002
  -2.3713819965682829E-003   2.0003163925214132E-003   6.3998301205539301E-002
  -1.9708421221661062E-003   2.5793935271571800E-003   6.3180794687420036E-002
  -1.5703022477639222E-003   3.3294972998980932E-003   6.2486560405180268E-002
  -4.1840554796486670E-003   1.7358997033691814E-003   6.4813907052725717E-002
  -3.6602567984643161E-003   2.0552399447840708E-003   6.3935309733907264E-002
  -3.1364581172799444E-003   2.6021386575036387E-003   6.3179957792773522E-002
  -2.6126594360955796E-003   3.3765958415281488E-003   6.2547851229324158E-002
  -2.0888607549112218E-003   4.3786114968569212E-003   6.2038990043559394E-002
  -9.8224050287830378E-005   1.8215470902094300E-004   6.5510338285169278E-002
  -8.9696665552509158E-005   1.8501214518973352E-004   6.0761586105426257E-002
  -8.1169280817187939E-005   2.0341706523582803E-004   5.5904909332366082E-002
  -7.2641896081880597E-005   2.3736946915952489E-004   5.0940307965988113E-002
  -6.4114511346552439E-005   2.8686935696153881E-004   4.5867782006292490E-002
  -5.7498389545221004E-004   1.2312689059795767E-003   6.4222234525985189E-002
  -6.6342059809576526E-004   1.5621300576590391E-003   5.9533883365053053E-002
  -7.5185730073930486E-004   2.0041905258611770E-003   5.4759528622680853E-002
  -8.4029400338286354E-004   2.5574503105857890E-003   4.9899170298868034E-002
  -9.2873070602639968E-004   3.2219094118337566E-003   4.4952808393614818E-002
  -1.0656766279442641E-003   2.2803831029388211E-003   6.3214308565988836E-002
  -1.2291564060896744E-003   2.9392479701286223E-003   5.8682010256513151E-002
  -1.3926361842350847E-003   3.8049639864862067E-003   5.4085629377473979E-002
  -1.5561159623805037E-003   4.8775311520119456E-003   4.9425165928871688E-002
  -1.7195957405259331E-003   6.1569494667059743E-003   4.4700619910706174E-002
  -1.5703022477639222E-003   3.3294972998980932E-003   6.2486560405180268E-002
  -1.7869040895342201E-003   4.3163658825980666E-003   5.8205966779806419E-002
  -2.0035059313045318E-003   5.6057374471112850E-003   5.3883211596745528E-002
  -2.2201077730748509E-003   7.1976119934379339E-003   4.9518294855998610E-002
  -2.4367096148451414E-003   9.0919895215780810E-003   4.5111216557564976E-002
  -2.0888607549112218E-003   4.3786114968569212E-003   6.2038990043559394E-002
  -2.3366636484294309E-003   5.6934837950676220E-003   5.8105752934931920E-002
  -2.5844665419476297E-003   7.4065109077367519E-003   5.4152275280495488E-002
  -2.8322694354658336E-003   9.5176928348639639E-003   5.0178557080249375E-002
  -3.0800723289840376E-003   1.2027029576450410E-002   4.6184598334193971E-002
  -2.9230736940018445E-002  -2.0016064621734830E-002  -4.7543566721979513E-002
  -2.7103148078299680E-002  -1.2989443412305790E-002  -9.2487534659116410E-003
  -2.4975559216580907E-002  -7.5151465477757695E-003   1.8989314740696206E-002
  -2.2847970354862124E-002  -3.5931740281449145E-003   3.7170637897843917E-002
  -2.0720381493143356E-002  -1.2235258534130100E-003   4.5295216005531602E-002
  -4.1237283685074547E-003  -5.6247751830456605E-003   6.6652242157232977E-003
  -9.1014983005102967E-003  -2.5326291050412619E-003   2.3309561793042249E-002
  -1.4079268232513145E-002  -6.5649783381055427E-005   3.5799926832378037E-002
  -1.9057038164515989E-002   1.7761627819351047E-003   4.4136319333730661E-002
  -2.4034808096518832E-002   2.9928085909070035E-003   4.8318739297100094E-002
  -2.5298361808623014E-003   8.7665142556435371E-003   5.6475961227723942E-002
  -8.7101923951097733E-003   7.9241852022232107E-003   5.2396980714848829E-002
  -1.4890548609357354E-002   7.3838469810137281E-003   5.0066800175467566E-002
  -2.1070904823604894E-002   7.1454995920150165E-003   4.9485419609580035E-002
  -2.7251261037852404E-002   7.2091430352271280E-003   5.0652839017186230E-002
  -2.4449060377082964E-002   2.3157803694332735E-002  0.10188864431402253     
  -2.5929230362098210E-002   1.8380999509487711E-002   7.8013503299508319E-002
  -2.7409400347113564E-002   1.4833343745408449E-002   6.1789934769964791E-002
  -2.8889570332128835E-002   1.2514836402094982E-002   5.3217938725391996E-002
  -3.0369740317144137E-002   1.1425477479547169E-002   5.2297515165789940E-002
  -6.9881400957169437E-002   3.7549093133021905E-002  0.14290327347461890     
  -6.0758612201475548E-002   2.8837813816752184E-002  0.10015912954702055     
  -5.1635823445781687E-002   2.2282840509803239E-002   7.0969330615869769E-002
  -4.2513034690087811E-002   1.7884173212174951E-002   5.5333876681166752E-002
  -3.3390245934393950E-002   1.5641811923867321E-002   5.3252767742911211E-002
  -2.0720381493143356E-002  -1.2235258534130100E-003   4.5295216005531602E-002
  -2.0170489378104003E-002   1.6134617107044225E-004   4.6737198932195717E-002
  -1.9620597263064664E-002   1.1289902399563845E-003   4.8355852355015660E-002
  -1.9070705148025311E-002   1.6794063532448167E-003   5.0151176273991321E-002
  -1.8520813032985972E-002   1.8125945109357944E-003   5.2123170689122922E-002
  -2.4034808096518832E-002   2.9928085909070035E-003   4.8318739297100094E-002
  -2.3431939686093591E-002   3.7529924529003111E-003   4.9382509138430869E-002
  -2.2829071275668349E-002   4.2254191772805871E-003   5.0375561074377601E-002
  -2.2226202865243086E-002   4.4100887640477204E-003   5.1297895104940289E-002
  -2.1623334454817861E-002   4.3070012132017110E-003   5.2149511230118961E-002
  -2.7251261037852404E-002   7.2091430352271280E-003   5.0652839017186230E-002
  -2.6842804733581093E-002   7.3446387347302355E-003   5.1467866591168046E-002
  -2.6434348429309806E-002   7.3218481146046788E-003   5.1964787858225947E-002
  -2.6025892125038523E-002   7.1407711748504576E-003   5.2143602818360113E-002
  -2.5617435820767209E-002   6.8014079154675444E-003   5.2004311471570308E-002
  -3.0369740317144137E-002   1.1425477479547169E-002   5.2297515165789940E-002
  -3.0403084520566601E-002   1.0936285016560215E-002   5.2993271290407276E-002
  -3.0436428723989079E-002   1.0418277051928798E-002   5.3123532706560846E-002
  -3.0469772927411536E-002   9.8714535856533059E-003   5.2688299414250746E-002
  -3.0503117130834024E-002   9.2958146177334194E-003   5.1687571413476935E-002
  -3.3390245934393950E-002   1.5641811923867321E-002   5.3252767742911211E-002
  -3.4112779047050013E-002   1.4527931298390029E-002   5.3958723236148420E-002
  -3.4835312159706137E-002   1.3514705989252931E-002   5.3851795619382109E-002
  -3.5557845272362235E-002   1.2602135996456060E-002   5.2931984892612194E-002
  -3.6280378385018325E-002   1.1790221319999294E-002   5.1199291055838869E-002
  -1.8520813032985972E-002   1.8125945109357944E-003   5.2123170689122922E-002
  -1.7696804250011109E-002   1.7555990310326175E-003   5.3664138307714770E-002
  -1.6872795467036211E-002   1.7354642315388080E-003   5.4802167531663698E-002
  -1.6048786684061341E-002   1.7521901124546435E-003   5.5537258360969760E-002
  -1.5224777901086450E-002   1.8057766737797354E-003   5.5869410795633068E-002
  -2.1623334454817861E-002   4.3070012132017110E-003   5.2149511230118961E-002
  -2.1067143695207131E-002   4.0906611928306080E-003   5.2983075715358208E-002
  -2.0510952935596391E-002   3.9355733710223495E-003   5.3683942548511970E-002
  -1.9954762175985651E-002   3.8417377477770465E-003   5.4252111729580152E-002
  -1.9398571416374917E-002   3.8091543230947544E-003   5.4687583258563155E-002
  -2.5617435820767209E-002   6.8014079154675444E-003   5.2004311471570308E-002
  -2.5058822341963223E-002   6.4257233546284320E-003   5.2154864341610374E-002
  -2.4500208863159262E-002   6.1356825105057800E-003   5.2442960302122463E-002
  -2.3941595384355290E-002   5.9312853830997270E-003   5.2868599353106588E-002
  -2.3382981905551308E-002   5.8125319724099123E-003   5.3431781494562472E-002
  -3.0503117130834024E-002   9.2958146177334194E-003   5.1687571413476935E-002
  -2.9671840190279405E-002   8.7607855164263115E-003   5.1179504186471533E-002
  -2.8840563249724754E-002   8.3357916499892659E-003   5.1079220792495342E-002
  -2.8009286309170104E-002   8.0208330184221577E-003   5.1386721231548478E-002
  -2.7178009368615457E-002   7.8159096217248897E-003   5.2102005503631130E-002
  -3.6280378385018325E-002   1.1790221319999294E-002   5.1199291055838869E-002
  -3.4906197240155645E-002   1.1095847678224247E-002   5.0056995249941227E-002
  -3.3532016095292952E-002   1.0535900789472752E-002   4.9592724019630552E-002
  -3.2157834950430265E-002   1.0110380653744810E-002   4.9806477364906426E-002
  -3.0783653805567579E-002   9.8192872710400891E-003   5.0698255285769211E-002
  -1.5224777901086450E-002   1.8057766737797354E-003   5.5869410795633068E-002
  -1.4294726888476748E-002   1.8867314493873355E-003   5.5826195636499321E-002
  -1.3364675875867038E-002   1.9855619731500712E-003   5.6342301880536988E-002
  -1.2434624863257328E-002   2.1022682450681056E-003   5.7417729527746250E-002
  -1.1504573850647626E-002   2.2368502651417543E-003   5.9052478578126788E-002
  -1.9398571416374917E-002   3.8091543230947544E-003   5.4687583258563155E-002
  -1.7974926926033100E-002   3.7821748294268598E-003   5.4751938905912872E-002
  -1.6551282435691237E-002   3.7051509992248877E-003   5.5244160105555384E-002
  -1.5127637945349380E-002   3.5780828324888450E-003   5.6164246857490704E-002
  -1.3703993455007581E-002   3.4009703292187665E-003   5.7512199161718902E-002
  -2.3382981905551308E-002   5.8125319724099123E-003   5.3431781494562472E-002
  -2.1597199788355902E-002   5.6776182094666616E-003   5.3535787863706219E-002
  -1.9811417671160535E-002   5.4247400252998776E-003   5.3936203934264342E-002
  -1.8025635553965150E-002   5.0538974199095307E-003   5.4633029706236472E-002
  -1.6239853436769779E-002   4.5650903932957787E-003   5.5626265179623102E-002
  -2.7178009368615457E-002   7.8159096217248897E-003   5.2102005503631130E-002
  -2.5161545475445215E-002   7.5730615895064357E-003   5.2177742509879631E-002
  -2.3145081582274872E-002   7.1443290513747808E-003   5.2418433366663596E-002
  -2.1128617689104567E-002   6.5297120073301877E-003   5.2824078073983170E-002
  -1.9112153795934290E-002   5.7292104573726799E-003   5.3394676631838472E-002
  -3.0783653805567579E-002   9.8192872710400891E-003   5.0698255285769211E-002
  -2.8667963987300954E-002   9.4685049695459322E-003   5.0677802844432795E-002
  -2.6552274169034315E-002   8.8639180774497117E-003   5.0690848402753397E-002
  -2.4436584350767697E-002   8.0055265947507406E-003   5.0737391960731015E-002
  -2.2320894532501051E-002   6.8933305214496920E-003   5.0817433518365540E-002
  -1.1504573850647626E-002   2.2368502651417543E-003   5.9052478578126788E-002
  -1.0640497361910722E-002   2.3249579112242236E-003   5.9556302707295339E-002
  -9.7764208731738467E-003   2.3022410611686639E-003   6.0207078140292525E-002
  -8.9123443844369536E-003   2.1686997149750337E-003   6.1004804877118124E-002
  -8.0482678957000675E-003   1.9243338726440129E-003   6.1949482917771803E-002
  -1.3703993455007581E-002   3.4009703292187665E-003   5.7512199161718902E-002
  -1.2695190163803778E-002   3.1837970049112818E-003   5.7606907511284611E-002
  -1.1686386872599977E-002   2.9365463750627291E-003   5.7844118161955504E-002
  -1.0677583581396182E-002   2.6592184396733824E-003   5.8223831113731916E-002
  -9.6687802901923754E-003   2.3518131987432245E-003   5.8746046366613680E-002
  -1.6239853436769779E-002   4.5650903932957787E-003   5.5626265179623102E-002
  -1.5090772345822068E-002   4.0426360985982845E-003   5.5392604940182485E-002
  -1.3941691254874362E-002   3.5708516889569053E-003   5.5296997999124242E-002
  -1.2792610163926636E-002   3.1497371643718422E-003   5.5339444356448400E-002
  -1.1643529072978942E-002   2.7792925248425471E-003   5.5519944012154931E-002
  -1.9112153795934290E-002   5.7292104573726799E-003   5.3394676631838472E-002
  -1.7827243907965640E-002   4.9014751922853150E-003   5.2913394993988783E-002
  -1.6542334019997017E-002   4.2051570028509705E-003   5.2565717651798426E-002
  -1.5257424132028404E-002   3.6402558890700244E-003   5.2351644605267464E-002
  -1.3972514244059750E-002   3.2067718509418697E-003   5.2271175854396029E-002
  -2.2320894532501051E-002   6.8933305214496920E-003   5.0817433518365540E-002
  -2.0904604850234487E-002   5.7603142859724565E-003   5.0169277672703738E-002
  -1.9488315167967923E-002   4.8394623167451745E-003   4.9650277119978159E-002
  -1.8072025485701353E-002   4.1307746137682691E-003   4.9260431860189108E-002
  -1.6655735803434796E-002   3.6342511770411923E-003   4.8999741893336557E-002
  -8.0482678957000675E-003   1.9243338726440129E-003   6.1949482917771803E-002
  -7.0822147916872191E-003   1.6877231692638550E-003   6.2506256049461806E-002
  -6.1161616876743673E-003   1.5774472399249784E-003   6.3169251115850866E-002
  -5.1501085836615189E-003   1.5935060846265364E-003   6.3938468116938790E-002
  -4.1840554796486670E-003   1.7358997033691814E-003   6.4813907052725717E-002
  -9.6687802901923754E-003   2.3518131987432245E-003   5.8746046366613680E-002
  -8.5658534804978620E-003   2.0848237286786864E-003   5.9097856691648576E-002
  -7.4629266708033260E-003   1.9287431058856441E-003   5.9617192493347598E-002
  -6.3599998611087892E-003   1.8835713303649304E-003   6.0304053771711205E-002
  -5.2570730514142801E-003   1.9493084021158236E-003   6.1158440526739466E-002
  -1.1643529072978942E-002   2.7792925248425471E-003   5.5519944012154931E-002
  -1.0342425015637324E-002   2.4819242880930459E-003   5.5651365603765879E-002
  -9.0413209582956896E-003   2.2800389718464487E-003   5.6011616214006299E-002
  -7.7402169009540374E-003   2.1736365761029983E-003   5.6600695842876636E-002
  -6.4391128436124094E-003   2.1627171008626878E-003   5.7418604490376834E-002
  -1.3972514244059750E-002   3.2067718509418697E-003   5.2271175854396029E-002
  -1.2411929397105611E-002   2.8790248475074748E-003   5.2166782785813812E-002
  -1.0851344550151456E-002   2.6313348378070728E-003   5.2352522277826892E-002
  -9.2907597031973033E-003   2.4637018218412292E-003   5.2828394330435083E-002
  -7.7301748562431617E-003   2.3761257996093854E-003   5.3594398943638766E-002
  -1.6655735803434796E-002   3.6342511770411923E-003   4.8999741893336557E-002
  -1.4774366624902710E-002   3.2761254069221257E-003   4.8644108237792416E-002
  -1.2892997446370638E-002   2.9826307037678634E-003   4.8639910684809329E-002
  -1.1011628267838566E-002   2.7537670675794462E-003   4.8987149234386657E-002
  -9.1302590893064806E-003   2.5895344983561941E-003   4.9685823886524649E-002
  -4.1840554796486670E-003   1.7358997033691814E-003   6.4813907052725717E-002
  -3.6602567984643161E-003   2.0552399447840708E-003   6.3935309733907264E-002
  -3.1364581172799444E-003   2.6021386575036387E-003   6.3179957792773522E-002
  -2.6126594360955796E-003   3.3765958415281488E-003   6.2547851229324158E-002
  -2.0888607549112218E-003   4.3786114968569212E-003   6.2038990043559394E-002
  -5.2570730514142801E-003   1.9493084021158236E-003   6.1158440526739466E-002
  -4.5869051514494004E-003   2.2320103770457345E-003   6.0469234543779449E-002
  -3.9167372514845259E-003   2.8377333110617964E-003   5.9949521620696167E-002
  -3.2465693515196471E-003   3.7664772041638289E-003   5.9599301757489398E-002
  -2.5764014515547683E-003   5.0182420563514851E-003   5.9418574954159031E-002
  -6.4391128436124094E-003   2.1627171008626878E-003   5.7418604490376834E-002
  -5.5763280426751292E-003   2.4087808093073426E-003   5.7014252331057141E-002
  -4.7135432417378213E-003   3.0733279646195377E-003   5.6825640913805792E-002
  -3.8507584408005412E-003   4.1563585667992939E-003   5.6852770238622882E-002
  -2.9879736398632315E-003   5.6578726158459380E-003   5.7095640305508399E-002
  -7.7301748562431617E-003   2.3761257996093854E-003   5.3594398943638766E-002
  -6.6285254721415374E-003   2.5855512415688675E-003   5.3570363095740356E-002
  -5.5268760880398827E-003   3.3089226181775983E-003   5.3808315672102459E-002
  -4.4252267039382237E-003   4.5462399294345333E-003   5.4308256672724778E-002
  -3.3235773198366050E-003   6.2975031753405575E-003   5.5070186097607263E-002
  -9.1302590893064806E-003   2.5895344983561941E-003   4.9685823886524649E-002
  -7.7434974398485901E-003   2.7623216738305034E-003   5.0137566837829106E-002
  -6.3567357903906579E-003   3.5445172717354090E-003   5.0897545895585872E-002
  -4.9699741409327397E-003   4.9361212920703765E-003   5.1965761059794974E-002
  -3.5832124914748353E-003   6.9371337348348439E-003   5.3342212330456218E-002
  -2.0888607549112218E-003   4.3786114968569212E-003   6.2038990043559394E-002
  -2.3366636484294309E-003   5.6934837950676220E-003   5.8105752934931920E-002
  -2.5844665419476297E-003   7.4065109077367519E-003   5.4152275280495488E-002
  -2.8322694354658336E-003   9.5176928348639639E-003   5.0178557080249375E-002
  -3.0800723289840376E-003   1.2027029576450410E-002   4.6184598334193971E-002
  -2.5764014515547683E-003   5.0182420563514851E-003   5.9418574954159031E-002
  -2.8590564358665846E-003   6.6591041494785674E-003   5.5973358977508714E-002
  -3.1417114201783680E-003   8.7551397653998775E-003   5.2478679365080494E-002
  -3.4243664044901643E-003   1.1306348904114055E-002   4.8934536116874400E-002
  -3.7070213888019676E-003   1.4312731565621739E-002   4.5340929232891014E-002
  -2.9879736398632315E-003   5.6578726158459380E-003   5.7095640305508399E-002
  -3.3347038049370316E-003   7.6247245038905676E-003   5.4195464169169622E-002
  -3.6814339700107787E-003   1.0103768623063253E-002   5.1216601307084580E-002
  -4.0281641350845433E-003   1.3095004973364043E-002   4.8159051719253720E-002
  -4.3748943001583294E-003   1.6598433554793068E-002   4.5022815405676320E-002
  -3.3235773198366050E-003   6.2975031753405575E-003   5.5070186097607263E-002
  -3.7636057556406999E-003   8.5903448583020403E-003   5.2772068509914949E-002
  -4.2036341914447961E-003   1.1452397480726503E-002   5.0366041106508296E-002
  -4.6436626272489063E-003   1.4883661042614082E-002   4.7852103887387101E-002
  -5.0836910630530138E-003   1.8884135543964509E-002   4.5230256852550832E-002
  -3.5832124914748353E-003   6.9371337348348439E-003   5.3342212330456218E-002
  -4.1457622879776668E-003   9.5559652127137351E-003   5.1703171999745057E-002
  -4.7083120844804843E-003   1.2801026338389782E-002   4.9926998763350994E-002
  -5.2708618809833019E-003   1.6672317111864128E-002   4.8013692621274001E-002
  -5.8334116774861333E-003   2.1169837533135727E-002   4.5963253573514162E-002
  -6.9881400957169437E-002   3.7549093133021905E-002  0.14290327347461890     
  -6.0758612201475548E-002   2.8837813816752184E-002  0.10015912954702055     
  -5.1635823445781687E-002   2.2282840509803239E-002   7.0969330615869769E-002
  -4.2513034690087811E-002   1.7884173212174951E-002   5.5333876681166752E-002
  -3.3390245934393950E-002   1.5641811923867321E-002   5.3252767742911211E-002
 -0.11585986090203709        3.0810791234473278E-002   9.2854483924982606E-002
  -9.6229116082115720E-002   2.5983712316198088E-002   7.1040254612739273E-002
  -7.6598371262194404E-002   2.2111179175145809E-002   5.6687592432503334E-002
  -5.6967626442273031E-002   1.9193191811316321E-002   4.9796497384274684E-002
  -3.7336881622351693E-002   1.7229750224709905E-002   5.0366969468053441E-002
 -0.13941744319260133        2.4072489335924596E-002   4.7290774889389584E-002
 -0.11537152017289280        2.3129610815643895E-002   4.5204699960403563E-002
  -9.1325597153184251E-002   2.1939517840488372E-002   4.4487414298984708E-002
  -6.7279674133475686E-002   2.0502210410457855E-002   4.5138917905132747E-002
  -4.3233751113767163E-002   1.8817688525552462E-002   4.7159210778847868E-002
 -0.14055414782886216        1.7334187437375956E-002   6.2121463678402010E-003
 -0.11818582447380670        2.0275509315089778E-002   2.2652465590013608E-002
  -9.5817501118751230E-002   2.1767856505830911E-002   3.4368796215313822E-002
  -7.3449177763695764E-002   2.1811229009599309E-002   4.1361138243740825E-002
  -5.1080854408640380E-002   2.0405626826395032E-002   4.3629491675294563E-002
 -0.11926997481081941        1.0595885538827288E-002  -3.0381401639666017E-002
 -0.10467202898485739        1.7421407814535550E-002   3.3835515015691042E-003
  -9.0074083158895313E-002   2.1596195171173546E-002   2.6331738181490733E-002
  -7.5476137332933305E-002   2.3120247608740801E-002   3.8463158400098854E-002
  -6.0878191506971269E-002   2.1993565127237658E-002   3.9777812157393400E-002
  -3.3390245934393950E-002   1.5641811923867321E-002   5.3252767742911211E-002
  -3.4112779047050013E-002   1.4527931298390029E-002   5.3958723236148420E-002
  -3.4835312159706137E-002   1.3514705989252931E-002   5.3851795619382109E-002
  -3.5557845272362235E-002   1.2602135996456060E-002   5.2931984892612194E-002
  -3.6280378385018325E-002   1.1790221319999294E-002   5.1199291055838869E-002
  -3.7336881622351693E-002   1.7229750224709905E-002   5.0366969468053441E-002
  -3.8566872549402623E-002   1.5861768330459672E-002   4.9596630915356613E-002
  -3.9796863476453573E-002   1.4730160043699203E-002   4.8624259843873585E-002
  -4.1026854403504488E-002   1.3834925364428513E-002   4.7449856253604358E-002
  -4.2256845330555445E-002   1.3176064292647394E-002   4.6073420144549126E-002
  -4.3233751113767163E-002   1.8817688525552462E-002   4.7159210778847868E-002
  -4.4360349263995562E-002   1.7195605362529232E-002   4.5048296471366531E-002
  -4.5486947414223912E-002   1.5945614098145357E-002   4.3346200236316405E-002
  -4.6613545564452283E-002   1.5067714732400742E-002   4.2052922073697555E-002
  -4.7740143714680668E-002   1.4561907265295604E-002   4.1168461983509874E-002
  -5.1080854408640380E-002   2.0405626826395032E-002   4.3629491675294563E-002
  -5.1493209190828795E-002   1.8529442394598861E-002   4.0313719904178313E-002
  -5.1905563973017217E-002   1.7161068152591514E-002   3.8017616796710625E-002
  -5.2317918755205653E-002   1.6300504100373193E-002   3.6741182352891685E-002
  -5.2730273537394054E-002   1.5947750237943759E-002   3.6484416572721313E-002
  -6.0878191506971269E-002   2.1993565127237658E-002   3.9777812157393400E-002
  -5.9965452329902330E-002   1.9863279426668462E-002   3.5392901213791877E-002
  -5.9052713152833475E-002   1.8376522207037754E-002   3.2638509525056314E-002
  -5.8139973975764578E-002   1.7533293468345500E-002   3.1514637091186792E-002
  -5.7227234798695653E-002   1.7333593210591969E-002   3.2021283912183340E-002
  -3.6280378385018325E-002   1.1790221319999294E-002   5.1199291055838869E-002
  -3.4906197240155645E-002   1.1095847678224247E-002   5.0056995249941227E-002
  -3.3532016095292952E-002   1.0535900789472752E-002   4.9592724019630552E-002
  -3.2157834950430265E-002   1.0110380653744810E-002   4.9806477364906426E-002
  -3.0783653805567579E-002   9.8192872710400891E-003   5.0698255285769211E-002
  -4.2256845330555445E-002   1.3176064292647394E-002   4.6073420144549126E-002
  -4.0298380402420945E-002   1.2637901224536313E-002   4.5400276684185309E-002
  -3.8339915474286446E-002   1.2104760556275296E-002   4.5217676214778263E-002
  -3.6381450546151925E-002   1.1576642287864564E-002   4.5525618736328127E-002
  -3.4422985618017446E-002   1.1053546419303784E-002   4.6324104248834874E-002
  -4.7740143714680668E-002   1.4561907265295604E-002   4.1168461983509874E-002
  -4.5384876587904292E-002   1.4179954770848435E-002   4.0835066515506377E-002
  -4.3029609461127841E-002   1.3673620323077951E-002   4.0804732453829762E-002
  -4.0674342334351424E-002   1.3042903921984261E-002   4.1077459798480265E-002
  -3.8319075207575028E-002   1.2287805567567145E-002   4.1653248549457456E-002
  -5.2730273537394054E-002   1.5947750237943759E-002   3.6484416572721313E-002
  -5.0165685796605658E-002   1.5722008317160474E-002   3.6361364743904730E-002
  -4.7601098055817206E-002   1.5242480089880606E-002   3.6353892736785215E-002
  -4.5036510315028769E-002   1.4509165556103876E-002   3.6462000551362693E-002
  -4.2471922574240352E-002   1.3522064715830617E-002   3.6685688187637379E-002
  -5.7227234798695653E-002   1.7333593210591969E-002   3.2021283912183340E-002
  -5.4640808028525056E-002   1.7264061863472596E-002   3.1979171369380166E-002
  -5.2054381258354487E-002   1.6811339856683136E-002   3.1865157063644428E-002
  -4.9467954488183932E-002   1.5975427190223820E-002   3.1679240994975724E-002
  -4.6881527718013322E-002   1.4756323864094201E-002   3.1421423163374262E-002
  -3.0783653805567579E-002   9.8192872710400891E-003   5.0698255285769211E-002
  -2.8667963987300954E-002   9.4685049695459322E-003   5.0677802844432795E-002
  -2.6552274169034315E-002   8.8639180774497117E-003   5.0690848402753397E-002
  -2.4436584350767697E-002   8.0055265947507406E-003   5.0737391960731015E-002
  -2.2320894532501051E-002   6.8933305214496920E-003   5.0817433518365540E-002
  -3.4422985618017446E-002   1.1053546419303784E-002   4.6324104248834874E-002
  -3.2257605837486707E-002   1.0462877289413114E-002   4.5866099236441943E-002
  -3.0092226056955988E-002   9.7320392370134068E-003   4.5473976148920153E-002
  -2.7926846276425232E-002   8.8610322621041973E-003   4.5147734986269561E-002
  -2.5761466495894517E-002   7.8498563646857145E-003   4.4887375748490221E-002
  -3.8319075207575028E-002   1.2287805567567145E-002   4.1653248549457456E-002
  -3.6071621539566036E-002   1.1457249609280268E-002   4.0871326634101063E-002
  -3.3824167871557051E-002   1.0600160396577199E-002   4.0187670568830006E-002
  -3.1576714203548045E-002   9.7165379294574840E-003   3.9602280353644305E-002
  -2.9329260535539060E-002   8.8063822079215703E-003   3.9115155988543954E-002
  -4.2471922574240352E-002   1.3522064715830617E-002   3.6685688187637379E-002
  -4.0110011093538921E-002   1.2451621929147547E-002   3.5693485037410440E-002
  -3.7748099612837503E-002   1.1468281556140832E-002   3.4831931662483051E-002
  -3.5386188132136051E-002   1.0572043596810967E-002   3.4101028062854914E-002
  -3.3024276651434654E-002   9.7629080511574540E-003   3.3500774238526661E-002
  -4.6881527718013322E-002   1.4756323864094201E-002   3.1421423163374262E-002
  -4.4372774499405326E-002   1.3445994249014603E-002   3.0332574446369998E-002
  -4.1864021280797345E-002   1.2336402715704714E-002   2.9406759429879026E-002
  -3.9355268062189398E-002   1.1427549264164179E-002   2.8643978113901930E-002
  -3.6846514843581396E-002   1.0719433894393449E-002   2.8044230498438516E-002
  -2.2320894532501051E-002   6.8933305214496920E-003   5.0817433518365540E-002
  -2.0904604850234487E-002   5.7603142859724565E-003   5.0169277672703738E-002
  -1.9488315167967923E-002   4.8394623167451745E-003   4.9650277119978159E-002
  -1.8072025485701353E-002   4.1307746137682691E-003   4.9260431860189108E-002
  -1.6655735803434796E-002   3.6342511770411923E-003   4.8999741893336557E-002
  -2.5761466495894517E-002   7.8498563646857145E-003   4.4887375748490221E-002
  -2.4201851208677586E-002   6.8446853251941109E-003   4.4308339590897916E-002
  -2.2642235921460592E-002   5.9916929240660666E-003   4.3886799350270012E-002
  -2.1082620634243654E-002   5.2908791613016301E-003   4.3622755026606480E-002
  -1.9523005347026667E-002   4.7422440369006003E-003   4.3516206619907349E-002
  -2.9329260535539060E-002   8.8063822079215703E-003   3.9115155988543954E-002
  -2.7597979019343792E-002   7.9290563644159318E-003   3.8545253891134640E-002
  -2.5866697503148444E-002   7.1439235313869448E-003   3.8161188334717766E-002
  -2.4135415986953138E-002   6.4509837088351542E-003   3.7962959319293200E-002
  -2.2404134470757828E-002   5.8502368967599527E-003   3.7950566844860756E-002
  -3.3024276651434654E-002   9.7629080511574540E-003   3.3500774238526661E-002
  -3.1092988282233086E-002   9.0134274036376139E-003   3.2880020573413903E-002
  -2.9161699913031570E-002   8.2961541387079965E-003   3.2473444073321367E-002
  -2.7230411543830050E-002   7.6110882563685967E-003   3.2281044738248922E-002
  -2.5299123174628482E-002   6.9582297566192775E-003   3.2302822568196901E-002
  -3.6846514843581396E-002   1.0719433894393449E-002   2.8044230498438516E-002
  -3.4686878997345599E-002   1.0097798442859407E-002   2.7312639637735558E-002
  -3.2527243151109900E-002   9.4483847460287429E-003   2.6823566566080814E-002
  -3.0367607304874138E-002   8.7711928039019907E-003   2.6577011283474061E-002
  -2.8207971458638431E-002   8.0662226164787132E-003   2.6572973789915522E-002
  -1.6655735803434796E-002   3.6342511770411923E-003   4.8999741893336557E-002
  -1.4774366624902710E-002   3.2761254069221257E-003   4.8644108237792416E-002
  -1.2892997446370638E-002   2.9826307037678634E-003   4.8639910684809329E-002
  -1.1011628267838566E-002   2.7537670675794462E-003   4.8987149234386657E-002
  -9.1302590893064806E-003   2.5895344983561941E-003   4.9685823886524649E-002
  -1.9523005347026667E-002   4.7422440369006003E-003   4.3516206619907349E-002
  -1.7344678882410529E-002   4.2873863453118388E-003   4.3142238214860684E-002
  -1.5166352417794356E-002   3.8679048809841521E-003   4.3010748279421418E-002
  -1.2988025953178228E-002   3.4837996439174707E-003   4.3121736813589717E-002
  -1.0809699488562044E-002   3.1350706341117807E-003   4.3475203817365471E-002
  -2.2404134470757828E-002   5.8502368967599527E-003   3.7950566844860756E-002
  -2.0037808353010760E-002   5.2986472837017184E-003   3.7529008850607060E-002
  -1.7671482235263720E-002   4.7531790582001354E-003   3.7240971693007718E-002
  -1.5305156117516639E-002   4.2138322202552800E-003   3.7086455372062774E-002
  -1.2938829999769558E-002   3.6806067698673672E-003   3.7065459887772073E-002
  -2.5299123174628482E-002   6.9582297566192775E-003   3.2302822568196901E-002
  -2.2853755036703595E-002   6.3099082220916258E-003   3.1804420145031889E-002
  -2.0408386898778767E-002   5.6384532354161604E-003   3.1330580925567876E-002
  -1.7963018760853888E-002   4.9438647965933079E-003   3.0881304909805219E-002
  -1.5517650622929001E-002   4.2261429056227873E-003   3.0456592097743783E-002
  -2.8207971458638431E-002   8.0662226164787132E-003   2.6572973789915522E-002
  -2.5792518933488884E-002   7.3211691604812557E-003   2.5968472098135131E-002
  -2.3377066408339406E-002   6.5237274126324352E-003   2.5279575977102287E-002
  -2.0961613883189893E-002   5.6738973729310097E-003   2.4506285426817709E-002
  -1.8546161358040381E-002   4.7716790413786514E-003   2.3648600447281454E-002
  -9.1302590893064806E-003   2.5895344983561941E-003   4.9685823886524649E-002
  -7.7434974398485901E-003   2.7623216738305034E-003   5.0137566837829106E-002
  -6.3567357903906579E-003   3.5445172717354090E-003   5.0897545895585872E-002
  -4.9699741409327397E-003   4.9361212920703765E-003   5.1965761059794974E-002
  -3.5832124914748353E-003   6.9371337348348439E-003   5.3342212330456218E-002
  -1.0809699488562044E-002   3.1350706341117807E-003   4.3475203817365471E-002
  -9.0914260955025639E-003   3.0808182843596876E-003   4.4082025051505380E-002
  -7.3731527024430907E-003   3.5801430274531587E-003   4.5043633666396299E-002
  -5.6548793093836071E-003   4.6330448633931723E-003   4.6360029662038144E-002
  -3.9366059163241374E-003   6.2395237921785141E-003   4.8031213038430831E-002
  -1.2938829999769558E-002   3.6806067698673672E-003   3.7065459887772073E-002
  -1.0842493588809884E-002   3.3993148948885943E-003   3.7771528075163319E-002
  -8.7461571778501522E-003   3.6157687831714774E-003   3.8878934917604011E-002
  -6.6498207668904477E-003   4.3299684347161936E-003   4.0387680415094405E-002
  -4.5534843559307467E-003   5.5419138495224618E-003   4.2297764567634150E-002
  -1.5517650622929001E-002   4.2261429056227873E-003   3.0456592097743783E-002
  -1.2996699919770410E-002   3.7178115054176952E-003   3.1206075908802068E-002
  -1.0475749216611790E-002   3.6513945388895672E-003   3.2403449649208452E-002
  -7.9547985134532252E-003   4.0268920060393242E-003   3.4048713318963170E-002
  -5.4338478102945783E-003   4.8443039068661597E-003   3.6141866918066236E-002
  -1.8546161358040381E-002   4.7716790413786514E-003   2.3648600447281454E-002
  -1.5554045088384261E-002   4.0363081159466851E-003   2.4385668552422524E-002
  -1.2561928818728058E-002   3.6870202946077957E-003   2.5617177861210261E-002
  -9.5698125490718960E-003   3.7238155773624063E-003   2.7343128373645054E-002
  -6.5776962794157345E-003   4.1466939642100797E-003   2.9563520089726625E-002
  -3.5832124914748353E-003   6.9371337348348439E-003   5.3342212330456218E-002
  -4.1457622879776668E-003   9.5559652127137351E-003   5.1703171999745057E-002
  -4.7083120844804843E-003   1.2801026338389782E-002   4.9926998763350994E-002
  -5.2708618809833019E-003   1.6672317111864128E-002   4.8013692621274001E-002
  -5.8334116774861333E-003   2.1169837533135727E-002   4.5963253573514162E-002
  -3.9366059163241374E-003   6.2395237921785141E-003   4.8031213038430831E-002
  -4.5339709891770302E-003   8.7027776839447846E-003   4.7124106562751844E-002
  -5.1313360620299092E-003   1.2326004408826835E-002   4.6284502440055608E-002
  -5.7287011348828437E-003   1.7109203966823784E-002   4.5512400670342179E-002
  -6.3260662077357366E-003   2.3052376357937110E-002   4.4807801253611501E-002
  -4.5534843559307467E-003   5.5419138495224618E-003   4.2297764567634150E-002
  -4.9810294464680757E-003   7.8495901551763891E-003   4.2656335132305156E-002
  -5.4085745370053458E-003   1.1850982479263653E-002   4.3287043308624665E-002
  -5.8361196275427546E-003   1.7546090821784158E-002   4.4189889096592612E-002
  -6.2636647180799448E-003   2.4934915182738049E-002   4.5364872496209019E-002
  -5.4338478102945783E-003   4.8443039068661597E-003   3.6141866918066236E-002
  -5.4869376598506766E-003   6.9964026264076051E-003   3.8299857708404904E-002
  -5.5400275094067454E-003   1.1375960549700477E-002   4.0934621369058011E-002
  -5.5931173589628715E-003   1.7982977676744283E-002   4.4046157900024668E-002
  -5.6462072085188587E-003   2.6817454007539321E-002   4.7634467301305772E-002
  -6.5776962794157345E-003   4.1466939642100797E-003   2.9563520089726625E-002
  -6.0516956293248936E-003   6.1432150976390432E-003   3.4054674291051246E-002
  -5.5256949792340526E-003   1.0900938620137302E-002   3.9227236621355299E-002
  -4.9996943291431561E-003   1.8419864531704133E-002   4.5081207080639618E-002
  -4.4736936790523707E-003   2.8699992832340371E-002   5.1616585668903259E-002
 -0.11926997481081941        1.0595885538827288E-002  -3.0381401639666017E-002
 -0.10467202898485739        1.7421407814535550E-002   3.3835515015691042E-003
  -9.0074083158895313E-002   2.1596195171173546E-002   2.6331738181490733E-002
  -7.5476137332933305E-002   2.3120247608740801E-002   3.8463158400098854E-002
  -6.0878191506971269E-002   2.1993565127237658E-002   3.9777812157393400E-002
  -9.5183086606284550E-002   1.8588638681908631E-002  -8.1229124996390345E-003
  -8.8975422092291825E-002   2.0950806499393432E-002   9.4254354970064735E-003
  -8.2767757578299184E-002   2.2308423210718797E-002   2.1009987331026853E-002
  -7.6560093064306556E-002   2.2661488815884964E-002   2.6630743002421811E-002
  -7.0352428550313872E-002   2.2010003314891863E-002   2.6287702511191835E-002
  -8.7911645683068515E-002   2.6581391824990058E-002   8.8491302757087303E-003
  -8.5241292182356876E-002   2.4480205184251119E-002   1.1827056940675762E-002
  -8.2570938681645251E-002   2.3020651250264278E-002   1.3694157741705980E-002
  -7.9900585180933667E-002   2.2202730023029159E-002   1.4450432678799471E-002
  -7.7230231680222070E-002   2.2026441502546096E-002   1.4095881751955794E-002
  -9.7455652041171473E-002   3.4574144968071360E-002   2.0534726686377330E-002
  -9.3469639255052570E-002   2.8009603869108876E-002   1.0588415832577136E-002
  -8.9483626468933736E-002   2.3732879289809449E-002   4.3842494135285012E-003
  -8.5497613682814777E-002   2.1743971230173336E-002   1.9222274292313461E-003
  -8.1511600896695902E-002   2.2042879690200370E-002   3.2023498796854670E-003
 -0.12381510568059340        4.2566898111152773E-002   2.6933876732366580E-002
 -0.11366046331037882        3.1539002553966689E-002   5.7095121727104847E-003
 -0.10350582094016436        2.4445107329354870E-002  -6.9197376535057864E-003
  -9.3351178569949844E-002   2.1285212437317506E-002  -1.0953872746282303E-002
  -8.3196536199735327E-002   2.2059317877854645E-002  -6.3928931056190796E-003
  -6.0878191506971269E-002   2.1993565127237658E-002   3.9777812157393400E-002
  -5.9965452329902330E-002   1.9863279426668462E-002   3.5392901213791877E-002
  -5.9052713152833475E-002   1.8376522207037754E-002   3.2638509525056314E-002
  -5.8139973975764578E-002   1.7533293468345500E-002   3.1514637091186792E-002
  -5.7227234798695653E-002   1.7333593210591969E-002   3.2021283912183340E-002
  -7.0352428550313872E-002   2.2010003314891863E-002   2.6287702511191835E-002
  -6.8171679078277606E-002   2.0945857355220879E-002   2.4548095855996835E-002
  -6.5990929606241325E-002   2.0060941584352850E-002   2.3713990535870449E-002
  -6.3810180134205086E-002   1.9355256002288324E-002   2.3785386550812811E-002
  -6.1629430662168777E-002   1.8828800609026974E-002   2.4762283900823856E-002
  -7.7230231680222070E-002   2.2026441502546096E-002   1.4095881751955794E-002
  -7.4506489833015818E-002   2.2028435283773087E-002   1.4537281093032185E-002
  -7.1782747985809525E-002   2.1745360961667889E-002   1.5159163849379854E-002
  -6.9059006138603246E-002   2.1177218536230984E-002   1.5961530020998690E-002
  -6.6335264291396967E-002   2.0324008007461841E-002   1.6944379607889054E-002
  -8.1511600896695902E-002   2.2042879690200370E-002   3.2023498796854670E-003
  -7.8969884594116996E-002   2.3111013212325345E-002   5.3604569248980275E-003
  -7.6428168291538076E-002   2.3429780338982846E-002   6.9740294655844387E-003
  -7.3886451988959212E-002   2.2999181070173617E-002   8.0430675017447977E-003
  -7.1344735686380251E-002   2.1819215405896777E-002   8.5675710333789588E-003
  -8.3196536199735327E-002   2.2059317877854645E-002  -6.3928931056190796E-003
  -8.1561863361581166E-002   2.4193591140877713E-002  -2.9823766484057823E-003
  -7.9927190523426950E-002   2.5114199716298136E-002  -8.4141261551615165E-004
  -7.8292517685272733E-002   2.4821143604116330E-002   2.9998993050318890E-005
  -7.6657844847118572E-002   2.3314422804331825E-002  -3.6814182270661355E-004
  -5.7227234798695653E-002   1.7333593210591969E-002   3.2021283912183340E-002
  -5.4640808028525056E-002   1.7264061863472596E-002   3.1979171369380166E-002
  -5.2054381258354487E-002   1.6811339856683136E-002   3.1865157063644428E-002
  -4.9467954488183932E-002   1.5975427190223820E-002   3.1679240994975724E-002
  -4.6881527718013322E-002   1.4756323864094201E-002   3.1421423163374262E-002
  -6.1629430662168777E-002   1.8828800609026974E-002   2.4762283900823856E-002
  -5.9036913773427374E-002   1.8303208977912017E-002   2.4214178811679338E-002
  -5.6444396884685930E-002   1.7600114682286824E-002   2.3750155722609231E-002
  -5.3851879995944506E-002   1.6719517722151297E-002   2.3370214633613710E-002
  -5.1259363107203068E-002   1.5661418097505431E-002   2.3074355544692837E-002
  -6.6335264291396967E-002   2.0324008007461841E-002   1.6944379607889054E-002
  -6.3580673521077380E-002   1.9342356092351562E-002   1.6095969967562587E-002
  -6.0826082750757682E-002   1.8388889507890520E-002   1.5487626090318153E-002
  -5.8071491980438039E-002   1.7463608254078722E-002   1.5119347976155436E-002
  -5.5316901210118334E-002   1.6566512330916550E-002   1.4991135625074647E-002
  -7.1344735686380251E-002   2.1819215405896777E-002   8.5675710333789588E-003
  -6.8272087271475046E-002   2.0381503206790906E-002   7.6245448370304697E-003
  -6.5199438856569786E-002   1.9177664333494323E-002   7.0775681667710460E-003
  -6.2126790441664602E-002   1.8207698786006615E-002   6.9266410226008377E-003
  -5.9054142026759321E-002   1.7471606564327946E-002   7.1717634045200818E-003
  -7.6657844847118572E-002   2.3314422804331825E-002  -3.6814182270661355E-004
  -7.3111155024620456E-002   2.1420650321230417E-002  -1.2000965799173757E-003
  -6.9564465202122228E-002   1.9966439159097932E-002  -1.4800180480318836E-003
  -6.6017775379624055E-002   1.8951789317934016E-002  -1.2079062270497209E-003
  -6.2471085557125883E-002   1.8376700797738788E-002  -3.8376111697113746E-004
  -4.6881527718013322E-002   1.4756323864094201E-002   3.1421423163374262E-002
  -4.4372774499405326E-002   1.3445994249014603E-002   3.0332574446369998E-002
  -4.1864021280797345E-002   1.2336402715704714E-002   2.9406759429879026E-002
  -3.9355268062189398E-002   1.1427549264164179E-002   2.8643978113901930E-002
  -3.6846514843581396E-002   1.0719433894393449E-002   2.8044230498438516E-002
  -5.1259363107203068E-002   1.5661418097505431E-002   2.3074355544692837E-002
  -4.8606336333497716E-002   1.4570228596958779E-002   2.2443074465785695E-002
  -4.5953309559792412E-002   1.3590362009121532E-002   2.1937306796559614E-002
  -4.3300282786087108E-002   1.2721818333992961E-002   2.1557052537014482E-002
  -4.0647256012381811E-002   1.1964597571573865E-002   2.1302311687150410E-002
  -5.5316901210118334E-002   1.6566512330916550E-002   1.4991135625074647E-002
  -5.2557121172148398E-002   1.5694462944903065E-002   1.4728007015204270E-002
  -4.9797341134178441E-002   1.4844321302538557E-002   1.4552871524182540E-002
  -4.7037561096208547E-002   1.4016087403822073E-002   1.4465729152008826E-002
  -4.4277781058238493E-002   1.3209761248754170E-002   1.4466579898683579E-002
  -5.9054142026759321E-002   1.7471606564327946E-002   7.1717634045200818E-003
  -5.6225129015357339E-002   1.6818697292847518E-002   7.1873720946260058E-003
  -5.3396116003955503E-002   1.6098280595955312E-002   7.2534536127477102E-003
  -5.0567102992553570E-002   1.5310356473650854E-002   7.3700079588848565E-003
  -4.7738089981151685E-002   1.4454924925934642E-002   7.5370351330377727E-003
  -6.2471085557125883E-002   1.8376700797738788E-002  -3.8376111697113746E-004
  -5.9610359863124684E-002   1.7942931640791859E-002  -1.7883029594939481E-004
  -5.6749634169123486E-002   1.7352239889372206E-002   3.9053062254990056E-005
  -5.3888908475122316E-002   1.6604625543479752E-002   2.6988895764253062E-004
  -5.1028182781121090E-002   1.5700088603114892E-002   5.1367739021290770E-004
  -3.6846514843581396E-002   1.0719433894393449E-002   2.8044230498438516E-002
  -3.4686878997345599E-002   1.0097798442859407E-002   2.7312639637735558E-002
  -3.2527243151109900E-002   9.4483847460287429E-003   2.6823566566080814E-002
  -3.0367607304874138E-002   8.7711928039019907E-003   2.6577011283474061E-002
  -2.8207971458638431E-002   8.0662226164787132E-003   2.6572973789915522E-002
  -4.0647256012381811E-002   1.1964597571573865E-002   2.1302311687150410E-002
  -3.8268920938350076E-002   1.1255385428170783E-002   2.0695576428152729E-002
  -3.5890585864318370E-002   1.0530867610091671E-002   2.0283721835698570E-002
  -3.3512250790286663E-002   9.7910441173364379E-003   2.0066747909788490E-002
  -3.1133915716254984E-002   9.0359149499044111E-003   2.0044654650421878E-002
  -4.4277781058238493E-002   1.3209761248754170E-002   1.4466579898683579E-002
  -4.1728383878915178E-002   1.2412972413482382E-002   1.3997172812011210E-002
  -3.9178986699591911E-002   1.1613350474154141E-002   1.3675009269377911E-002
  -3.6629589520268610E-002   1.0810895430770271E-002   1.3500089270784284E-002
  -3.4080192340945316E-002   1.0005607283329998E-002   1.3472412816229989E-002
  -4.7738089981151685E-002   1.4454924925934642E-002   7.5370351330377727E-003
  -4.5065267819040987E-002   1.3570559398793702E-002   7.2174287893104275E-003
  -4.2392445656930428E-002   1.2695833338216840E-002   6.9974288671183944E-003
  -3.9719623494819875E-002   1.1830746744204300E-002   6.8770353664611480E-003
  -3.7046801332709170E-002   1.0975299616755307E-002   6.8562482873393213E-003
  -5.1028182781121090E-002   1.5700088603114892E-002   5.1367739021290770E-004
  -4.8279572758727518E-002   1.4728146384105134E-002   3.5634436005149706E-004
  -4.5530962736334057E-002   1.3778316202279706E-002   2.5098062892028872E-004
  -4.2782352713940541E-002   1.2850598057638871E-002   1.9758619682001127E-004
  -4.0033742691547025E-002   1.1944991950181283E-002   1.9616106375019982E-004
  -2.8207971458638431E-002   8.0662226164787132E-003   2.6572973789915522E-002
  -2.5792518933488884E-002   7.3211691604812557E-003   2.5968472098135131E-002
  -2.3377066408339406E-002   6.5237274126324352E-003   2.5279575977102287E-002
  -2.0961613883189893E-002   5.6738973729310097E-003   2.4506285426817709E-002
  -1.8546161358040381E-002   4.7716790413786514E-003   2.3648600447281454E-002
  -3.1133915716254984E-002   9.0359149499044111E-003   2.0044654650421878E-002
  -2.8778741170816288E-002   8.2730909077302628E-003   1.9417700857778608E-002
  -2.6423566625377690E-002   7.5101827907479157E-003   1.8754585534965534E-002
  -2.4068392079939029E-002   6.7471905989572659E-003   1.8055308681982310E-002
  -2.1713217534500451E-002   5.9841143323585699E-003   1.7319870298829643E-002
  -3.4080192340945316E-002   1.0005607283329998E-002   1.3472412816229989E-002
  -3.1737062876135376E-002   9.2250126549791867E-003   1.2875311139767420E-002
  -2.9393933411325509E-002   8.4966381688636045E-003   1.2290280832216907E-002
  -2.7050803946515607E-002   7.8204838249835186E-003   1.1717321893579019E-002
  -2.4707674481705758E-002   7.1965496233388770E-003   1.1156434323853381E-002
  -3.7046801332709170E-002   1.0975299616755307E-002   6.8562482873393213E-003
  -3.4667484049446029E-002   1.0176934402228097E-002   6.3413029441011862E-003
  -3.2288166766182874E-002   9.4830935469795222E-003   5.8866618688576157E-003
  -2.9908849482919730E-002   8.8937770510097731E-003   5.4923250616080114E-003
  -2.7529532199656582E-002   8.4089849143185458E-003   5.1582925223529405E-003
  -4.0033742691547025E-002   1.1944991950181283E-002   1.9616106375019982E-004
  -3.7570004690748338E-002   1.1128856149476896E-002  -1.8432372921983742E-004
  -3.5106266689949817E-002   1.0469548925094829E-002  -4.5627135511366879E-004
  -3.2642528689151268E-002   9.9670702770361524E-003  -6.1968181393111388E-004
  -3.0178790688352608E-002   9.6214202052988806E-003  -6.7455510567171473E-004
  -1.8546161358040381E-002   4.7716790413786514E-003   2.3648600447281454E-002
  -1.5554045088384261E-002   4.0363081159466851E-003   2.4385668552422524E-002
  -1.2561928818728058E-002   3.6870202946077957E-003   2.5617177861210261E-002
  -9.5698125490718960E-003   3.7238155773624063E-003   2.7343128373645054E-002
  -6.5776962794157345E-003   4.1466939642100797E-003   2.9563520089726625E-002
  -2.1713217534500451E-002   5.9841143323585699E-003   1.7319870298829643E-002
  -1.8500230495009276E-002   5.3147800491707975E-003   1.8242792772274974E-002
  -1.5287243455518115E-002   4.8330138076127793E-003   1.9113015581743387E-002
  -1.2074256416026913E-002   4.5388156076855632E-003   1.9930538727234937E-002
  -8.8612693765357797E-003   4.4321854493879487E-003   2.0695362208749346E-002
  -2.4707674481705758E-002   7.1965496233388770E-003   1.1156434323853381E-002
  -2.1820957540003502E-002   6.5932519823950209E-003   1.2066696103140290E-002
  -1.8934240598301184E-002   5.9790073206184152E-003   1.2377117350825875E-002
  -1.6047523656598926E-002   5.3538156380083836E-003   1.2087698066911089E-002
  -1.3160806714896556E-002   4.7176769345653735E-003   1.1198438251395326E-002
  -2.7529532199656582E-002   8.4089849143185458E-003   5.1582925223529405E-003
  -2.5516226223366852E-002   7.8717239156193552E-003   5.8573785450178120E-003
  -2.3502920247077230E-002   7.1250008336237250E-003   5.4094831684577301E-003
  -2.1489614270787556E-002   6.1688156683320384E-003   3.8146063926732688E-003
  -1.9476308294497882E-002   5.0031684197432424E-003   1.0727482176639824E-003
  -3.0178790688352608E-002   9.6214202052988806E-003  -6.7455510567171473E-004
  -2.9586036545099503E-002   9.1501958488433566E-003  -3.8515990209203599E-004
  -2.8993282401846288E-002   8.2709943466289793E-003  -1.7898869653610316E-003
  -2.8400528258593183E-002   6.9838156986544581E-003  -4.8887362954782160E-003
  -2.7807774115339967E-002   5.2886599049211114E-003  -9.6817078924438249E-003
  -6.5776962794157345E-003   4.1466939642100797E-003   2.9563520089726625E-002
  -6.0516956293248936E-003   6.1432150976390432E-003   3.4054674291051246E-002
  -5.5256949792340526E-003   1.0900938620137302E-002   3.9227236621355299E-002
  -4.9996943291431561E-003   1.8419864531704133E-002   4.5081207080639618E-002
  -4.4736936790523707E-003   2.8699992832340371E-002   5.1616585668903259E-002
  -8.8612693765357797E-003   4.4321854493879487E-003   2.0695362208749346E-002
  -7.5796917671321351E-003   5.6584634003954415E-003   2.5864446282191145E-002
  -6.2981141577284766E-003   9.3629895283830478E-003   3.1863276145278507E-002
  -5.0165365483249152E-003   1.5545763833350920E-002   3.8691851798011684E-002
  -3.7349589389212845E-003   2.4206786315299045E-002   4.6350173240390591E-002
  -1.3160806714896556E-002   4.7176769345653735E-003   1.1198438251395326E-002
  -1.0975314485514059E-002   5.1737117031513957E-003   1.6762497984864927E-002
  -8.7898222561314521E-003   7.8250404366290160E-003   2.3304641168646917E-002
  -6.6043300267488725E-003   1.2671663134997874E-002   3.0824867802740435E-002
  -4.4188377973663484E-003   1.9713579798257719E-002   3.9323177887146121E-002
  -1.9476308294497882E-002   5.0031684197432424E-003   1.0727482176639824E-003
  -1.6238563784470313E-002   4.6889600059076830E-003   6.7488293990732792E-003
  -1.3000819274442743E-002   6.2870913448748733E-003   1.3551331691460416E-002
  -9.7630747644151424E-003   9.7975624366445219E-003   2.1480255094825595E-002
  -6.5253302543876041E-003   1.5220373281216282E-002   3.0535599609169434E-002
  -2.7807774115339967E-002   5.2886599049211114E-003  -9.6817078924438249E-003
  -2.3369439664001179E-002   4.2042083086635262E-003  -4.1765594751848600E-003
  -1.8931105212662391E-002   4.7491422531212857E-003   2.6033477137192840E-003
  -1.4492770761323548E-002   6.9234617382916419E-003   1.0658013674266942E-002
  -1.0054436309984816E-002   1.0727166764175067E-002   1.9987438406459113E-002
 </DataArray>
 </PointData>
 </Piece>
 </UnstructuredGrid>
 </VTKFile>
