 <VTKFile type="UnstructuredGrid"  version="0.1"   >
 <UnstructuredGrid>
 <Piece  NumberOfPoints="          1600 "  NumberOfCells="         1024 ">
 <Points>
 <DataArray  type="Float64" NumberOfComponents="3"  format="ascii" >
   0.0000000000000000        0.0000000000000000        0.0000000000000000     
   3.1250000000000000E-002   0.0000000000000000        0.0000000000000000     
   6.2500000000000000E-002   0.0000000000000000        0.0000000000000000     
   9.3750000000000000E-002   0.0000000000000000        0.0000000000000000     
  0.12500000000000000        0.0000000000000000        0.0000000000000000     
   0.0000000000000000        3.1250000000000000E-002   0.0000000000000000     
   3.1250000000000000E-002   3.1250000000000000E-002   0.0000000000000000     
   6.2500000000000000E-002   3.1250000000000000E-002   0.0000000000000000     
   9.3750000000000000E-002   3.1250000000000000E-002   0.0000000000000000     
  0.12500000000000000        3.1250000000000000E-002   0.0000000000000000     
   0.0000000000000000        6.2500000000000000E-002   0.0000000000000000     
   3.1250000000000000E-002   6.2500000000000000E-002   0.0000000000000000     
   6.2500000000000000E-002   6.2500000000000000E-002   0.0000000000000000     
   9.3750000000000000E-002   6.2500000000000000E-002   0.0000000000000000     
  0.12500000000000000        6.2500000000000000E-002   0.0000000000000000     
   0.0000000000000000        9.3750000000000000E-002   0.0000000000000000     
   3.1250000000000000E-002   9.3750000000000000E-002   0.0000000000000000     
   6.2500000000000000E-002   9.3750000000000000E-002   0.0000000000000000     
   9.3750000000000000E-002   9.3750000000000000E-002   0.0000000000000000     
  0.12500000000000000        9.3750000000000000E-002   0.0000000000000000     
   0.0000000000000000       0.12500000000000000        0.0000000000000000     
   3.1250000000000000E-002  0.12500000000000000        0.0000000000000000     
   6.2500000000000000E-002  0.12500000000000000        0.0000000000000000     
   9.3750000000000000E-002  0.12500000000000000        0.0000000000000000     
  0.12500000000000000       0.12500000000000000        0.0000000000000000     
  0.12500000000000000        0.0000000000000000        0.0000000000000000     
  0.15625000000000000        0.0000000000000000        0.0000000000000000     
  0.18750000000000000        0.0000000000000000        0.0000000000000000     
  0.21875000000000000        0.0000000000000000        0.0000000000000000     
  0.25000000000000000        0.0000000000000000        0.0000000000000000     
  0.12500000000000000        3.1250000000000000E-002   0.0000000000000000     
  0.15625000000000000        3.1250000000000000E-002   0.0000000000000000     
  0.18750000000000000        3.1250000000000000E-002   0.0000000000000000     
  0.21875000000000000        3.1250000000000000E-002   0.0000000000000000     
  0.25000000000000000        3.1250000000000000E-002   0.0000000000000000     
  0.12500000000000000        6.2500000000000000E-002   0.0000000000000000     
  0.15625000000000000        6.2500000000000000E-002   0.0000000000000000     
  0.18750000000000000        6.2500000000000000E-002   0.0000000000000000     
  0.21875000000000000        6.2500000000000000E-002   0.0000000000000000     
  0.25000000000000000        6.2500000000000000E-002   0.0000000000000000     
  0.12500000000000000        9.3750000000000000E-002   0.0000000000000000     
  0.15625000000000000        9.3750000000000000E-002   0.0000000000000000     
  0.18750000000000000        9.3750000000000000E-002   0.0000000000000000     
  0.21875000000000000        9.3750000000000000E-002   0.0000000000000000     
  0.25000000000000000        9.3750000000000000E-002   0.0000000000000000     
  0.12500000000000000       0.12500000000000000        0.0000000000000000     
  0.15625000000000000       0.12500000000000000        0.0000000000000000     
  0.18750000000000000       0.12500000000000000        0.0000000000000000     
  0.21875000000000000       0.12500000000000000        0.0000000000000000     
  0.25000000000000000       0.12500000000000000        0.0000000000000000     
  0.25000000000000000        0.0000000000000000        0.0000000000000000     
  0.28125000000000000        0.0000000000000000        0.0000000000000000     
  0.31250000000000000        0.0000000000000000        0.0000000000000000     
  0.34375000000000000        0.0000000000000000        0.0000000000000000     
  0.37500000000000000        0.0000000000000000        0.0000000000000000     
  0.25000000000000000        3.1250000000000000E-002   0.0000000000000000     
  0.28125000000000000        3.1250000000000000E-002   0.0000000000000000     
  0.31250000000000000        3.1250000000000000E-002   0.0000000000000000     
  0.34375000000000000        3.1250000000000000E-002   0.0000000000000000     
  0.37500000000000000        3.1250000000000000E-002   0.0000000000000000     
  0.25000000000000000        6.2500000000000000E-002   0.0000000000000000     
  0.28125000000000000        6.2500000000000000E-002   0.0000000000000000     
  0.31250000000000000        6.2500000000000000E-002   0.0000000000000000     
  0.34375000000000000        6.2500000000000000E-002   0.0000000000000000     
  0.37500000000000000        6.2500000000000000E-002   0.0000000000000000     
  0.25000000000000000        9.3750000000000000E-002   0.0000000000000000     
  0.28125000000000000        9.3750000000000000E-002   0.0000000000000000     
  0.31250000000000000        9.3750000000000000E-002   0.0000000000000000     
  0.34375000000000000        9.3750000000000000E-002   0.0000000000000000     
  0.37500000000000000        9.3750000000000000E-002   0.0000000000000000     
  0.25000000000000000       0.12500000000000000        0.0000000000000000     
  0.28125000000000000       0.12500000000000000        0.0000000000000000     
  0.31250000000000000       0.12500000000000000        0.0000000000000000     
  0.34375000000000000       0.12500000000000000        0.0000000000000000     
  0.37500000000000000       0.12500000000000000        0.0000000000000000     
  0.37500000000000000        0.0000000000000000        0.0000000000000000     
  0.40625000000000000        0.0000000000000000        0.0000000000000000     
  0.43750000000000000        0.0000000000000000        0.0000000000000000     
  0.46875000000000000        0.0000000000000000        0.0000000000000000     
  0.50000000000000000        0.0000000000000000        0.0000000000000000     
  0.37500000000000000        3.1250000000000000E-002   0.0000000000000000     
  0.40625000000000000        3.1250000000000000E-002   0.0000000000000000     
  0.43750000000000000        3.1250000000000000E-002   0.0000000000000000     
  0.46875000000000000        3.1250000000000000E-002   0.0000000000000000     
  0.50000000000000000        3.1250000000000000E-002   0.0000000000000000     
  0.37500000000000000        6.2500000000000000E-002   0.0000000000000000     
  0.40625000000000000        6.2500000000000000E-002   0.0000000000000000     
  0.43750000000000000        6.2500000000000000E-002   0.0000000000000000     
  0.46875000000000000        6.2500000000000000E-002   0.0000000000000000     
  0.50000000000000000        6.2500000000000000E-002   0.0000000000000000     
  0.37500000000000000        9.3750000000000000E-002   0.0000000000000000     
  0.40625000000000000        9.3750000000000000E-002   0.0000000000000000     
  0.43750000000000000        9.3750000000000000E-002   0.0000000000000000     
  0.46875000000000000        9.3750000000000000E-002   0.0000000000000000     
  0.50000000000000000        9.3750000000000000E-002   0.0000000000000000     
  0.37500000000000000       0.12500000000000000        0.0000000000000000     
  0.40625000000000000       0.12500000000000000        0.0000000000000000     
  0.43750000000000000       0.12500000000000000        0.0000000000000000     
  0.46875000000000000       0.12500000000000000        0.0000000000000000     
  0.50000000000000000       0.12500000000000000        0.0000000000000000     
  0.50000000000000000        0.0000000000000000        0.0000000000000000     
  0.53125000000000000        0.0000000000000000        0.0000000000000000     
  0.56250000000000000        0.0000000000000000        0.0000000000000000     
  0.59375000000000000        0.0000000000000000        0.0000000000000000     
  0.62500000000000000        0.0000000000000000        0.0000000000000000     
  0.50000000000000000        3.1250000000000000E-002   0.0000000000000000     
  0.53125000000000000        3.1250000000000000E-002   0.0000000000000000     
  0.56250000000000000        3.1250000000000000E-002   0.0000000000000000     
  0.59375000000000000        3.1250000000000000E-002   0.0000000000000000     
  0.62500000000000000        3.1250000000000000E-002   0.0000000000000000     
  0.50000000000000000        6.2500000000000000E-002   0.0000000000000000     
  0.53125000000000000        6.2500000000000000E-002   0.0000000000000000     
  0.56250000000000000        6.2500000000000000E-002   0.0000000000000000     
  0.59375000000000000        6.2500000000000000E-002   0.0000000000000000     
  0.62500000000000000        6.2500000000000000E-002   0.0000000000000000     
  0.50000000000000000        9.3750000000000000E-002   0.0000000000000000     
  0.53125000000000000        9.3750000000000000E-002   0.0000000000000000     
  0.56250000000000000        9.3750000000000000E-002   0.0000000000000000     
  0.59375000000000000        9.3750000000000000E-002   0.0000000000000000     
  0.62500000000000000        9.3750000000000000E-002   0.0000000000000000     
  0.50000000000000000       0.12500000000000000        0.0000000000000000     
  0.53125000000000000       0.12500000000000000        0.0000000000000000     
  0.56250000000000000       0.12500000000000000        0.0000000000000000     
  0.59375000000000000       0.12500000000000000        0.0000000000000000     
  0.62500000000000000       0.12500000000000000        0.0000000000000000     
  0.62500000000000000        0.0000000000000000        0.0000000000000000     
  0.65625000000000000        0.0000000000000000        0.0000000000000000     
  0.68750000000000000        0.0000000000000000        0.0000000000000000     
  0.71875000000000000        0.0000000000000000        0.0000000000000000     
  0.75000000000000000        0.0000000000000000        0.0000000000000000     
  0.62500000000000000        3.1250000000000000E-002   0.0000000000000000     
  0.65625000000000000        3.1250000000000000E-002   0.0000000000000000     
  0.68750000000000000        3.1250000000000000E-002   0.0000000000000000     
  0.71875000000000000        3.1250000000000000E-002   0.0000000000000000     
  0.75000000000000000        3.1250000000000000E-002   0.0000000000000000     
  0.62500000000000000        6.2500000000000000E-002   0.0000000000000000     
  0.65625000000000000        6.2500000000000000E-002   0.0000000000000000     
  0.68750000000000000        6.2500000000000000E-002   0.0000000000000000     
  0.71875000000000000        6.2500000000000000E-002   0.0000000000000000     
  0.75000000000000000        6.2500000000000000E-002   0.0000000000000000     
  0.62500000000000000        9.3750000000000000E-002   0.0000000000000000     
  0.65625000000000000        9.3750000000000000E-002   0.0000000000000000     
  0.68750000000000000        9.3750000000000000E-002   0.0000000000000000     
  0.71875000000000000        9.3750000000000000E-002   0.0000000000000000     
  0.75000000000000000        9.3750000000000000E-002   0.0000000000000000     
  0.62500000000000000       0.12500000000000000        0.0000000000000000     
  0.65625000000000000       0.12500000000000000        0.0000000000000000     
  0.68750000000000000       0.12500000000000000        0.0000000000000000     
  0.71875000000000000       0.12500000000000000        0.0000000000000000     
  0.75000000000000000       0.12500000000000000        0.0000000000000000     
  0.75000000000000000        0.0000000000000000        0.0000000000000000     
  0.78125000000000000        0.0000000000000000        0.0000000000000000     
  0.81250000000000000        0.0000000000000000        0.0000000000000000     
  0.84375000000000000        0.0000000000000000        0.0000000000000000     
  0.87500000000000000        0.0000000000000000        0.0000000000000000     
  0.75000000000000000        3.1250000000000000E-002   0.0000000000000000     
  0.78125000000000000        3.1250000000000000E-002   0.0000000000000000     
  0.81250000000000000        3.1250000000000000E-002   0.0000000000000000     
  0.84375000000000000        3.1250000000000000E-002   0.0000000000000000     
  0.87500000000000000        3.1250000000000000E-002   0.0000000000000000     
  0.75000000000000000        6.2500000000000000E-002   0.0000000000000000     
  0.78125000000000000        6.2500000000000000E-002   0.0000000000000000     
  0.81250000000000000        6.2500000000000000E-002   0.0000000000000000     
  0.84375000000000000        6.2500000000000000E-002   0.0000000000000000     
  0.87500000000000000        6.2500000000000000E-002   0.0000000000000000     
  0.75000000000000000        9.3750000000000000E-002   0.0000000000000000     
  0.78125000000000000        9.3750000000000000E-002   0.0000000000000000     
  0.81250000000000000        9.3750000000000000E-002   0.0000000000000000     
  0.84375000000000000        9.3750000000000000E-002   0.0000000000000000     
  0.87500000000000000        9.3750000000000000E-002   0.0000000000000000     
  0.75000000000000000       0.12500000000000000        0.0000000000000000     
  0.78125000000000000       0.12500000000000000        0.0000000000000000     
  0.81250000000000000       0.12500000000000000        0.0000000000000000     
  0.84375000000000000       0.12500000000000000        0.0000000000000000     
  0.87500000000000000       0.12500000000000000        0.0000000000000000     
  0.87500000000000000        0.0000000000000000        0.0000000000000000     
  0.90625000000000000        0.0000000000000000        0.0000000000000000     
  0.93750000000000000        0.0000000000000000        0.0000000000000000     
  0.96875000000000000        0.0000000000000000        0.0000000000000000     
   1.0000000000000000        0.0000000000000000        0.0000000000000000     
  0.87500000000000000        3.1250000000000000E-002   0.0000000000000000     
  0.90625000000000000        3.1250000000000000E-002   0.0000000000000000     
  0.93750000000000000        3.1250000000000000E-002   0.0000000000000000     
  0.96875000000000000        3.1250000000000000E-002   0.0000000000000000     
   1.0000000000000000        3.1250000000000000E-002   0.0000000000000000     
  0.87500000000000000        6.2500000000000000E-002   0.0000000000000000     
  0.90625000000000000        6.2500000000000000E-002   0.0000000000000000     
  0.93750000000000000        6.2500000000000000E-002   0.0000000000000000     
  0.96875000000000000        6.2500000000000000E-002   0.0000000000000000     
   1.0000000000000000        6.2500000000000000E-002   0.0000000000000000     
  0.87500000000000000        9.3750000000000000E-002   0.0000000000000000     
  0.90625000000000000        9.3750000000000000E-002   0.0000000000000000     
  0.93750000000000000        9.3750000000000000E-002   0.0000000000000000     
  0.96875000000000000        9.3750000000000000E-002   0.0000000000000000     
   1.0000000000000000        9.3750000000000000E-002   0.0000000000000000     
  0.87500000000000000       0.12500000000000000        0.0000000000000000     
  0.90625000000000000       0.12500000000000000        0.0000000000000000     
  0.93750000000000000       0.12500000000000000        0.0000000000000000     
  0.96875000000000000       0.12500000000000000        0.0000000000000000     
   1.0000000000000000       0.12500000000000000        0.0000000000000000     
   0.0000000000000000       0.12500000000000000        0.0000000000000000     
   3.1250000000000000E-002  0.12500000000000000        0.0000000000000000     
   6.2500000000000000E-002  0.12500000000000000        0.0000000000000000     
   9.3750000000000000E-002  0.12500000000000000        0.0000000000000000     
  0.12500000000000000       0.12500000000000000        0.0000000000000000     
   0.0000000000000000       0.15625000000000000        0.0000000000000000     
   3.1250000000000000E-002  0.15625000000000000        0.0000000000000000     
   6.2500000000000000E-002  0.15625000000000000        0.0000000000000000     
   9.3750000000000000E-002  0.15625000000000000        0.0000000000000000     
  0.12500000000000000       0.15625000000000000        0.0000000000000000     
   0.0000000000000000       0.18750000000000000        0.0000000000000000     
   3.1250000000000000E-002  0.18750000000000000        0.0000000000000000     
   6.2500000000000000E-002  0.18750000000000000        0.0000000000000000     
   9.3750000000000000E-002  0.18750000000000000        0.0000000000000000     
  0.12500000000000000       0.18750000000000000        0.0000000000000000     
   0.0000000000000000       0.21875000000000000        0.0000000000000000     
   3.1250000000000000E-002  0.21875000000000000        0.0000000000000000     
   6.2500000000000000E-002  0.21875000000000000        0.0000000000000000     
   9.3750000000000000E-002  0.21875000000000000        0.0000000000000000     
  0.12500000000000000       0.21875000000000000        0.0000000000000000     
   0.0000000000000000       0.25000000000000000        0.0000000000000000     
   3.1250000000000000E-002  0.25000000000000000        0.0000000000000000     
   6.2500000000000000E-002  0.25000000000000000        0.0000000000000000     
   9.3750000000000000E-002  0.25000000000000000        0.0000000000000000     
  0.12500000000000000       0.25000000000000000        0.0000000000000000     
  0.12500000000000000       0.12500000000000000        0.0000000000000000     
  0.15625000000000000       0.12500000000000000        0.0000000000000000     
  0.18750000000000000       0.12500000000000000        0.0000000000000000     
  0.21875000000000000       0.12500000000000000        0.0000000000000000     
  0.25000000000000000       0.12500000000000000        0.0000000000000000     
  0.12500000000000000       0.15625000000000000        0.0000000000000000     
  0.15625000000000000       0.15625000000000000        0.0000000000000000     
  0.18750000000000000       0.15625000000000000        0.0000000000000000     
  0.21875000000000000       0.15625000000000000        0.0000000000000000     
  0.25000000000000000       0.15625000000000000        0.0000000000000000     
  0.12500000000000000       0.18750000000000000        0.0000000000000000     
  0.15625000000000000       0.18750000000000000        0.0000000000000000     
  0.18750000000000000       0.18750000000000000        0.0000000000000000     
  0.21875000000000000       0.18750000000000000        0.0000000000000000     
  0.25000000000000000       0.18750000000000000        0.0000000000000000     
  0.12500000000000000       0.21875000000000000        0.0000000000000000     
  0.15625000000000000       0.21875000000000000        0.0000000000000000     
  0.18750000000000000       0.21875000000000000        0.0000000000000000     
  0.21875000000000000       0.21875000000000000        0.0000000000000000     
  0.25000000000000000       0.21875000000000000        0.0000000000000000     
  0.12500000000000000       0.25000000000000000        0.0000000000000000     
  0.15625000000000000       0.25000000000000000        0.0000000000000000     
  0.18750000000000000       0.25000000000000000        0.0000000000000000     
  0.21875000000000000       0.25000000000000000        0.0000000000000000     
  0.25000000000000000       0.25000000000000000        0.0000000000000000     
  0.25000000000000000       0.12500000000000000        0.0000000000000000     
  0.28125000000000000       0.12500000000000000        0.0000000000000000     
  0.31250000000000000       0.12500000000000000        0.0000000000000000     
  0.34375000000000000       0.12500000000000000        0.0000000000000000     
  0.37500000000000000       0.12500000000000000        0.0000000000000000     
  0.25000000000000000       0.15625000000000000        0.0000000000000000     
  0.28125000000000000       0.15625000000000000        0.0000000000000000     
  0.31250000000000000       0.15625000000000000        0.0000000000000000     
  0.34375000000000000       0.15625000000000000        0.0000000000000000     
  0.37500000000000000       0.15625000000000000        0.0000000000000000     
  0.25000000000000000       0.18750000000000000        0.0000000000000000     
  0.28125000000000000       0.18750000000000000        0.0000000000000000     
  0.31250000000000000       0.18750000000000000        0.0000000000000000     
  0.34375000000000000       0.18750000000000000        0.0000000000000000     
  0.37500000000000000       0.18750000000000000        0.0000000000000000     
  0.25000000000000000       0.21875000000000000        0.0000000000000000     
  0.28125000000000000       0.21875000000000000        0.0000000000000000     
  0.31250000000000000       0.21875000000000000        0.0000000000000000     
  0.34375000000000000       0.21875000000000000        0.0000000000000000     
  0.37500000000000000       0.21875000000000000        0.0000000000000000     
  0.25000000000000000       0.25000000000000000        0.0000000000000000     
  0.28125000000000000       0.25000000000000000        0.0000000000000000     
  0.31250000000000000       0.25000000000000000        0.0000000000000000     
  0.34375000000000000       0.25000000000000000        0.0000000000000000     
  0.37500000000000000       0.25000000000000000        0.0000000000000000     
  0.37500000000000000       0.12500000000000000        0.0000000000000000     
  0.40625000000000000       0.12500000000000000        0.0000000000000000     
  0.43750000000000000       0.12500000000000000        0.0000000000000000     
  0.46875000000000000       0.12500000000000000        0.0000000000000000     
  0.50000000000000000       0.12500000000000000        0.0000000000000000     
  0.37500000000000000       0.15625000000000000        0.0000000000000000     
  0.40625000000000000       0.15625000000000000        0.0000000000000000     
  0.43750000000000000       0.15625000000000000        0.0000000000000000     
  0.46875000000000000       0.15625000000000000        0.0000000000000000     
  0.50000000000000000       0.15625000000000000        0.0000000000000000     
  0.37500000000000000       0.18750000000000000        0.0000000000000000     
  0.40625000000000000       0.18750000000000000        0.0000000000000000     
  0.43750000000000000       0.18750000000000000        0.0000000000000000     
  0.46875000000000000       0.18750000000000000        0.0000000000000000     
  0.50000000000000000       0.18750000000000000        0.0000000000000000     
  0.37500000000000000       0.21875000000000000        0.0000000000000000     
  0.40625000000000000       0.21875000000000000        0.0000000000000000     
  0.43750000000000000       0.21875000000000000        0.0000000000000000     
  0.46875000000000000       0.21875000000000000        0.0000000000000000     
  0.50000000000000000       0.21875000000000000        0.0000000000000000     
  0.37500000000000000       0.25000000000000000        0.0000000000000000     
  0.40625000000000000       0.25000000000000000        0.0000000000000000     
  0.43750000000000000       0.25000000000000000        0.0000000000000000     
  0.46875000000000000       0.25000000000000000        0.0000000000000000     
  0.50000000000000000       0.25000000000000000        0.0000000000000000     
  0.50000000000000000       0.12500000000000000        0.0000000000000000     
  0.53125000000000000       0.12500000000000000        0.0000000000000000     
  0.56250000000000000       0.12500000000000000        0.0000000000000000     
  0.59375000000000000       0.12500000000000000        0.0000000000000000     
  0.62500000000000000       0.12500000000000000        0.0000000000000000     
  0.50000000000000000       0.15625000000000000        0.0000000000000000     
  0.53125000000000000       0.15625000000000000        0.0000000000000000     
  0.56250000000000000       0.15625000000000000        0.0000000000000000     
  0.59375000000000000       0.15625000000000000        0.0000000000000000     
  0.62500000000000000       0.15625000000000000        0.0000000000000000     
  0.50000000000000000       0.18750000000000000        0.0000000000000000     
  0.53125000000000000       0.18750000000000000        0.0000000000000000     
  0.56250000000000000       0.18750000000000000        0.0000000000000000     
  0.59375000000000000       0.18750000000000000        0.0000000000000000     
  0.62500000000000000       0.18750000000000000        0.0000000000000000     
  0.50000000000000000       0.21875000000000000        0.0000000000000000     
  0.53125000000000000       0.21875000000000000        0.0000000000000000     
  0.56250000000000000       0.21875000000000000        0.0000000000000000     
  0.59375000000000000       0.21875000000000000        0.0000000000000000     
  0.62500000000000000       0.21875000000000000        0.0000000000000000     
  0.50000000000000000       0.25000000000000000        0.0000000000000000     
  0.53125000000000000       0.25000000000000000        0.0000000000000000     
  0.56250000000000000       0.25000000000000000        0.0000000000000000     
  0.59375000000000000       0.25000000000000000        0.0000000000000000     
  0.62500000000000000       0.25000000000000000        0.0000000000000000     
  0.62500000000000000       0.12500000000000000        0.0000000000000000     
  0.65625000000000000       0.12500000000000000        0.0000000000000000     
  0.68750000000000000       0.12500000000000000        0.0000000000000000     
  0.71875000000000000       0.12500000000000000        0.0000000000000000     
  0.75000000000000000       0.12500000000000000        0.0000000000000000     
  0.62500000000000000       0.15625000000000000        0.0000000000000000     
  0.65625000000000000       0.15625000000000000        0.0000000000000000     
  0.68750000000000000       0.15625000000000000        0.0000000000000000     
  0.71875000000000000       0.15625000000000000        0.0000000000000000     
  0.75000000000000000       0.15625000000000000        0.0000000000000000     
  0.62500000000000000       0.18750000000000000        0.0000000000000000     
  0.65625000000000000       0.18750000000000000        0.0000000000000000     
  0.68750000000000000       0.18750000000000000        0.0000000000000000     
  0.71875000000000000       0.18750000000000000        0.0000000000000000     
  0.75000000000000000       0.18750000000000000        0.0000000000000000     
  0.62500000000000000       0.21875000000000000        0.0000000000000000     
  0.65625000000000000       0.21875000000000000        0.0000000000000000     
  0.68750000000000000       0.21875000000000000        0.0000000000000000     
  0.71875000000000000       0.21875000000000000        0.0000000000000000     
  0.75000000000000000       0.21875000000000000        0.0000000000000000     
  0.62500000000000000       0.25000000000000000        0.0000000000000000     
  0.65625000000000000       0.25000000000000000        0.0000000000000000     
  0.68750000000000000       0.25000000000000000        0.0000000000000000     
  0.71875000000000000       0.25000000000000000        0.0000000000000000     
  0.75000000000000000       0.25000000000000000        0.0000000000000000     
  0.75000000000000000       0.12500000000000000        0.0000000000000000     
  0.78125000000000000       0.12500000000000000        0.0000000000000000     
  0.81250000000000000       0.12500000000000000        0.0000000000000000     
  0.84375000000000000       0.12500000000000000        0.0000000000000000     
  0.87500000000000000       0.12500000000000000        0.0000000000000000     
  0.75000000000000000       0.15625000000000000        0.0000000000000000     
  0.78125000000000000       0.15625000000000000        0.0000000000000000     
  0.81250000000000000       0.15625000000000000        0.0000000000000000     
  0.84375000000000000       0.15625000000000000        0.0000000000000000     
  0.87500000000000000       0.15625000000000000        0.0000000000000000     
  0.75000000000000000       0.18750000000000000        0.0000000000000000     
  0.78125000000000000       0.18750000000000000        0.0000000000000000     
  0.81250000000000000       0.18750000000000000        0.0000000000000000     
  0.84375000000000000       0.18750000000000000        0.0000000000000000     
  0.87500000000000000       0.18750000000000000        0.0000000000000000     
  0.75000000000000000       0.21875000000000000        0.0000000000000000     
  0.78125000000000000       0.21875000000000000        0.0000000000000000     
  0.81250000000000000       0.21875000000000000        0.0000000000000000     
  0.84375000000000000       0.21875000000000000        0.0000000000000000     
  0.87500000000000000       0.21875000000000000        0.0000000000000000     
  0.75000000000000000       0.25000000000000000        0.0000000000000000     
  0.78125000000000000       0.25000000000000000        0.0000000000000000     
  0.81250000000000000       0.25000000000000000        0.0000000000000000     
  0.84375000000000000       0.25000000000000000        0.0000000000000000     
  0.87500000000000000       0.25000000000000000        0.0000000000000000     
  0.87500000000000000       0.12500000000000000        0.0000000000000000     
  0.90625000000000000       0.12500000000000000        0.0000000000000000     
  0.93750000000000000       0.12500000000000000        0.0000000000000000     
  0.96875000000000000       0.12500000000000000        0.0000000000000000     
   1.0000000000000000       0.12500000000000000        0.0000000000000000     
  0.87500000000000000       0.15625000000000000        0.0000000000000000     
  0.90625000000000000       0.15625000000000000        0.0000000000000000     
  0.93750000000000000       0.15625000000000000        0.0000000000000000     
  0.96875000000000000       0.15625000000000000        0.0000000000000000     
   1.0000000000000000       0.15625000000000000        0.0000000000000000     
  0.87500000000000000       0.18750000000000000        0.0000000000000000     
  0.90625000000000000       0.18750000000000000        0.0000000000000000     
  0.93750000000000000       0.18750000000000000        0.0000000000000000     
  0.96875000000000000       0.18750000000000000        0.0000000000000000     
   1.0000000000000000       0.18750000000000000        0.0000000000000000     
  0.87500000000000000       0.21875000000000000        0.0000000000000000     
  0.90625000000000000       0.21875000000000000        0.0000000000000000     
  0.93750000000000000       0.21875000000000000        0.0000000000000000     
  0.96875000000000000       0.21875000000000000        0.0000000000000000     
   1.0000000000000000       0.21875000000000000        0.0000000000000000     
  0.87500000000000000       0.25000000000000000        0.0000000000000000     
  0.90625000000000000       0.25000000000000000        0.0000000000000000     
  0.93750000000000000       0.25000000000000000        0.0000000000000000     
  0.96875000000000000       0.25000000000000000        0.0000000000000000     
   1.0000000000000000       0.25000000000000000        0.0000000000000000     
   0.0000000000000000       0.25000000000000000        0.0000000000000000     
   3.1250000000000000E-002  0.25000000000000000        0.0000000000000000     
   6.2500000000000000E-002  0.25000000000000000        0.0000000000000000     
   9.3750000000000000E-002  0.25000000000000000        0.0000000000000000     
  0.12500000000000000       0.25000000000000000        0.0000000000000000     
   0.0000000000000000       0.28125000000000000        0.0000000000000000     
   3.1250000000000000E-002  0.28125000000000000        0.0000000000000000     
   6.2500000000000000E-002  0.28125000000000000        0.0000000000000000     
   9.3750000000000000E-002  0.28125000000000000        0.0000000000000000     
  0.12500000000000000       0.28125000000000000        0.0000000000000000     
   0.0000000000000000       0.31250000000000000        0.0000000000000000     
   3.1250000000000000E-002  0.31250000000000000        0.0000000000000000     
   6.2500000000000000E-002  0.31250000000000000        0.0000000000000000     
   9.3750000000000000E-002  0.31250000000000000        0.0000000000000000     
  0.12500000000000000       0.31250000000000000        0.0000000000000000     
   0.0000000000000000       0.34375000000000000        0.0000000000000000     
   3.1250000000000000E-002  0.34375000000000000        0.0000000000000000     
   6.2500000000000000E-002  0.34375000000000000        0.0000000000000000     
   9.3750000000000000E-002  0.34375000000000000        0.0000000000000000     
  0.12500000000000000       0.34375000000000000        0.0000000000000000     
   0.0000000000000000       0.37500000000000000        0.0000000000000000     
   3.1250000000000000E-002  0.37500000000000000        0.0000000000000000     
   6.2500000000000000E-002  0.37500000000000000        0.0000000000000000     
   9.3750000000000000E-002  0.37500000000000000        0.0000000000000000     
  0.12500000000000000       0.37500000000000000        0.0000000000000000     
  0.12500000000000000       0.25000000000000000        0.0000000000000000     
  0.15625000000000000       0.25000000000000000        0.0000000000000000     
  0.18750000000000000       0.25000000000000000        0.0000000000000000     
  0.21875000000000000       0.25000000000000000        0.0000000000000000     
  0.25000000000000000       0.25000000000000000        0.0000000000000000     
  0.12500000000000000       0.28125000000000000        0.0000000000000000     
  0.15625000000000000       0.28125000000000000        0.0000000000000000     
  0.18750000000000000       0.28125000000000000        0.0000000000000000     
  0.21875000000000000       0.28125000000000000        0.0000000000000000     
  0.25000000000000000       0.28125000000000000        0.0000000000000000     
  0.12500000000000000       0.31250000000000000        0.0000000000000000     
  0.15625000000000000       0.31250000000000000        0.0000000000000000     
  0.18750000000000000       0.31250000000000000        0.0000000000000000     
  0.21875000000000000       0.31250000000000000        0.0000000000000000     
  0.25000000000000000       0.31250000000000000        0.0000000000000000     
  0.12500000000000000       0.34375000000000000        0.0000000000000000     
  0.15625000000000000       0.34375000000000000        0.0000000000000000     
  0.18750000000000000       0.34375000000000000        0.0000000000000000     
  0.21875000000000000       0.34375000000000000        0.0000000000000000     
  0.25000000000000000       0.34375000000000000        0.0000000000000000     
  0.12500000000000000       0.37500000000000000        0.0000000000000000     
  0.15625000000000000       0.37500000000000000        0.0000000000000000     
  0.18750000000000000       0.37500000000000000        0.0000000000000000     
  0.21875000000000000       0.37500000000000000        0.0000000000000000     
  0.25000000000000000       0.37500000000000000        0.0000000000000000     
  0.25000000000000000       0.25000000000000000        0.0000000000000000     
  0.28125000000000000       0.25000000000000000        0.0000000000000000     
  0.31250000000000000       0.25000000000000000        0.0000000000000000     
  0.34375000000000000       0.25000000000000000        0.0000000000000000     
  0.37500000000000000       0.25000000000000000        0.0000000000000000     
  0.25000000000000000       0.28125000000000000        0.0000000000000000     
  0.28125000000000000       0.28125000000000000        0.0000000000000000     
  0.31250000000000000       0.28125000000000000        0.0000000000000000     
  0.34375000000000000       0.28125000000000000        0.0000000000000000     
  0.37500000000000000       0.28125000000000000        0.0000000000000000     
  0.25000000000000000       0.31250000000000000        0.0000000000000000     
  0.28125000000000000       0.31250000000000000        0.0000000000000000     
  0.31250000000000000       0.31250000000000000        0.0000000000000000     
  0.34375000000000000       0.31250000000000000        0.0000000000000000     
  0.37500000000000000       0.31250000000000000        0.0000000000000000     
  0.25000000000000000       0.34375000000000000        0.0000000000000000     
  0.28125000000000000       0.34375000000000000        0.0000000000000000     
  0.31250000000000000       0.34375000000000000        0.0000000000000000     
  0.34375000000000000       0.34375000000000000        0.0000000000000000     
  0.37500000000000000       0.34375000000000000        0.0000000000000000     
  0.25000000000000000       0.37500000000000000        0.0000000000000000     
  0.28125000000000000       0.37500000000000000        0.0000000000000000     
  0.31250000000000000       0.37500000000000000        0.0000000000000000     
  0.34375000000000000       0.37500000000000000        0.0000000000000000     
  0.37500000000000000       0.37500000000000000        0.0000000000000000     
  0.37500000000000000       0.25000000000000000        0.0000000000000000     
  0.40625000000000000       0.25000000000000000        0.0000000000000000     
  0.43750000000000000       0.25000000000000000        0.0000000000000000     
  0.46875000000000000       0.25000000000000000        0.0000000000000000     
  0.50000000000000000       0.25000000000000000        0.0000000000000000     
  0.37500000000000000       0.28125000000000000        0.0000000000000000     
  0.40625000000000000       0.28125000000000000        0.0000000000000000     
  0.43750000000000000       0.28125000000000000        0.0000000000000000     
  0.46875000000000000       0.28125000000000000        0.0000000000000000     
  0.50000000000000000       0.28125000000000000        0.0000000000000000     
  0.37500000000000000       0.31250000000000000        0.0000000000000000     
  0.40625000000000000       0.31250000000000000        0.0000000000000000     
  0.43750000000000000       0.31250000000000000        0.0000000000000000     
  0.46875000000000000       0.31250000000000000        0.0000000000000000     
  0.50000000000000000       0.31250000000000000        0.0000000000000000     
  0.37500000000000000       0.34375000000000000        0.0000000000000000     
  0.40625000000000000       0.34375000000000000        0.0000000000000000     
  0.43750000000000000       0.34375000000000000        0.0000000000000000     
  0.46875000000000000       0.34375000000000000        0.0000000000000000     
  0.50000000000000000       0.34375000000000000        0.0000000000000000     
  0.37500000000000000       0.37500000000000000        0.0000000000000000     
  0.40625000000000000       0.37500000000000000        0.0000000000000000     
  0.43750000000000000       0.37500000000000000        0.0000000000000000     
  0.46875000000000000       0.37500000000000000        0.0000000000000000     
  0.50000000000000000       0.37500000000000000        0.0000000000000000     
  0.50000000000000000       0.25000000000000000        0.0000000000000000     
  0.53125000000000000       0.25000000000000000        0.0000000000000000     
  0.56250000000000000       0.25000000000000000        0.0000000000000000     
  0.59375000000000000       0.25000000000000000        0.0000000000000000     
  0.62500000000000000       0.25000000000000000        0.0000000000000000     
  0.50000000000000000       0.28125000000000000        0.0000000000000000     
  0.53125000000000000       0.28125000000000000        0.0000000000000000     
  0.56250000000000000       0.28125000000000000        0.0000000000000000     
  0.59375000000000000       0.28125000000000000        0.0000000000000000     
  0.62500000000000000       0.28125000000000000        0.0000000000000000     
  0.50000000000000000       0.31250000000000000        0.0000000000000000     
  0.53125000000000000       0.31250000000000000        0.0000000000000000     
  0.56250000000000000       0.31250000000000000        0.0000000000000000     
  0.59375000000000000       0.31250000000000000        0.0000000000000000     
  0.62500000000000000       0.31250000000000000        0.0000000000000000     
  0.50000000000000000       0.34375000000000000        0.0000000000000000     
  0.53125000000000000       0.34375000000000000        0.0000000000000000     
  0.56250000000000000       0.34375000000000000        0.0000000000000000     
  0.59375000000000000       0.34375000000000000        0.0000000000000000     
  0.62500000000000000       0.34375000000000000        0.0000000000000000     
  0.50000000000000000       0.37500000000000000        0.0000000000000000     
  0.53125000000000000       0.37500000000000000        0.0000000000000000     
  0.56250000000000000       0.37500000000000000        0.0000000000000000     
  0.59375000000000000       0.37500000000000000        0.0000000000000000     
  0.62500000000000000       0.37500000000000000        0.0000000000000000     
  0.62500000000000000       0.25000000000000000        0.0000000000000000     
  0.65625000000000000       0.25000000000000000        0.0000000000000000     
  0.68750000000000000       0.25000000000000000        0.0000000000000000     
  0.71875000000000000       0.25000000000000000        0.0000000000000000     
  0.75000000000000000       0.25000000000000000        0.0000000000000000     
  0.62500000000000000       0.28125000000000000        0.0000000000000000     
  0.65625000000000000       0.28125000000000000        0.0000000000000000     
  0.68750000000000000       0.28125000000000000        0.0000000000000000     
  0.71875000000000000       0.28125000000000000        0.0000000000000000     
  0.75000000000000000       0.28125000000000000        0.0000000000000000     
  0.62500000000000000       0.31250000000000000        0.0000000000000000     
  0.65625000000000000       0.31250000000000000        0.0000000000000000     
  0.68750000000000000       0.31250000000000000        0.0000000000000000     
  0.71875000000000000       0.31250000000000000        0.0000000000000000     
  0.75000000000000000       0.31250000000000000        0.0000000000000000     
  0.62500000000000000       0.34375000000000000        0.0000000000000000     
  0.65625000000000000       0.34375000000000000        0.0000000000000000     
  0.68750000000000000       0.34375000000000000        0.0000000000000000     
  0.71875000000000000       0.34375000000000000        0.0000000000000000     
  0.75000000000000000       0.34375000000000000        0.0000000000000000     
  0.62500000000000000       0.37500000000000000        0.0000000000000000     
  0.65625000000000000       0.37500000000000000        0.0000000000000000     
  0.68750000000000000       0.37500000000000000        0.0000000000000000     
  0.71875000000000000       0.37500000000000000        0.0000000000000000     
  0.75000000000000000       0.37500000000000000        0.0000000000000000     
  0.75000000000000000       0.25000000000000000        0.0000000000000000     
  0.78125000000000000       0.25000000000000000        0.0000000000000000     
  0.81250000000000000       0.25000000000000000        0.0000000000000000     
  0.84375000000000000       0.25000000000000000        0.0000000000000000     
  0.87500000000000000       0.25000000000000000        0.0000000000000000     
  0.75000000000000000       0.28125000000000000        0.0000000000000000     
  0.78125000000000000       0.28125000000000000        0.0000000000000000     
  0.81250000000000000       0.28125000000000000        0.0000000000000000     
  0.84375000000000000       0.28125000000000000        0.0000000000000000     
  0.87500000000000000       0.28125000000000000        0.0000000000000000     
  0.75000000000000000       0.31250000000000000        0.0000000000000000     
  0.78125000000000000       0.31250000000000000        0.0000000000000000     
  0.81250000000000000       0.31250000000000000        0.0000000000000000     
  0.84375000000000000       0.31250000000000000        0.0000000000000000     
  0.87500000000000000       0.31250000000000000        0.0000000000000000     
  0.75000000000000000       0.34375000000000000        0.0000000000000000     
  0.78125000000000000       0.34375000000000000        0.0000000000000000     
  0.81250000000000000       0.34375000000000000        0.0000000000000000     
  0.84375000000000000       0.34375000000000000        0.0000000000000000     
  0.87500000000000000       0.34375000000000000        0.0000000000000000     
  0.75000000000000000       0.37500000000000000        0.0000000000000000     
  0.78125000000000000       0.37500000000000000        0.0000000000000000     
  0.81250000000000000       0.37500000000000000        0.0000000000000000     
  0.84375000000000000       0.37500000000000000        0.0000000000000000     
  0.87500000000000000       0.37500000000000000        0.0000000000000000     
  0.87500000000000000       0.25000000000000000        0.0000000000000000     
  0.90625000000000000       0.25000000000000000        0.0000000000000000     
  0.93750000000000000       0.25000000000000000        0.0000000000000000     
  0.96875000000000000       0.25000000000000000        0.0000000000000000     
   1.0000000000000000       0.25000000000000000        0.0000000000000000     
  0.87500000000000000       0.28125000000000000        0.0000000000000000     
  0.90625000000000000       0.28125000000000000        0.0000000000000000     
  0.93750000000000000       0.28125000000000000        0.0000000000000000     
  0.96875000000000000       0.28125000000000000        0.0000000000000000     
   1.0000000000000000       0.28125000000000000        0.0000000000000000     
  0.87500000000000000       0.31250000000000000        0.0000000000000000     
  0.90625000000000000       0.31250000000000000        0.0000000000000000     
  0.93750000000000000       0.31250000000000000        0.0000000000000000     
  0.96875000000000000       0.31250000000000000        0.0000000000000000     
   1.0000000000000000       0.31250000000000000        0.0000000000000000     
  0.87500000000000000       0.34375000000000000        0.0000000000000000     
  0.90625000000000000       0.34375000000000000        0.0000000000000000     
  0.93750000000000000       0.34375000000000000        0.0000000000000000     
  0.96875000000000000       0.34375000000000000        0.0000000000000000     
   1.0000000000000000       0.34375000000000000        0.0000000000000000     
  0.87500000000000000       0.37500000000000000        0.0000000000000000     
  0.90625000000000000       0.37500000000000000        0.0000000000000000     
  0.93750000000000000       0.37500000000000000        0.0000000000000000     
  0.96875000000000000       0.37500000000000000        0.0000000000000000     
   1.0000000000000000       0.37500000000000000        0.0000000000000000     
   0.0000000000000000       0.37500000000000000        0.0000000000000000     
   3.1250000000000000E-002  0.37500000000000000        0.0000000000000000     
   6.2500000000000000E-002  0.37500000000000000        0.0000000000000000     
   9.3750000000000000E-002  0.37500000000000000        0.0000000000000000     
  0.12500000000000000       0.37500000000000000        0.0000000000000000     
   0.0000000000000000       0.40625000000000000        0.0000000000000000     
   3.1250000000000000E-002  0.40625000000000000        0.0000000000000000     
   6.2500000000000000E-002  0.40625000000000000        0.0000000000000000     
   9.3750000000000000E-002  0.40625000000000000        0.0000000000000000     
  0.12500000000000000       0.40625000000000000        0.0000000000000000     
   0.0000000000000000       0.43750000000000000        0.0000000000000000     
   3.1250000000000000E-002  0.43750000000000000        0.0000000000000000     
   6.2500000000000000E-002  0.43750000000000000        0.0000000000000000     
   9.3750000000000000E-002  0.43750000000000000        0.0000000000000000     
  0.12500000000000000       0.43750000000000000        0.0000000000000000     
   0.0000000000000000       0.46875000000000000        0.0000000000000000     
   3.1250000000000000E-002  0.46875000000000000        0.0000000000000000     
   6.2500000000000000E-002  0.46875000000000000        0.0000000000000000     
   9.3750000000000000E-002  0.46875000000000000        0.0000000000000000     
  0.12500000000000000       0.46875000000000000        0.0000000000000000     
   0.0000000000000000       0.50000000000000000        0.0000000000000000     
   3.1250000000000000E-002  0.50000000000000000        0.0000000000000000     
   6.2500000000000000E-002  0.50000000000000000        0.0000000000000000     
   9.3750000000000000E-002  0.50000000000000000        0.0000000000000000     
  0.12500000000000000       0.50000000000000000        0.0000000000000000     
  0.12500000000000000       0.37500000000000000        0.0000000000000000     
  0.15625000000000000       0.37500000000000000        0.0000000000000000     
  0.18750000000000000       0.37500000000000000        0.0000000000000000     
  0.21875000000000000       0.37500000000000000        0.0000000000000000     
  0.25000000000000000       0.37500000000000000        0.0000000000000000     
  0.12500000000000000       0.40625000000000000        0.0000000000000000     
  0.15625000000000000       0.40625000000000000        0.0000000000000000     
  0.18750000000000000       0.40625000000000000        0.0000000000000000     
  0.21875000000000000       0.40625000000000000        0.0000000000000000     
  0.25000000000000000       0.40625000000000000        0.0000000000000000     
  0.12500000000000000       0.43750000000000000        0.0000000000000000     
  0.15625000000000000       0.43750000000000000        0.0000000000000000     
  0.18750000000000000       0.43750000000000000        0.0000000000000000     
  0.21875000000000000       0.43750000000000000        0.0000000000000000     
  0.25000000000000000       0.43750000000000000        0.0000000000000000     
  0.12500000000000000       0.46875000000000000        0.0000000000000000     
  0.15625000000000000       0.46875000000000000        0.0000000000000000     
  0.18750000000000000       0.46875000000000000        0.0000000000000000     
  0.21875000000000000       0.46875000000000000        0.0000000000000000     
  0.25000000000000000       0.46875000000000000        0.0000000000000000     
  0.12500000000000000       0.50000000000000000        0.0000000000000000     
  0.15625000000000000       0.50000000000000000        0.0000000000000000     
  0.18750000000000000       0.50000000000000000        0.0000000000000000     
  0.21875000000000000       0.50000000000000000        0.0000000000000000     
  0.25000000000000000       0.50000000000000000        0.0000000000000000     
  0.25000000000000000       0.37500000000000000        0.0000000000000000     
  0.28125000000000000       0.37500000000000000        0.0000000000000000     
  0.31250000000000000       0.37500000000000000        0.0000000000000000     
  0.34375000000000000       0.37500000000000000        0.0000000000000000     
  0.37500000000000000       0.37500000000000000        0.0000000000000000     
  0.25000000000000000       0.40625000000000000        0.0000000000000000     
  0.28125000000000000       0.40625000000000000        0.0000000000000000     
  0.31250000000000000       0.40625000000000000        0.0000000000000000     
  0.34375000000000000       0.40625000000000000        0.0000000000000000     
  0.37500000000000000       0.40625000000000000        0.0000000000000000     
  0.25000000000000000       0.43750000000000000        0.0000000000000000     
  0.28125000000000000       0.43750000000000000        0.0000000000000000     
  0.31250000000000000       0.43750000000000000        0.0000000000000000     
  0.34375000000000000       0.43750000000000000        0.0000000000000000     
  0.37500000000000000       0.43750000000000000        0.0000000000000000     
  0.25000000000000000       0.46875000000000000        0.0000000000000000     
  0.28125000000000000       0.46875000000000000        0.0000000000000000     
  0.31250000000000000       0.46875000000000000        0.0000000000000000     
  0.34375000000000000       0.46875000000000000        0.0000000000000000     
  0.37500000000000000       0.46875000000000000        0.0000000000000000     
  0.25000000000000000       0.50000000000000000        0.0000000000000000     
  0.28125000000000000       0.50000000000000000        0.0000000000000000     
  0.31250000000000000       0.50000000000000000        0.0000000000000000     
  0.34375000000000000       0.50000000000000000        0.0000000000000000     
  0.37500000000000000       0.50000000000000000        0.0000000000000000     
  0.37500000000000000       0.37500000000000000        0.0000000000000000     
  0.40625000000000000       0.37500000000000000        0.0000000000000000     
  0.43750000000000000       0.37500000000000000        0.0000000000000000     
  0.46875000000000000       0.37500000000000000        0.0000000000000000     
  0.50000000000000000       0.37500000000000000        0.0000000000000000     
  0.37500000000000000       0.40625000000000000        0.0000000000000000     
  0.40625000000000000       0.40625000000000000        0.0000000000000000     
  0.43750000000000000       0.40625000000000000        0.0000000000000000     
  0.46875000000000000       0.40625000000000000        0.0000000000000000     
  0.50000000000000000       0.40625000000000000        0.0000000000000000     
  0.37500000000000000       0.43750000000000000        0.0000000000000000     
  0.40625000000000000       0.43750000000000000        0.0000000000000000     
  0.43750000000000000       0.43750000000000000        0.0000000000000000     
  0.46875000000000000       0.43750000000000000        0.0000000000000000     
  0.50000000000000000       0.43750000000000000        0.0000000000000000     
  0.37500000000000000       0.46875000000000000        0.0000000000000000     
  0.40625000000000000       0.46875000000000000        0.0000000000000000     
  0.43750000000000000       0.46875000000000000        0.0000000000000000     
  0.46875000000000000       0.46875000000000000        0.0000000000000000     
  0.50000000000000000       0.46875000000000000        0.0000000000000000     
  0.37500000000000000       0.50000000000000000        0.0000000000000000     
  0.40625000000000000       0.50000000000000000        0.0000000000000000     
  0.43750000000000000       0.50000000000000000        0.0000000000000000     
  0.46875000000000000       0.50000000000000000        0.0000000000000000     
  0.50000000000000000       0.50000000000000000        0.0000000000000000     
  0.50000000000000000       0.37500000000000000        0.0000000000000000     
  0.53125000000000000       0.37500000000000000        0.0000000000000000     
  0.56250000000000000       0.37500000000000000        0.0000000000000000     
  0.59375000000000000       0.37500000000000000        0.0000000000000000     
  0.62500000000000000       0.37500000000000000        0.0000000000000000     
  0.50000000000000000       0.40625000000000000        0.0000000000000000     
  0.53125000000000000       0.40625000000000000        0.0000000000000000     
  0.56250000000000000       0.40625000000000000        0.0000000000000000     
  0.59375000000000000       0.40625000000000000        0.0000000000000000     
  0.62500000000000000       0.40625000000000000        0.0000000000000000     
  0.50000000000000000       0.43750000000000000        0.0000000000000000     
  0.53125000000000000       0.43750000000000000        0.0000000000000000     
  0.56250000000000000       0.43750000000000000        0.0000000000000000     
  0.59375000000000000       0.43750000000000000        0.0000000000000000     
  0.62500000000000000       0.43750000000000000        0.0000000000000000     
  0.50000000000000000       0.46875000000000000        0.0000000000000000     
  0.53125000000000000       0.46875000000000000        0.0000000000000000     
  0.56250000000000000       0.46875000000000000        0.0000000000000000     
  0.59375000000000000       0.46875000000000000        0.0000000000000000     
  0.62500000000000000       0.46875000000000000        0.0000000000000000     
  0.50000000000000000       0.50000000000000000        0.0000000000000000     
  0.53125000000000000       0.50000000000000000        0.0000000000000000     
  0.56250000000000000       0.50000000000000000        0.0000000000000000     
  0.59375000000000000       0.50000000000000000        0.0000000000000000     
  0.62500000000000000       0.50000000000000000        0.0000000000000000     
  0.62500000000000000       0.37500000000000000        0.0000000000000000     
  0.65625000000000000       0.37500000000000000        0.0000000000000000     
  0.68750000000000000       0.37500000000000000        0.0000000000000000     
  0.71875000000000000       0.37500000000000000        0.0000000000000000     
  0.75000000000000000       0.37500000000000000        0.0000000000000000     
  0.62500000000000000       0.40625000000000000        0.0000000000000000     
  0.65625000000000000       0.40625000000000000        0.0000000000000000     
  0.68750000000000000       0.40625000000000000        0.0000000000000000     
  0.71875000000000000       0.40625000000000000        0.0000000000000000     
  0.75000000000000000       0.40625000000000000        0.0000000000000000     
  0.62500000000000000       0.43750000000000000        0.0000000000000000     
  0.65625000000000000       0.43750000000000000        0.0000000000000000     
  0.68750000000000000       0.43750000000000000        0.0000000000000000     
  0.71875000000000000       0.43750000000000000        0.0000000000000000     
  0.75000000000000000       0.43750000000000000        0.0000000000000000     
  0.62500000000000000       0.46875000000000000        0.0000000000000000     
  0.65625000000000000       0.46875000000000000        0.0000000000000000     
  0.68750000000000000       0.46875000000000000        0.0000000000000000     
  0.71875000000000000       0.46875000000000000        0.0000000000000000     
  0.75000000000000000       0.46875000000000000        0.0000000000000000     
  0.62500000000000000       0.50000000000000000        0.0000000000000000     
  0.65625000000000000       0.50000000000000000        0.0000000000000000     
  0.68750000000000000       0.50000000000000000        0.0000000000000000     
  0.71875000000000000       0.50000000000000000        0.0000000000000000     
  0.75000000000000000       0.50000000000000000        0.0000000000000000     
  0.75000000000000000       0.37500000000000000        0.0000000000000000     
  0.78125000000000000       0.37500000000000000        0.0000000000000000     
  0.81250000000000000       0.37500000000000000        0.0000000000000000     
  0.84375000000000000       0.37500000000000000        0.0000000000000000     
  0.87500000000000000       0.37500000000000000        0.0000000000000000     
  0.75000000000000000       0.40625000000000000        0.0000000000000000     
  0.78125000000000000       0.40625000000000000        0.0000000000000000     
  0.81250000000000000       0.40625000000000000        0.0000000000000000     
  0.84375000000000000       0.40625000000000000        0.0000000000000000     
  0.87500000000000000       0.40625000000000000        0.0000000000000000     
  0.75000000000000000       0.43750000000000000        0.0000000000000000     
  0.78125000000000000       0.43750000000000000        0.0000000000000000     
  0.81250000000000000       0.43750000000000000        0.0000000000000000     
  0.84375000000000000       0.43750000000000000        0.0000000000000000     
  0.87500000000000000       0.43750000000000000        0.0000000000000000     
  0.75000000000000000       0.46875000000000000        0.0000000000000000     
  0.78125000000000000       0.46875000000000000        0.0000000000000000     
  0.81250000000000000       0.46875000000000000        0.0000000000000000     
  0.84375000000000000       0.46875000000000000        0.0000000000000000     
  0.87500000000000000       0.46875000000000000        0.0000000000000000     
  0.75000000000000000       0.50000000000000000        0.0000000000000000     
  0.78125000000000000       0.50000000000000000        0.0000000000000000     
  0.81250000000000000       0.50000000000000000        0.0000000000000000     
  0.84375000000000000       0.50000000000000000        0.0000000000000000     
  0.87500000000000000       0.50000000000000000        0.0000000000000000     
  0.87500000000000000       0.37500000000000000        0.0000000000000000     
  0.90625000000000000       0.37500000000000000        0.0000000000000000     
  0.93750000000000000       0.37500000000000000        0.0000000000000000     
  0.96875000000000000       0.37500000000000000        0.0000000000000000     
   1.0000000000000000       0.37500000000000000        0.0000000000000000     
  0.87500000000000000       0.40625000000000000        0.0000000000000000     
  0.90625000000000000       0.40625000000000000        0.0000000000000000     
  0.93750000000000000       0.40625000000000000        0.0000000000000000     
  0.96875000000000000       0.40625000000000000        0.0000000000000000     
   1.0000000000000000       0.40625000000000000        0.0000000000000000     
  0.87500000000000000       0.43750000000000000        0.0000000000000000     
  0.90625000000000000       0.43750000000000000        0.0000000000000000     
  0.93750000000000000       0.43750000000000000        0.0000000000000000     
  0.96875000000000000       0.43750000000000000        0.0000000000000000     
   1.0000000000000000       0.43750000000000000        0.0000000000000000     
  0.87500000000000000       0.46875000000000000        0.0000000000000000     
  0.90625000000000000       0.46875000000000000        0.0000000000000000     
  0.93750000000000000       0.46875000000000000        0.0000000000000000     
  0.96875000000000000       0.46875000000000000        0.0000000000000000     
   1.0000000000000000       0.46875000000000000        0.0000000000000000     
  0.87500000000000000       0.50000000000000000        0.0000000000000000     
  0.90625000000000000       0.50000000000000000        0.0000000000000000     
  0.93750000000000000       0.50000000000000000        0.0000000000000000     
  0.96875000000000000       0.50000000000000000        0.0000000000000000     
   1.0000000000000000       0.50000000000000000        0.0000000000000000     
   0.0000000000000000       0.50000000000000000        0.0000000000000000     
   3.1250000000000000E-002  0.50000000000000000        0.0000000000000000     
   6.2500000000000000E-002  0.50000000000000000        0.0000000000000000     
   9.3750000000000000E-002  0.50000000000000000        0.0000000000000000     
  0.12500000000000000       0.50000000000000000        0.0000000000000000     
   0.0000000000000000       0.53125000000000000        0.0000000000000000     
   3.1250000000000000E-002  0.53125000000000000        0.0000000000000000     
   6.2500000000000000E-002  0.53125000000000000        0.0000000000000000     
   9.3750000000000000E-002  0.53125000000000000        0.0000000000000000     
  0.12500000000000000       0.53125000000000000        0.0000000000000000     
   0.0000000000000000       0.56250000000000000        0.0000000000000000     
   3.1250000000000000E-002  0.56250000000000000        0.0000000000000000     
   6.2500000000000000E-002  0.56250000000000000        0.0000000000000000     
   9.3750000000000000E-002  0.56250000000000000        0.0000000000000000     
  0.12500000000000000       0.56250000000000000        0.0000000000000000     
   0.0000000000000000       0.59375000000000000        0.0000000000000000     
   3.1250000000000000E-002  0.59375000000000000        0.0000000000000000     
   6.2500000000000000E-002  0.59375000000000000        0.0000000000000000     
   9.3750000000000000E-002  0.59375000000000000        0.0000000000000000     
  0.12500000000000000       0.59375000000000000        0.0000000000000000     
   0.0000000000000000       0.62500000000000000        0.0000000000000000     
   3.1250000000000000E-002  0.62500000000000000        0.0000000000000000     
   6.2500000000000000E-002  0.62500000000000000        0.0000000000000000     
   9.3750000000000000E-002  0.62500000000000000        0.0000000000000000     
  0.12500000000000000       0.62500000000000000        0.0000000000000000     
  0.12500000000000000       0.50000000000000000        0.0000000000000000     
  0.15625000000000000       0.50000000000000000        0.0000000000000000     
  0.18750000000000000       0.50000000000000000        0.0000000000000000     
  0.21875000000000000       0.50000000000000000        0.0000000000000000     
  0.25000000000000000       0.50000000000000000        0.0000000000000000     
  0.12500000000000000       0.53125000000000000        0.0000000000000000     
  0.15625000000000000       0.53125000000000000        0.0000000000000000     
  0.18750000000000000       0.53125000000000000        0.0000000000000000     
  0.21875000000000000       0.53125000000000000        0.0000000000000000     
  0.25000000000000000       0.53125000000000000        0.0000000000000000     
  0.12500000000000000       0.56250000000000000        0.0000000000000000     
  0.15625000000000000       0.56250000000000000        0.0000000000000000     
  0.18750000000000000       0.56250000000000000        0.0000000000000000     
  0.21875000000000000       0.56250000000000000        0.0000000000000000     
  0.25000000000000000       0.56250000000000000        0.0000000000000000     
  0.12500000000000000       0.59375000000000000        0.0000000000000000     
  0.15625000000000000       0.59375000000000000        0.0000000000000000     
  0.18750000000000000       0.59375000000000000        0.0000000000000000     
  0.21875000000000000       0.59375000000000000        0.0000000000000000     
  0.25000000000000000       0.59375000000000000        0.0000000000000000     
  0.12500000000000000       0.62500000000000000        0.0000000000000000     
  0.15625000000000000       0.62500000000000000        0.0000000000000000     
  0.18750000000000000       0.62500000000000000        0.0000000000000000     
  0.21875000000000000       0.62500000000000000        0.0000000000000000     
  0.25000000000000000       0.62500000000000000        0.0000000000000000     
  0.25000000000000000       0.50000000000000000        0.0000000000000000     
  0.28125000000000000       0.50000000000000000        0.0000000000000000     
  0.31250000000000000       0.50000000000000000        0.0000000000000000     
  0.34375000000000000       0.50000000000000000        0.0000000000000000     
  0.37500000000000000       0.50000000000000000        0.0000000000000000     
  0.25000000000000000       0.53125000000000000        0.0000000000000000     
  0.28125000000000000       0.53125000000000000        0.0000000000000000     
  0.31250000000000000       0.53125000000000000        0.0000000000000000     
  0.34375000000000000       0.53125000000000000        0.0000000000000000     
  0.37500000000000000       0.53125000000000000        0.0000000000000000     
  0.25000000000000000       0.56250000000000000        0.0000000000000000     
  0.28125000000000000       0.56250000000000000        0.0000000000000000     
  0.31250000000000000       0.56250000000000000        0.0000000000000000     
  0.34375000000000000       0.56250000000000000        0.0000000000000000     
  0.37500000000000000       0.56250000000000000        0.0000000000000000     
  0.25000000000000000       0.59375000000000000        0.0000000000000000     
  0.28125000000000000       0.59375000000000000        0.0000000000000000     
  0.31250000000000000       0.59375000000000000        0.0000000000000000     
  0.34375000000000000       0.59375000000000000        0.0000000000000000     
  0.37500000000000000       0.59375000000000000        0.0000000000000000     
  0.25000000000000000       0.62500000000000000        0.0000000000000000     
  0.28125000000000000       0.62500000000000000        0.0000000000000000     
  0.31250000000000000       0.62500000000000000        0.0000000000000000     
  0.34375000000000000       0.62500000000000000        0.0000000000000000     
  0.37500000000000000       0.62500000000000000        0.0000000000000000     
  0.37500000000000000       0.50000000000000000        0.0000000000000000     
  0.40625000000000000       0.50000000000000000        0.0000000000000000     
  0.43750000000000000       0.50000000000000000        0.0000000000000000     
  0.46875000000000000       0.50000000000000000        0.0000000000000000     
  0.50000000000000000       0.50000000000000000        0.0000000000000000     
  0.37500000000000000       0.53125000000000000        0.0000000000000000     
  0.40625000000000000       0.53125000000000000        0.0000000000000000     
  0.43750000000000000       0.53125000000000000        0.0000000000000000     
  0.46875000000000000       0.53125000000000000        0.0000000000000000     
  0.50000000000000000       0.53125000000000000        0.0000000000000000     
  0.37500000000000000       0.56250000000000000        0.0000000000000000     
  0.40625000000000000       0.56250000000000000        0.0000000000000000     
  0.43750000000000000       0.56250000000000000        0.0000000000000000     
  0.46875000000000000       0.56250000000000000        0.0000000000000000     
  0.50000000000000000       0.56250000000000000        0.0000000000000000     
  0.37500000000000000       0.59375000000000000        0.0000000000000000     
  0.40625000000000000       0.59375000000000000        0.0000000000000000     
  0.43750000000000000       0.59375000000000000        0.0000000000000000     
  0.46875000000000000       0.59375000000000000        0.0000000000000000     
  0.50000000000000000       0.59375000000000000        0.0000000000000000     
  0.37500000000000000       0.62500000000000000        0.0000000000000000     
  0.40625000000000000       0.62500000000000000        0.0000000000000000     
  0.43750000000000000       0.62500000000000000        0.0000000000000000     
  0.46875000000000000       0.62500000000000000        0.0000000000000000     
  0.50000000000000000       0.62500000000000000        0.0000000000000000     
  0.50000000000000000       0.50000000000000000        0.0000000000000000     
  0.53125000000000000       0.50000000000000000        0.0000000000000000     
  0.56250000000000000       0.50000000000000000        0.0000000000000000     
  0.59375000000000000       0.50000000000000000        0.0000000000000000     
  0.62500000000000000       0.50000000000000000        0.0000000000000000     
  0.50000000000000000       0.53125000000000000        0.0000000000000000     
  0.53125000000000000       0.53125000000000000        0.0000000000000000     
  0.56250000000000000       0.53125000000000000        0.0000000000000000     
  0.59375000000000000       0.53125000000000000        0.0000000000000000     
  0.62500000000000000       0.53125000000000000        0.0000000000000000     
  0.50000000000000000       0.56250000000000000        0.0000000000000000     
  0.53125000000000000       0.56250000000000000        0.0000000000000000     
  0.56250000000000000       0.56250000000000000        0.0000000000000000     
  0.59375000000000000       0.56250000000000000        0.0000000000000000     
  0.62500000000000000       0.56250000000000000        0.0000000000000000     
  0.50000000000000000       0.59375000000000000        0.0000000000000000     
  0.53125000000000000       0.59375000000000000        0.0000000000000000     
  0.56250000000000000       0.59375000000000000        0.0000000000000000     
  0.59375000000000000       0.59375000000000000        0.0000000000000000     
  0.62500000000000000       0.59375000000000000        0.0000000000000000     
  0.50000000000000000       0.62500000000000000        0.0000000000000000     
  0.53125000000000000       0.62500000000000000        0.0000000000000000     
  0.56250000000000000       0.62500000000000000        0.0000000000000000     
  0.59375000000000000       0.62500000000000000        0.0000000000000000     
  0.62500000000000000       0.62500000000000000        0.0000000000000000     
  0.62500000000000000       0.50000000000000000        0.0000000000000000     
  0.65625000000000000       0.50000000000000000        0.0000000000000000     
  0.68750000000000000       0.50000000000000000        0.0000000000000000     
  0.71875000000000000       0.50000000000000000        0.0000000000000000     
  0.75000000000000000       0.50000000000000000        0.0000000000000000     
  0.62500000000000000       0.53125000000000000        0.0000000000000000     
  0.65625000000000000       0.53125000000000000        0.0000000000000000     
  0.68750000000000000       0.53125000000000000        0.0000000000000000     
  0.71875000000000000       0.53125000000000000        0.0000000000000000     
  0.75000000000000000       0.53125000000000000        0.0000000000000000     
  0.62500000000000000       0.56250000000000000        0.0000000000000000     
  0.65625000000000000       0.56250000000000000        0.0000000000000000     
  0.68750000000000000       0.56250000000000000        0.0000000000000000     
  0.71875000000000000       0.56250000000000000        0.0000000000000000     
  0.75000000000000000       0.56250000000000000        0.0000000000000000     
  0.62500000000000000       0.59375000000000000        0.0000000000000000     
  0.65625000000000000       0.59375000000000000        0.0000000000000000     
  0.68750000000000000       0.59375000000000000        0.0000000000000000     
  0.71875000000000000       0.59375000000000000        0.0000000000000000     
  0.75000000000000000       0.59375000000000000        0.0000000000000000     
  0.62500000000000000       0.62500000000000000        0.0000000000000000     
  0.65625000000000000       0.62500000000000000        0.0000000000000000     
  0.68750000000000000       0.62500000000000000        0.0000000000000000     
  0.71875000000000000       0.62500000000000000        0.0000000000000000     
  0.75000000000000000       0.62500000000000000        0.0000000000000000     
  0.75000000000000000       0.50000000000000000        0.0000000000000000     
  0.78125000000000000       0.50000000000000000        0.0000000000000000     
  0.81250000000000000       0.50000000000000000        0.0000000000000000     
  0.84375000000000000       0.50000000000000000        0.0000000000000000     
  0.87500000000000000       0.50000000000000000        0.0000000000000000     
  0.75000000000000000       0.53125000000000000        0.0000000000000000     
  0.78125000000000000       0.53125000000000000        0.0000000000000000     
  0.81250000000000000       0.53125000000000000        0.0000000000000000     
  0.84375000000000000       0.53125000000000000        0.0000000000000000     
  0.87500000000000000       0.53125000000000000        0.0000000000000000     
  0.75000000000000000       0.56250000000000000        0.0000000000000000     
  0.78125000000000000       0.56250000000000000        0.0000000000000000     
  0.81250000000000000       0.56250000000000000        0.0000000000000000     
  0.84375000000000000       0.56250000000000000        0.0000000000000000     
  0.87500000000000000       0.56250000000000000        0.0000000000000000     
  0.75000000000000000       0.59375000000000000        0.0000000000000000     
  0.78125000000000000       0.59375000000000000        0.0000000000000000     
  0.81250000000000000       0.59375000000000000        0.0000000000000000     
  0.84375000000000000       0.59375000000000000        0.0000000000000000     
  0.87500000000000000       0.59375000000000000        0.0000000000000000     
  0.75000000000000000       0.62500000000000000        0.0000000000000000     
  0.78125000000000000       0.62500000000000000        0.0000000000000000     
  0.81250000000000000       0.62500000000000000        0.0000000000000000     
  0.84375000000000000       0.62500000000000000        0.0000000000000000     
  0.87500000000000000       0.62500000000000000        0.0000000000000000     
  0.87500000000000000       0.50000000000000000        0.0000000000000000     
  0.90625000000000000       0.50000000000000000        0.0000000000000000     
  0.93750000000000000       0.50000000000000000        0.0000000000000000     
  0.96875000000000000       0.50000000000000000        0.0000000000000000     
   1.0000000000000000       0.50000000000000000        0.0000000000000000     
  0.87500000000000000       0.53125000000000000        0.0000000000000000     
  0.90625000000000000       0.53125000000000000        0.0000000000000000     
  0.93750000000000000       0.53125000000000000        0.0000000000000000     
  0.96875000000000000       0.53125000000000000        0.0000000000000000     
   1.0000000000000000       0.53125000000000000        0.0000000000000000     
  0.87500000000000000       0.56250000000000000        0.0000000000000000     
  0.90625000000000000       0.56250000000000000        0.0000000000000000     
  0.93750000000000000       0.56250000000000000        0.0000000000000000     
  0.96875000000000000       0.56250000000000000        0.0000000000000000     
   1.0000000000000000       0.56250000000000000        0.0000000000000000     
  0.87500000000000000       0.59375000000000000        0.0000000000000000     
  0.90625000000000000       0.59375000000000000        0.0000000000000000     
  0.93750000000000000       0.59375000000000000        0.0000000000000000     
  0.96875000000000000       0.59375000000000000        0.0000000000000000     
   1.0000000000000000       0.59375000000000000        0.0000000000000000     
  0.87500000000000000       0.62500000000000000        0.0000000000000000     
  0.90625000000000000       0.62500000000000000        0.0000000000000000     
  0.93750000000000000       0.62500000000000000        0.0000000000000000     
  0.96875000000000000       0.62500000000000000        0.0000000000000000     
   1.0000000000000000       0.62500000000000000        0.0000000000000000     
   0.0000000000000000       0.62500000000000000        0.0000000000000000     
   3.1250000000000000E-002  0.62500000000000000        0.0000000000000000     
   6.2500000000000000E-002  0.62500000000000000        0.0000000000000000     
   9.3750000000000000E-002  0.62500000000000000        0.0000000000000000     
  0.12500000000000000       0.62500000000000000        0.0000000000000000     
   0.0000000000000000       0.65625000000000000        0.0000000000000000     
   3.1250000000000000E-002  0.65625000000000000        0.0000000000000000     
   6.2500000000000000E-002  0.65625000000000000        0.0000000000000000     
   9.3750000000000000E-002  0.65625000000000000        0.0000000000000000     
  0.12500000000000000       0.65625000000000000        0.0000000000000000     
   0.0000000000000000       0.68750000000000000        0.0000000000000000     
   3.1250000000000000E-002  0.68750000000000000        0.0000000000000000     
   6.2500000000000000E-002  0.68750000000000000        0.0000000000000000     
   9.3750000000000000E-002  0.68750000000000000        0.0000000000000000     
  0.12500000000000000       0.68750000000000000        0.0000000000000000     
   0.0000000000000000       0.71875000000000000        0.0000000000000000     
   3.1250000000000000E-002  0.71875000000000000        0.0000000000000000     
   6.2500000000000000E-002  0.71875000000000000        0.0000000000000000     
   9.3750000000000000E-002  0.71875000000000000        0.0000000000000000     
  0.12500000000000000       0.71875000000000000        0.0000000000000000     
   0.0000000000000000       0.75000000000000000        0.0000000000000000     
   3.1250000000000000E-002  0.75000000000000000        0.0000000000000000     
   6.2500000000000000E-002  0.75000000000000000        0.0000000000000000     
   9.3750000000000000E-002  0.75000000000000000        0.0000000000000000     
  0.12500000000000000       0.75000000000000000        0.0000000000000000     
  0.12500000000000000       0.62500000000000000        0.0000000000000000     
  0.15625000000000000       0.62500000000000000        0.0000000000000000     
  0.18750000000000000       0.62500000000000000        0.0000000000000000     
  0.21875000000000000       0.62500000000000000        0.0000000000000000     
  0.25000000000000000       0.62500000000000000        0.0000000000000000     
  0.12500000000000000       0.65625000000000000        0.0000000000000000     
  0.15625000000000000       0.65625000000000000        0.0000000000000000     
  0.18750000000000000       0.65625000000000000        0.0000000000000000     
  0.21875000000000000       0.65625000000000000        0.0000000000000000     
  0.25000000000000000       0.65625000000000000        0.0000000000000000     
  0.12500000000000000       0.68750000000000000        0.0000000000000000     
  0.15625000000000000       0.68750000000000000        0.0000000000000000     
  0.18750000000000000       0.68750000000000000        0.0000000000000000     
  0.21875000000000000       0.68750000000000000        0.0000000000000000     
  0.25000000000000000       0.68750000000000000        0.0000000000000000     
  0.12500000000000000       0.71875000000000000        0.0000000000000000     
  0.15625000000000000       0.71875000000000000        0.0000000000000000     
  0.18750000000000000       0.71875000000000000        0.0000000000000000     
  0.21875000000000000       0.71875000000000000        0.0000000000000000     
  0.25000000000000000       0.71875000000000000        0.0000000000000000     
  0.12500000000000000       0.75000000000000000        0.0000000000000000     
  0.15625000000000000       0.75000000000000000        0.0000000000000000     
  0.18750000000000000       0.75000000000000000        0.0000000000000000     
  0.21875000000000000       0.75000000000000000        0.0000000000000000     
  0.25000000000000000       0.75000000000000000        0.0000000000000000     
  0.25000000000000000       0.62500000000000000        0.0000000000000000     
  0.28125000000000000       0.62500000000000000        0.0000000000000000     
  0.31250000000000000       0.62500000000000000        0.0000000000000000     
  0.34375000000000000       0.62500000000000000        0.0000000000000000     
  0.37500000000000000       0.62500000000000000        0.0000000000000000     
  0.25000000000000000       0.65625000000000000        0.0000000000000000     
  0.28125000000000000       0.65625000000000000        0.0000000000000000     
  0.31250000000000000       0.65625000000000000        0.0000000000000000     
  0.34375000000000000       0.65625000000000000        0.0000000000000000     
  0.37500000000000000       0.65625000000000000        0.0000000000000000     
  0.25000000000000000       0.68750000000000000        0.0000000000000000     
  0.28125000000000000       0.68750000000000000        0.0000000000000000     
  0.31250000000000000       0.68750000000000000        0.0000000000000000     
  0.34375000000000000       0.68750000000000000        0.0000000000000000     
  0.37500000000000000       0.68750000000000000        0.0000000000000000     
  0.25000000000000000       0.71875000000000000        0.0000000000000000     
  0.28125000000000000       0.71875000000000000        0.0000000000000000     
  0.31250000000000000       0.71875000000000000        0.0000000000000000     
  0.34375000000000000       0.71875000000000000        0.0000000000000000     
  0.37500000000000000       0.71875000000000000        0.0000000000000000     
  0.25000000000000000       0.75000000000000000        0.0000000000000000     
  0.28125000000000000       0.75000000000000000        0.0000000000000000     
  0.31250000000000000       0.75000000000000000        0.0000000000000000     
  0.34375000000000000       0.75000000000000000        0.0000000000000000     
  0.37500000000000000       0.75000000000000000        0.0000000000000000     
  0.37500000000000000       0.62500000000000000        0.0000000000000000     
  0.40625000000000000       0.62500000000000000        0.0000000000000000     
  0.43750000000000000       0.62500000000000000        0.0000000000000000     
  0.46875000000000000       0.62500000000000000        0.0000000000000000     
  0.50000000000000000       0.62500000000000000        0.0000000000000000     
  0.37500000000000000       0.65625000000000000        0.0000000000000000     
  0.40625000000000000       0.65625000000000000        0.0000000000000000     
  0.43750000000000000       0.65625000000000000        0.0000000000000000     
  0.46875000000000000       0.65625000000000000        0.0000000000000000     
  0.50000000000000000       0.65625000000000000        0.0000000000000000     
  0.37500000000000000       0.68750000000000000        0.0000000000000000     
  0.40625000000000000       0.68750000000000000        0.0000000000000000     
  0.43750000000000000       0.68750000000000000        0.0000000000000000     
  0.46875000000000000       0.68750000000000000        0.0000000000000000     
  0.50000000000000000       0.68750000000000000        0.0000000000000000     
  0.37500000000000000       0.71875000000000000        0.0000000000000000     
  0.40625000000000000       0.71875000000000000        0.0000000000000000     
  0.43750000000000000       0.71875000000000000        0.0000000000000000     
  0.46875000000000000       0.71875000000000000        0.0000000000000000     
  0.50000000000000000       0.71875000000000000        0.0000000000000000     
  0.37500000000000000       0.75000000000000000        0.0000000000000000     
  0.40625000000000000       0.75000000000000000        0.0000000000000000     
  0.43750000000000000       0.75000000000000000        0.0000000000000000     
  0.46875000000000000       0.75000000000000000        0.0000000000000000     
  0.50000000000000000       0.75000000000000000        0.0000000000000000     
  0.50000000000000000       0.62500000000000000        0.0000000000000000     
  0.53125000000000000       0.62500000000000000        0.0000000000000000     
  0.56250000000000000       0.62500000000000000        0.0000000000000000     
  0.59375000000000000       0.62500000000000000        0.0000000000000000     
  0.62500000000000000       0.62500000000000000        0.0000000000000000     
  0.50000000000000000       0.65625000000000000        0.0000000000000000     
  0.53125000000000000       0.65625000000000000        0.0000000000000000     
  0.56250000000000000       0.65625000000000000        0.0000000000000000     
  0.59375000000000000       0.65625000000000000        0.0000000000000000     
  0.62500000000000000       0.65625000000000000        0.0000000000000000     
  0.50000000000000000       0.68750000000000000        0.0000000000000000     
  0.53125000000000000       0.68750000000000000        0.0000000000000000     
  0.56250000000000000       0.68750000000000000        0.0000000000000000     
  0.59375000000000000       0.68750000000000000        0.0000000000000000     
  0.62500000000000000       0.68750000000000000        0.0000000000000000     
  0.50000000000000000       0.71875000000000000        0.0000000000000000     
  0.53125000000000000       0.71875000000000000        0.0000000000000000     
  0.56250000000000000       0.71875000000000000        0.0000000000000000     
  0.59375000000000000       0.71875000000000000        0.0000000000000000     
  0.62500000000000000       0.71875000000000000        0.0000000000000000     
  0.50000000000000000       0.75000000000000000        0.0000000000000000     
  0.53125000000000000       0.75000000000000000        0.0000000000000000     
  0.56250000000000000       0.75000000000000000        0.0000000000000000     
  0.59375000000000000       0.75000000000000000        0.0000000000000000     
  0.62500000000000000       0.75000000000000000        0.0000000000000000     
  0.62500000000000000       0.62500000000000000        0.0000000000000000     
  0.65625000000000000       0.62500000000000000        0.0000000000000000     
  0.68750000000000000       0.62500000000000000        0.0000000000000000     
  0.71875000000000000       0.62500000000000000        0.0000000000000000     
  0.75000000000000000       0.62500000000000000        0.0000000000000000     
  0.62500000000000000       0.65625000000000000        0.0000000000000000     
  0.65625000000000000       0.65625000000000000        0.0000000000000000     
  0.68750000000000000       0.65625000000000000        0.0000000000000000     
  0.71875000000000000       0.65625000000000000        0.0000000000000000     
  0.75000000000000000       0.65625000000000000        0.0000000000000000     
  0.62500000000000000       0.68750000000000000        0.0000000000000000     
  0.65625000000000000       0.68750000000000000        0.0000000000000000     
  0.68750000000000000       0.68750000000000000        0.0000000000000000     
  0.71875000000000000       0.68750000000000000        0.0000000000000000     
  0.75000000000000000       0.68750000000000000        0.0000000000000000     
  0.62500000000000000       0.71875000000000000        0.0000000000000000     
  0.65625000000000000       0.71875000000000000        0.0000000000000000     
  0.68750000000000000       0.71875000000000000        0.0000000000000000     
  0.71875000000000000       0.71875000000000000        0.0000000000000000     
  0.75000000000000000       0.71875000000000000        0.0000000000000000     
  0.62500000000000000       0.75000000000000000        0.0000000000000000     
  0.65625000000000000       0.75000000000000000        0.0000000000000000     
  0.68750000000000000       0.75000000000000000        0.0000000000000000     
  0.71875000000000000       0.75000000000000000        0.0000000000000000     
  0.75000000000000000       0.75000000000000000        0.0000000000000000     
  0.75000000000000000       0.62500000000000000        0.0000000000000000     
  0.78125000000000000       0.62500000000000000        0.0000000000000000     
  0.81250000000000000       0.62500000000000000        0.0000000000000000     
  0.84375000000000000       0.62500000000000000        0.0000000000000000     
  0.87500000000000000       0.62500000000000000        0.0000000000000000     
  0.75000000000000000       0.65625000000000000        0.0000000000000000     
  0.78125000000000000       0.65625000000000000        0.0000000000000000     
  0.81250000000000000       0.65625000000000000        0.0000000000000000     
  0.84375000000000000       0.65625000000000000        0.0000000000000000     
  0.87500000000000000       0.65625000000000000        0.0000000000000000     
  0.75000000000000000       0.68750000000000000        0.0000000000000000     
  0.78125000000000000       0.68750000000000000        0.0000000000000000     
  0.81250000000000000       0.68750000000000000        0.0000000000000000     
  0.84375000000000000       0.68750000000000000        0.0000000000000000     
  0.87500000000000000       0.68750000000000000        0.0000000000000000     
  0.75000000000000000       0.71875000000000000        0.0000000000000000     
  0.78125000000000000       0.71875000000000000        0.0000000000000000     
  0.81250000000000000       0.71875000000000000        0.0000000000000000     
  0.84375000000000000       0.71875000000000000        0.0000000000000000     
  0.87500000000000000       0.71875000000000000        0.0000000000000000     
  0.75000000000000000       0.75000000000000000        0.0000000000000000     
  0.78125000000000000       0.75000000000000000        0.0000000000000000     
  0.81250000000000000       0.75000000000000000        0.0000000000000000     
  0.84375000000000000       0.75000000000000000        0.0000000000000000     
  0.87500000000000000       0.75000000000000000        0.0000000000000000     
  0.87500000000000000       0.62500000000000000        0.0000000000000000     
  0.90625000000000000       0.62500000000000000        0.0000000000000000     
  0.93750000000000000       0.62500000000000000        0.0000000000000000     
  0.96875000000000000       0.62500000000000000        0.0000000000000000     
   1.0000000000000000       0.62500000000000000        0.0000000000000000     
  0.87500000000000000       0.65625000000000000        0.0000000000000000     
  0.90625000000000000       0.65625000000000000        0.0000000000000000     
  0.93750000000000000       0.65625000000000000        0.0000000000000000     
  0.96875000000000000       0.65625000000000000        0.0000000000000000     
   1.0000000000000000       0.65625000000000000        0.0000000000000000     
  0.87500000000000000       0.68750000000000000        0.0000000000000000     
  0.90625000000000000       0.68750000000000000        0.0000000000000000     
  0.93750000000000000       0.68750000000000000        0.0000000000000000     
  0.96875000000000000       0.68750000000000000        0.0000000000000000     
   1.0000000000000000       0.68750000000000000        0.0000000000000000     
  0.87500000000000000       0.71875000000000000        0.0000000000000000     
  0.90625000000000000       0.71875000000000000        0.0000000000000000     
  0.93750000000000000       0.71875000000000000        0.0000000000000000     
  0.96875000000000000       0.71875000000000000        0.0000000000000000     
   1.0000000000000000       0.71875000000000000        0.0000000000000000     
  0.87500000000000000       0.75000000000000000        0.0000000000000000     
  0.90625000000000000       0.75000000000000000        0.0000000000000000     
  0.93750000000000000       0.75000000000000000        0.0000000000000000     
  0.96875000000000000       0.75000000000000000        0.0000000000000000     
   1.0000000000000000       0.75000000000000000        0.0000000000000000     
   0.0000000000000000       0.75000000000000000        0.0000000000000000     
   3.1250000000000000E-002  0.75000000000000000        0.0000000000000000     
   6.2500000000000000E-002  0.75000000000000000        0.0000000000000000     
   9.3750000000000000E-002  0.75000000000000000        0.0000000000000000     
  0.12500000000000000       0.75000000000000000        0.0000000000000000     
   0.0000000000000000       0.78125000000000000        0.0000000000000000     
   3.1250000000000000E-002  0.78125000000000000        0.0000000000000000     
   6.2500000000000000E-002  0.78125000000000000        0.0000000000000000     
   9.3750000000000000E-002  0.78125000000000000        0.0000000000000000     
  0.12500000000000000       0.78125000000000000        0.0000000000000000     
   0.0000000000000000       0.81250000000000000        0.0000000000000000     
   3.1250000000000000E-002  0.81250000000000000        0.0000000000000000     
   6.2500000000000000E-002  0.81250000000000000        0.0000000000000000     
   9.3750000000000000E-002  0.81250000000000000        0.0000000000000000     
  0.12500000000000000       0.81250000000000000        0.0000000000000000     
   0.0000000000000000       0.84375000000000000        0.0000000000000000     
   3.1250000000000000E-002  0.84375000000000000        0.0000000000000000     
   6.2500000000000000E-002  0.84375000000000000        0.0000000000000000     
   9.3750000000000000E-002  0.84375000000000000        0.0000000000000000     
  0.12500000000000000       0.84375000000000000        0.0000000000000000     
   0.0000000000000000       0.87500000000000000        0.0000000000000000     
   3.1250000000000000E-002  0.87500000000000000        0.0000000000000000     
   6.2500000000000000E-002  0.87500000000000000        0.0000000000000000     
   9.3750000000000000E-002  0.87500000000000000        0.0000000000000000     
  0.12500000000000000       0.87500000000000000        0.0000000000000000     
  0.12500000000000000       0.75000000000000000        0.0000000000000000     
  0.15625000000000000       0.75000000000000000        0.0000000000000000     
  0.18750000000000000       0.75000000000000000        0.0000000000000000     
  0.21875000000000000       0.75000000000000000        0.0000000000000000     
  0.25000000000000000       0.75000000000000000        0.0000000000000000     
  0.12500000000000000       0.78125000000000000        0.0000000000000000     
  0.15625000000000000       0.78125000000000000        0.0000000000000000     
  0.18750000000000000       0.78125000000000000        0.0000000000000000     
  0.21875000000000000       0.78125000000000000        0.0000000000000000     
  0.25000000000000000       0.78125000000000000        0.0000000000000000     
  0.12500000000000000       0.81250000000000000        0.0000000000000000     
  0.15625000000000000       0.81250000000000000        0.0000000000000000     
  0.18750000000000000       0.81250000000000000        0.0000000000000000     
  0.21875000000000000       0.81250000000000000        0.0000000000000000     
  0.25000000000000000       0.81250000000000000        0.0000000000000000     
  0.12500000000000000       0.84375000000000000        0.0000000000000000     
  0.15625000000000000       0.84375000000000000        0.0000000000000000     
  0.18750000000000000       0.84375000000000000        0.0000000000000000     
  0.21875000000000000       0.84375000000000000        0.0000000000000000     
  0.25000000000000000       0.84375000000000000        0.0000000000000000     
  0.12500000000000000       0.87500000000000000        0.0000000000000000     
  0.15625000000000000       0.87500000000000000        0.0000000000000000     
  0.18750000000000000       0.87500000000000000        0.0000000000000000     
  0.21875000000000000       0.87500000000000000        0.0000000000000000     
  0.25000000000000000       0.87500000000000000        0.0000000000000000     
  0.25000000000000000       0.75000000000000000        0.0000000000000000     
  0.28125000000000000       0.75000000000000000        0.0000000000000000     
  0.31250000000000000       0.75000000000000000        0.0000000000000000     
  0.34375000000000000       0.75000000000000000        0.0000000000000000     
  0.37500000000000000       0.75000000000000000        0.0000000000000000     
  0.25000000000000000       0.78125000000000000        0.0000000000000000     
  0.28125000000000000       0.78125000000000000        0.0000000000000000     
  0.31250000000000000       0.78125000000000000        0.0000000000000000     
  0.34375000000000000       0.78125000000000000        0.0000000000000000     
  0.37500000000000000       0.78125000000000000        0.0000000000000000     
  0.25000000000000000       0.81250000000000000        0.0000000000000000     
  0.28125000000000000       0.81250000000000000        0.0000000000000000     
  0.31250000000000000       0.81250000000000000        0.0000000000000000     
  0.34375000000000000       0.81250000000000000        0.0000000000000000     
  0.37500000000000000       0.81250000000000000        0.0000000000000000     
  0.25000000000000000       0.84375000000000000        0.0000000000000000     
  0.28125000000000000       0.84375000000000000        0.0000000000000000     
  0.31250000000000000       0.84375000000000000        0.0000000000000000     
  0.34375000000000000       0.84375000000000000        0.0000000000000000     
  0.37500000000000000       0.84375000000000000        0.0000000000000000     
  0.25000000000000000       0.87500000000000000        0.0000000000000000     
  0.28125000000000000       0.87500000000000000        0.0000000000000000     
  0.31250000000000000       0.87500000000000000        0.0000000000000000     
  0.34375000000000000       0.87500000000000000        0.0000000000000000     
  0.37500000000000000       0.87500000000000000        0.0000000000000000     
  0.37500000000000000       0.75000000000000000        0.0000000000000000     
  0.40625000000000000       0.75000000000000000        0.0000000000000000     
  0.43750000000000000       0.75000000000000000        0.0000000000000000     
  0.46875000000000000       0.75000000000000000        0.0000000000000000     
  0.50000000000000000       0.75000000000000000        0.0000000000000000     
  0.37500000000000000       0.78125000000000000        0.0000000000000000     
  0.40625000000000000       0.78125000000000000        0.0000000000000000     
  0.43750000000000000       0.78125000000000000        0.0000000000000000     
  0.46875000000000000       0.78125000000000000        0.0000000000000000     
  0.50000000000000000       0.78125000000000000        0.0000000000000000     
  0.37500000000000000       0.81250000000000000        0.0000000000000000     
  0.40625000000000000       0.81250000000000000        0.0000000000000000     
  0.43750000000000000       0.81250000000000000        0.0000000000000000     
  0.46875000000000000       0.81250000000000000        0.0000000000000000     
  0.50000000000000000       0.81250000000000000        0.0000000000000000     
  0.37500000000000000       0.84375000000000000        0.0000000000000000     
  0.40625000000000000       0.84375000000000000        0.0000000000000000     
  0.43750000000000000       0.84375000000000000        0.0000000000000000     
  0.46875000000000000       0.84375000000000000        0.0000000000000000     
  0.50000000000000000       0.84375000000000000        0.0000000000000000     
  0.37500000000000000       0.87500000000000000        0.0000000000000000     
  0.40625000000000000       0.87500000000000000        0.0000000000000000     
  0.43750000000000000       0.87500000000000000        0.0000000000000000     
  0.46875000000000000       0.87500000000000000        0.0000000000000000     
  0.50000000000000000       0.87500000000000000        0.0000000000000000     
  0.50000000000000000       0.75000000000000000        0.0000000000000000     
  0.53125000000000000       0.75000000000000000        0.0000000000000000     
  0.56250000000000000       0.75000000000000000        0.0000000000000000     
  0.59375000000000000       0.75000000000000000        0.0000000000000000     
  0.62500000000000000       0.75000000000000000        0.0000000000000000     
  0.50000000000000000       0.78125000000000000        0.0000000000000000     
  0.53125000000000000       0.78125000000000000        0.0000000000000000     
  0.56250000000000000       0.78125000000000000        0.0000000000000000     
  0.59375000000000000       0.78125000000000000        0.0000000000000000     
  0.62500000000000000       0.78125000000000000        0.0000000000000000     
  0.50000000000000000       0.81250000000000000        0.0000000000000000     
  0.53125000000000000       0.81250000000000000        0.0000000000000000     
  0.56250000000000000       0.81250000000000000        0.0000000000000000     
  0.59375000000000000       0.81250000000000000        0.0000000000000000     
  0.62500000000000000       0.81250000000000000        0.0000000000000000     
  0.50000000000000000       0.84375000000000000        0.0000000000000000     
  0.53125000000000000       0.84375000000000000        0.0000000000000000     
  0.56250000000000000       0.84375000000000000        0.0000000000000000     
  0.59375000000000000       0.84375000000000000        0.0000000000000000     
  0.62500000000000000       0.84375000000000000        0.0000000000000000     
  0.50000000000000000       0.87500000000000000        0.0000000000000000     
  0.53125000000000000       0.87500000000000000        0.0000000000000000     
  0.56250000000000000       0.87500000000000000        0.0000000000000000     
  0.59375000000000000       0.87500000000000000        0.0000000000000000     
  0.62500000000000000       0.87500000000000000        0.0000000000000000     
  0.62500000000000000       0.75000000000000000        0.0000000000000000     
  0.65625000000000000       0.75000000000000000        0.0000000000000000     
  0.68750000000000000       0.75000000000000000        0.0000000000000000     
  0.71875000000000000       0.75000000000000000        0.0000000000000000     
  0.75000000000000000       0.75000000000000000        0.0000000000000000     
  0.62500000000000000       0.78125000000000000        0.0000000000000000     
  0.65625000000000000       0.78125000000000000        0.0000000000000000     
  0.68750000000000000       0.78125000000000000        0.0000000000000000     
  0.71875000000000000       0.78125000000000000        0.0000000000000000     
  0.75000000000000000       0.78125000000000000        0.0000000000000000     
  0.62500000000000000       0.81250000000000000        0.0000000000000000     
  0.65625000000000000       0.81250000000000000        0.0000000000000000     
  0.68750000000000000       0.81250000000000000        0.0000000000000000     
  0.71875000000000000       0.81250000000000000        0.0000000000000000     
  0.75000000000000000       0.81250000000000000        0.0000000000000000     
  0.62500000000000000       0.84375000000000000        0.0000000000000000     
  0.65625000000000000       0.84375000000000000        0.0000000000000000     
  0.68750000000000000       0.84375000000000000        0.0000000000000000     
  0.71875000000000000       0.84375000000000000        0.0000000000000000     
  0.75000000000000000       0.84375000000000000        0.0000000000000000     
  0.62500000000000000       0.87500000000000000        0.0000000000000000     
  0.65625000000000000       0.87500000000000000        0.0000000000000000     
  0.68750000000000000       0.87500000000000000        0.0000000000000000     
  0.71875000000000000       0.87500000000000000        0.0000000000000000     
  0.75000000000000000       0.87500000000000000        0.0000000000000000     
  0.75000000000000000       0.75000000000000000        0.0000000000000000     
  0.78125000000000000       0.75000000000000000        0.0000000000000000     
  0.81250000000000000       0.75000000000000000        0.0000000000000000     
  0.84375000000000000       0.75000000000000000        0.0000000000000000     
  0.87500000000000000       0.75000000000000000        0.0000000000000000     
  0.75000000000000000       0.78125000000000000        0.0000000000000000     
  0.78125000000000000       0.78125000000000000        0.0000000000000000     
  0.81250000000000000       0.78125000000000000        0.0000000000000000     
  0.84375000000000000       0.78125000000000000        0.0000000000000000     
  0.87500000000000000       0.78125000000000000        0.0000000000000000     
  0.75000000000000000       0.81250000000000000        0.0000000000000000     
  0.78125000000000000       0.81250000000000000        0.0000000000000000     
  0.81250000000000000       0.81250000000000000        0.0000000000000000     
  0.84375000000000000       0.81250000000000000        0.0000000000000000     
  0.87500000000000000       0.81250000000000000        0.0000000000000000     
  0.75000000000000000       0.84375000000000000        0.0000000000000000     
  0.78125000000000000       0.84375000000000000        0.0000000000000000     
  0.81250000000000000       0.84375000000000000        0.0000000000000000     
  0.84375000000000000       0.84375000000000000        0.0000000000000000     
  0.87500000000000000       0.84375000000000000        0.0000000000000000     
  0.75000000000000000       0.87500000000000000        0.0000000000000000     
  0.78125000000000000       0.87500000000000000        0.0000000000000000     
  0.81250000000000000       0.87500000000000000        0.0000000000000000     
  0.84375000000000000       0.87500000000000000        0.0000000000000000     
  0.87500000000000000       0.87500000000000000        0.0000000000000000     
  0.87500000000000000       0.75000000000000000        0.0000000000000000     
  0.90625000000000000       0.75000000000000000        0.0000000000000000     
  0.93750000000000000       0.75000000000000000        0.0000000000000000     
  0.96875000000000000       0.75000000000000000        0.0000000000000000     
   1.0000000000000000       0.75000000000000000        0.0000000000000000     
  0.87500000000000000       0.78125000000000000        0.0000000000000000     
  0.90625000000000000       0.78125000000000000        0.0000000000000000     
  0.93750000000000000       0.78125000000000000        0.0000000000000000     
  0.96875000000000000       0.78125000000000000        0.0000000000000000     
   1.0000000000000000       0.78125000000000000        0.0000000000000000     
  0.87500000000000000       0.81250000000000000        0.0000000000000000     
  0.90625000000000000       0.81250000000000000        0.0000000000000000     
  0.93750000000000000       0.81250000000000000        0.0000000000000000     
  0.96875000000000000       0.81250000000000000        0.0000000000000000     
   1.0000000000000000       0.81250000000000000        0.0000000000000000     
  0.87500000000000000       0.84375000000000000        0.0000000000000000     
  0.90625000000000000       0.84375000000000000        0.0000000000000000     
  0.93750000000000000       0.84375000000000000        0.0000000000000000     
  0.96875000000000000       0.84375000000000000        0.0000000000000000     
   1.0000000000000000       0.84375000000000000        0.0000000000000000     
  0.87500000000000000       0.87500000000000000        0.0000000000000000     
  0.90625000000000000       0.87500000000000000        0.0000000000000000     
  0.93750000000000000       0.87500000000000000        0.0000000000000000     
  0.96875000000000000       0.87500000000000000        0.0000000000000000     
   1.0000000000000000       0.87500000000000000        0.0000000000000000     
   0.0000000000000000       0.87500000000000000        0.0000000000000000     
   3.1250000000000000E-002  0.87500000000000000        0.0000000000000000     
   6.2500000000000000E-002  0.87500000000000000        0.0000000000000000     
   9.3750000000000000E-002  0.87500000000000000        0.0000000000000000     
  0.12500000000000000       0.87500000000000000        0.0000000000000000     
   0.0000000000000000       0.90625000000000000        0.0000000000000000     
   3.1250000000000000E-002  0.90625000000000000        0.0000000000000000     
   6.2500000000000000E-002  0.90625000000000000        0.0000000000000000     
   9.3750000000000000E-002  0.90625000000000000        0.0000000000000000     
  0.12500000000000000       0.90625000000000000        0.0000000000000000     
   0.0000000000000000       0.93750000000000000        0.0000000000000000     
   3.1250000000000000E-002  0.93750000000000000        0.0000000000000000     
   6.2500000000000000E-002  0.93750000000000000        0.0000000000000000     
   9.3750000000000000E-002  0.93750000000000000        0.0000000000000000     
  0.12500000000000000       0.93750000000000000        0.0000000000000000     
   0.0000000000000000       0.96875000000000000        0.0000000000000000     
   3.1250000000000000E-002  0.96875000000000000        0.0000000000000000     
   6.2500000000000000E-002  0.96875000000000000        0.0000000000000000     
   9.3750000000000000E-002  0.96875000000000000        0.0000000000000000     
  0.12500000000000000       0.96875000000000000        0.0000000000000000     
   0.0000000000000000        1.0000000000000000        0.0000000000000000     
   3.1250000000000000E-002   1.0000000000000000        0.0000000000000000     
   6.2500000000000000E-002   1.0000000000000000        0.0000000000000000     
   9.3750000000000000E-002   1.0000000000000000        0.0000000000000000     
  0.12500000000000000        1.0000000000000000        0.0000000000000000     
  0.12500000000000000       0.87500000000000000        0.0000000000000000     
  0.15625000000000000       0.87500000000000000        0.0000000000000000     
  0.18750000000000000       0.87500000000000000        0.0000000000000000     
  0.21875000000000000       0.87500000000000000        0.0000000000000000     
  0.25000000000000000       0.87500000000000000        0.0000000000000000     
  0.12500000000000000       0.90625000000000000        0.0000000000000000     
  0.15625000000000000       0.90625000000000000        0.0000000000000000     
  0.18750000000000000       0.90625000000000000        0.0000000000000000     
  0.21875000000000000       0.90625000000000000        0.0000000000000000     
  0.25000000000000000       0.90625000000000000        0.0000000000000000     
  0.12500000000000000       0.93750000000000000        0.0000000000000000     
  0.15625000000000000       0.93750000000000000        0.0000000000000000     
  0.18750000000000000       0.93750000000000000        0.0000000000000000     
  0.21875000000000000       0.93750000000000000        0.0000000000000000     
  0.25000000000000000       0.93750000000000000        0.0000000000000000     
  0.12500000000000000       0.96875000000000000        0.0000000000000000     
  0.15625000000000000       0.96875000000000000        0.0000000000000000     
  0.18750000000000000       0.96875000000000000        0.0000000000000000     
  0.21875000000000000       0.96875000000000000        0.0000000000000000     
  0.25000000000000000       0.96875000000000000        0.0000000000000000     
  0.12500000000000000        1.0000000000000000        0.0000000000000000     
  0.15625000000000000        1.0000000000000000        0.0000000000000000     
  0.18750000000000000        1.0000000000000000        0.0000000000000000     
  0.21875000000000000        1.0000000000000000        0.0000000000000000     
  0.25000000000000000        1.0000000000000000        0.0000000000000000     
  0.25000000000000000       0.87500000000000000        0.0000000000000000     
  0.28125000000000000       0.87500000000000000        0.0000000000000000     
  0.31250000000000000       0.87500000000000000        0.0000000000000000     
  0.34375000000000000       0.87500000000000000        0.0000000000000000     
  0.37500000000000000       0.87500000000000000        0.0000000000000000     
  0.25000000000000000       0.90625000000000000        0.0000000000000000     
  0.28125000000000000       0.90625000000000000        0.0000000000000000     
  0.31250000000000000       0.90625000000000000        0.0000000000000000     
  0.34375000000000000       0.90625000000000000        0.0000000000000000     
  0.37500000000000000       0.90625000000000000        0.0000000000000000     
  0.25000000000000000       0.93750000000000000        0.0000000000000000     
  0.28125000000000000       0.93750000000000000        0.0000000000000000     
  0.31250000000000000       0.93750000000000000        0.0000000000000000     
  0.34375000000000000       0.93750000000000000        0.0000000000000000     
  0.37500000000000000       0.93750000000000000        0.0000000000000000     
  0.25000000000000000       0.96875000000000000        0.0000000000000000     
  0.28125000000000000       0.96875000000000000        0.0000000000000000     
  0.31250000000000000       0.96875000000000000        0.0000000000000000     
  0.34375000000000000       0.96875000000000000        0.0000000000000000     
  0.37500000000000000       0.96875000000000000        0.0000000000000000     
  0.25000000000000000        1.0000000000000000        0.0000000000000000     
  0.28125000000000000        1.0000000000000000        0.0000000000000000     
  0.31250000000000000        1.0000000000000000        0.0000000000000000     
  0.34375000000000000        1.0000000000000000        0.0000000000000000     
  0.37500000000000000        1.0000000000000000        0.0000000000000000     
  0.37500000000000000       0.87500000000000000        0.0000000000000000     
  0.40625000000000000       0.87500000000000000        0.0000000000000000     
  0.43750000000000000       0.87500000000000000        0.0000000000000000     
  0.46875000000000000       0.87500000000000000        0.0000000000000000     
  0.50000000000000000       0.87500000000000000        0.0000000000000000     
  0.37500000000000000       0.90625000000000000        0.0000000000000000     
  0.40625000000000000       0.90625000000000000        0.0000000000000000     
  0.43750000000000000       0.90625000000000000        0.0000000000000000     
  0.46875000000000000       0.90625000000000000        0.0000000000000000     
  0.50000000000000000       0.90625000000000000        0.0000000000000000     
  0.37500000000000000       0.93750000000000000        0.0000000000000000     
  0.40625000000000000       0.93750000000000000        0.0000000000000000     
  0.43750000000000000       0.93750000000000000        0.0000000000000000     
  0.46875000000000000       0.93750000000000000        0.0000000000000000     
  0.50000000000000000       0.93750000000000000        0.0000000000000000     
  0.37500000000000000       0.96875000000000000        0.0000000000000000     
  0.40625000000000000       0.96875000000000000        0.0000000000000000     
  0.43750000000000000       0.96875000000000000        0.0000000000000000     
  0.46875000000000000       0.96875000000000000        0.0000000000000000     
  0.50000000000000000       0.96875000000000000        0.0000000000000000     
  0.37500000000000000        1.0000000000000000        0.0000000000000000     
  0.40625000000000000        1.0000000000000000        0.0000000000000000     
  0.43750000000000000        1.0000000000000000        0.0000000000000000     
  0.46875000000000000        1.0000000000000000        0.0000000000000000     
  0.50000000000000000        1.0000000000000000        0.0000000000000000     
  0.50000000000000000       0.87500000000000000        0.0000000000000000     
  0.53125000000000000       0.87500000000000000        0.0000000000000000     
  0.56250000000000000       0.87500000000000000        0.0000000000000000     
  0.59375000000000000       0.87500000000000000        0.0000000000000000     
  0.62500000000000000       0.87500000000000000        0.0000000000000000     
  0.50000000000000000       0.90625000000000000        0.0000000000000000     
  0.53125000000000000       0.90625000000000000        0.0000000000000000     
  0.56250000000000000       0.90625000000000000        0.0000000000000000     
  0.59375000000000000       0.90625000000000000        0.0000000000000000     
  0.62500000000000000       0.90625000000000000        0.0000000000000000     
  0.50000000000000000       0.93750000000000000        0.0000000000000000     
  0.53125000000000000       0.93750000000000000        0.0000000000000000     
  0.56250000000000000       0.93750000000000000        0.0000000000000000     
  0.59375000000000000       0.93750000000000000        0.0000000000000000     
  0.62500000000000000       0.93750000000000000        0.0000000000000000     
  0.50000000000000000       0.96875000000000000        0.0000000000000000     
  0.53125000000000000       0.96875000000000000        0.0000000000000000     
  0.56250000000000000       0.96875000000000000        0.0000000000000000     
  0.59375000000000000       0.96875000000000000        0.0000000000000000     
  0.62500000000000000       0.96875000000000000        0.0000000000000000     
  0.50000000000000000        1.0000000000000000        0.0000000000000000     
  0.53125000000000000        1.0000000000000000        0.0000000000000000     
  0.56250000000000000        1.0000000000000000        0.0000000000000000     
  0.59375000000000000        1.0000000000000000        0.0000000000000000     
  0.62500000000000000        1.0000000000000000        0.0000000000000000     
  0.62500000000000000       0.87500000000000000        0.0000000000000000     
  0.65625000000000000       0.87500000000000000        0.0000000000000000     
  0.68750000000000000       0.87500000000000000        0.0000000000000000     
  0.71875000000000000       0.87500000000000000        0.0000000000000000     
  0.75000000000000000       0.87500000000000000        0.0000000000000000     
  0.62500000000000000       0.90625000000000000        0.0000000000000000     
  0.65625000000000000       0.90625000000000000        0.0000000000000000     
  0.68750000000000000       0.90625000000000000        0.0000000000000000     
  0.71875000000000000       0.90625000000000000        0.0000000000000000     
  0.75000000000000000       0.90625000000000000        0.0000000000000000     
  0.62500000000000000       0.93750000000000000        0.0000000000000000     
  0.65625000000000000       0.93750000000000000        0.0000000000000000     
  0.68750000000000000       0.93750000000000000        0.0000000000000000     
  0.71875000000000000       0.93750000000000000        0.0000000000000000     
  0.75000000000000000       0.93750000000000000        0.0000000000000000     
  0.62500000000000000       0.96875000000000000        0.0000000000000000     
  0.65625000000000000       0.96875000000000000        0.0000000000000000     
  0.68750000000000000       0.96875000000000000        0.0000000000000000     
  0.71875000000000000       0.96875000000000000        0.0000000000000000     
  0.75000000000000000       0.96875000000000000        0.0000000000000000     
  0.62500000000000000        1.0000000000000000        0.0000000000000000     
  0.65625000000000000        1.0000000000000000        0.0000000000000000     
  0.68750000000000000        1.0000000000000000        0.0000000000000000     
  0.71875000000000000        1.0000000000000000        0.0000000000000000     
  0.75000000000000000        1.0000000000000000        0.0000000000000000     
  0.75000000000000000       0.87500000000000000        0.0000000000000000     
  0.78125000000000000       0.87500000000000000        0.0000000000000000     
  0.81250000000000000       0.87500000000000000        0.0000000000000000     
  0.84375000000000000       0.87500000000000000        0.0000000000000000     
  0.87500000000000000       0.87500000000000000        0.0000000000000000     
  0.75000000000000000       0.90625000000000000        0.0000000000000000     
  0.78125000000000000       0.90625000000000000        0.0000000000000000     
  0.81250000000000000       0.90625000000000000        0.0000000000000000     
  0.84375000000000000       0.90625000000000000        0.0000000000000000     
  0.87500000000000000       0.90625000000000000        0.0000000000000000     
  0.75000000000000000       0.93750000000000000        0.0000000000000000     
  0.78125000000000000       0.93750000000000000        0.0000000000000000     
  0.81250000000000000       0.93750000000000000        0.0000000000000000     
  0.84375000000000000       0.93750000000000000        0.0000000000000000     
  0.87500000000000000       0.93750000000000000        0.0000000000000000     
  0.75000000000000000       0.96875000000000000        0.0000000000000000     
  0.78125000000000000       0.96875000000000000        0.0000000000000000     
  0.81250000000000000       0.96875000000000000        0.0000000000000000     
  0.84375000000000000       0.96875000000000000        0.0000000000000000     
  0.87500000000000000       0.96875000000000000        0.0000000000000000     
  0.75000000000000000        1.0000000000000000        0.0000000000000000     
  0.78125000000000000        1.0000000000000000        0.0000000000000000     
  0.81250000000000000        1.0000000000000000        0.0000000000000000     
  0.84375000000000000        1.0000000000000000        0.0000000000000000     
  0.87500000000000000        1.0000000000000000        0.0000000000000000     
  0.87500000000000000       0.87500000000000000        0.0000000000000000     
  0.90625000000000000       0.87500000000000000        0.0000000000000000     
  0.93750000000000000       0.87500000000000000        0.0000000000000000     
  0.96875000000000000       0.87500000000000000        0.0000000000000000     
   1.0000000000000000       0.87500000000000000        0.0000000000000000     
  0.87500000000000000       0.90625000000000000        0.0000000000000000     
  0.90625000000000000       0.90625000000000000        0.0000000000000000     
  0.93750000000000000       0.90625000000000000        0.0000000000000000     
  0.96875000000000000       0.90625000000000000        0.0000000000000000     
   1.0000000000000000       0.90625000000000000        0.0000000000000000     
  0.87500000000000000       0.93750000000000000        0.0000000000000000     
  0.90625000000000000       0.93750000000000000        0.0000000000000000     
  0.93750000000000000       0.93750000000000000        0.0000000000000000     
  0.96875000000000000       0.93750000000000000        0.0000000000000000     
   1.0000000000000000       0.93750000000000000        0.0000000000000000     
  0.87500000000000000       0.96875000000000000        0.0000000000000000     
  0.90625000000000000       0.96875000000000000        0.0000000000000000     
  0.93750000000000000       0.96875000000000000        0.0000000000000000     
  0.96875000000000000       0.96875000000000000        0.0000000000000000     
   1.0000000000000000       0.96875000000000000        0.0000000000000000     
  0.87500000000000000        1.0000000000000000        0.0000000000000000     
  0.90625000000000000        1.0000000000000000        0.0000000000000000     
  0.93750000000000000        1.0000000000000000        0.0000000000000000     
  0.96875000000000000        1.0000000000000000        0.0000000000000000     
   1.0000000000000000        1.0000000000000000        0.0000000000000000     
 </DataArray>
 </Points>
 <Cells>
 <DataArray  type="Int32"  Name="connectivity"  format="ascii">
           0           1           6           5
           1           2           7           6
           2           3           8           7
           3           4           9           8
           5           6          11          10
           6           7          12          11
           7           8          13          12
           8           9          14          13
          10          11          16          15
          11          12          17          16
          12          13          18          17
          13          14          19          18
          15          16          21          20
          16          17          22          21
          17          18          23          22
          18          19          24          23
          25          26          31          30
          26          27          32          31
          27          28          33          32
          28          29          34          33
          30          31          36          35
          31          32          37          36
          32          33          38          37
          33          34          39          38
          35          36          41          40
          36          37          42          41
          37          38          43          42
          38          39          44          43
          40          41          46          45
          41          42          47          46
          42          43          48          47
          43          44          49          48
          50          51          56          55
          51          52          57          56
          52          53          58          57
          53          54          59          58
          55          56          61          60
          56          57          62          61
          57          58          63          62
          58          59          64          63
          60          61          66          65
          61          62          67          66
          62          63          68          67
          63          64          69          68
          65          66          71          70
          66          67          72          71
          67          68          73          72
          68          69          74          73
          75          76          81          80
          76          77          82          81
          77          78          83          82
          78          79          84          83
          80          81          86          85
          81          82          87          86
          82          83          88          87
          83          84          89          88
          85          86          91          90
          86          87          92          91
          87          88          93          92
          88          89          94          93
          90          91          96          95
          91          92          97          96
          92          93          98          97
          93          94          99          98
         100         101         106         105
         101         102         107         106
         102         103         108         107
         103         104         109         108
         105         106         111         110
         106         107         112         111
         107         108         113         112
         108         109         114         113
         110         111         116         115
         111         112         117         116
         112         113         118         117
         113         114         119         118
         115         116         121         120
         116         117         122         121
         117         118         123         122
         118         119         124         123
         125         126         131         130
         126         127         132         131
         127         128         133         132
         128         129         134         133
         130         131         136         135
         131         132         137         136
         132         133         138         137
         133         134         139         138
         135         136         141         140
         136         137         142         141
         137         138         143         142
         138         139         144         143
         140         141         146         145
         141         142         147         146
         142         143         148         147
         143         144         149         148
         150         151         156         155
         151         152         157         156
         152         153         158         157
         153         154         159         158
         155         156         161         160
         156         157         162         161
         157         158         163         162
         158         159         164         163
         160         161         166         165
         161         162         167         166
         162         163         168         167
         163         164         169         168
         165         166         171         170
         166         167         172         171
         167         168         173         172
         168         169         174         173
         175         176         181         180
         176         177         182         181
         177         178         183         182
         178         179         184         183
         180         181         186         185
         181         182         187         186
         182         183         188         187
         183         184         189         188
         185         186         191         190
         186         187         192         191
         187         188         193         192
         188         189         194         193
         190         191         196         195
         191         192         197         196
         192         193         198         197
         193         194         199         198
         200         201         206         205
         201         202         207         206
         202         203         208         207
         203         204         209         208
         205         206         211         210
         206         207         212         211
         207         208         213         212
         208         209         214         213
         210         211         216         215
         211         212         217         216
         212         213         218         217
         213         214         219         218
         215         216         221         220
         216         217         222         221
         217         218         223         222
         218         219         224         223
         225         226         231         230
         226         227         232         231
         227         228         233         232
         228         229         234         233
         230         231         236         235
         231         232         237         236
         232         233         238         237
         233         234         239         238
         235         236         241         240
         236         237         242         241
         237         238         243         242
         238         239         244         243
         240         241         246         245
         241         242         247         246
         242         243         248         247
         243         244         249         248
         250         251         256         255
         251         252         257         256
         252         253         258         257
         253         254         259         258
         255         256         261         260
         256         257         262         261
         257         258         263         262
         258         259         264         263
         260         261         266         265
         261         262         267         266
         262         263         268         267
         263         264         269         268
         265         266         271         270
         266         267         272         271
         267         268         273         272
         268         269         274         273
         275         276         281         280
         276         277         282         281
         277         278         283         282
         278         279         284         283
         280         281         286         285
         281         282         287         286
         282         283         288         287
         283         284         289         288
         285         286         291         290
         286         287         292         291
         287         288         293         292
         288         289         294         293
         290         291         296         295
         291         292         297         296
         292         293         298         297
         293         294         299         298
         300         301         306         305
         301         302         307         306
         302         303         308         307
         303         304         309         308
         305         306         311         310
         306         307         312         311
         307         308         313         312
         308         309         314         313
         310         311         316         315
         311         312         317         316
         312         313         318         317
         313         314         319         318
         315         316         321         320
         316         317         322         321
         317         318         323         322
         318         319         324         323
         325         326         331         330
         326         327         332         331
         327         328         333         332
         328         329         334         333
         330         331         336         335
         331         332         337         336
         332         333         338         337
         333         334         339         338
         335         336         341         340
         336         337         342         341
         337         338         343         342
         338         339         344         343
         340         341         346         345
         341         342         347         346
         342         343         348         347
         343         344         349         348
         350         351         356         355
         351         352         357         356
         352         353         358         357
         353         354         359         358
         355         356         361         360
         356         357         362         361
         357         358         363         362
         358         359         364         363
         360         361         366         365
         361         362         367         366
         362         363         368         367
         363         364         369         368
         365         366         371         370
         366         367         372         371
         367         368         373         372
         368         369         374         373
         375         376         381         380
         376         377         382         381
         377         378         383         382
         378         379         384         383
         380         381         386         385
         381         382         387         386
         382         383         388         387
         383         384         389         388
         385         386         391         390
         386         387         392         391
         387         388         393         392
         388         389         394         393
         390         391         396         395
         391         392         397         396
         392         393         398         397
         393         394         399         398
         400         401         406         405
         401         402         407         406
         402         403         408         407
         403         404         409         408
         405         406         411         410
         406         407         412         411
         407         408         413         412
         408         409         414         413
         410         411         416         415
         411         412         417         416
         412         413         418         417
         413         414         419         418
         415         416         421         420
         416         417         422         421
         417         418         423         422
         418         419         424         423
         425         426         431         430
         426         427         432         431
         427         428         433         432
         428         429         434         433
         430         431         436         435
         431         432         437         436
         432         433         438         437
         433         434         439         438
         435         436         441         440
         436         437         442         441
         437         438         443         442
         438         439         444         443
         440         441         446         445
         441         442         447         446
         442         443         448         447
         443         444         449         448
         450         451         456         455
         451         452         457         456
         452         453         458         457
         453         454         459         458
         455         456         461         460
         456         457         462         461
         457         458         463         462
         458         459         464         463
         460         461         466         465
         461         462         467         466
         462         463         468         467
         463         464         469         468
         465         466         471         470
         466         467         472         471
         467         468         473         472
         468         469         474         473
         475         476         481         480
         476         477         482         481
         477         478         483         482
         478         479         484         483
         480         481         486         485
         481         482         487         486
         482         483         488         487
         483         484         489         488
         485         486         491         490
         486         487         492         491
         487         488         493         492
         488         489         494         493
         490         491         496         495
         491         492         497         496
         492         493         498         497
         493         494         499         498
         500         501         506         505
         501         502         507         506
         502         503         508         507
         503         504         509         508
         505         506         511         510
         506         507         512         511
         507         508         513         512
         508         509         514         513
         510         511         516         515
         511         512         517         516
         512         513         518         517
         513         514         519         518
         515         516         521         520
         516         517         522         521
         517         518         523         522
         518         519         524         523
         525         526         531         530
         526         527         532         531
         527         528         533         532
         528         529         534         533
         530         531         536         535
         531         532         537         536
         532         533         538         537
         533         534         539         538
         535         536         541         540
         536         537         542         541
         537         538         543         542
         538         539         544         543
         540         541         546         545
         541         542         547         546
         542         543         548         547
         543         544         549         548
         550         551         556         555
         551         552         557         556
         552         553         558         557
         553         554         559         558
         555         556         561         560
         556         557         562         561
         557         558         563         562
         558         559         564         563
         560         561         566         565
         561         562         567         566
         562         563         568         567
         563         564         569         568
         565         566         571         570
         566         567         572         571
         567         568         573         572
         568         569         574         573
         575         576         581         580
         576         577         582         581
         577         578         583         582
         578         579         584         583
         580         581         586         585
         581         582         587         586
         582         583         588         587
         583         584         589         588
         585         586         591         590
         586         587         592         591
         587         588         593         592
         588         589         594         593
         590         591         596         595
         591         592         597         596
         592         593         598         597
         593         594         599         598
         600         601         606         605
         601         602         607         606
         602         603         608         607
         603         604         609         608
         605         606         611         610
         606         607         612         611
         607         608         613         612
         608         609         614         613
         610         611         616         615
         611         612         617         616
         612         613         618         617
         613         614         619         618
         615         616         621         620
         616         617         622         621
         617         618         623         622
         618         619         624         623
         625         626         631         630
         626         627         632         631
         627         628         633         632
         628         629         634         633
         630         631         636         635
         631         632         637         636
         632         633         638         637
         633         634         639         638
         635         636         641         640
         636         637         642         641
         637         638         643         642
         638         639         644         643
         640         641         646         645
         641         642         647         646
         642         643         648         647
         643         644         649         648
         650         651         656         655
         651         652         657         656
         652         653         658         657
         653         654         659         658
         655         656         661         660
         656         657         662         661
         657         658         663         662
         658         659         664         663
         660         661         666         665
         661         662         667         666
         662         663         668         667
         663         664         669         668
         665         666         671         670
         666         667         672         671
         667         668         673         672
         668         669         674         673
         675         676         681         680
         676         677         682         681
         677         678         683         682
         678         679         684         683
         680         681         686         685
         681         682         687         686
         682         683         688         687
         683         684         689         688
         685         686         691         690
         686         687         692         691
         687         688         693         692
         688         689         694         693
         690         691         696         695
         691         692         697         696
         692         693         698         697
         693         694         699         698
         700         701         706         705
         701         702         707         706
         702         703         708         707
         703         704         709         708
         705         706         711         710
         706         707         712         711
         707         708         713         712
         708         709         714         713
         710         711         716         715
         711         712         717         716
         712         713         718         717
         713         714         719         718
         715         716         721         720
         716         717         722         721
         717         718         723         722
         718         719         724         723
         725         726         731         730
         726         727         732         731
         727         728         733         732
         728         729         734         733
         730         731         736         735
         731         732         737         736
         732         733         738         737
         733         734         739         738
         735         736         741         740
         736         737         742         741
         737         738         743         742
         738         739         744         743
         740         741         746         745
         741         742         747         746
         742         743         748         747
         743         744         749         748
         750         751         756         755
         751         752         757         756
         752         753         758         757
         753         754         759         758
         755         756         761         760
         756         757         762         761
         757         758         763         762
         758         759         764         763
         760         761         766         765
         761         762         767         766
         762         763         768         767
         763         764         769         768
         765         766         771         770
         766         767         772         771
         767         768         773         772
         768         769         774         773
         775         776         781         780
         776         777         782         781
         777         778         783         782
         778         779         784         783
         780         781         786         785
         781         782         787         786
         782         783         788         787
         783         784         789         788
         785         786         791         790
         786         787         792         791
         787         788         793         792
         788         789         794         793
         790         791         796         795
         791         792         797         796
         792         793         798         797
         793         794         799         798
         800         801         806         805
         801         802         807         806
         802         803         808         807
         803         804         809         808
         805         806         811         810
         806         807         812         811
         807         808         813         812
         808         809         814         813
         810         811         816         815
         811         812         817         816
         812         813         818         817
         813         814         819         818
         815         816         821         820
         816         817         822         821
         817         818         823         822
         818         819         824         823
         825         826         831         830
         826         827         832         831
         827         828         833         832
         828         829         834         833
         830         831         836         835
         831         832         837         836
         832         833         838         837
         833         834         839         838
         835         836         841         840
         836         837         842         841
         837         838         843         842
         838         839         844         843
         840         841         846         845
         841         842         847         846
         842         843         848         847
         843         844         849         848
         850         851         856         855
         851         852         857         856
         852         853         858         857
         853         854         859         858
         855         856         861         860
         856         857         862         861
         857         858         863         862
         858         859         864         863
         860         861         866         865
         861         862         867         866
         862         863         868         867
         863         864         869         868
         865         866         871         870
         866         867         872         871
         867         868         873         872
         868         869         874         873
         875         876         881         880
         876         877         882         881
         877         878         883         882
         878         879         884         883
         880         881         886         885
         881         882         887         886
         882         883         888         887
         883         884         889         888
         885         886         891         890
         886         887         892         891
         887         888         893         892
         888         889         894         893
         890         891         896         895
         891         892         897         896
         892         893         898         897
         893         894         899         898
         900         901         906         905
         901         902         907         906
         902         903         908         907
         903         904         909         908
         905         906         911         910
         906         907         912         911
         907         908         913         912
         908         909         914         913
         910         911         916         915
         911         912         917         916
         912         913         918         917
         913         914         919         918
         915         916         921         920
         916         917         922         921
         917         918         923         922
         918         919         924         923
         925         926         931         930
         926         927         932         931
         927         928         933         932
         928         929         934         933
         930         931         936         935
         931         932         937         936
         932         933         938         937
         933         934         939         938
         935         936         941         940
         936         937         942         941
         937         938         943         942
         938         939         944         943
         940         941         946         945
         941         942         947         946
         942         943         948         947
         943         944         949         948
         950         951         956         955
         951         952         957         956
         952         953         958         957
         953         954         959         958
         955         956         961         960
         956         957         962         961
         957         958         963         962
         958         959         964         963
         960         961         966         965
         961         962         967         966
         962         963         968         967
         963         964         969         968
         965         966         971         970
         966         967         972         971
         967         968         973         972
         968         969         974         973
         975         976         981         980
         976         977         982         981
         977         978         983         982
         978         979         984         983
         980         981         986         985
         981         982         987         986
         982         983         988         987
         983         984         989         988
         985         986         991         990
         986         987         992         991
         987         988         993         992
         988         989         994         993
         990         991         996         995
         991         992         997         996
         992         993         998         997
         993         994         999         998
        1000        1001        1006        1005
        1001        1002        1007        1006
        1002        1003        1008        1007
        1003        1004        1009        1008
        1005        1006        1011        1010
        1006        1007        1012        1011
        1007        1008        1013        1012
        1008        1009        1014        1013
        1010        1011        1016        1015
        1011        1012        1017        1016
        1012        1013        1018        1017
        1013        1014        1019        1018
        1015        1016        1021        1020
        1016        1017        1022        1021
        1017        1018        1023        1022
        1018        1019        1024        1023
        1025        1026        1031        1030
        1026        1027        1032        1031
        1027        1028        1033        1032
        1028        1029        1034        1033
        1030        1031        1036        1035
        1031        1032        1037        1036
        1032        1033        1038        1037
        1033        1034        1039        1038
        1035        1036        1041        1040
        1036        1037        1042        1041
        1037        1038        1043        1042
        1038        1039        1044        1043
        1040        1041        1046        1045
        1041        1042        1047        1046
        1042        1043        1048        1047
        1043        1044        1049        1048
        1050        1051        1056        1055
        1051        1052        1057        1056
        1052        1053        1058        1057
        1053        1054        1059        1058
        1055        1056        1061        1060
        1056        1057        1062        1061
        1057        1058        1063        1062
        1058        1059        1064        1063
        1060        1061        1066        1065
        1061        1062        1067        1066
        1062        1063        1068        1067
        1063        1064        1069        1068
        1065        1066        1071        1070
        1066        1067        1072        1071
        1067        1068        1073        1072
        1068        1069        1074        1073
        1075        1076        1081        1080
        1076        1077        1082        1081
        1077        1078        1083        1082
        1078        1079        1084        1083
        1080        1081        1086        1085
        1081        1082        1087        1086
        1082        1083        1088        1087
        1083        1084        1089        1088
        1085        1086        1091        1090
        1086        1087        1092        1091
        1087        1088        1093        1092
        1088        1089        1094        1093
        1090        1091        1096        1095
        1091        1092        1097        1096
        1092        1093        1098        1097
        1093        1094        1099        1098
        1100        1101        1106        1105
        1101        1102        1107        1106
        1102        1103        1108        1107
        1103        1104        1109        1108
        1105        1106        1111        1110
        1106        1107        1112        1111
        1107        1108        1113        1112
        1108        1109        1114        1113
        1110        1111        1116        1115
        1111        1112        1117        1116
        1112        1113        1118        1117
        1113        1114        1119        1118
        1115        1116        1121        1120
        1116        1117        1122        1121
        1117        1118        1123        1122
        1118        1119        1124        1123
        1125        1126        1131        1130
        1126        1127        1132        1131
        1127        1128        1133        1132
        1128        1129        1134        1133
        1130        1131        1136        1135
        1131        1132        1137        1136
        1132        1133        1138        1137
        1133        1134        1139        1138
        1135        1136        1141        1140
        1136        1137        1142        1141
        1137        1138        1143        1142
        1138        1139        1144        1143
        1140        1141        1146        1145
        1141        1142        1147        1146
        1142        1143        1148        1147
        1143        1144        1149        1148
        1150        1151        1156        1155
        1151        1152        1157        1156
        1152        1153        1158        1157
        1153        1154        1159        1158
        1155        1156        1161        1160
        1156        1157        1162        1161
        1157        1158        1163        1162
        1158        1159        1164        1163
        1160        1161        1166        1165
        1161        1162        1167        1166
        1162        1163        1168        1167
        1163        1164        1169        1168
        1165        1166        1171        1170
        1166        1167        1172        1171
        1167        1168        1173        1172
        1168        1169        1174        1173
        1175        1176        1181        1180
        1176        1177        1182        1181
        1177        1178        1183        1182
        1178        1179        1184        1183
        1180        1181        1186        1185
        1181        1182        1187        1186
        1182        1183        1188        1187
        1183        1184        1189        1188
        1185        1186        1191        1190
        1186        1187        1192        1191
        1187        1188        1193        1192
        1188        1189        1194        1193
        1190        1191        1196        1195
        1191        1192        1197        1196
        1192        1193        1198        1197
        1193        1194        1199        1198
        1200        1201        1206        1205
        1201        1202        1207        1206
        1202        1203        1208        1207
        1203        1204        1209        1208
        1205        1206        1211        1210
        1206        1207        1212        1211
        1207        1208        1213        1212
        1208        1209        1214        1213
        1210        1211        1216        1215
        1211        1212        1217        1216
        1212        1213        1218        1217
        1213        1214        1219        1218
        1215        1216        1221        1220
        1216        1217        1222        1221
        1217        1218        1223        1222
        1218        1219        1224        1223
        1225        1226        1231        1230
        1226        1227        1232        1231
        1227        1228        1233        1232
        1228        1229        1234        1233
        1230        1231        1236        1235
        1231        1232        1237        1236
        1232        1233        1238        1237
        1233        1234        1239        1238
        1235        1236        1241        1240
        1236        1237        1242        1241
        1237        1238        1243        1242
        1238        1239        1244        1243
        1240        1241        1246        1245
        1241        1242        1247        1246
        1242        1243        1248        1247
        1243        1244        1249        1248
        1250        1251        1256        1255
        1251        1252        1257        1256
        1252        1253        1258        1257
        1253        1254        1259        1258
        1255        1256        1261        1260
        1256        1257        1262        1261
        1257        1258        1263        1262
        1258        1259        1264        1263
        1260        1261        1266        1265
        1261        1262        1267        1266
        1262        1263        1268        1267
        1263        1264        1269        1268
        1265        1266        1271        1270
        1266        1267        1272        1271
        1267        1268        1273        1272
        1268        1269        1274        1273
        1275        1276        1281        1280
        1276        1277        1282        1281
        1277        1278        1283        1282
        1278        1279        1284        1283
        1280        1281        1286        1285
        1281        1282        1287        1286
        1282        1283        1288        1287
        1283        1284        1289        1288
        1285        1286        1291        1290
        1286        1287        1292        1291
        1287        1288        1293        1292
        1288        1289        1294        1293
        1290        1291        1296        1295
        1291        1292        1297        1296
        1292        1293        1298        1297
        1293        1294        1299        1298
        1300        1301        1306        1305
        1301        1302        1307        1306
        1302        1303        1308        1307
        1303        1304        1309        1308
        1305        1306        1311        1310
        1306        1307        1312        1311
        1307        1308        1313        1312
        1308        1309        1314        1313
        1310        1311        1316        1315
        1311        1312        1317        1316
        1312        1313        1318        1317
        1313        1314        1319        1318
        1315        1316        1321        1320
        1316        1317        1322        1321
        1317        1318        1323        1322
        1318        1319        1324        1323
        1325        1326        1331        1330
        1326        1327        1332        1331
        1327        1328        1333        1332
        1328        1329        1334        1333
        1330        1331        1336        1335
        1331        1332        1337        1336
        1332        1333        1338        1337
        1333        1334        1339        1338
        1335        1336        1341        1340
        1336        1337        1342        1341
        1337        1338        1343        1342
        1338        1339        1344        1343
        1340        1341        1346        1345
        1341        1342        1347        1346
        1342        1343        1348        1347
        1343        1344        1349        1348
        1350        1351        1356        1355
        1351        1352        1357        1356
        1352        1353        1358        1357
        1353        1354        1359        1358
        1355        1356        1361        1360
        1356        1357        1362        1361
        1357        1358        1363        1362
        1358        1359        1364        1363
        1360        1361        1366        1365
        1361        1362        1367        1366
        1362        1363        1368        1367
        1363        1364        1369        1368
        1365        1366        1371        1370
        1366        1367        1372        1371
        1367        1368        1373        1372
        1368        1369        1374        1373
        1375        1376        1381        1380
        1376        1377        1382        1381
        1377        1378        1383        1382
        1378        1379        1384        1383
        1380        1381        1386        1385
        1381        1382        1387        1386
        1382        1383        1388        1387
        1383        1384        1389        1388
        1385        1386        1391        1390
        1386        1387        1392        1391
        1387        1388        1393        1392
        1388        1389        1394        1393
        1390        1391        1396        1395
        1391        1392        1397        1396
        1392        1393        1398        1397
        1393        1394        1399        1398
        1400        1401        1406        1405
        1401        1402        1407        1406
        1402        1403        1408        1407
        1403        1404        1409        1408
        1405        1406        1411        1410
        1406        1407        1412        1411
        1407        1408        1413        1412
        1408        1409        1414        1413
        1410        1411        1416        1415
        1411        1412        1417        1416
        1412        1413        1418        1417
        1413        1414        1419        1418
        1415        1416        1421        1420
        1416        1417        1422        1421
        1417        1418        1423        1422
        1418        1419        1424        1423
        1425        1426        1431        1430
        1426        1427        1432        1431
        1427        1428        1433        1432
        1428        1429        1434        1433
        1430        1431        1436        1435
        1431        1432        1437        1436
        1432        1433        1438        1437
        1433        1434        1439        1438
        1435        1436        1441        1440
        1436        1437        1442        1441
        1437        1438        1443        1442
        1438        1439        1444        1443
        1440        1441        1446        1445
        1441        1442        1447        1446
        1442        1443        1448        1447
        1443        1444        1449        1448
        1450        1451        1456        1455
        1451        1452        1457        1456
        1452        1453        1458        1457
        1453        1454        1459        1458
        1455        1456        1461        1460
        1456        1457        1462        1461
        1457        1458        1463        1462
        1458        1459        1464        1463
        1460        1461        1466        1465
        1461        1462        1467        1466
        1462        1463        1468        1467
        1463        1464        1469        1468
        1465        1466        1471        1470
        1466        1467        1472        1471
        1467        1468        1473        1472
        1468        1469        1474        1473
        1475        1476        1481        1480
        1476        1477        1482        1481
        1477        1478        1483        1482
        1478        1479        1484        1483
        1480        1481        1486        1485
        1481        1482        1487        1486
        1482        1483        1488        1487
        1483        1484        1489        1488
        1485        1486        1491        1490
        1486        1487        1492        1491
        1487        1488        1493        1492
        1488        1489        1494        1493
        1490        1491        1496        1495
        1491        1492        1497        1496
        1492        1493        1498        1497
        1493        1494        1499        1498
        1500        1501        1506        1505
        1501        1502        1507        1506
        1502        1503        1508        1507
        1503        1504        1509        1508
        1505        1506        1511        1510
        1506        1507        1512        1511
        1507        1508        1513        1512
        1508        1509        1514        1513
        1510        1511        1516        1515
        1511        1512        1517        1516
        1512        1513        1518        1517
        1513        1514        1519        1518
        1515        1516        1521        1520
        1516        1517        1522        1521
        1517        1518        1523        1522
        1518        1519        1524        1523
        1525        1526        1531        1530
        1526        1527        1532        1531
        1527        1528        1533        1532
        1528        1529        1534        1533
        1530        1531        1536        1535
        1531        1532        1537        1536
        1532        1533        1538        1537
        1533        1534        1539        1538
        1535        1536        1541        1540
        1536        1537        1542        1541
        1537        1538        1543        1542
        1538        1539        1544        1543
        1540        1541        1546        1545
        1541        1542        1547        1546
        1542        1543        1548        1547
        1543        1544        1549        1548
        1550        1551        1556        1555
        1551        1552        1557        1556
        1552        1553        1558        1557
        1553        1554        1559        1558
        1555        1556        1561        1560
        1556        1557        1562        1561
        1557        1558        1563        1562
        1558        1559        1564        1563
        1560        1561        1566        1565
        1561        1562        1567        1566
        1562        1563        1568        1567
        1563        1564        1569        1568
        1565        1566        1571        1570
        1566        1567        1572        1571
        1567        1568        1573        1572
        1568        1569        1574        1573
        1575        1576        1581        1580
        1576        1577        1582        1581
        1577        1578        1583        1582
        1578        1579        1584        1583
        1580        1581        1586        1585
        1581        1582        1587        1586
        1582        1583        1588        1587
        1583        1584        1589        1588
        1585        1586        1591        1590
        1586        1587        1592        1591
        1587        1588        1593        1592
        1588        1589        1594        1593
        1590        1591        1596        1595
        1591        1592        1597        1596
        1592        1593        1598        1597
        1593        1594        1599        1598
 </DataArray>
 <DataArray  type="Int32"  Name="offsets"  format="ascii"> 
           4
           8
          12
          16
          20
          24
          28
          32
          36
          40
          44
          48
          52
          56
          60
          64
          68
          72
          76
          80
          84
          88
          92
          96
         100
         104
         108
         112
         116
         120
         124
         128
         132
         136
         140
         144
         148
         152
         156
         160
         164
         168
         172
         176
         180
         184
         188
         192
         196
         200
         204
         208
         212
         216
         220
         224
         228
         232
         236
         240
         244
         248
         252
         256
         260
         264
         268
         272
         276
         280
         284
         288
         292
         296
         300
         304
         308
         312
         316
         320
         324
         328
         332
         336
         340
         344
         348
         352
         356
         360
         364
         368
         372
         376
         380
         384
         388
         392
         396
         400
         404
         408
         412
         416
         420
         424
         428
         432
         436
         440
         444
         448
         452
         456
         460
         464
         468
         472
         476
         480
         484
         488
         492
         496
         500
         504
         508
         512
         516
         520
         524
         528
         532
         536
         540
         544
         548
         552
         556
         560
         564
         568
         572
         576
         580
         584
         588
         592
         596
         600
         604
         608
         612
         616
         620
         624
         628
         632
         636
         640
         644
         648
         652
         656
         660
         664
         668
         672
         676
         680
         684
         688
         692
         696
         700
         704
         708
         712
         716
         720
         724
         728
         732
         736
         740
         744
         748
         752
         756
         760
         764
         768
         772
         776
         780
         784
         788
         792
         796
         800
         804
         808
         812
         816
         820
         824
         828
         832
         836
         840
         844
         848
         852
         856
         860
         864
         868
         872
         876
         880
         884
         888
         892
         896
         900
         904
         908
         912
         916
         920
         924
         928
         932
         936
         940
         944
         948
         952
         956
         960
         964
         968
         972
         976
         980
         984
         988
         992
         996
        1000
        1004
        1008
        1012
        1016
        1020
        1024
        1028
        1032
        1036
        1040
        1044
        1048
        1052
        1056
        1060
        1064
        1068
        1072
        1076
        1080
        1084
        1088
        1092
        1096
        1100
        1104
        1108
        1112
        1116
        1120
        1124
        1128
        1132
        1136
        1140
        1144
        1148
        1152
        1156
        1160
        1164
        1168
        1172
        1176
        1180
        1184
        1188
        1192
        1196
        1200
        1204
        1208
        1212
        1216
        1220
        1224
        1228
        1232
        1236
        1240
        1244
        1248
        1252
        1256
        1260
        1264
        1268
        1272
        1276
        1280
        1284
        1288
        1292
        1296
        1300
        1304
        1308
        1312
        1316
        1320
        1324
        1328
        1332
        1336
        1340
        1344
        1348
        1352
        1356
        1360
        1364
        1368
        1372
        1376
        1380
        1384
        1388
        1392
        1396
        1400
        1404
        1408
        1412
        1416
        1420
        1424
        1428
        1432
        1436
        1440
        1444
        1448
        1452
        1456
        1460
        1464
        1468
        1472
        1476
        1480
        1484
        1488
        1492
        1496
        1500
        1504
        1508
        1512
        1516
        1520
        1524
        1528
        1532
        1536
        1540
        1544
        1548
        1552
        1556
        1560
        1564
        1568
        1572
        1576
        1580
        1584
        1588
        1592
        1596
        1600
        1604
        1608
        1612
        1616
        1620
        1624
        1628
        1632
        1636
        1640
        1644
        1648
        1652
        1656
        1660
        1664
        1668
        1672
        1676
        1680
        1684
        1688
        1692
        1696
        1700
        1704
        1708
        1712
        1716
        1720
        1724
        1728
        1732
        1736
        1740
        1744
        1748
        1752
        1756
        1760
        1764
        1768
        1772
        1776
        1780
        1784
        1788
        1792
        1796
        1800
        1804
        1808
        1812
        1816
        1820
        1824
        1828
        1832
        1836
        1840
        1844
        1848
        1852
        1856
        1860
        1864
        1868
        1872
        1876
        1880
        1884
        1888
        1892
        1896
        1900
        1904
        1908
        1912
        1916
        1920
        1924
        1928
        1932
        1936
        1940
        1944
        1948
        1952
        1956
        1960
        1964
        1968
        1972
        1976
        1980
        1984
        1988
        1992
        1996
        2000
        2004
        2008
        2012
        2016
        2020
        2024
        2028
        2032
        2036
        2040
        2044
        2048
        2052
        2056
        2060
        2064
        2068
        2072
        2076
        2080
        2084
        2088
        2092
        2096
        2100
        2104
        2108
        2112
        2116
        2120
        2124
        2128
        2132
        2136
        2140
        2144
        2148
        2152
        2156
        2160
        2164
        2168
        2172
        2176
        2180
        2184
        2188
        2192
        2196
        2200
        2204
        2208
        2212
        2216
        2220
        2224
        2228
        2232
        2236
        2240
        2244
        2248
        2252
        2256
        2260
        2264
        2268
        2272
        2276
        2280
        2284
        2288
        2292
        2296
        2300
        2304
        2308
        2312
        2316
        2320
        2324
        2328
        2332
        2336
        2340
        2344
        2348
        2352
        2356
        2360
        2364
        2368
        2372
        2376
        2380
        2384
        2388
        2392
        2396
        2400
        2404
        2408
        2412
        2416
        2420
        2424
        2428
        2432
        2436
        2440
        2444
        2448
        2452
        2456
        2460
        2464
        2468
        2472
        2476
        2480
        2484
        2488
        2492
        2496
        2500
        2504
        2508
        2512
        2516
        2520
        2524
        2528
        2532
        2536
        2540
        2544
        2548
        2552
        2556
        2560
        2564
        2568
        2572
        2576
        2580
        2584
        2588
        2592
        2596
        2600
        2604
        2608
        2612
        2616
        2620
        2624
        2628
        2632
        2636
        2640
        2644
        2648
        2652
        2656
        2660
        2664
        2668
        2672
        2676
        2680
        2684
        2688
        2692
        2696
        2700
        2704
        2708
        2712
        2716
        2720
        2724
        2728
        2732
        2736
        2740
        2744
        2748
        2752
        2756
        2760
        2764
        2768
        2772
        2776
        2780
        2784
        2788
        2792
        2796
        2800
        2804
        2808
        2812
        2816
        2820
        2824
        2828
        2832
        2836
        2840
        2844
        2848
        2852
        2856
        2860
        2864
        2868
        2872
        2876
        2880
        2884
        2888
        2892
        2896
        2900
        2904
        2908
        2912
        2916
        2920
        2924
        2928
        2932
        2936
        2940
        2944
        2948
        2952
        2956
        2960
        2964
        2968
        2972
        2976
        2980
        2984
        2988
        2992
        2996
        3000
        3004
        3008
        3012
        3016
        3020
        3024
        3028
        3032
        3036
        3040
        3044
        3048
        3052
        3056
        3060
        3064
        3068
        3072
        3076
        3080
        3084
        3088
        3092
        3096
        3100
        3104
        3108
        3112
        3116
        3120
        3124
        3128
        3132
        3136
        3140
        3144
        3148
        3152
        3156
        3160
        3164
        3168
        3172
        3176
        3180
        3184
        3188
        3192
        3196
        3200
        3204
        3208
        3212
        3216
        3220
        3224
        3228
        3232
        3236
        3240
        3244
        3248
        3252
        3256
        3260
        3264
        3268
        3272
        3276
        3280
        3284
        3288
        3292
        3296
        3300
        3304
        3308
        3312
        3316
        3320
        3324
        3328
        3332
        3336
        3340
        3344
        3348
        3352
        3356
        3360
        3364
        3368
        3372
        3376
        3380
        3384
        3388
        3392
        3396
        3400
        3404
        3408
        3412
        3416
        3420
        3424
        3428
        3432
        3436
        3440
        3444
        3448
        3452
        3456
        3460
        3464
        3468
        3472
        3476
        3480
        3484
        3488
        3492
        3496
        3500
        3504
        3508
        3512
        3516
        3520
        3524
        3528
        3532
        3536
        3540
        3544
        3548
        3552
        3556
        3560
        3564
        3568
        3572
        3576
        3580
        3584
        3588
        3592
        3596
        3600
        3604
        3608
        3612
        3616
        3620
        3624
        3628
        3632
        3636
        3640
        3644
        3648
        3652
        3656
        3660
        3664
        3668
        3672
        3676
        3680
        3684
        3688
        3692
        3696
        3700
        3704
        3708
        3712
        3716
        3720
        3724
        3728
        3732
        3736
        3740
        3744
        3748
        3752
        3756
        3760
        3764
        3768
        3772
        3776
        3780
        3784
        3788
        3792
        3796
        3800
        3804
        3808
        3812
        3816
        3820
        3824
        3828
        3832
        3836
        3840
        3844
        3848
        3852
        3856
        3860
        3864
        3868
        3872
        3876
        3880
        3884
        3888
        3892
        3896
        3900
        3904
        3908
        3912
        3916
        3920
        3924
        3928
        3932
        3936
        3940
        3944
        3948
        3952
        3956
        3960
        3964
        3968
        3972
        3976
        3980
        3984
        3988
        3992
        3996
        4000
        4004
        4008
        4012
        4016
        4020
        4024
        4028
        4032
        4036
        4040
        4044
        4048
        4052
        4056
        4060
        4064
        4068
        4072
        4076
        4080
        4084
        4088
        4092
        4096
 </DataArray>
 <DataArray  type="UInt8"  Name="types"  format="ascii">
 9
 9
 9
 9
 9
 9
 9
 9
 9
 9
 9
 9
 9
 9
 9
 9
 9
 9
 9
 9
 9
 9
 9
 9
 9
 9
 9
 9
 9
 9
 9
 9
 9
 9
 9
 9
 9
 9
 9
 9
 9
 9
 9
 9
 9
 9
 9
 9
 9
 9
 9
 9
 9
 9
 9
 9
 9
 9
 9
 9
 9
 9
 9
 9
 9
 9
 9
 9
 9
 9
 9
 9
 9
 9
 9
 9
 9
 9
 9
 9
 9
 9
 9
 9
 9
 9
 9
 9
 9
 9
 9
 9
 9
 9
 9
 9
 9
 9
 9
 9
 9
 9
 9
 9
 9
 9
 9
 9
 9
 9
 9
 9
 9
 9
 9
 9
 9
 9
 9
 9
 9
 9
 9
 9
 9
 9
 9
 9
 9
 9
 9
 9
 9
 9
 9
 9
 9
 9
 9
 9
 9
 9
 9
 9
 9
 9
 9
 9
 9
 9
 9
 9
 9
 9
 9
 9
 9
 9
 9
 9
 9
 9
 9
 9
 9
 9
 9
 9
 9
 9
 9
 9
 9
 9
 9
 9
 9
 9
 9
 9
 9
 9
 9
 9
 9
 9
 9
 9
 9
 9
 9
 9
 9
 9
 9
 9
 9
 9
 9
 9
 9
 9
 9
 9
 9
 9
 9
 9
 9
 9
 9
 9
 9
 9
 9
 9
 9
 9
 9
 9
 9
 9
 9
 9
 9
 9
 9
 9
 9
 9
 9
 9
 9
 9
 9
 9
 9
 9
 9
 9
 9
 9
 9
 9
 9
 9
 9
 9
 9
 9
 9
 9
 9
 9
 9
 9
 9
 9
 9
 9
 9
 9
 9
 9
 9
 9
 9
 9
 9
 9
 9
 9
 9
 9
 9
 9
 9
 9
 9
 9
 9
 9
 9
 9
 9
 9
 9
 9
 9
 9
 9
 9
 9
 9
 9
 9
 9
 9
 9
 9
 9
 9
 9
 9
 9
 9
 9
 9
 9
 9
 9
 9
 9
 9
 9
 9
 9
 9
 9
 9
 9
 9
 9
 9
 9
 9
 9
 9
 9
 9
 9
 9
 9
 9
 9
 9
 9
 9
 9
 9
 9
 9
 9
 9
 9
 9
 9
 9
 9
 9
 9
 9
 9
 9
 9
 9
 9
 9
 9
 9
 9
 9
 9
 9
 9
 9
 9
 9
 9
 9
 9
 9
 9
 9
 9
 9
 9
 9
 9
 9
 9
 9
 9
 9
 9
 9
 9
 9
 9
 9
 9
 9
 9
 9
 9
 9
 9
 9
 9
 9
 9
 9
 9
 9
 9
 9
 9
 9
 9
 9
 9
 9
 9
 9
 9
 9
 9
 9
 9
 9
 9
 9
 9
 9
 9
 9
 9
 9
 9
 9
 9
 9
 9
 9
 9
 9
 9
 9
 9
 9
 9
 9
 9
 9
 9
 9
 9
 9
 9
 9
 9
 9
 9
 9
 9
 9
 9
 9
 9
 9
 9
 9
 9
 9
 9
 9
 9
 9
 9
 9
 9
 9
 9
 9
 9
 9
 9
 9
 9
 9
 9
 9
 9
 9
 9
 9
 9
 9
 9
 9
 9
 9
 9
 9
 9
 9
 9
 9
 9
 9
 9
 9
 9
 9
 9
 9
 9
 9
 9
 9
 9
 9
 9
 9
 9
 9
 9
 9
 9
 9
 9
 9
 9
 9
 9
 9
 9
 9
 9
 9
 9
 9
 9
 9
 9
 9
 9
 9
 9
 9
 9
 9
 9
 9
 9
 9
 9
 9
 9
 9
 9
 9
 9
 9
 9
 9
 9
 9
 9
 9
 9
 9
 9
 9
 9
 9
 9
 9
 9
 9
 9
 9
 9
 9
 9
 9
 9
 9
 9
 9
 9
 9
 9
 9
 9
 9
 9
 9
 9
 9
 9
 9
 9
 9
 9
 9
 9
 9
 9
 9
 9
 9
 9
 9
 9
 9
 9
 9
 9
 9
 9
 9
 9
 9
 9
 9
 9
 9
 9
 9
 9
 9
 9
 9
 9
 9
 9
 9
 9
 9
 9
 9
 9
 9
 9
 9
 9
 9
 9
 9
 9
 9
 9
 9
 9
 9
 9
 9
 9
 9
 9
 9
 9
 9
 9
 9
 9
 9
 9
 9
 9
 9
 9
 9
 9
 9
 9
 9
 9
 9
 9
 9
 9
 9
 9
 9
 9
 9
 9
 9
 9
 9
 9
 9
 9
 9
 9
 9
 9
 9
 9
 9
 9
 9
 9
 9
 9
 9
 9
 9
 9
 9
 9
 9
 9
 9
 9
 9
 9
 9
 9
 9
 9
 9
 9
 9
 9
 9
 9
 9
 9
 9
 9
 9
 9
 9
 9
 9
 9
 9
 9
 9
 9
 9
 9
 9
 9
 9
 9
 9
 9
 9
 9
 9
 9
 9
 9
 9
 9
 9
 9
 9
 9
 9
 9
 9
 9
 9
 9
 9
 9
 9
 9
 9
 9
 9
 9
 9
 9
 9
 9
 9
 9
 9
 9
 9
 9
 9
 9
 9
 9
 9
 9
 9
 9
 9
 9
 9
 9
 9
 9
 9
 9
 9
 9
 9
 9
 9
 9
 9
 9
 9
 9
 9
 9
 9
 9
 9
 9
 9
 9
 9
 9
 9
 9
 9
 9
 9
 9
 9
 9
 9
 9
 9
 9
 9
 9
 9
 9
 9
 9
 9
 9
 9
 9
 9
 9
 9
 9
 9
 9
 9
 9
 9
 9
 9
 9
 9
 9
 9
 9
 9
 9
 9
 9
 9
 9
 9
 9
 9
 9
 9
 9
 9
 9
 9
 9
 9
 9
 9
 9
 9
 9
 9
 9
 9
 9
 9
 9
 9
 9
 9
 9
 9
 9
 9
 9
 9
 9
 9
 9
 9
 9
 9
 9
 9
 9
 9
 9
 9
 9
 9
 9
 9
 9
 9
 9
 9
 9
 9
 9
 9
 9
 9
 9
 9
 9
 9
 9
 9
 9
 9
 9
 9
 9
 9
 9
 9
 9
 9
 9
 9
 9
 9
 9
 9
 9
 9
 9
 9
 9
 9
 9
 9
 9
 9
 9
 9
 9
 9
 9
 9
 9
 9
 9
 9
 9
 9
 9
 9
 9
 9
 9
 9
 9
 9
 9
 9
 9
 9
 9
 9
 9
 9
 9
 9
 9
 9
 9
 9
 9
 9
 9
 9
 9
 9
 9
 9
 9
 9
 9
 9
 9
 9
 9
 9
 9
 9
 9
 9
 9
 9
 9
 9
 9
 9
 9
 9
 9
 9
 9
 9
 9
 9
 9
 9
 9
 9
 9
 9
 9
 9
 9
 9
 </DataArray>
 </Cells> 
 <PointData>
 <DataArray  type="Float64" Name="disp" NumberOfComponents="3" format="ascii">
   0.0000000000000000        0.0000000000000000        0.0000000000000000     
   6.0957765074613644E-003   3.7902556953617974E-003   0.0000000000000000     
   1.1665714410548008E-002   7.3236305008926063E-003   0.0000000000000000     
   1.6709813709259932E-002   1.0600124416592426E-002   0.0000000000000000     
   2.1228074403597131E-002   1.3619737442461258E-002   0.0000000000000000     
   0.0000000000000000        0.0000000000000000        0.0000000000000000     
   4.8910355304074803E-003   3.0220932160648604E-003   0.0000000000000000     
   9.5734304295724791E-003   6.0604689251558333E-003   0.0000000000000000     
   1.4047184697495000E-002   9.1151271272729185E-003   0.0000000000000000     
   1.8312298334175036E-002   1.2186067822416114E-002   0.0000000000000000     
   0.0000000000000000        0.0000000000000000        0.0000000000000000     
   3.9535044879951253E-003   2.4251435908591332E-003   0.0000000000000000     
   7.9104863984256410E-003   5.0629274335846821E-003   0.0000000000000000     
   1.1870945731291547E-002   7.9133515281766455E-003   0.0000000000000000     
   1.5834882486592840E-002   1.0976415874635024E-002   0.0000000000000000     
   0.0000000000000000        0.0000000000000000        0.0000000000000000     
   3.2831833802243024E-003   1.9994068197446142E-003   0.0000000000000000     
   6.6768823171074959E-003   4.3310060261791501E-003   0.0000000000000000     
   1.0181096810649579E-002   6.9947976193036080E-003   0.0000000000000000     
   1.3795826860850551E-002   9.9907815991179885E-003   0.0000000000000000     
   0.0000000000000000        0.0000000000000000        0.0000000000000000     
   2.8800722070950096E-003   1.7448829027213045E-003   0.0000000000000000     
   5.8726181856180396E-003   3.8647047029392399E-003   0.0000000000000000     
   8.9776379355690893E-003   6.3594654006538069E-003   0.0000000000000000     
   1.2195131456948158E-002   9.2291649958650031E-003   0.0000000000000000     
   2.1228074403597131E-002   1.3619737442461258E-002   0.0000000000000000     
   2.5433214828003464E-002   1.6612871604887461E-002   0.0000000000000000     
   2.9537953316922771E-002   1.9809928930259405E-002   0.0000000000000000     
   3.3542289870355062E-002   2.3210909418577085E-002   0.0000000000000000     
   3.7446224488300331E-002   2.6815813069840502E-002   0.0000000000000000     
   1.8312298334175036E-002   1.2186067822416114E-002   0.0000000000000000     
   2.2406930781055292E-002   1.5341575080274679E-002   0.0000000000000000     
   2.6369241479578455E-002   1.8649932970537859E-002   0.0000000000000000     
   3.0199230429744529E-002   2.2111141493205665E-002   0.0000000000000000     
   3.3896897631553513E-002   2.5725200648278088E-002   0.0000000000000000     
   1.5834882486592840E-002   1.0976415874635024E-002   0.0000000000000000     
   1.9730535366152487E-002   1.4210949865396427E-002   0.0000000000000000     
   2.3486143071793437E-002   1.7575782892897459E-002   0.0000000000000000     
   2.7101705603515689E-002   2.1070914957138122E-002   0.0000000000000000     
   3.0577222961319254E-002   2.4696346058118410E-002   0.0000000000000000     
   1.3795826860850551E-002   9.9907815991179885E-003   0.0000000000000000     
   1.7404028583295050E-002   1.3220995960252713E-002   0.0000000000000000     
   2.0888658093567717E-002   1.6587478697338200E-002   0.0000000000000000     
   2.4249715391668553E-002   2.0090229810374449E-002   0.0000000000000000     
   2.7487200477597555E-002   2.3729249299361467E-002   0.0000000000000000     
   1.2195131456948158E-002   9.2291649958650031E-003   0.0000000000000000     
   1.5427410432482984E-002   1.2371713364843530E-002   0.0000000000000000     
   1.8576786544901299E-002   1.5685020383860080E-002   0.0000000000000000     
   2.1643259794203108E-002   1.9169086052914657E-002   0.0000000000000000     
   2.4626830180388408E-002   2.2823910372007261E-002   0.0000000000000000     
   3.7446224488300331E-002   2.6815813069840502E-002   0.0000000000000000     
   4.1254487733095382E-002   3.0620301391479268E-002   0.0000000000000000     
   4.4971810167077027E-002   3.4620035890922995E-002   0.0000000000000000     
   4.8598191790245278E-002   3.8815016568171677E-002   0.0000000000000000     
   5.2133632602600122E-002   4.3205243423225320E-002   0.0000000000000000     
   3.3896897631553513E-002   2.5725200648278088E-002   0.0000000000000000     
   3.7485505635701293E-002   2.9520975240152906E-002   0.0000000000000000     
   4.0988316992883744E-002   3.3527330073227897E-002   0.0000000000000000     
   4.4405331703100882E-002   3.7744265147503051E-002   0.0000000000000000     
   4.7736549766352693E-002   4.2171780462978377E-002   0.0000000000000000     
   3.0577222961319254E-002   2.4696346058118410E-002   0.0000000000000000     
   3.3942020880188002E-002   2.8496529407420541E-002   0.0000000000000000     
   3.7225425095105791E-002   3.2515918216626721E-002   0.0000000000000000     
   4.0427435606072641E-002   3.6754512485736954E-002   0.0000000000000000     
   4.3548052413088546E-002   4.1212312214751232E-002   0.0000000000000000     
   2.7487200477597555E-002   2.3729249299361467E-002   0.0000000000000000     
   3.0624033466555498E-002   2.7546963893282161E-002   0.0000000000000000     
   3.3683134473743159E-002   3.1585800321119462E-002   0.0000000000000000     
   3.6664503499160568E-002   3.5845758582873366E-002   0.0000000000000000     
   3.9568140542807696E-002   4.0326838678543850E-002   0.0000000000000000     
   2.4626830180388408E-002   2.2823910372007261E-002   0.0000000000000000     
   2.7531543394803799E-002   2.6672278697737785E-002   0.0000000000000000     
   3.0361445128795878E-002   3.0736976386706125E-002   0.0000000000000000     
   3.3116535382364656E-002   3.5018003438912280E-002   0.0000000000000000     
   3.5796814155510115E-002   3.9515359854356266E-002   0.0000000000000000     
   5.2133632602600122E-002   4.3205243423225320E-002   0.0000000000000000     
   5.5574946948740961E-002   4.7794903725379152E-002   0.0000000000000000     
   5.8918949173267211E-002   5.2588184743928387E-002   0.0000000000000000     
   6.2165639276178887E-002   5.7585086478873032E-002   0.0000000000000000     
   6.5315017257475960E-002   6.2785608930213094E-002   0.0000000000000000     
   4.7736549766352693E-002   4.2171780462978377E-002   0.0000000000000000     
   5.0977856636904378E-002   4.6803844682747432E-002   0.0000000000000000     
   5.4125137769021135E-002   5.1634426469903759E-002   0.0000000000000000     
   5.7178393162702970E-002   5.6663525824447364E-002   0.0000000000000000     
   6.0137622817949862E-002   6.1891142746378240E-002   0.0000000000000000     
   4.3548052413088546E-002   4.1212312214751232E-002   0.0000000000000000     
   4.6583371599769004E-002   4.5877594634588299E-002   0.0000000000000000     
   4.9529489249729490E-002   5.0738636976166894E-002   0.0000000000000000     
   5.2386405362970019E-002   5.5795439239487009E-002   0.0000000000000000     
   5.5154119939490584E-002   6.1048001424548651E-002   0.0000000000000000     
   3.9568140542807696E-002   4.0326838678543850E-002   0.0000000000000000     
   4.2391491837334830E-002   4.5016153580901733E-002   0.0000000000000000     
   4.5132003615392276E-002   4.9900816262717765E-002   0.0000000000000000     
   4.7789675876980048E-002   5.4980826723991960E-002   0.0000000000000000     
   5.0364508622098118E-002   6.0256184964724319E-002   0.0000000000000000     
   3.5796814155510115E-002   3.9515359854356266E-002   0.0000000000000000     
   3.8402217349601871E-002   4.4219521521687732E-002   0.0000000000000000     
   4.0932680866009520E-002   4.9120964329556399E-002   0.0000000000000000     
   4.3388204704733042E-002   5.4219688277962232E-002   0.0000000000000000     
   4.5768788865772465E-002   5.9515693366905251E-002   0.0000000000000000     
   6.5315017257475960E-002   6.2785608930213094E-002   0.0000000000000000     
   6.8370778688571276E-002   6.8177084713635788E-002   0.0000000000000000     
   7.1336619140877702E-002   7.3746846444828318E-002   0.0000000000000000     
   7.4212538614395224E-002   7.9494894123790710E-002   0.0000000000000000     
   7.6998537109123827E-002   8.5421227750522966E-002   0.0000000000000000     
   6.0137622817949862E-002   6.1891142746378240E-002   0.0000000000000000     
   6.3007215531325128E-002   6.7307997901843095E-002   0.0000000000000000     
   6.5791560099392105E-002   7.2904811956988599E-002   0.0000000000000000     
   6.8490656522150764E-002   7.8681584911814789E-002   0.0000000000000000     
   7.1104504799601120E-002   8.4638316766321636E-002   0.0000000000000000     
   5.5154119939490584E-002   6.1048001424548651E-002   0.0000000000000000     
   5.7836965994202121E-002   6.6488943838483985E-002   0.0000000000000000     
   6.0439276542015585E-002   7.2110886788425199E-002   0.0000000000000000     
   6.2961051582930957E-002   7.7913830274372306E-002   0.0000000000000000     
   6.5402291116948258E-002   8.3897774296325292E-002   0.0000000000000000     
   5.0364508622098118E-002   6.0256184964724319E-002   0.0000000000000000     
   5.2860030077202233E-002   6.5719922523558502E-002   0.0000000000000000     
   5.5279768468748124E-002   7.1365070939138173E-002   0.0000000000000000     
   5.7623723796735811E-002   7.7191630211463302E-002   0.0000000000000000     
   5.9891896061165267E-002   8.3199600340533947E-002   0.0000000000000000     
   4.5768788865772465E-002   5.9515693366905251E-002   0.0000000000000000     
   4.8076407780325472E-002   6.5000933957066603E-002   0.0000000000000000     
   5.0313035879589761E-002   7.0667364409127437E-002   0.0000000000000000     
   5.2478673163565311E-002   7.6514984723087778E-002   0.0000000000000000     
   5.4573319632252149E-002   8.2543794898947587E-002   0.0000000000000000     
   7.6998537109123827E-002   8.5421227750522966E-002   0.0000000000000000     
   7.9686560105729748E-002   9.1515952391772126E-002   0.0000000000000000     
   8.2268553084879209E-002   9.7769173114285332E-002   0.0000000000000000     
   8.4744516046572183E-002  0.10418088991806253        0.0000000000000000     
   8.7114448990808696E-002  0.11075110280310374        0.0000000000000000     
   7.1104504799601120E-002   8.4638316766321636E-002   0.0000000000000000     
   7.3626005021005678E-002   9.0763748040698020E-002   0.0000000000000000     
   7.6048057275626982E-002   9.7046619255132846E-002   0.0000000000000000     
   7.8370661563465047E-002  0.10348693040962610        0.0000000000000000     
   8.0593817884519844E-002  0.11008468150417777        0.0000000000000000     
   6.5402291116948258E-002   8.3897774296325292E-002   0.0000000000000000     
   6.7756839919464004E-002   9.0050642198464342E-002   0.0000000000000000     
   7.0018542765874700E-002   9.6360357324969614E-002   0.0000000000000000     
   7.2187399656180387E-002  0.10282691967584114        0.0000000000000000     
   7.4263410590381010E-002  0.10945032925107891        0.0000000000000000     
   5.9891896061165267E-002   8.3199600340533947E-002   0.0000000000000000     
   6.2079064801104721E-002   8.9376634865071053E-002   0.0000000000000000     
   6.4180009555622364E-002   9.5710387323795609E-002   0.0000000000000000     
   6.6194730324718190E-002  0.10220085771670766        0.0000000000000000     
   6.8123227108392206E-002  0.10884804604380713        0.0000000000000000     
   5.4573319632252149E-002   8.2543794898947587E-002   0.0000000000000000     
   5.6592679665927827E-002   8.8741726040518193E-002   0.0000000000000000     
   5.8532457644869945E-002   9.5096709251610873E-002   0.0000000000000000     
   6.0392653569078483E-002  0.10160874453222564        0.0000000000000000     
   6.2173267438553441E-002  0.10827783188236248        0.0000000000000000     
   8.7114448990808696E-002  0.11075110280310374        0.0000000000000000     
   8.9390872024416826E-002  0.11746747999056015        0.0000000000000000     
   9.1586305254224648E-002  0.12431768970158291        0.0000000000000000     
   9.3700748680232190E-002  0.13130173193617201        0.0000000000000000     
   9.5734202302439425E-002  0.13841960669432751        0.0000000000000000     
   8.0593817884519844E-002  0.11008468150417777        0.0000000000000000     
   8.2729201961045939E-002  0.11682940405256256        0.0000000000000000     
   8.4788489515297882E-002  0.12371062956855521        0.0000000000000000     
   8.6771680547275701E-002  0.13072835805215569        0.0000000000000000     
   8.8678775056979367E-002  0.13788258950336399        0.0000000000000000     
   7.4263410590381010E-002  0.10945032925107891        0.0000000000000000     
   7.6257280707962879E-002  0.11622078098771903        0.0000000000000000     
   7.8179715148412224E-002  0.12312846982279764        0.0000000000000000     
   8.0030713911729057E-002  0.13017339575631473        0.0000000000000000     
   8.1810276997913378E-002  0.13735555878827030        0.0000000000000000     
   6.8123227108392206E-002  0.10884804604380713        0.0000000000000000     
   6.9975108265167646E-002  0.11564161079602950        0.0000000000000000     
   7.1759982153567645E-002  0.12257121046431020        0.0000000000000000     
   7.3477848773592244E-002  0.12963684504864917        0.0000000000000000     
   7.5128708125241445E-002  0.13683851454904647        0.0000000000000000     
   6.2173267438553441E-002  0.10827783188236248        0.0000000000000000     
   6.3882684632660211E-002  0.11509189347749402        0.0000000000000000     
   6.5529290530764159E-002  0.12203885149309288        0.0000000000000000     
   6.7113085132865263E-002  0.12911870592915906        0.0000000000000000     
   6.8634068438963552E-002  0.13633145678569250        0.0000000000000000     
   9.5734202302439425E-002  0.13841960669432751        0.0000000000000000     
   9.7671410325180577E-002  0.14564883345690494        0.0000000000000000     
   9.9497116952789871E-002  0.15296693170475995        0.0000000000000000     
  0.10121132218526731       0.16037390143789254        0.0000000000000000     
  0.10281402602261289       0.16786974265630270        0.0000000000000000     
   8.8678775056979367E-002  0.13788258950336399        0.0000000000000000     
   9.0495016394025254E-002  0.14515705418062902        0.0000000000000000     
   9.2205647908029736E-002  0.15253548234239969        0.0000000000000000     
   9.3810669598992799E-002  0.16001787398867601        0.0000000000000000     
   9.5310081466914456E-002  0.16760422911945799        0.0000000000000000     
   8.1810276997913378E-002  0.13735555878827030        0.0000000000000000     
   8.3504406854572083E-002  0.14466269134418461        0.0000000000000000     
   8.5099105929312094E-002  0.15208252584957793        0.0000000000000000     
   8.6594374222133411E-002  0.15961506230445024        0.0000000000000000     
   8.7990211733036006E-002  0.16726030070880155        0.0000000000000000     
   7.5128708125241445E-002  0.13683851454904647        0.0000000000000000     
   7.6699581706821063E-002  0.14416574494757173        0.0000000000000000     
   7.8177491016636957E-002  0.15160806222629467        0.0000000000000000     
   7.9562436054689115E-002  0.15916546638521517        0.0000000000000000     
   8.0854416820977548E-002  0.16683795742433330        0.0000000000000000     
   6.8634068438963552E-002  0.13633145678569250        0.0000000000000000     
   7.0080540950772166E-002  0.14366621499079038        0.0000000000000000     
   7.1440803170004299E-002  0.15111209147254984        0.0000000000000000     
   7.2714855096659925E-002  0.15866908623097084        0.0000000000000000     
   7.3902696730739070E-002  0.16633719926605339        0.0000000000000000     
   0.0000000000000000        0.0000000000000000        0.0000000000000000     
   2.8800722070950096E-003   1.7448829027213045E-003   0.0000000000000000     
   5.8726181856180396E-003   3.8647047029392399E-003   0.0000000000000000     
   8.9776379355690893E-003   6.3594654006538069E-003   0.0000000000000000     
   1.2195131456948158E-002   9.2291649958650031E-003   0.0000000000000000     
   0.0000000000000000        0.0000000000000000        0.0000000000000000     
   2.6103341347528744E-003   1.5889426339430394E-003   0.0000000000000000     
   5.2897205313903375E-003   3.5567418249805218E-003   0.0000000000000000     
   8.0381591899123910E-003   5.9033975731124485E-003   0.0000000000000000     
   1.0855650110319035E-002   8.6289098783388189E-003   0.0000000000000000     
   0.0000000000000000        0.0000000000000000        0.0000000000000000     
   2.3401323293435220E-003   1.4589568075636544E-003   0.0000000000000000     
   4.7202158818574532E-003   3.2998357534185689E-003   0.0000000000000000     
   7.1402506575417943E-003   5.5226368375647433E-003   0.0000000000000000     
   9.6002366563965429E-003   8.1273600600021787E-003   0.0000000000000000     
   0.0000000000000000        0.0000000000000000        0.0000000000000000     
   2.0694667908669534E-003   1.3549254235831491E-003   0.0000000000000000     
   4.1641042370193860E-003   3.0939864882533787E-003   0.0000000000000000     
   6.2839123384572978E-003   5.2171831940106897E-003   0.0000000000000000     
   8.4288910951806871E-003   7.7245155408550824E-003   0.0000000000000000     
   0.0000000000000000        0.0000000000000000        0.0000000000000000     
   1.7983375193231679E-003   1.2768484820015239E-003   0.0000000000000000     
   3.6213855968761344E-003   2.9391940294849535E-003   0.0000000000000000     
   5.4691442326588995E-003   4.9870366424502894E-003   0.0000000000000000     
   7.3416134266714641E-003   7.4203763208975301E-003   0.0000000000000000     
   1.2195131456948158E-002   9.2291649958650031E-003   0.0000000000000000     
   1.5427410432482984E-002   1.2371713364843530E-002   0.0000000000000000     
   1.8576786544901299E-002   1.5685020383860080E-002   0.0000000000000000     
   2.1643259794203108E-002   1.9169086052914657E-002   0.0000000000000000     
   2.4626830180388408E-002   2.2823910372007261E-002   0.0000000000000000     
   1.0855650110319035E-002   8.6289098783388189E-003   0.0000000000000000     
   1.3688884962115885E-002   1.1650943232871146E-002   0.0000000000000000     
   1.6484555414808567E-002   1.4887162128920944E-002   0.0000000000000000     
   1.9242661468397076E-002   1.8337566566488214E-002   0.0000000000000000     
   2.1963203122881410E-002   2.2002156545572950E-002   0.0000000000000000     
   9.6002366563965429E-003   8.1273600600021787E-003   0.0000000000000000     
   1.2076656220593361E-002   1.1046526718037821E-002   0.0000000000000000     
   1.4545991692303903E-002   1.4212658108978626E-002   0.0000000000000000     
   1.7008243071528165E-002   1.7625754232824583E-002   0.0000000000000000     
   1.9463410358266153E-002   2.1285815089575701E-002   0.0000000000000000     
   8.4288910951806871E-003   7.7245155408550824E-003   0.0000000000000000     
   1.0590724207915406E-002   1.0558463820343559E-002   0.0000000000000000     
   1.2761095377387306E-002   1.3661508324033121E-002   0.0000000000000000     
   1.4940004603596381E-002   1.7033649051923772E-002   0.0000000000000000     
   1.7127451886542640E-002   2.0674886004015514E-002   0.0000000000000000     
   7.3416134266714641E-003   7.4203763208975301E-003   0.0000000000000000     
   9.2310889240820246E-003   1.0186754539788352E-002   0.0000000000000000     
   1.1129866470058777E-002   1.3233712774084439E-002   0.0000000000000000     
   1.3037946064601723E-002   1.6561251023785778E-002   0.0000000000000000     
   1.4955327707710865E-002   2.0169369288892382E-002   0.0000000000000000     
   2.4626830180388408E-002   2.2823910372007261E-002   0.0000000000000000     
   2.7531543394803799E-002   2.6672278697737785E-002   0.0000000000000000     
   3.0361445128795878E-002   3.0736976386706125E-002   0.0000000000000000     
   3.3116535382364656E-002   3.5018003438912280E-002   0.0000000000000000     
   3.5796814155510115E-002   3.9515359854356266E-002   0.0000000000000000     
   2.1963203122881410E-002   2.2002156545572950E-002   0.0000000000000000     
   2.4629564121495969E-002   2.5879181342419264E-002   0.0000000000000000     
   2.7225128207475146E-002   2.9966890233271256E-002   0.0000000000000000     
   2.9749895380818941E-002   3.4265283218128925E-002   0.0000000000000000     
   3.2203865641527357E-002   3.8774360296992265E-002   0.0000000000000000     
   1.9463410358266153E-002   2.1285815089575701E-002   0.0000000000000000     
   2.1883109103195086E-002   2.5174379348958473E-002   0.0000000000000000     
   2.4238954856992203E-002   2.9272985680699391E-002   0.0000000000000000     
   2.6530947619657477E-002   3.3581634084798466E-002   0.0000000000000000     
   2.8759087391190933E-002   3.8100324561255686E-002   0.0000000000000000     
   1.7127451886542640E-002   2.0674886004015514E-002   0.0000000000000000     
   1.9292178339901163E-002   2.4557872717355413E-002   0.0000000000000000     
   2.1402925077347038E-002   2.8655262728990546E-002   0.0000000000000000     
   2.3459692098880269E-002   3.2967056038920910E-002   0.0000000000000000     
   2.5462479404500849E-002   3.7493252647146508E-002   0.0000000000000000     
   1.4955327707710865E-002   2.0169369288892382E-002   0.0000000000000000     
   1.6856771831614183E-002   2.4029661447610082E-002   0.0000000000000000     
   1.8717038868539666E-002   2.8113721378144711E-002   0.0000000000000000     
   2.0536128818487313E-002   3.2421549080496263E-002   0.0000000000000000     
   2.2314041681457116E-002   3.6953144554664752E-002   0.0000000000000000     
   3.5796814155510115E-002   3.9515359854356266E-002   0.0000000000000000     
   3.8402217349601871E-002   4.4219521521687732E-002   0.0000000000000000     
   4.0932680866009520E-002   4.9120964329556399E-002   0.0000000000000000     
   4.3388204704733042E-002   5.4219688277962232E-002   0.0000000000000000     
   4.5768788865772465E-002   5.9515693366905251E-002   0.0000000000000000     
   3.2203865641527357E-002   3.8774360296992265E-002   0.0000000000000000     
   3.4589084107192192E-002   4.3488834146428797E-002   0.0000000000000000     
   3.6907595895405265E-002   4.8403417443005983E-002   0.0000000000000000     
   3.9159401006166578E-002   5.3518110186723866E-002   0.0000000000000000     
   4.1344499439476115E-002   5.8832912377582397E-002   0.0000000000000000     
   2.8759087391190933E-002   3.8100324561255686E-002   0.0000000000000000     
   3.0925628080727872E-002   4.2825227144607340E-002   0.0000000000000000     
   3.3032823597403622E-002   4.7752511869389738E-002   0.0000000000000000     
   3.5080673941218173E-002   5.2882178735602858E-002   0.0000000000000000     
   3.7069179112171530E-002   5.8214227743246721E-002   0.0000000000000000     
   2.5462479404500849E-002   3.7493252647146508E-002   0.0000000000000000     
   2.7411849270208913E-002   4.2228700516223412E-002   0.0000000000000000     
   2.9308363972004578E-002   4.7168247608707643E-002   0.0000000000000000     
   3.1152023509887848E-002   5.2311893924599256E-002   0.0000000000000000     
   3.2942827883858709E-002   5.7659639463898210E-002   0.0000000000000000     
   2.2314041681457116E-002   3.6953144554664752E-002   0.0000000000000000     
   2.4047747675635320E-002   4.1699254261276970E-002   0.0000000000000000     
   2.5734217019208142E-002   4.6650624660959726E-002   0.0000000000000000     
   2.7373449712175590E-002   5.1807255753713026E-002   0.0000000000000000     
   2.8965445754537661E-002   5.7169147539536870E-002   0.0000000000000000     
   4.5768788865772465E-002   5.9515693366905251E-002   0.0000000000000000     
   4.8076407780325472E-002   6.5000933957066603E-002   0.0000000000000000     
   5.0313035879589761E-002   7.0667364409127437E-002   0.0000000000000000     
   5.2478673163565311E-002   7.6514984723087778E-002   0.0000000000000000     
   5.4573319632252149E-002   8.2543794898947587E-002   0.0000000000000000     
   4.1344499439476115E-002   5.8832912377582397E-002   0.0000000000000000     
   4.3463273403929283E-002   6.4338183938506155E-002   0.0000000000000000     
   4.5516105108121471E-002   7.0024284792419733E-002   0.0000000000000000     
   4.7502994552052688E-002   7.5891214939323048E-002   0.0000000000000000     
   4.9423941735722919E-002   8.1938974379216156E-002   0.0000000000000000     
   3.7069179112171530E-002   5.8214227743246721E-002   0.0000000000000000     
   3.8997801248371107E-002   6.3737878267375064E-002   0.0000000000000000     
   4.0866002487924317E-002   6.9442349683041651E-002   0.0000000000000000     
   4.2673782830831154E-002   7.5327641990246483E-002   0.0000000000000000     
   4.4421142277091631E-002   8.1393755188989586E-002   0.0000000000000000     
   3.2942827883858709E-002   5.7659639463898210E-002   0.0000000000000000     
   3.4679991313650939E-002   6.3200016943673290E-002   0.0000000000000000     
   3.6362728018998272E-002   6.8921559080993247E-002   0.0000000000000000     
   3.7991037999900716E-002   7.4824265875858109E-002   0.0000000000000000     
   3.9564921256358271E-002   8.0908137328267904E-002   0.0000000000000000     
   2.8965445754537661E-002   5.7169147539536870E-002   0.0000000000000000     
   3.0509843599768775E-002   6.2724599967400846E-002   0.0000000000000000     
   3.2006281701343349E-002   6.8461912986274520E-002   0.0000000000000000     
   3.3454760059261374E-002   7.4381086596157941E-002   0.0000000000000000     
   3.4855278673522859E-002   8.0482120797051054E-002   0.0000000000000000     
   5.4573319632252149E-002   8.2543794898947587E-002   0.0000000000000000     
   5.6592679665927827E-002   8.8741726040518193E-002   0.0000000000000000     
   5.8532457644869945E-002   9.5096709251610873E-002   0.0000000000000000     
   6.0392653569078483E-002  0.10160874453222564        0.0000000000000000     
   6.2173267438553441E-002  0.10827783188236248        0.0000000000000000     
   4.9423941735722919E-002   8.1938974379216156E-002   0.0000000000000000     
   5.1275413471063618E-002   8.8155918059336147E-002   0.0000000000000000     
   5.3053876570006257E-002   9.4530400926920055E-002   0.0000000000000000     
   5.4759331032550818E-002  0.10106242298196796        0.0000000000000000     
   5.6391776858697305E-002  0.10775198422447982        0.0000000000000000     
   4.4421142277091631E-002   8.1393755188989586E-002   0.0000000000000000     
   4.6104995173642395E-002   8.7629213256055258E-002   0.0000000000000000     
   4.7722255867420120E-002   9.4022540168227905E-002   0.0000000000000000     
   4.9272924358424799E-002  0.10057373592550747        0.0000000000000000     
   5.0757000646656433E-002  0.10728280052789402        0.0000000000000000     
   3.9564921256358271E-002   8.0908137328267904E-002   0.0000000000000000     
   4.1081424773664145E-002   8.7161611630675623E-002   0.0000000000000000     
   4.2537595537111526E-002   9.3573126975534368E-002   0.0000000000000000     
   4.3933433546700408E-002  0.10014268336284424        0.0000000000000000     
   4.5268938802430811E-002  0.10687028079260508        0.0000000000000000     
   3.4855278673522859E-002   8.0482120797051054E-002   0.0000000000000000     
   3.6204702271128868E-002   8.6753113183197186E-002   0.0000000000000000     
   3.7499895579080469E-002   9.3182161348839554E-002   0.0000000000000000     
   3.8740858597377664E-002   9.9769265293978143E-002   0.0000000000000000     
   3.9927591326020452E-002  0.10651442501861300        0.0000000000000000     
   6.2173267438553441E-002  0.10827783188236248        0.0000000000000000     
   6.3882684632660211E-002  0.11509189347749402        0.0000000000000000     
   6.5529290530764159E-002  0.12203885149309288        0.0000000000000000     
   6.7113085132865263E-002  0.12911870592915906        0.0000000000000000     
   6.8634068438963552E-002  0.13633145678569250        0.0000000000000000     
   5.6391776858697305E-002  0.10775198422447982        0.0000000000000000     
   5.7958425272141893E-002  0.11458519496900843        0.0000000000000000     
   5.9466487496580747E-002  0.12154816553010656        0.0000000000000000     
   6.0915963532013867E-002  0.12864089590777428        0.0000000000000000     
   6.2306853378441246E-002  0.13586338610201151        0.0000000000000000     
   5.0757000646656433E-002  0.10728280052789402        0.0000000000000000     
   5.2180745645313990E-002  0.11413508120746854        0.0000000000000000     
   5.3550420267596460E-002  0.12111592519631217        0.0000000000000000     
   5.4866024513503815E-002  0.12822533249442486        0.0000000000000000     
   5.6127558383036069E-002  0.13546330310180663        0.0000000000000000     
   4.5268938802430811E-002  0.10687028079260508        0.0000000000000000     
   4.6549645752176509E-002  0.11374155219287441        0.0000000000000000     
   4.7781088843811277E-002  0.12074213049170965        0.0000000000000000     
   4.8963268077335108E-002  0.12787201568911083        0.0000000000000000     
   5.0096183452748015E-002  0.13513120778507787        0.0000000000000000     
   3.9927591326020452E-002  0.10651442501861300        0.0000000000000000     
   4.1065125592729429E-002  0.11340460792522600        0.0000000000000000     
   4.2158493225225184E-002  0.12042678141629903        0.0000000000000000     
   4.3207694223507738E-002  0.12758094549183213        0.0000000000000000     
   4.4212728587577077E-002  0.13486710015182526        0.0000000000000000     
   6.8634068438963552E-002  0.13633145678569250        0.0000000000000000     
   7.0080540950772166E-002  0.14366621499079038        0.0000000000000000     
   7.1440803170004299E-002  0.15111209147254984        0.0000000000000000     
   7.2714855096659925E-002  0.15866908623097084        0.0000000000000000     
   7.3902696730739070E-002  0.16633719926605339        0.0000000000000000     
   6.2306853378441246E-002  0.13586338610201151        0.0000000000000000     
   6.3628686067310883E-002  0.14320380035561608        0.0000000000000000     
   6.4870990630070749E-002  0.15065030291138587        0.0000000000000000     
   6.6033767066720830E-002  0.15820289376932076        0.0000000000000000     
   6.7117015377261155E-002  0.16586157292942089        0.0000000000000000     
   5.6127558383036069E-002  0.13546330310180663        0.0000000000000000     
   5.7325418537322613E-002  0.14281819992382438        0.0000000000000000     
   5.8450001637492859E-002  0.15027838586584499        0.0000000000000000     
   5.9501307683546778E-002  0.15784386092786856        0.0000000000000000     
   6.0479336675484385E-002  0.16551462510989498        0.0000000000000000     
   5.0096183452748015E-002  0.13513120778507787        0.0000000000000000     
   5.1170738360807384E-002  0.14250941369541525        0.0000000000000000     
   5.2177836192270642E-002  0.14999634033592735        0.0000000000000000     
   5.3117476947137754E-002  0.15759198770661415        0.0000000000000000     
   5.3989660625408747E-002  0.16529635580747570        0.0000000000000000     
   4.4212728587577077E-002  0.13486710015182526        0.0000000000000000     
   4.5164645537765190E-002  0.14227744167038872        0.0000000000000000     
   4.6054494294404093E-002  0.14980416632163285        0.0000000000000000     
   4.6882274857493779E-002  0.15744727410555759        0.0000000000000000     
   4.7647987227034241E-002  0.16520676502216303        0.0000000000000000     
   0.0000000000000000        0.0000000000000000        0.0000000000000000     
   1.7983375193231679E-003   1.2768484820015239E-003   0.0000000000000000     
   3.6213855968761344E-003   2.9391940294849535E-003   0.0000000000000000     
   5.4691442326588995E-003   4.9870366424502894E-003   0.0000000000000000     
   7.3416134266714641E-003   7.4203763208975301E-003   0.0000000000000000     
   0.0000000000000000        0.0000000000000000        0.0000000000000000     
   1.5350278283165349E-003   1.2175958895849124E-003   0.0000000000000000     
   3.0994212620205886E-003   2.8209304062972529E-003   0.0000000000000000     
   4.6931803011121620E-003   4.8100035501370221E-003   0.0000000000000000     
   6.3163049455912538E-003   7.1848153211042202E-003   0.0000000000000000     
   0.0000000000000000        0.0000000000000000        0.0000000000000000     
   1.2878210314514235E-003   1.1700375530994470E-003   0.0000000000000000     
   2.6055725330456385E-003   2.7246676478742374E-003   0.0000000000000000     
   3.9532545047826452E-003   4.6638902843243717E-003   0.0000000000000000     
   5.3308669466624430E-003   6.9877054624498504E-003   0.0000000000000000     
   0.0000000000000000        0.0000000000000000        0.0000000000000000     
   1.0567171287278335E-003   1.1341734725451276E-003   0.0000000000000000     
   2.1398394099512831E-003   2.6504057542159070E-003   0.0000000000000000     
   3.2493668436703476E-003   4.5486968450123375E-003   0.0000000000000000     
   4.3852994298850282E-003   6.8290467449344206E-003   0.0000000000000000     
   0.0000000000000000        0.0000000000000000        0.0000000000000000     
   8.4171612014576503E-004   1.1100036479219551E-003   0.0000000000000000     
   1.7022218927375218E-003   2.5981447253222616E-003   0.0000000000000000     
   2.5815173177752703E-003   4.4644232322009194E-003   0.0000000000000000     
   3.4796023952590105E-003   6.7088391685579292E-003   0.0000000000000000     
   7.3416134266714641E-003   7.4203763208975301E-003   0.0000000000000000     
   9.2310889240820246E-003   1.0186754539788352E-002   0.0000000000000000     
   1.1129866470058777E-002   1.3233712774084439E-002   0.0000000000000000     
   1.3037946064601723E-002   1.6561251023785778E-002   0.0000000000000000     
   1.4955327707710865E-002   2.0169369288892382E-002   0.0000000000000000     
   6.3163049455912538E-003   7.1848153211042202E-003   0.0000000000000000     
   7.9560445300847944E-003   9.8958139849348020E-003   0.0000000000000000     
   9.5996483892197074E-003   1.2893447807364723E-002   0.0000000000000000     
   1.1247116522995995E-002   1.6177716788393984E-002   0.0000000000000000     
   1.2898448931413656E-002   1.9748620928022584E-002   0.0000000000000000     
   5.3308669466624430E-003   6.9877054624498504E-003   0.0000000000000000     
   6.7238851869152998E-003   9.6500572643454970E-003   0.0000000000000000     
   8.1177845537714847E-003   1.2604889772106135E-002   0.0000000000000000     
   9.5125650472309975E-003   1.5852202985731763E-002   0.0000000000000000     
   1.0908226667293838E-002   1.9391996905222381E-002   0.0000000000000000     
   4.3852994298850282E-003   6.8290467449344206E-003   0.0000000000000000     
   5.5346108945735443E-003   9.4494843780204354E-003   0.0000000000000000     
   6.6842749637141133E-003   1.2368038668308667E-002   0.0000000000000000     
   7.8342916373067336E-003   1.5584709615799113E-002   0.0000000000000000     
   8.9846609153514095E-003   1.9099497220491778E-002   0.0000000000000000     
   3.4796023952590105E-003   6.7088391685579292E-003   0.0000000000000000     
   4.3882216530595226E-003   9.2940953259596192E-003   0.0000000000000000     
   5.2991196190475863E-003   1.2182894495972322E-002   0.0000000000000000     
   6.2122962932232018E-003   1.5375236678596037E-002   0.0000000000000000     
   7.1277516755863697E-003   1.8871121873830766E-002   0.0000000000000000     
   1.4955327707710865E-002   2.0169369288892382E-002   0.0000000000000000     
   1.6856771831614183E-002   2.4029661447610082E-002   0.0000000000000000     
   1.8717038868539666E-002   2.8113721378144711E-002   0.0000000000000000     
   2.0536128818487313E-002   3.2421549080496263E-002   0.0000000000000000     
   2.2314041681457116E-002   3.6953144554664752E-002   0.0000000000000000     
   1.2898448931413656E-002   1.9748620928022584E-002   0.0000000000000000     
   1.4537424622869844E-002   2.3580044787149288E-002   0.0000000000000000     
   1.6147822605761707E-002   2.7645872926672865E-002   0.0000000000000000     
   1.7729642880089245E-002   3.1946105346593305E-002   0.0000000000000000     
   1.9282885445852459E-002   3.6480742046910618E-002   0.0000000000000000     
   1.0908226667293838E-002   1.9391996905222381E-002   0.0000000000000000     
   1.2294671758203826E-002   2.3199321983399843E-002   0.0000000000000000     
   1.3661802664204786E-002   2.7249228673085980E-002   0.0000000000000000     
   1.5009619385296708E-002   3.1541716974280813E-002   0.0000000000000000     
   1.6338121921479605E-002   3.6076786886984319E-002   0.0000000000000000     
   8.9846609153514095E-003   1.9099497220491778E-002   0.0000000000000000     
   1.0128513237616130E-002   2.2887493036361735E-002   0.0000000000000000     
   1.1258979043868899E-002   2.6923788617384072E-002   0.0000000000000000     
   1.2376058334109707E-002   3.1208383963558777E-002   0.0000000000000000     
   1.3479751108338557E-002   3.5741279074885869E-002   0.0000000000000000     
   7.1277516755863697E-003   1.8871121873830766E-002   0.0000000000000000     
   8.0389490611067621E-003   2.2644557946034972E-002   0.0000000000000000     
   8.9393517447540517E-003   2.6669552759567120E-002   0.0000000000000000     
   9.8289597265282403E-003   3.0946106314427214E-002   0.0000000000000000     
   1.0707773006429323E-002   3.5474218610615262E-002   0.0000000000000000     
   2.2314041681457116E-002   3.6953144554664752E-002   0.0000000000000000     
   2.4047747675635320E-002   4.1699254261276970E-002   0.0000000000000000     
   2.5734217019208142E-002   4.6650624660959726E-002   0.0000000000000000     
   2.7373449712175590E-002   5.1807255753713026E-002   0.0000000000000000     
   2.8965445754537661E-002   5.7169147539536870E-002   0.0000000000000000     
   1.9282885445852459E-002   3.6480742046910618E-002   0.0000000000000000     
   2.0800945579183824E-002   4.1235753726298528E-002   0.0000000000000000     
   2.2277218556215818E-002   4.6197111083430796E-002   0.0000000000000000     
   2.3711704376948441E-002   5.1364814118307393E-002   0.0000000000000000     
   2.5104403041381694E-002   5.6738862830928334E-002   0.0000000000000000     
   1.6338121921479605E-002   3.6076786886984319E-002   0.0000000000000000     
   1.7639065263031172E-002   4.0837064257818585E-002   0.0000000000000000     
   1.8904204400229115E-002   4.5805174933405655E-002   0.0000000000000000     
   2.0133539333073432E-002   5.0981118913745543E-002   0.0000000000000000     
   2.1327070061564122E-002   5.6364896198838228E-002   0.0000000000000000     
   1.3479751108338557E-002   3.5741279074885869E-002   0.0000000000000000     
   1.4562106727177363E-002   4.0503185855837127E-002   0.0000000000000000     
   1.5615174551248027E-002   4.5474816210884325E-002   0.0000000000000000     
   1.6638954580550553E-002   5.0656170140027476E-002   0.0000000000000000     
   1.7633446815084941E-002   5.6047247643266566E-002   0.0000000000000000     
   1.0707773006429323E-002   3.5474218610615262E-002   0.0000000000000000     
   1.1570069971622398E-002   4.0234118520354148E-002   0.0000000000000000     
   1.2410129009272563E-002   4.5206034915866798E-002   0.0000000000000000     
   1.3227950119379814E-002   5.0389967797153185E-002   0.0000000000000000     
   1.4023533301944150E-002   5.5785917164213349E-002   0.0000000000000000     
   2.8965445754537661E-002   5.7169147539536870E-002   0.0000000000000000     
   3.0509843599768775E-002   6.2724599967400846E-002   0.0000000000000000     
   3.2006281701343349E-002   6.8461912986274520E-002   0.0000000000000000     
   3.3454760059261374E-002   7.4381086596157941E-002   0.0000000000000000     
   3.4855278673522859E-002   8.0482120797051054E-002   0.0000000000000000     
   2.5104403041381694E-002   5.6738862830928334E-002   0.0000000000000000     
   2.6455501866658883E-002   6.2307430758911805E-002   0.0000000000000000     
   2.7765188169923322E-002   6.8058691439876001E-002   0.0000000000000000     
   2.9033461951175003E-002   7.3992644873820915E-002   0.0000000000000000     
   3.0260323210413935E-002   8.0109291060746546E-002   0.0000000000000000     
   2.1327070061564122E-002   5.6364896198838228E-002   0.0000000000000000     
   2.2485109874255525E-002   6.1944312738560270E-002   0.0000000000000000     
   2.3607972059701984E-002   6.7707174482788221E-002   0.0000000000000000     
   2.4695656617903489E-002   7.3653481431522033E-002   0.0000000000000000     
   2.5748163548860045E-002   7.9783233584761748E-002   0.0000000000000000     
   1.7633446815084941E-002   5.6047247643266566E-002   0.0000000000000000     
   1.8598667622558691E-002   6.1635245906346253E-002   0.0000000000000000     
   1.9534633370679316E-002   6.7407362115011180E-002   0.0000000000000000     
   2.0441344059446819E-002   7.3363596269261325E-002   0.0000000000000000     
   2.1318799688861200E-002   7.9503948369096716E-002   0.0000000000000000     
   1.4023533301944150E-002   5.5785917164213349E-002   0.0000000000000000     
   1.4796175111568388E-002   6.1380230262269742E-002   0.0000000000000000     
   1.5545172102855342E-002   6.7159254336544891E-002   0.0000000000000000     
   1.6270524275805005E-002   7.3122989387038775E-002   0.0000000000000000     
   1.6972231630417389E-002   7.9271435413751382E-002   0.0000000000000000     
   3.4855278673522859E-002   8.0482120797051054E-002   0.0000000000000000     
   3.6204702271128868E-002   8.6753113183197186E-002   0.0000000000000000     
   3.7499895579080469E-002   9.3182161348839554E-002   0.0000000000000000     
   3.8740858597377664E-002   9.9769265293978143E-002   0.0000000000000000     
   3.9927591326020452E-002  0.10651442501861300        0.0000000000000000     
   3.0260323210413935E-002   8.0109291060746546E-002   0.0000000000000000     
   3.1442445826190955E-002   8.6396295922518337E-002   0.0000000000000000     
   3.2576503677056917E-002   9.2841325381001802E-002   0.0000000000000000     
   3.3662496763011841E-002   9.9444379436196884E-002   0.0000000000000000     
   3.4700425084055700E-002  0.10620545808810364        0.0000000000000000     
   2.5748163548860045E-002   7.9783233584761748E-002   0.0000000000000000     
   2.6762273599004786E-002   8.6083737857537576E-002   0.0000000000000000     
   2.7734767514770848E-002   9.2542301164879673E-002   0.0000000000000000     
   2.8665645296158230E-002   9.9158923506788052E-002   0.0000000000000000     
   2.9554906943166925E-002  0.10593360488326278        0.0000000000000000     
   2.1318799688861200E-002   7.9503948369096716E-002   0.0000000000000000     
   2.2164185589570368E-002   8.5815438988254805E-002   0.0000000000000000     
   2.2974687092222237E-002   9.2285088700473125E-002   0.0000000000000000     
   2.3750304196816830E-002   9.8912897505751676E-002   0.0000000000000000     
   2.4491036903354128E-002  0.10569886540409046        0.0000000000000000     
   1.6972231630417389E-002   7.9271435413751382E-002   0.0000000000000000     
   1.7648181797887685E-002   8.5591399314670094E-002   0.0000000000000000     
   1.8296262409411103E-002   9.2069687987782201E-002   0.0000000000000000     
   1.8916473464987642E-002   9.8706301433087715E-002   0.0000000000000000     
   1.9508814964617295E-002  0.10550123965058664        0.0000000000000000     
   3.9927591326020452E-002  0.10651442501861300        0.0000000000000000     
   4.1065125592729429E-002  0.11340460792522600        0.0000000000000000     
   4.2158493225225184E-002  0.12042678141629903        0.0000000000000000     
   4.3207694223507738E-002  0.12758094549183213        0.0000000000000000     
   4.4212728587577077E-002  0.13486710015182526        0.0000000000000000     
   3.4700425084055700E-002  0.10620545808810364        0.0000000000000000     
   3.5694863638069070E-002  0.11311314360481058        0.0000000000000000     
   3.6650387422932529E-002  0.12015601825440636        0.0000000000000000     
   3.7566996438646048E-002  0.12733408203689089        0.0000000000000000     
   3.8444690685209656E-002  0.13464733495226425        0.0000000000000000     
   2.9554906943166925E-002  0.10593360488326278        0.0000000000000000     
   3.0406538359291770E-002  0.11285605443191540        0.0000000000000000     
   3.1224525448027597E-002  0.11991598129035753        0.0000000000000000     
   3.2008868209374396E-002  0.12711338545858919        0.0000000000000000     
   3.2759566643332162E-002  0.13444826693661041        0.0000000000000000     
   2.4491036903354128E-002  0.10569886540409046        0.0000000000000000     
   2.5200149756397519E-002  0.11263334040654041        0.0000000000000000     
   2.5880907300510396E-002  0.11970667052415263        0.0000000000000000     
   2.6533309535692759E-002  0.12691885575692705        0.0000000000000000     
   2.7157356461944601E-002  0.13426989610486365        0.0000000000000000     
   1.9508814964617295E-002  0.10550123965058664        0.0000000000000000     
   2.0075697829386317E-002  0.11244500152868570        0.0000000000000000     
   2.0619532980380929E-002  0.11952808595579165        0.0000000000000000     
   2.1140320417601149E-002  0.12675049293190443        0.0000000000000000     
   2.1638060141046963E-002  0.13411222245702409        0.0000000000000000     
   4.4212728587577077E-002  0.13486710015182526        0.0000000000000000     
   4.5164645537765190E-002  0.14227744167038872        0.0000000000000000     
   4.6054494294404093E-002  0.14980416632163285        0.0000000000000000     
   4.6882274857493779E-002  0.15744727410555759        0.0000000000000000     
   4.7647987227034241E-002  0.16520676502216303        0.0000000000000000     
   3.8444690685209656E-002  0.13464733495226425        0.0000000000000000     
   3.9274772981202972E-002  0.14208975112432010        0.0000000000000000     
   4.0048546145205650E-002  0.14965530467685217        0.0000000000000000     
   4.0766010177217676E-002  0.15734399560986040        0.0000000000000000     
   4.1427165077239057E-002  0.16515582392334482        0.0000000000000000     
   3.2759566643332162E-002  0.13444826693661041        0.0000000000000000     
   3.3468753604127689E-002  0.14191380933278477        0.0000000000000000     
   3.4128561945987713E-002  0.14950319625547601        0.0000000000000000     
   3.4738991668912270E-002  0.15721642770468405        0.0000000000000000     
   3.5300042772901337E-002  0.16505350368040900        0.0000000000000000     
   2.7157356461944601E-002  0.13426989610486365        0.0000000000000000     
   2.7746587406539319E-002  0.14174961629578270        0.0000000000000000     
   2.8294541696750310E-002  0.14934784105750434        0.0000000000000000     
   2.8801219332577569E-002  0.15706457039002861        0.0000000000000000     
   2.9266620314021101E-002  0.16489980429335546        0.0000000000000000     
   2.1638060141046963E-002  0.13411222245702409        0.0000000000000000     
   2.2108274388437887E-002  0.14159717201331390        0.0000000000000000     
   2.2546485397493422E-002  0.14918923908293724        0.0000000000000000     
   2.2952693168213568E-002  0.15688842366589398        0.0000000000000000     
   2.3326897700598336E-002  0.16469472576218427        0.0000000000000000     
   0.0000000000000000        0.0000000000000000        0.0000000000000000     
   8.4171612014576503E-004   1.1100036479219551E-003   0.0000000000000000     
   1.7022218927375218E-003   2.5981447253222616E-003   0.0000000000000000     
   2.5815173177752703E-003   4.4644232322009194E-003   0.0000000000000000     
   3.4796023952590105E-003   6.7088391685579292E-003   0.0000000000000000     
   0.0000000000000000        0.0000000000000000        0.0000000000000000     
   6.3389960798814361E-004   1.0939708059468489E-003   0.0000000000000000     
   1.2781681077818426E-003   2.5620416103116920E-003   0.0000000000000000     
   1.9328054993810967E-003   4.4042124130945293E-003   0.0000000000000000     
   2.5978117827859062E-003   6.6204832142953626E-003   0.0000000000000000     
   0.0000000000000000        0.0000000000000000        0.0000000000000000     
   4.2434919453789520E-004   1.0825176733367289E-003   0.0000000000000000     
   8.5312618146173220E-004   2.5362534583025886E-003   0.0000000000000000     
   1.2863309607715106E-003   4.3612073548975798E-003   0.0000000000000000     
   1.7239635324672311E-003   6.5573793631217006E-003   0.0000000000000000     
   0.0000000000000000        0.0000000000000000        0.0000000000000000     
   2.1306487979501956E-004   1.0756442500915950E-003   0.0000000000000000     
   4.2709611377719032E-004   2.5207802692949512E-003   0.0000000000000000     
   6.4209370194651236E-004   4.3354080576100684E-003   0.0000000000000000     
   8.5805764430298549E-004   6.5195276150369456E-003   0.0000000000000000     
   0.0000000000000000        0.0000000000000000        0.0000000000000000     
   4.6663759516743725E-008   1.0733505362114475E-003   0.0000000000000000     
   7.7904728217222368E-008   2.5156220432887796E-003   0.0000000000000000     
   9.3722906101300404E-008   4.3268145212319959E-003   0.0000000000000000     
   9.4118293169248883E-008   6.5069279700410978E-003   0.0000000000000000     
   3.4796023952590105E-003   6.7088391685579292E-003   0.0000000000000000     
   4.3882216530595226E-003   9.2940953259596192E-003   0.0000000000000000     
   5.2991196190475863E-003   1.2182894495972322E-002   0.0000000000000000     
   6.2122962932232018E-003   1.5375236678596037E-002   0.0000000000000000     
   7.1277516755863697E-003   1.8871121873830766E-002   0.0000000000000000     
   2.5978117827859062E-003   6.6204832142953626E-003   0.0000000000000000     
   3.2702540300233339E-003   9.1779025512872519E-003   0.0000000000000000     
   3.9471993131204447E-003   1.2043518961443267E-002   0.0000000000000000     
   4.6286476320772383E-003   1.5217332444763400E-002   0.0000000000000000     
   5.3145989868937128E-003   1.8699343001247662E-002   0.0000000000000000     
   1.7239635324672311E-003   6.5573793631217006E-003   0.0000000000000000     
   2.1662445931150743E-003   9.0949184971275323E-003   0.0000000000000000     
   2.6133948392812224E-003   1.1943973771067654E-002   0.0000000000000000     
   3.0654142709656755E-003   1.5104545184942066E-002   0.0000000000000000     
   3.5223028881684331E-003   1.8576632738750765E-002   0.0000000000000000     
   8.5805764430298549E-004   6.5195276150369456E-003   0.0000000000000000     
   1.0761933423347435E-003   9.0451431634804621E-003   0.0000000000000000     
   1.2977061975299198E-003   1.1884258924845488E-002   0.0000000000000000     
   1.5225962098885143E-003   1.5036874899132030E-002   0.0000000000000000     
   1.7508633794105278E-003   1.8502991086340084E-002   0.0000000000000000     
   9.4118293169248883E-008   6.5069279700410978E-003   0.0000000000000000     
   1.0027768234092298E-007   9.0285765503460378E-003   0.0000000000000000     
   1.3338786653611690E-007   1.1864374422776771E-002   0.0000000000000000     
   1.9344884575537781E-007   1.5014321587333295E-002   0.0000000000000000     
   2.8046061999816192E-007   1.8478418044015611E-002   0.0000000000000000     
   7.1277516755863697E-003   1.8871121873830766E-002   0.0000000000000000     
   8.0389490611067621E-003   2.2644557946034972E-002   0.0000000000000000     
   8.9393517447540517E-003   2.6669552759567120E-002   0.0000000000000000     
   9.8289597265282403E-003   3.0946106314427214E-002   0.0000000000000000     
   1.0707773006429323E-002   3.5474218610615262E-002   0.0000000000000000     
   5.3145989868937128E-003   1.8699343001247662E-002   0.0000000000000000     
   5.9980849717326820E-003   2.2462125432986577E-002   0.0000000000000000     
   6.6721371807569509E-003   2.6478254542070701E-002   0.0000000000000000     
   7.3367556139665229E-003   3.0747730328500013E-002   0.0000000000000000     
   7.9919402713613964E-003   3.5270552792274527E-002   0.0000000000000000     
   3.5223028881684331E-003   1.8576632738750765E-002   0.0000000000000000     
   3.9780267125508568E-003   2.2331804217783587E-002   0.0000000000000000     
   4.4265517657743059E-003   2.6341627407330346E-002   0.0000000000000000     
   4.8678780478387824E-003   3.0606102307391057E-002   0.0000000000000000     
   5.3020055587442846E-003   3.5125228917965712E-002   0.0000000000000000     
   1.7508633794105278E-003   1.8502991086340084E-002   0.0000000000000000     
   1.9787742835612855E-003   2.2253594300425991E-002   0.0000000000000000     
   2.2025954998061157E-003   2.6259671355346081E-002   0.0000000000000000     
   2.4223270281450173E-003   3.0521222251100353E-002   0.0000000000000000     
   2.6379688685779909E-003   3.5038246987688815E-002   0.0000000000000000     
   2.8046061999816192E-007   1.8478418044015611E-002   0.0000000000000000     
   3.2768476397116494E-007   2.2227495680913784E-002   0.0000000000000000     
   2.6838285238081150E-007   2.6232386386117888E-002   0.0000000000000000     
   1.0255488522727780E-007   3.0493090159627905E-002   0.0000000000000000     
  -1.6979913749050682E-007   3.5009607001443843E-002   0.0000000000000000     
   1.0707773006429323E-002   3.5474218610615262E-002   0.0000000000000000     
   1.1570069971622398E-002   4.0234118520354148E-002   0.0000000000000000     
   1.2410129009272563E-002   4.5206034915866798E-002   0.0000000000000000     
   1.3227950119379814E-002   5.0389967797153185E-002   0.0000000000000000     
   1.4023533301944150E-002   5.5785917164213349E-002   0.0000000000000000     
   7.9919402713613964E-003   3.5270552792274527E-002   0.0000000000000000     
   8.6347269935384639E-003   4.0027136666597400E-002   0.0000000000000000     
   9.2621516210946164E-003   4.4997896684671822E-002   0.0000000000000000     
   9.8742141540298523E-003   5.0182832846497771E-002   0.0000000000000000     
   1.0470914592344177E-002   5.5581945152075256E-002   0.0000000000000000     
   5.3020055587442846E-003   3.5125228917965712E-002   0.0000000000000000     
   5.7278497900977452E-003   3.9879514709794631E-002   0.0000000000000000     
   6.1443262335060932E-003   4.4849467153618164E-002   0.0000000000000000     
   6.5514348889693262E-003   5.0035086249436277E-002   0.0000000000000000     
   6.9491757564874475E-003   5.5436371997248997E-002   0.0000000000000000     
   2.6379688685779909E-003   3.5038246987688815E-002   0.0000000000000000     
   2.8494383613002451E-003   3.9791252649945846E-002   0.0000000000000000     
   3.0566528465069917E-003   4.4760746322705811E-002   0.0000000000000000     
   3.2596123241982289E-003   4.9946728005968735E-002   0.0000000000000000     
   3.4583167943739593E-003   5.5349197699734586E-002   0.0000000000000000     
  -1.6979913749050682E-007   3.5009607001443843E-002   0.0000000000000000     
  -5.0729285403883044E-007   3.9762350487051026E-002   0.0000000000000000     
  -8.6853990268896848E-007   4.4731734191934783E-002   0.0000000000000000     
  -1.2535402834371804E-006   4.9917758116095112E-002   0.0000000000000000     
  -1.6622939962868816E-006   5.5320422259532015E-002   0.0000000000000000     
   1.4023533301944150E-002   5.5785917164213349E-002   0.0000000000000000     
   1.4796175111568388E-002   6.1380230262269742E-002   0.0000000000000000     
   1.5545172102855342E-002   6.7159254336544891E-002   0.0000000000000000     
   1.6270524275805005E-002   7.3122989387038775E-002   0.0000000000000000     
   1.6972231630417389E-002   7.9271435413751382E-002   0.0000000000000000     
   1.0470914592344177E-002   5.5581945152075256E-002   0.0000000000000000     
   1.1050899847671150E-002   6.1180740202286692E-002   0.0000000000000000     
   1.1612816831644328E-002   6.6964724598014530E-002   0.0000000000000000     
   1.2156665544263721E-002   7.2933898339258757E-002   0.0000000000000000     
   1.2682445985529322E-002   7.9088261426019379E-002   0.0000000000000000     
   6.9491757564874475E-003   5.5436371997248997E-002   0.0000000000000000     
   7.3361093372535102E-003   6.1038250122353081E-002   0.0000000000000000     
   7.7107961324605744E-003   6.6825646350045328E-002   0.0000000000000000     
   8.0732361421086366E-003   7.2798560680325697E-002   0.0000000000000000     
   8.4234293661976985E-003   7.8956993113194235E-002   0.0000000000000000     
   3.4583167943739593E-003   5.5349197699734586E-002   0.0000000000000000     
   3.6518035803154761E-003   6.0952760022468917E-002   0.0000000000000000     
   3.8391100053040751E-003   6.6742019592637258E-002   0.0000000000000000     
   4.0202360693397578E-003   7.2716976410239595E-002   0.0000000000000000     
   4.1951817724225227E-003   7.8877630475275934E-002   0.0000000000000000     
  -1.6622939962868816E-006   5.5320422259532015E-002   0.0000000000000000     
  -2.0174231429564288E-006   6.0924269902634186E-002   0.0000000000000000     
  -2.2415498251664558E-006   6.6713844325790334E-002   0.0000000000000000     
  -2.3346740429181824E-006   7.2689145529000437E-002   0.0000000000000000     
  -2.2967957962085998E-006   7.8850173512264504E-002   0.0000000000000000     
   1.6972231630417389E-002   7.9271435413751382E-002   0.0000000000000000     
   1.7648181797887685E-002   8.5591399314670094E-002   0.0000000000000000     
   1.8296262409411103E-002   9.2069687987782201E-002   0.0000000000000000     
   1.8916473464987642E-002   9.8706301433087715E-002   0.0000000000000000     
   1.9508814964617295E-002  0.10550123965058664        0.0000000000000000     
   1.2682445985529322E-002   7.9088261426019379E-002   0.0000000000000000     
   1.3188807811897033E-002   8.5414498226457414E-002   0.0000000000000000     
   1.3674400679822760E-002   9.1899293108733876E-002   0.0000000000000000     
   1.4139224589306507E-002   9.8542646072848794E-002   0.0000000000000000     
   1.4583279540348267E-002  0.10534455711880217        0.0000000000000000     
   8.4234293661976985E-003   7.8956993113194235E-002   0.0000000000000000     
   8.7606092195386918E-003   8.5287615113290763E-002   0.0000000000000000     
   9.0840091169425482E-003   9.1777098145255226E-002   0.0000000000000000     
   9.3936290584092710E-003   9.8425442209087569E-002   0.0000000000000000     
   9.6894690439388569E-003  0.10523264730478783        0.0000000000000000     
   4.1951817724225227E-003   7.8877630475275934E-002   0.0000000000000000     
   4.3635860208126606E-003   8.5210749975170183E-002   0.0000000000000000     
   4.5250877207704647E-003   9.1703103097346195E-002   0.0000000000000000     
   4.6796868722959331E-003   9.8354689841804011E-002   0.0000000000000000     
   4.8273834753890677E-003  0.10516551020854363        0.0000000000000000     
  -2.2967957962085998E-006   7.8850173512264504E-002   0.0000000000000000     
  -2.2617842810595135E-006   8.5183902812095619E-002   0.0000000000000000     
  -2.3635086934926204E-006   9.1677307965006838E-002   0.0000000000000000     
  -2.6019690335055080E-006   9.8330388970998134E-002   0.0000000000000000     
  -2.9771653010999925E-006  0.10514314583006955        0.0000000000000000     
   1.9508814964617295E-002  0.10550123965058664        0.0000000000000000     
   2.0075697829386317E-002  0.11244500152868570        0.0000000000000000     
   2.0619532980380929E-002  0.11952808595579165        0.0000000000000000     
   2.1140320417601149E-002  0.12675049293190443        0.0000000000000000     
   2.1638060141046963E-002  0.13411222245702409        0.0000000000000000     
   1.4583279540348267E-002  0.10534455711880217        0.0000000000000000     
   1.5008146822716445E-002  0.11229527685525209        0.0000000000000000     
   1.5415407726179449E-002  0.11938505589085673        0.0000000000000000     
   1.5805062250737273E-002  0.12661389422561603        0.0000000000000000     
   1.6177110396389922E-002  0.13398179185953002        0.0000000000000000     
   9.6894690439388569E-003  0.10523264730478783        0.0000000000000000     
   9.9724609808462018E-003  0.11218840544314047        0.0000000000000000     
   1.0243536776446197E-002  0.11928240863493005        0.0000000000000000     
   1.0502696430738844E-002  0.12651465688015653        0.0000000000000000     
   1.0749939943724144E-002  0.13388515017881991        0.0000000000000000     
   4.8273834753890677E-003  0.10516551020854363        0.0000000000000000     
   4.9686403037755775E-003  0.11212438729235090        0.0000000000000000     
   5.1039201311811749E-003  0.11922014418801165        0.0000000000000000     
   5.2332229576058601E-003  0.12645278089552592        0.0000000000000000     
   5.3565487830496339E-003  0.13382229741489371        0.0000000000000000     
  -2.9771653010999925E-006  0.10514314583006955        0.0000000000000000     
  -3.3152084954210601E-006  0.11210322240288327        0.0000000000000000     
  -3.4422096156130465E-006  0.11919826255010151        0.0000000000000000     
  -3.3581686616761144E-006  0.12642826627172424        0.0000000000000000     
  -3.0630856336119443E-006  0.13379323356775147        0.0000000000000000     
   2.1638060141046963E-002  0.13411222245702409        0.0000000000000000     
   2.2108274388437887E-002  0.14159717201331390        0.0000000000000000     
   2.2546485397493422E-002  0.14918923908293724        0.0000000000000000     
   2.2952693168213568E-002  0.15688842366589398        0.0000000000000000     
   2.3326897700598336E-002  0.16469472576218427        0.0000000000000000     
   1.6177110396389922E-002  0.13398179185953002        0.0000000000000000     
   1.6529063211592199E-002  0.14146744821811644        0.0000000000000000     
   1.6858431744798914E-002  0.14904956272689299        0.0000000000000000     
   1.7165215996010064E-002  0.15672813538585970        0.0000000000000000     
   1.7449415965225652E-002  0.16450316619501654        0.0000000000000000     
   1.0749939943724144E-002  0.13388515017881991        0.0000000000000000     
   1.0984202537771085E-002  0.14137141664292835        0.0000000000000000     
   1.1204419435248653E-002  0.14895098438449011        0.0000000000000000     
   1.1410590636156848E-002  0.15662385340350510        0.0000000000000000     
   1.1602716140495670E-002  0.16439002369997341        0.0000000000000000     
   5.3565487830496339E-003  0.13382229741489371        0.0000000000000000     
   5.4736923669745441E-003  0.14130907728774969        0.0000000000000000     
   5.5844484688426371E-003  0.14889350405572857        0.0000000000000000     
   5.6888170886539189E-003  0.15657557771883027        0.0000000000000000     
   5.7867982264083852E-003  0.16435529827705486        0.0000000000000000     
  -3.0630856336119443E-006  0.13379323356775147        0.0000000000000000     
  -2.4673007974283356E-006  0.14128043015258046        0.0000000000000000     
  -1.4811544191305941E-006  0.14887712174060833        0.0000000000000000     
  -1.0464649872384273E-007  0.15658330833183515        0.0000000000000000     
   1.6622229637953609E-006  0.16439898992626087        0.0000000000000000     
   0.0000000000000000        0.0000000000000000        0.0000000000000000     
   4.6663759516743725E-008   1.0733505362114475E-003   0.0000000000000000     
   7.7904728217222368E-008   2.5156220432887796E-003   0.0000000000000000     
   9.3722906101300404E-008   4.3268145212319959E-003   0.0000000000000000     
   9.4118293169248883E-008   6.5069279700410978E-003   0.0000000000000000     
   0.0000000000000000        0.0000000000000000        0.0000000000000000     
  -2.1297463712666051E-004   1.0756362783184170E-003   0.0000000000000000     
  -4.2694352668026786E-004   2.5207766635994967E-003   0.0000000000000000     
  -6.4190666866082195E-004   4.3354211558432392E-003   0.0000000000000000     
  -8.5786406306832309E-004   6.5195697550496437E-003   0.0000000000000000     
   0.0000000000000000        0.0000000000000000        0.0000000000000000     
  -4.2426820642155958E-004   1.0825012230346338E-003   0.0000000000000000     
  -8.5298326144334546E-004   2.5362420135425245E-003   0.0000000000000000     
  -1.2861451650653579E-003   4.3612223715236709E-003   0.0000000000000000     
  -1.7237539172875965E-003   6.5574422969780742E-003   0.0000000000000000     
   0.0000000000000000        0.0000000000000000        0.0000000000000000     
  -6.3383404412518040E-004   1.0939453703600985E-003   0.0000000000000000     
  -1.2780412995610157E-003   2.5620180931178629E-003   0.0000000000000000     
  -1.9326217663075064E-003   4.4042181682732917E-003   0.0000000000000000     
  -2.5975754443646514E-003   6.6205455958263885E-003   0.0000000000000000     
   0.0000000000000000        0.0000000000000000        0.0000000000000000     
  -8.4167215023752285E-004   1.1099687202948108E-003   0.0000000000000000     
  -1.7021176410332785E-003   2.5981049023255120E-003   0.0000000000000000     
  -2.5813364723872669E-003   4.4644085460921034E-003   0.0000000000000000     
  -3.4793286442994877E-003   6.7088796515945848E-003   0.0000000000000000     
   9.4118293169248883E-008   6.5069279700410978E-003   0.0000000000000000     
   1.0027768234092298E-007   9.0285765503460378E-003   0.0000000000000000     
   1.3338786653611690E-007   1.1864374422776771E-002   0.0000000000000000     
   1.9344884575537781E-007   1.5014321587333295E-002   0.0000000000000000     
   2.8046061999816192E-007   1.8478418044015611E-002   0.0000000000000000     
  -8.5786406306832309E-004   6.5195697550496437E-003   0.0000000000000000     
  -1.0759824278704726E-003   9.0452048479689375E-003   0.0000000000000000     
  -1.2974284810349718E-003   1.1884308821351343E-002   0.0000000000000000     
  -1.5222022225618219E-003   1.5036881675196864E-002   0.0000000000000000     
  -1.7503036524510220E-003   1.8502923409505496E-002   0.0000000000000000     
  -1.7237539172875965E-003   6.5574422969780742E-003   0.0000000000000000     
  -2.1660026013520361E-003   9.0950142465938341E-003   0.0000000000000000     
  -2.6130843005006490E-003   1.1944050677059059E-002   0.0000000000000000     
  -3.0649990147334364E-003   1.5104551588373739E-002   0.0000000000000000     
  -3.5217467440503986E-003   1.8576516980537885E-002   0.0000000000000000     
  -2.5975754443646514E-003   6.6205455958263885E-003   0.0000000000000000     
  -3.2699602427623490E-003   9.1780047462207311E-003   0.0000000000000000     
  -3.9468340705304935E-003   1.2043599989899907E-002   0.0000000000000000     
  -4.6281969276690885E-003   1.5217331326863920E-002   0.0000000000000000     
  -5.3140488141781303E-003   1.8699198757112765E-002   0.0000000000000000     
  -3.4793286442994877E-003   6.7088796515945848E-003   0.0000000000000000     
  -4.3878553521014127E-003   9.2941763468496284E-003   0.0000000000000000     
  -5.2986777911245087E-003   1.2182956759873902E-002   0.0000000000000000     
  -6.2117959613687771E-003   1.5375220890667408E-002   0.0000000000000000     
  -7.1272098628342188E-003   1.8870968739230144E-002   0.0000000000000000     
   2.8046061999816192E-007   1.8478418044015611E-002   0.0000000000000000     
   3.2768476397116494E-007   2.2227495680913784E-002   0.0000000000000000     
   2.6838285238081150E-007   2.6232386386117888E-002   0.0000000000000000     
   1.0255488522727780E-007   3.0493090159627905E-002   0.0000000000000000     
  -1.6979913749050682E-007   3.5009607001443843E-002   0.0000000000000000     
  -1.7503036524510220E-003   1.8502923409505496E-002   0.0000000000000000     
  -1.9781208347244999E-003   2.2253517973767713E-002   0.0000000000000000     
  -2.2020418334041843E-003   2.6259749317473966E-002   0.0000000000000000     
  -2.4220666484900746E-003   3.0521617440624271E-002   0.0000000000000000     
  -2.6381952799821714E-003   3.5039122343218619E-002   0.0000000000000000     
  -3.5217467440503986E-003   1.8576516980537885E-002   0.0000000000000000     
  -3.9773790257875384E-003   2.2331670793508479E-002   0.0000000000000000     
  -4.4259473972808657E-003   2.6341736967242527E-002   0.0000000000000000     
  -4.8674518585303753E-003   3.0606715501740028E-002   0.0000000000000000     
  -5.3018924095360725E-003   3.5126606397000971E-002   0.0000000000000000     
  -5.3140488141781303E-003   1.8699198757112765E-002   0.0000000000000000     
  -5.9974468884251460E-003   2.2461954140136093E-002   0.0000000000000000     
  -6.6714483087776614E-003   2.6478349335423559E-002   0.0000000000000000     
  -7.3360530752356766E-003   3.0748384342975162E-002   0.0000000000000000     
  -7.9912611877991889E-003   3.5272059162790907E-002   0.0000000000000000     
  -7.1272098628342188E-003   1.8870968739230144E-002   0.0000000000000000     
  -8.0383244226373222E-003   2.2644368013650547E-002   0.0000000000000000     
  -8.9385445678945730E-003   2.6669586422017069E-002   0.0000000000000000     
  -9.8278702986059722E-003   3.0946623964329695E-002   0.0000000000000000     
  -1.0706301614771523E-002   3.5475480640588433E-002   0.0000000000000000     
  -1.6979913749050682E-007   3.5009607001443843E-002   0.0000000000000000     
  -5.0729285403883044E-007   3.9762350487051026E-002   0.0000000000000000     
  -8.6853990268896848E-007   4.4731734191934783E-002   0.0000000000000000     
  -1.2535402834371804E-006   4.9917758116095112E-002   0.0000000000000000     
  -1.6622939962868816E-006   5.5320422259532015E-002   0.0000000000000000     
  -2.6381952799821714E-003   3.5039122343218619E-002   0.0000000000000000     
  -2.8502650225940176E-003   3.9792521458641247E-002   0.0000000000000000     
  -3.0581131710391528E-003   4.4762072220276422E-002   0.0000000000000000     
  -3.2617397253175777E-003   4.9947774628124116E-002   0.0000000000000000     
  -3.4611446854292925E-003   5.5349628682184342E-002   0.0000000000000000     
  -5.3018924095360725E-003   3.5126606397000971E-002   0.0000000000000000     
  -5.7281126781486003E-003   3.9881478802247586E-002   0.0000000000000000     
  -6.1449562922186087E-003   4.4851401866702063E-002   0.0000000000000000     
  -6.5524232517460944E-003   5.0036375590364418E-002   0.0000000000000000     
  -6.9505135567310616E-003   5.5436399973234643E-002   0.0000000000000000     
  -7.9912611877991889E-003   3.5272059162790907E-002   0.0000000000000000     
  -8.6340502595177865E-003   4.0029222517870014E-002   0.0000000000000000     
  -9.2613979034410557E-003   4.4999723131211727E-002   0.0000000000000000     
  -9.8733041195689861E-003   5.0183561002816034E-002   0.0000000000000000     
  -1.0469768907901593E-002   5.5580736132682912E-002   0.0000000000000000     
  -1.0706301614771523E-002   3.5475480640588433E-002   0.0000000000000000     
  -1.1568077766701578E-002   4.0235752605508560E-002   0.0000000000000000     
  -1.2407438004706490E-002   4.5207036013805400E-002   0.0000000000000000     
  -1.3224382328786260E-002   5.0389330865478935E-002   0.0000000000000000     
  -1.4018910738940885E-002   5.5782637160529169E-002   0.0000000000000000     
  -1.6622939962868816E-006   5.5320422259532015E-002   0.0000000000000000     
  -2.0174231429564288E-006   6.0924269902634186E-002   0.0000000000000000     
  -2.2415498251664558E-006   6.6713844325790334E-002   0.0000000000000000     
  -2.3346740429181824E-006   7.2689145529000437E-002   0.0000000000000000     
  -2.2967957962085998E-006   7.8850173512264504E-002   0.0000000000000000     
  -3.4611446854292925E-003   5.5349628682184342E-002   0.0000000000000000     
  -3.6552308296701262E-003   6.0952397333643271E-002   0.0000000000000000     
  -3.8429009363359031E-003   6.6740843533687061E-002   0.0000000000000000     
  -4.0241550054266242E-003   7.2714967282315690E-002   0.0000000000000000     
  -4.1989930369422867E-003   7.8874768579529173E-002   0.0000000000000000     
  -6.9505135567310616E-003   5.5436399973234643E-002   0.0000000000000000     
  -7.3377137958143702E-003   6.1036759886290551E-002   0.0000000000000000     
  -7.7125105576368817E-003   6.6822740200509947E-002   0.0000000000000000     
  -8.0749038421985917E-003   7.2794340915892833E-002   0.0000000000000000     
  -8.4248936494995073E-003   7.8951562032439179E-002   0.0000000000000000     
  -1.0469768907901593E-002   5.5580736132682912E-002   0.0000000000000000     
  -1.1049466321575687E-002   6.1177357560576039E-002   0.0000000000000000     
  -1.1611070413728100E-002   6.6959534326259007E-002   0.0000000000000000     
  -1.2154581184358828E-002   7.2927266429731810E-002   0.0000000000000000     
  -1.2679998633467870E-002   7.9080553870994483E-002   0.0000000000000000     
  -1.4018910738940885E-002   5.5782637160529169E-002   0.0000000000000000     
  -1.4790488406954082E-002   6.1374190356499714E-002   0.0000000000000000     
  -1.5538580504609562E-002   6.7151225910934226E-002   0.0000000000000000     
  -1.6263187031907326E-002   7.3113743823832691E-002   0.0000000000000000     
  -1.6964307988847373E-002   7.9261744095195125E-002   0.0000000000000000     
  -2.2967957962085998E-006   7.8850173512264504E-002   0.0000000000000000     
  -2.2617842810595135E-006   8.5183902812095619E-002   0.0000000000000000     
  -2.3635086934926204E-006   9.1677307965006838E-002   0.0000000000000000     
  -2.6019690335055080E-006   9.8330388970998134E-002   0.0000000000000000     
  -2.9771653010999925E-006  0.10514314583006955        0.0000000000000000     
  -4.1989930369422867E-003   7.8874768579529173E-002   0.0000000000000000     
  -4.3672994246813906E-003   8.5207393702184192E-002   0.0000000000000000     
  -4.5289585624424308E-003   9.1699988927137363E-002   0.0000000000000000     
  -4.6839704502254047E-003   9.8352554254388727E-002   0.0000000000000000     
  -4.8323350880303123E-003  0.10516508968393827        0.0000000000000000     
  -8.4248936494995073E-003   7.8951562032439179E-002   0.0000000000000000     
  -8.7618921293272541E-003   8.5281542723552942E-002   0.0000000000000000     
  -9.0853114314694578E-003   9.1771422162638075E-002   0.0000000000000000     
  -9.3951515559261168E-003   9.8421200349694565E-002   0.0000000000000000     
  -9.6914125026972345E-003  0.10523087728472240        0.0000000000000000     
  -1.2679998633467870E-002   7.9080553870994483E-002   0.0000000000000000     
  -1.3186039898218645E-002   8.5406349876201923E-002   0.0000000000000000     
  -1.3671422115774571E-002   9.1891607671508946E-002   0.0000000000000000     
  -1.4136145286135647E-002   9.8536327256915635E-002   0.0000000000000000     
  -1.4580209409301869E-002  0.10534050863242193        0.0000000000000000     
  -1.6964307988847373E-002   7.9261744095195125E-002   0.0000000000000000     
  -1.7639742731355570E-002   8.5581815160131053E-002   0.0000000000000000     
  -1.8287290615357773E-002   9.2060545453749976E-002   0.0000000000000000     
  -1.8906951640853986E-002   9.8697934976051935E-002   0.0000000000000000     
  -1.9498725807844213E-002  0.10549398372703690        0.0000000000000000     
  -2.9771653010999925E-006  0.10514314583006955        0.0000000000000000     
  -3.3152084954210601E-006  0.11210322240288327        0.0000000000000000     
  -3.4422096156130465E-006  0.11919826255010151        0.0000000000000000     
  -3.3581686616761144E-006  0.12642826627172424        0.0000000000000000     
  -3.0630856336119443E-006  0.13379323356775147        0.0000000000000000     
  -4.8323350880303123E-003  0.10516508968393827        0.0000000000000000     
  -4.9741990487461819E-003  0.11212425600023387        0.0000000000000000     
  -5.1097089052620399E-003  0.11921671398772347        0.0000000000000000     
  -5.2388646575778847E-003  0.12644246364640707        0.0000000000000000     
  -5.3616663056937136E-003  0.13380150497628465        0.0000000000000000     
  -9.6914125026972345E-003  0.10523087728472240        0.0000000000000000     
  -9.9748047097560927E-003  0.11218683330989893        0.0000000000000000     
  -1.0246038615075974E-002  0.11927544876740147        0.0000000000000000     
  -1.0505114218656873E-002  0.12649672365723008        0.0000000000000000     
  -1.0752031520498794E-002  0.13385065797938470        0.0000000000000000     
  -1.4580209409301869E-002  0.10534050863242193        0.0000000000000000     
  -1.5005132191525154E-002  0.11229095433187838        0.0000000000000000     
  -1.5412431339057413E-002  0.11937446688913550        0.0000000000000000     
  -1.5802106851898642E-002  0.12659104630419324        0.0000000000000000     
  -1.6174158730048849E-002  0.13394069257705168        0.0000000000000000     
  -1.9498725807844213E-002  0.10549398372703690        0.0000000000000000     
  -2.0065181494053362E-002  0.11243661906617229        0.0000000000000000     
  -2.0608887077206359E-002  0.11951376835292553        0.0000000000000000     
  -2.1129842557303199E-002  0.12672543158729660        0.0000000000000000     
  -2.1628047934343881E-002  0.13407160876928551        0.0000000000000000     
  -3.0630856336119443E-006  0.13379323356775147        0.0000000000000000     
  -2.4673007974283356E-006  0.14128043015258046        0.0000000000000000     
  -1.4811544191305941E-006  0.14887712174060833        0.0000000000000000     
  -1.0464649872384273E-007  0.15658330833183515        0.0000000000000000     
   1.6622229637953609E-006  0.16439898992626087        0.0000000000000000     
  -5.3616663056937136E-003  0.13380150497628465        0.0000000000000000     
  -5.4777356572589878E-003  0.14128802893981796        0.0000000000000000     
  -5.5866945199231554E-003  0.14889622649946871        0.0000000000000000     
  -5.6885428936862201E-003  0.15662609765523691        0.0000000000000000     
  -5.7832807785481808E-003  0.16447764240712259        0.0000000000000000     
  -1.0752031520498794E-002  0.13385065797938470        0.0000000000000000     
  -1.0985571894124293E-002  0.14133442735185958        0.0000000000000000     
  -1.1204516713055935E-002  0.14894520739264897        0.0000000000000000     
  -1.1408865977293712E-002  0.15668299810175282        0.0000000000000000     
  -1.1598619686837628E-002  0.16454779947917111        0.0000000000000000     
  -1.6174158730048849E-002  0.13394069257705168        0.0000000000000000     
  -1.6525976011393349E-002  0.14141962538870539        0.0000000000000000     
  -1.6854947733817464E-002  0.14902406442014909        0.0000000000000000     
  -1.7161073897321195E-002  0.15675400967138278        0.0000000000000000     
  -1.7444354501904544E-002  0.16460946114240646        0.0000000000000000     
  -2.1628047934343881E-002  0.13407160876928551        0.0000000000000000     
  -2.2098948009066154E-002  0.14154362305035534        0.0000000000000000     
  -2.2537987582207753E-002  0.14913279758196910        0.0000000000000000     
  -2.2945166653768678E-002  0.15683913236412689        0.0000000000000000     
  -2.3320485223748931E-002  0.16466262739682863        0.0000000000000000     
   0.0000000000000000        0.0000000000000000        0.0000000000000000     
  -8.4167215023752285E-004   1.1099687202948108E-003   0.0000000000000000     
  -1.7021176410332785E-003   2.5981049023255120E-003   0.0000000000000000     
  -2.5813364723872669E-003   4.4644085460921034E-003   0.0000000000000000     
  -3.4793286442994877E-003   6.7088796515945848E-003   0.0000000000000000     
   0.0000000000000000        0.0000000000000000        0.0000000000000000     
  -1.0566946935994404E-003   1.1341319151682463E-003   0.0000000000000000     
  -2.1397600951260703E-003   2.6503513558507582E-003   0.0000000000000000     
  -3.2491962045798906E-003   4.5486583220475350E-003   0.0000000000000000     
  -4.3850030219609011E-003   6.8290528137585791E-003   0.0000000000000000     
   0.0000000000000000        0.0000000000000000        0.0000000000000000     
  -1.2878138430517866E-003   1.1699955973098807E-003   0.0000000000000000     
  -2.6055164711053288E-003   2.7246063683788882E-003   0.0000000000000000     
  -3.9531078841606275E-003   4.6638323132070217E-003   0.0000000000000000     
  -5.3305880822176813E-003   6.9876734317942824E-003   0.0000000000000000     
   0.0000000000000000        0.0000000000000000        0.0000000000000000     
  -1.5350295985945611E-003   1.2175597667197142E-003   0.0000000000000000     
  -3.0993867689710530E-003   2.8208699399099014E-003   0.0000000000000000     
  -4.6930715111294773E-003   4.8099305195705615E-003   0.0000000000000000     
  -6.3160838250698337E-003   7.1847415057016946E-003   0.0000000000000000     
   0.0000000000000000        0.0000000000000000        0.0000000000000000     
  -1.7983419602277640E-003   1.2768244233977467E-003   0.0000000000000000     
  -3.6213709887232444E-003   2.9391420704437989E-003   0.0000000000000000     
  -5.4690870854864401E-003   4.9869529411381555E-003   0.0000000000000000     
  -7.3414902505173534E-003   7.4202570354808175E-003   0.0000000000000000     
  -3.4793286442994877E-003   6.7088796515945848E-003   0.0000000000000000     
  -4.3878553521014127E-003   9.2941763468496284E-003   0.0000000000000000     
  -5.2986777911245087E-003   1.2182956759873902E-002   0.0000000000000000     
  -6.2117959613687771E-003   1.5375220890667408E-002   0.0000000000000000     
  -7.1272098628342188E-003   1.8870968739230144E-002   0.0000000000000000     
  -4.3850030219609011E-003   6.8290528137585791E-003   0.0000000000000000     
  -5.5341944949937648E-003   9.4495266724161069E-003   0.0000000000000000     
  -6.6837845714031495E-003   1.2368071739452336E-002   0.0000000000000000     
  -7.8337732511890544E-003   1.5584688014867275E-002   0.0000000000000000     
  -8.9841605343514794E-003   1.9099375498660909E-002   0.0000000000000000     
  -5.3305880822176813E-003   6.9876734317942824E-003   0.0000000000000000     
  -6.7234842370639458E-003   9.6500533468557546E-003   0.0000000000000000     
  -8.1173235204868768E-003   1.2604895681106520E-002   0.0000000000000000     
  -9.5121059324864699E-003   1.5852200434546590E-002   0.0000000000000000     
  -1.0907831473062731E-002   1.9391967607175955E-002   0.0000000000000000     
  -6.3160838250698337E-003   7.1847415057016946E-003   0.0000000000000000     
  -7.9557245783119564E-003   9.8957563701685680E-003   0.0000000000000000     
  -9.5992946383756887E-003   1.2893428584836457E-002   0.0000000000000000     
  -1.1246794005261029E-002   1.6177758149705356E-002   0.0000000000000000     
  -1.2898222678967971E-002   1.9748745064775270E-002   0.0000000000000000     
  -7.3414902505173534E-003   7.4202570354808175E-003   0.0000000000000000     
  -9.2309155187377968E-003   1.0186635742354557E-002   0.0000000000000000     
  -1.1129697925069586E-002   1.3233670450642141E-002   0.0000000000000000     
  -1.3037837469512720E-002   1.6561361160343575E-002   0.0000000000000000     
  -1.4955334152067205E-002   2.0169707871458858E-002   0.0000000000000000     
  -7.1272098628342188E-003   1.8870968739230144E-002   0.0000000000000000     
  -8.0383244226373222E-003   2.2644368013650547E-002   0.0000000000000000     
  -8.9385445678945730E-003   2.6669586422017069E-002   0.0000000000000000     
  -9.8278702986059722E-003   3.0946623964329695E-002   0.0000000000000000     
  -1.0706301614771523E-002   3.5475480640588433E-002   0.0000000000000000     
  -8.9841605343514794E-003   1.9099375498660909E-002   0.0000000000000000     
  -1.0127944667240339E-002   2.2887337602521519E-002   0.0000000000000000     
  -1.1258123896205540E-002   2.6923777738137363E-002   0.0000000000000000     
  -1.2374698221247085E-002   3.1208695905508441E-002   0.0000000000000000     
  -1.3477667642364972E-002   3.5742092104634755E-002   0.0000000000000000     
  -1.0907831473062731E-002   1.9391967607175955E-002   0.0000000000000000     
  -1.2294240661050471E-002   2.3199288095218658E-002   0.0000000000000000     
  -1.3661074015284498E-002   2.7249252794898760E-002   0.0000000000000000     
  -1.5008331535764818E-002   3.1541861706216243E-002   0.0000000000000000     
  -1.6336013222491431E-002   3.6077114829171114E-002   0.0000000000000000     
  -1.2898222678967971E-002   1.9748745064775270E-002   0.0000000000000000     
  -1.4537212404067718E-002   2.3580219491741973E-002   0.0000000000000000     
  -1.6147394925131456E-002   2.7646011592301248E-002   0.0000000000000000     
  -1.7728770242159179E-002   3.1946121366453091E-002   0.0000000000000000     
  -1.9281338355150893E-002   3.6480548814197510E-002   0.0000000000000000     
  -1.4955334152067205E-002   2.0169707871458858E-002   0.0000000000000000     
  -1.6856859896292077E-002   2.4030131792091455E-002   0.0000000000000000     
  -1.8717086625746397E-002   2.8114054130344835E-002   0.0000000000000000     
  -2.0536014340430161E-002   3.2421474886219000E-002   0.0000000000000000     
  -2.2313643040343369E-002   3.6952394059713935E-002   0.0000000000000000     
  -1.0706301614771523E-002   3.5475480640588433E-002   0.0000000000000000     
  -1.1568077766701578E-002   4.0235752605508560E-002   0.0000000000000000     
  -1.2407438004706490E-002   4.5207036013805400E-002   0.0000000000000000     
  -1.3224382328786260E-002   5.0389330865478935E-002   0.0000000000000000     
  -1.4018910738940885E-002   5.5782637160529169E-002   0.0000000000000000     
  -1.3477667642364972E-002   3.5742092104634755E-002   0.0000000000000000     
  -1.4559073035349883E-002   4.0504095349258099E-002   0.0000000000000000     
  -1.5610955275992494E-002   4.5474834653120251E-002   0.0000000000000000     
  -1.6633314364292804E-002   5.0654310016221213E-002   0.0000000000000000     
  -1.7626150300250814E-002   5.6042521438560998E-002   0.0000000000000000     
  -1.6336013222491431E-002   3.6077114829171114E-002   0.0000000000000000     
  -1.7635913901112611E-002   4.0837277033213486E-002   0.0000000000000000     
  -1.8899828397276639E-002   4.5804613187793407E-002   0.0000000000000000     
  -2.0127756710983522E-002   5.0979123292910933E-002   0.0000000000000000     
  -2.1319698842233257E-002   5.6360807348566015E-002   0.0000000000000000     
  -1.9281338355150893E-002   3.6480548814197510E-002   0.0000000000000000     
  -2.0798600363989762E-002   4.1235297657374707E-002   0.0000000000000000     
  -2.2274057368558933E-002   4.6196371617824895E-002   0.0000000000000000     
  -2.3707709368858420E-002   5.1363770695548087E-002   0.0000000000000000     
  -2.5099556364888208E-002   5.6737494890544263E-002   0.0000000000000000     
  -2.2313643040343369E-002   3.6952394059713935E-002   0.0000000000000000     
  -2.4047132423981335E-002   4.1698157221741798E-002   0.0000000000000000     
  -2.5733642189839374E-002   4.6650109943214703E-002   0.0000000000000000     
  -2.7373172337917490E-002   5.1808252224132677E-002   0.0000000000000000     
  -2.8965722868215679E-002   5.7172584064495699E-002   0.0000000000000000     
  -1.4018910738940885E-002   5.5782637160529169E-002   0.0000000000000000     
  -1.4790488406954082E-002   6.1374190356499714E-002   0.0000000000000000     
  -1.5538580504609562E-002   6.7151225910934226E-002   0.0000000000000000     
  -1.6263187031907326E-002   7.3113743823832691E-002   0.0000000000000000     
  -1.6964307988847373E-002   7.9261744095195125E-002   0.0000000000000000     
  -1.7626150300250814E-002   5.6042521438560998E-002   0.0000000000000000     
  -1.8589749619810296E-002   6.1627683438289282E-002   0.0000000000000000     
  -1.9524398858915007E-002   6.7398010533555722E-002   0.0000000000000000     
  -2.0430098017564964E-002   7.3353502724360364E-002   0.0000000000000000     
  -2.1306847095760150E-002   7.9494160010703155E-002   0.0000000000000000     
  -2.1319698842233257E-002   5.6360807348566015E-002   0.0000000000000000     
  -2.2476219528005065E-002   6.1938261970172347E-002   0.0000000000000000     
  -2.3597883505278184E-002   6.7700083773143543E-002   0.0000000000000000     
  -2.4684690774052609E-002   7.3646272757479633E-002   0.0000000000000000     
  -2.5736641334328337E-002   7.9776828923180623E-002   0.0000000000000000     
  -2.5099556364888208E-002   5.6737494890544263E-002   0.0000000000000000     
  -2.6449898131538398E-002   6.2305925952148969E-002   0.0000000000000000     
  -2.7759034443699086E-002   6.8057445629697746E-002   0.0000000000000000     
  -2.9026965301370267E-002   7.3992053923190609E-002   0.0000000000000000     
  -3.0253690704551934E-002   8.0109750832627516E-002   0.0000000000000000     
  -2.8965722868215679E-002   5.7172584064495699E-002   0.0000000000000000     
  -3.0510785430410300E-002   6.2730675384219114E-002   0.0000000000000000     
  -3.2007851674177711E-002   6.8470096103218289E-002   0.0000000000000000     
  -3.3456921599517929E-002   7.4390846221493195E-002   0.0000000000000000     
  -3.4857995206430938E-002   8.0492925739043847E-002   0.0000000000000000     
  -1.6964307988847373E-002   7.9261744095195125E-002   0.0000000000000000     
  -1.7639742731355570E-002   8.5581815160131053E-002   0.0000000000000000     
  -1.8287290615357773E-002   9.2060545453749976E-002   0.0000000000000000     
  -1.8906951640853986E-002   9.8697934976051935E-002   0.0000000000000000     
  -1.9498725807844213E-002  0.10549398372703690        0.0000000000000000     
  -2.1306847095760150E-002   7.9494160010703155E-002   0.0000000000000000     
  -2.2151606275420149E-002   8.5806336048143625E-002   0.0000000000000000     
  -2.2961335738464504E-002   9.2276384492241181E-002   0.0000000000000000     
  -2.3736035484893243E-002   9.8904305342995907E-002   0.0000000000000000     
  -2.4475705514706337E-002  0.10569009860040771        0.0000000000000000     
  -2.5736641334328337E-002   7.9776828923180623E-002   0.0000000000000000     
  -2.6750236177094502E-002   8.6078310013042822E-002   0.0000000000000000     
  -2.7721976293340223E-002   9.2537273769862607E-002   0.0000000000000000     
  -2.8651861683065501E-002   9.9153720193639924E-002   0.0000000000000000     
  -2.9539892346270327E-002  0.10592764928437486        0.0000000000000000     
  -3.0253690704551934E-002   8.0109750832627516E-002   0.0000000000000000     
  -3.1435632436378640E-002   8.6397737054828658E-002   0.0000000000000000     
  -3.2569212279984910E-002   9.2843213286614171E-002   0.0000000000000000     
  -3.3654430235370764E-002   9.9446179527984041E-002   0.0000000000000000     
  -3.4691286302536178E-002  0.10620663577893828        0.0000000000000000     
  -3.4857995206430938E-002   8.0492925739043847E-002   0.0000000000000000     
  -3.6207795053272554E-002   8.6764617173501132E-002   0.0000000000000000     
  -3.7503043698398582E-002   9.3194203042495913E-002   0.0000000000000000     
  -3.8743741141809028E-002   9.9781683346028216E-002   0.0000000000000000     
  -3.9929887383503886E-002  0.10652705808409801        0.0000000000000000     
  -1.9498725807844213E-002  0.10549398372703690        0.0000000000000000     
  -2.0065181494053362E-002  0.11243661906617229        0.0000000000000000     
  -2.0608887077206359E-002  0.11951376835292553        0.0000000000000000     
  -2.1129842557303199E-002  0.12672543158729660        0.0000000000000000     
  -2.1628047934343881E-002  0.13407160876928551        0.0000000000000000     
  -2.4475705514706337E-002  0.10569009860040771        0.0000000000000000     
  -2.5183967142612094E-002  0.11262285635227777        0.0000000000000000     
  -2.5864441683318799E-002  0.11969167068640710        0.0000000000000000     
  -2.6517129136826443E-002  0.12689654160279573        0.0000000000000000     
  -2.7142029503135028E-002  0.13423746910144368        0.0000000000000000     
  -2.9539892346270327E-002  0.10592764928437486        0.0000000000000000     
  -3.0390503662472725E-002  0.11284869502969193        0.0000000000000000     
  -3.1208131011190712E-002  0.11990649141721575        0.0000000000000000     
  -3.1992774392424275E-002  0.12710103844694634        0.0000000000000000     
  -3.2744433806173416E-002  0.13443233611888367        0.0000000000000000     
  -3.4691286302536178E-002  0.10620663577893828        0.0000000000000000     
  -3.5684791053635256E-002  0.11311413509841481        0.0000000000000000     
  -3.6639955060822099E-002  0.12015823054535149        0.0000000000000000     
  -3.7556778324096700E-002  0.12733892211974834        0.0000000000000000     
  -3.8435260843459045E-002  0.13465620982160542        0.0000000000000000     
  -3.9929887383503886E-002  0.10652705808409801        0.0000000000000000     
  -4.1066829316099694E-002  0.11341917655844637        0.0000000000000000     
  -4.2159913832212965E-002  0.12044688807081430        0.0000000000000000     
  -4.3209140931843706E-002  0.12761019262120182        0.0000000000000000     
  -4.4214510614991924E-002  0.13490909020960895        0.0000000000000000     
  -2.1628047934343881E-002  0.13407160876928551        0.0000000000000000     
  -2.2098948009066154E-002  0.14154362305035534        0.0000000000000000     
  -2.2537987582207753E-002  0.14913279758196910        0.0000000000000000     
  -2.2945166653768678E-002  0.15683913236412689        0.0000000000000000     
  -2.3320485223748931E-002  0.16466262739682863        0.0000000000000000     
  -2.7142029503135028E-002  0.13423746910144368        0.0000000000000000     
  -2.7732635492226758E-002  0.14170029781509982        0.0000000000000000     
  -2.8282439814083838E-002  0.14927087237651304        0.0000000000000000     
  -2.8791442468706269E-002  0.15694919278568337        0.0000000000000000     
  -2.9259643456094039E-002  0.16473525904261074        0.0000000000000000     
  -3.2744433806173416E-002  0.13443233611888367        0.0000000000000000     
  -3.3455186065959222E-002  0.14188352716122932        0.0000000000000000     
  -3.4117107985302778E-002  0.14943775430218492        0.0000000000000000     
  -3.4730199564204076E-002  0.15709501754175048        0.0000000000000000     
  -3.5294460802663123E-002  0.16485531687992597        0.0000000000000000     
  -3.8435260843459045E-002  0.13465620982160542        0.0000000000000000     
  -3.9266599730263536E-002  0.14209331108874382        0.0000000000000000     
  -4.0041992095864558E-002  0.14963344335898474        0.0000000000000000     
  -4.0761437940262109E-002  0.15727660663232826        0.0000000000000000     
  -4.1424937263456189E-002  0.16502280090877430        0.0000000000000000     
  -4.4214510614991924E-002  0.13490909020960895        0.0000000000000000     
  -4.5166876485139715E-002  0.14232964959764335        0.0000000000000000     
  -4.6057092145769196E-002  0.14985793954691259        0.0000000000000000     
  -4.6885157596880368E-002  0.15749396005741673        0.0000000000000000     
  -4.7651072838473231E-002  0.16523771112915578        0.0000000000000000     
   0.0000000000000000        0.0000000000000000        0.0000000000000000     
  -1.7983419602277640E-003   1.2768244233977467E-003   0.0000000000000000     
  -3.6213709887232444E-003   2.9391420704437989E-003   0.0000000000000000     
  -5.4690870854864401E-003   4.9869529411381555E-003   0.0000000000000000     
  -7.3414902505173534E-003   7.4202570354808175E-003   0.0000000000000000     
   0.0000000000000000        0.0000000000000000        0.0000000000000000     
  -2.0694721792959979E-003   1.3549127396671468E-003   0.0000000000000000     
  -4.1641101595690008E-003   3.0939451311563699E-003   0.0000000000000000     
  -6.2839139408190081E-003   5.2170971744676699E-003   0.0000000000000000     
  -8.4288835230460196E-003   7.7243688696010454E-003   0.0000000000000000     
   0.0000000000000000        0.0000000000000000        0.0000000000000000     
  -2.3401415071438651E-003   1.4589478878510834E-003   0.0000000000000000     
  -4.7202453107154218E-003   3.2998014932234068E-003   0.0000000000000000     
  -7.1403114107146688E-003   5.5225608161169693E-003   0.0000000000000000     
  -9.6003398071416082E-003   8.1272258565317727E-003   0.0000000000000000     
   0.0000000000000000        0.0000000000000000        0.0000000000000000     
  -2.6103499437713654E-003   1.5889298679495564E-003   0.0000000000000000     
  -5.2897764421625066E-003   3.5567111566449077E-003   0.0000000000000000     
  -8.0382794951734254E-003   5.9033438660860554E-003   0.0000000000000000     
  -1.0855859102804120E-002   8.6288279962729968E-003   0.0000000000000000     
   0.0000000000000000        0.0000000000000000        0.0000000000000000     
  -2.8800974891784984E-003   1.7448586799625658E-003   0.0000000000000000     
  -5.8727035539102570E-003   3.8646741214208749E-003   0.0000000000000000     
  -8.9778181941952730E-003   6.3594463243749266E-003   0.0000000000000000     
  -1.2195441410033552E-002   9.2291752888247220E-003   0.0000000000000000     
  -7.3414902505173534E-003   7.4202570354808175E-003   0.0000000000000000     
  -9.2309155187377968E-003   1.0186635742354557E-002   0.0000000000000000     
  -1.1129697925069586E-002   1.3233670450642141E-002   0.0000000000000000     
  -1.3037837469512720E-002   1.6561361160343575E-002   0.0000000000000000     
  -1.4955334152067205E-002   2.0169707871458858E-002   0.0000000000000000     
  -8.4288835230460196E-003   7.7243688696010454E-003   0.0000000000000000     
  -1.0590722757529921E-002   1.0558308406819121E-002   0.0000000000000000     
  -1.2761135495550590E-002   1.3661463976384521E-002   0.0000000000000000     
  -1.4940121737108028E-002   1.7033835578297248E-002   0.0000000000000000     
  -1.7127681482202239E-002   2.0675423212557300E-002   0.0000000000000000     
  -9.6003398071416082E-003   8.1272258565317727E-003   0.0000000000000000     
  -1.2076811993876778E-002   1.1046391306967674E-002   0.0000000000000000     
  -1.4546209464800716E-002   1.4212651859924545E-002   0.0000000000000000     
  -1.7008532219913424E-002   1.7626007515402376E-002   0.0000000000000000     
  -1.9463780259214896E-002   2.1286458273401174E-002   0.0000000000000000     
  -1.0855859102804120E-002   8.6288279962729968E-003   0.0000000000000000     
  -1.3689183227778371E-002   1.1650884442800219E-002   0.0000000000000000     
  -1.6484919832819966E-002   1.4887234101262208E-002   0.0000000000000000     
  -1.9243068917928902E-002   1.8337876971658961E-002   0.0000000000000000     
  -2.1963630483105179E-002   2.2002813053990482E-002   0.0000000000000000     
  -1.2195441410033552E-002   9.2291752888247220E-003   0.0000000000000000     
  -1.5427836459234701E-002   1.2371787814316752E-002   0.0000000000000000     
  -1.8577266599608341E-002   1.5685210700397516E-002   0.0000000000000000     
  -2.1643731831154464E-002   1.9169443947067002E-002   0.0000000000000000     
  -2.4627232153873080E-002   2.2824487554325222E-002   0.0000000000000000     
  -1.4955334152067205E-002   2.0169707871458858E-002   0.0000000000000000     
  -1.6856859896292077E-002   2.4030131792091455E-002   0.0000000000000000     
  -1.8717086625746397E-002   2.8114054130344835E-002   0.0000000000000000     
  -2.0536014340430161E-002   3.2421474886219000E-002   0.0000000000000000     
  -2.2313643040343369E-002   3.6952394059713935E-002   0.0000000000000000     
  -1.7127681482202239E-002   2.0675423212557300E-002   0.0000000000000000     
  -1.9292544097903021E-002   2.4558618721377327E-002   0.0000000000000000     
  -2.1403438951280180E-002   2.8655813946969956E-002   0.0000000000000000     
  -2.3460366042333702E-002   3.2967008889335209E-002   0.0000000000000000     
  -2.5463325371063598E-002   3.7492203548473067E-002   0.0000000000000000     
  -1.9463780259214896E-002   2.1286458273401174E-002   0.0000000000000000     
  -2.1883625969080004E-002   2.5175274004709786E-002   0.0000000000000000     
  -2.4239741735883617E-002   2.9273724580117060E-002   0.0000000000000000     
  -2.6532127559625716E-002   3.3581809999623000E-002   0.0000000000000000     
  -2.8760783440306321E-002   3.8099530263227585E-002   0.0000000000000000     
  -2.1963630483105179E-002   2.2002813053990482E-002   0.0000000000000000     
  -2.4630105509823034E-002   2.5880097642088845E-002   0.0000000000000000     
  -2.7225994979556717E-002   2.9967786029786142E-002   0.0000000000000000     
  -2.9751298892306217E-002   3.4265878217082366E-002   0.0000000000000000     
  -3.2206017248071546E-002   3.8774374203977509E-002   0.0000000000000000     
  -2.4627232153873080E-002   2.2824487554325222E-002   0.0000000000000000     
  -2.7531982720132107E-002   2.6673089633514509E-002   0.0000000000000000     
  -3.0362198682299481E-002   3.0737998295977200E-002   0.0000000000000000     
  -3.3117880040375199E-002   3.5019213541713300E-002   0.0000000000000000     
  -3.5799026794359264E-002   3.9516735370722804E-002   0.0000000000000000     
  -2.2313643040343369E-002   3.6952394059713935E-002   0.0000000000000000     
  -2.4047132423981335E-002   4.1698157221741798E-002   0.0000000000000000     
  -2.5733642189839374E-002   4.6650109943214703E-002   0.0000000000000000     
  -2.7373172337917490E-002   5.1808252224132677E-002   0.0000000000000000     
  -2.8965722868215679E-002   5.7172584064495699E-002   0.0000000000000000     
  -2.5463325371063598E-002   3.7492203548473067E-002   0.0000000000000000     
  -2.7413113510881649E-002   4.2227300485530285E-002   0.0000000000000000     
  -2.9310527035199645E-002   4.7168202261653580E-002   0.0000000000000000     
  -3.1155565944017589E-002   5.2314908876842953E-002   0.0000000000000000     
  -3.2948230237335473E-002   5.7667420331098423E-002   0.0000000000000000     
  -2.8760783440306321E-002   3.8099530263227585E-002   0.0000000000000000     
  -3.0928147054485027E-002   4.2824172207955730E-002   0.0000000000000000     
  -3.3036656078721451E-002   4.7753022670832264E-002   0.0000000000000000     
  -3.5086310513015577E-002   5.2886081651857215E-002   0.0000000000000000     
  -3.7077110357367410E-002   5.8223349151030550E-002   0.0000000000000000     
  -3.2206017248071546E-002   3.8774374203977509E-002   0.0000000000000000     
  -3.4592233054791463E-002   4.3488772389018118E-002   0.0000000000000000     
  -3.6912029320404771E-002   4.8404571170750754E-002   0.0000000000000000     
  -3.9165406044911449E-002   5.3521770549175389E-002   0.0000000000000000     
  -4.1352363228311519E-002   5.8840370524292057E-002   0.0000000000000000     
  -3.5799026794359264E-002   3.9516735370722804E-002   0.0000000000000000     
  -3.8405371511800970E-002   4.4221101028717472E-002   0.0000000000000000     
  -4.0936646760249620E-002   4.9122847761409051E-002   0.0000000000000000     
  -4.3392852539705228E-002   5.4221975568797556E-002   0.0000000000000000     
  -4.5773988850167757E-002   5.9518484450882966E-002   0.0000000000000000     
  -2.8965722868215679E-002   5.7172584064495699E-002   0.0000000000000000     
  -3.0510785430410300E-002   6.2730675384219114E-002   0.0000000000000000     
  -3.2007851674177711E-002   6.8470096103218289E-002   0.0000000000000000     
  -3.3456921599517929E-002   7.4390846221493195E-002   0.0000000000000000     
  -3.4857995206430938E-002   8.0492925739043847E-002   0.0000000000000000     
  -3.2948230237335473E-002   5.7667420331098423E-002   0.0000000000000000     
  -3.4687358418283583E-002   6.3212738556286716E-002   0.0000000000000000     
  -3.6371788989992243E-002   6.8937865484274580E-002   0.0000000000000000     
  -3.8001521952461412E-002   7.4842801115062002E-002   0.0000000000000000     
  -3.9576557305691117E-002   8.0927545448648996E-002   0.0000000000000000     
  -3.7077110357367410E-002   5.8223349151030550E-002   0.0000000000000000     
  -3.9008094088821117E-002   6.3752343758255697E-002   0.0000000000000000     
  -4.0878300184420811E-002   6.9460584063436040E-002   0.0000000000000000     
  -4.2687728644166520E-002   7.5348070066571585E-002   0.0000000000000000     
  -4.4436379468058222E-002   8.1414801767662290E-002   0.0000000000000000     
  -4.1352363228311519E-002   5.8840370524292057E-002   0.0000000000000000     
  -4.3472992442022872E-002   6.4349490990126032E-002   0.0000000000000000     
  -4.5527385257463450E-002   7.0038251840702670E-002   0.0000000000000000     
  -4.7515541674633247E-002   7.5906653076021902E-002   0.0000000000000000     
  -4.9437461693532261E-002   8.1954694696083782E-002   0.0000000000000000     
  -4.5773988850167757E-002   5.9518484450882966E-002   0.0000000000000000     
  -4.8082053477888860E-002   6.5004180251897775E-002   0.0000000000000000     
  -5.0319044209120145E-002   7.0670868816074456E-002   0.0000000000000000     
  -5.2484961043861605E-002   7.6518550143413008E-002   0.0000000000000000     
  -5.4579803982113248E-002   8.2547224233913433E-002   0.0000000000000000     
  -3.4857995206430938E-002   8.0492925739043847E-002   0.0000000000000000     
  -3.6207795053272554E-002   8.6764617173501132E-002   0.0000000000000000     
  -3.7503043698398582E-002   9.3194203042495913E-002   0.0000000000000000     
  -3.8743741141809028E-002   9.9781683346028216E-002   0.0000000000000000     
  -3.9929887383503886E-002  0.10652705808409801        0.0000000000000000     
  -3.9576557305691117E-002   8.0927545448648996E-002   0.0000000000000000     
  -4.1093923687194452E-002   8.7181343586496596E-002   0.0000000000000000     
  -4.2550649734484525E-002   9.3593440630065763E-002   0.0000000000000000     
  -4.3946735447561329E-002  0.10016383657935660        0.0000000000000000     
  -4.5282180826424864E-002  0.10689253143436904        0.0000000000000000     
  -4.4436379468058222E-002   8.1414801767662290E-002   0.0000000000000000     
  -4.6121217997562525E-002   8.7650309511251315E-002   0.0000000000000000     
  -4.7739209574146013E-002   9.4044123641881611E-002   0.0000000000000000     
  -4.9290354197808674E-002  0.10059624415955327        0.0000000000000000     
  -5.0774651868550541E-002  0.10730667106426628        0.0000000000000000     
  -4.9437461693532261E-002   8.1954694696083782E-002   0.0000000000000000     
  -5.1289677984376787E-002   8.8171514947765303E-002   0.0000000000000000     
  -5.3068723217383061E-002   9.4546252077943482E-002   0.0000000000000000     
  -5.4774597392551090E-002  0.10107890608661831        0.0000000000000000     
  -5.6407300509880888E-002  0.10776947697378980        0.0000000000000000     
  -5.4579803982113248E-002   8.2547224233913433E-002   0.0000000000000000     
  -5.6599303647637211E-002   8.8744959896038589E-002   0.0000000000000000     
  -5.8539190664195655E-002   9.5099825938251323E-002   0.0000000000000000     
  -6.0399465031788564E-002  0.10161182236055166        0.0000000000000000     
  -6.2180126750415947E-002  0.10828094916293958        0.0000000000000000     
  -3.9929887383503886E-002  0.10652705808409801        0.0000000000000000     
  -4.1066829316099694E-002  0.11341917655844637        0.0000000000000000     
  -4.2159913832212965E-002  0.12044688807081430        0.0000000000000000     
  -4.3209140931843706E-002  0.12761019262120182        0.0000000000000000     
  -4.4214510614991924E-002  0.13490909020960895        0.0000000000000000     
  -4.5282180826424864E-002  0.10689253143436904        0.0000000000000000     
  -4.6562682256513992E-002  0.11376760430147669        0.0000000000000000     
  -4.7793936123267523E-002  0.12077713428705317        0.0000000000000000     
  -4.8975942426685459E-002  0.12792112139109849        0.0000000000000000     
  -5.0108701166767806E-002  0.13519956561361263        0.0000000000000000     
  -5.0774651868550541E-002  0.10730667106426628        0.0000000000000000     
  -5.2198413681526126E-002  0.11416320321919582        0.0000000000000000     
  -5.3567950731889982E-002  0.12115363948751705        0.0000000000000000     
  -5.4883263019642116E-002  0.12827797986923004        0.0000000000000000     
  -5.6144350544782506E-002  0.13553622436433471        0.0000000000000000     
  -5.6407300509880888E-002  0.10776947697378980        0.0000000000000000     
  -5.7974023591136112E-002  0.11460597331160376        0.0000000000000000     
  -5.9481957658080363E-002  0.12157640367220598        0.0000000000000000     
  -6.0931102710713649E-002  0.12868076805559647        0.0000000000000000     
  -6.2321458749035982E-002  0.13591906646177523        0.0000000000000000     
  -6.2180126750415947E-002  0.10828094916293958        0.0000000000000000     
  -6.3889511985343914E-002  0.11509591457870053        0.0000000000000000     
  -6.5535956901838624E-002  0.12204542684111995        0.0000000000000000     
  -6.7119461499900085E-002  0.12912948595019783        0.0000000000000000     
  -6.8640025779528269E-002  0.13634809190593422        0.0000000000000000     
  -4.4214510614991924E-002  0.13490909020960895        0.0000000000000000     
  -4.5166876485139715E-002  0.14232964959764335        0.0000000000000000     
  -4.6057092145769196E-002  0.14985793954691259        0.0000000000000000     
  -4.6885157596880368E-002  0.15749396005741673        0.0000000000000000     
  -4.7651072838473231E-002  0.16523771112915578        0.0000000000000000     
  -5.0108701166767806E-002  0.13519956561361263        0.0000000000000000     
  -5.1182851147924632E-002  0.14260173152798500        0.0000000000000000     
  -5.2189031174565990E-002  0.15011688370760493        0.0000000000000000     
  -5.3127241246691860E-002  0.15774502215247246        0.0000000000000000     
  -5.3997481364302269E-002  0.16548614686258761        0.0000000000000000     
  -5.6144350544782506E-002  0.13553622436433471        0.0000000000000000     
  -5.7341358535955206E-002  0.14291874571982588        0.0000000000000000     
  -5.8464432221804238E-002  0.15041591668269835        0.0000000000000000     
  -5.9513571602329618E-002  0.15802773725295205        0.0000000000000000     
  -6.0488776677531338E-002  0.16575420743058700        0.0000000000000000     
  -6.2321458749035982E-002  0.13591906646177523        0.0000000000000000     
  -6.3642398649231421E-002  0.14328069217316611        0.0000000000000000     
  -6.4883295287483961E-002  0.15075503847219288        0.0000000000000000     
  -6.6044148663793642E-002  0.15834210535885551        0.0000000000000000     
  -6.7124958778160423E-002  0.16604189283315407        0.0000000000000000     
  -6.8640025779528269E-002  0.13634809190593422        0.0000000000000000     
  -7.0085971487753279E-002  0.14368757088800557        0.0000000000000000     
  -7.1445620371605151E-002  0.15113424907608849        0.0000000000000000     
  -7.2718972431083898E-002  0.15868812647018282        0.0000000000000000     
  -7.3906027666189547E-002  0.16634920307028869        0.0000000000000000     
   0.0000000000000000        0.0000000000000000        0.0000000000000000     
  -2.8800974891784984E-003   1.7448586799625658E-003   0.0000000000000000     
  -5.8727035539102570E-003   3.8646741214208749E-003   0.0000000000000000     
  -8.9778181941952730E-003   6.3594463243749266E-003   0.0000000000000000     
  -1.2195441410033552E-002   9.2291752888247220E-003   0.0000000000000000     
   0.0000000000000000        0.0000000000000000        0.0000000000000000     
  -3.2832288564038281E-003   1.9993843365260474E-003   0.0000000000000000     
  -6.6770076836426516E-003   4.3309923104405817E-003   0.0000000000000000     
  -1.0181336481716470E-002   6.9948239217436023E-003   0.0000000000000000     
  -1.3796215250625283E-002   9.9908791704351081E-003   0.0000000000000000     
   0.0000000000000000        0.0000000000000000        0.0000000000000000     
  -3.9535887584859174E-003   2.4251568502759360E-003   0.0000000000000000     
  -7.9106698690436707E-003   5.0629676465933013E-003   0.0000000000000000     
  -1.1871243331673262E-002   7.9134323889520977E-003   0.0000000000000000     
  -1.5835309146374689E-002   1.0976551077352322E-002   0.0000000000000000     
   0.0000000000000000        0.0000000000000000        0.0000000000000000     
  -4.8911771954247658E-003   3.0221762212122322E-003   0.0000000000000000     
  -9.5736901101133153E-003   6.0606001298790365E-003   0.0000000000000000     
  -1.4047538744065648E-002   9.1152717260004120E-003   0.0000000000000000     
  -1.8312723097281765E-002   1.2186191009576360E-002   0.0000000000000000     
   0.0000000000000000        0.0000000000000000        0.0000000000000000     
  -6.0959941672203742E-003   3.7904424493349358E-003   0.0000000000000000     
  -1.1666068406851585E-002   7.3238897602977849E-003   0.0000000000000000     
  -1.6710222718893636E-002   1.0600341932888547E-002   0.0000000000000000     
  -2.1228457103346522E-002   1.3619798967107223E-002   0.0000000000000000     
  -1.2195441410033552E-002   9.2291752888247220E-003   0.0000000000000000     
  -1.5427836459234701E-002   1.2371787814316752E-002   0.0000000000000000     
  -1.8577266599608341E-002   1.5685210700397516E-002   0.0000000000000000     
  -2.1643731831154464E-002   1.9169443947067002E-002   0.0000000000000000     
  -2.4627232153873080E-002   2.2824487554325222E-002   0.0000000000000000     
  -1.3796215250625283E-002   9.9908791704351081E-003   0.0000000000000000     
  -1.7404543724977958E-002   1.3221184635432110E-002   0.0000000000000000     
  -2.0889221639383355E-002   1.6587766895651609E-002   0.0000000000000000     
  -2.4250248993841487E-002   2.0090625951093611E-002   0.0000000000000000     
  -2.7487625788352343E-002   2.3729761801758106E-002   0.0000000000000000     
  -1.5835309146374689E-002   1.0976551077352322E-002   0.0000000000000000     
  -1.9731077061740321E-002   1.4211158120061122E-002   0.0000000000000000     
  -2.3486756826362538E-002   1.7576087925345645E-002   0.0000000000000000     
  -2.7102348440241328E-002   2.1071340493205890E-002   0.0000000000000000     
  -3.0577851903376696E-002   2.4696915823641856E-002   0.0000000000000000     
  -1.8312723097281765E-002   1.2186191009576360E-002   0.0000000000000000     
  -2.2407436469521803E-002   1.5341708268203792E-002   0.0000000000000000     
  -2.6369872160545871E-002   1.8650173789479620E-002   0.0000000000000000     
  -3.0200030170353994E-002   2.2111587573403847E-002   0.0000000000000000     
  -3.3897910498946165E-002   2.5725949619976464E-002   0.0000000000000000     
  -2.1228457103346522E-002   1.3619798967107223E-002   0.0000000000000000     
  -2.5433621948322386E-002   1.6612835079860118E-002   0.0000000000000000     
  -2.9538567641933373E-002   1.9810024488053531E-002   0.0000000000000000     
  -3.3543294184179485E-002   2.3211367191687475E-002   0.0000000000000000     
  -3.7447801575060717E-002   2.6816863190761934E-002   0.0000000000000000     
  -2.4627232153873080E-002   2.2824487554325222E-002   0.0000000000000000     
  -2.7531982720132107E-002   2.6673089633514509E-002   0.0000000000000000     
  -3.0362198682299481E-002   3.0737998295977200E-002   0.0000000000000000     
  -3.3117880040375199E-002   3.5019213541713300E-002   0.0000000000000000     
  -3.5799026794359264E-002   3.9516735370722804E-002   0.0000000000000000     
  -2.7487625788352343E-002   2.3729761801758106E-002   0.0000000000000000     
  -3.0624443247806572E-002   2.7547700418850907E-002   0.0000000000000000     
  -3.3683792597094843E-002   3.1586967773577800E-002   0.0000000000000000     
  -3.6665673836217154E-002   3.5847563865938778E-002   0.0000000000000000     
  -3.9570086965173501E-002   4.0329488695933863E-002   0.0000000000000000     
  -3.0577851903376696E-002   2.4696915823641856E-002   0.0000000000000000     
  -3.3942672740645795E-002   2.8497380437962169E-002   0.0000000000000000     
  -3.7226216476925755E-002   3.2517300857475478E-002   0.0000000000000000     
  -4.0428483112216591E-002   3.6756677082181770E-002   0.0000000000000000     
  -4.3549472646518282E-002   4.1215509112081050E-002   0.0000000000000000     
  -3.3897910498946165E-002   2.5725949619976464E-002   0.0000000000000000     
  -3.7486671198649769E-002   2.9522129690848324E-002   0.0000000000000000     
  -4.0989470321792211E-002   3.3528997547670254E-002   0.0000000000000000     
  -4.4406307868373483E-002   3.7746553190442254E-002   0.0000000000000000     
  -4.7737183838393614E-002   4.2174796619164359E-002   0.0000000000000000     
  -3.7447801575060717E-002   2.6816863190761934E-002   0.0000000000000000     
  -4.1256438621818478E-002   3.0621948177509340E-002   0.0000000000000000     
  -4.4973554131694196E-002   3.4622057844162127E-002   0.0000000000000000     
  -4.8599148104687864E-002   3.8817192190720273E-002   0.0000000000000000     
  -5.2133220540799476E-002   4.3207351217183804E-002   0.0000000000000000     
  -3.5799026794359264E-002   3.9516735370722804E-002   0.0000000000000000     
  -3.8405371511800970E-002   4.4221101028717472E-002   0.0000000000000000     
  -4.0936646760249620E-002   4.9122847761409051E-002   0.0000000000000000     
  -4.3392852539705228E-002   5.4221975568797556E-002   0.0000000000000000     
  -4.5773988850167757E-002   5.9518484450882966E-002   0.0000000000000000     
  -3.9570086965173501E-002   4.0329488695933863E-002   0.0000000000000000     
  -4.2394105304510363E-002   4.5019227868702182E-002   0.0000000000000000     
  -4.5134802174774245E-002   4.9903266989382869E-002   0.0000000000000000     
  -4.7792177575965107E-002   5.4981606057975939E-002   0.0000000000000000     
  -5.0366231508082990E-002   6.0254245074481384E-002   0.0000000000000000     
  -4.3549472646518282E-002   4.1215509112081050E-002   0.0000000000000000     
  -4.6584977311916492E-002   4.5881222650620640E-002   0.0000000000000000     
  -4.9530789340496859E-002   5.0741243401247915E-002   0.0000000000000000     
  -5.2386908732259381E-002   5.5795571363962841E-002   0.0000000000000000     
  -5.5153335487204053E-002   6.1044206538765439E-002   0.0000000000000000     
  -4.7737183838393614E-002   4.2174796619164359E-002   0.0000000000000000     
  -5.0977987534019345E-002   4.6807085374472882E-002   0.0000000000000000     
  -5.4124608257417481E-002   5.1636776997004176E-002   0.0000000000000000     
  -5.7177046008588014E-002   5.6663871486758263E-002   0.0000000000000000     
  -6.0135300787530953E-002   6.1888368843735123E-002   0.0000000000000000     
  -5.2133220540799476E-002   4.3207351217183804E-002   0.0000000000000000     
  -5.5573135970818928E-002   4.7796816040258872E-002   0.0000000000000000     
  -5.8916258925536105E-002   5.2589867776651665E-002   0.0000000000000000     
  -6.2162589404951035E-002   5.7586506426362198E-002   0.0000000000000000     
  -6.5312127409063683E-002   6.2786731989390443E-002   0.0000000000000000     
  -4.5773988850167757E-002   5.9518484450882966E-002   0.0000000000000000     
  -4.8082053477888860E-002   6.5004180251897775E-002   0.0000000000000000     
  -5.0319044209120145E-002   7.0670868816074456E-002   0.0000000000000000     
  -5.2484961043861605E-002   7.6518550143413008E-002   0.0000000000000000     
  -5.4579803982113248E-002   8.2547224233913433E-002   0.0000000000000000     
  -5.0366231508082990E-002   6.0254245074481384E-002   0.0000000000000000     
  -5.2860787800333528E-002   6.5715106498043477E-002   0.0000000000000000     
  -5.5279670281922343E-002   7.1358112787806488E-002   0.0000000000000000     
  -5.7622878952849482E-002   7.7183263943770411E-002   0.0000000000000000     
  -5.9890413813114898E-002   8.3190559965935246E-002   0.0000000000000000     
  -5.5153335487204053E-002   6.1044206538765439E-002   0.0000000000000000     
  -5.7834706013271307E-002   6.6480964683035743E-002   0.0000000000000000     
  -6.0435656718401544E-002   7.2099661554153802E-002   0.0000000000000000     
  -6.2956187602594763E-002   7.7900297152119644E-002   0.0000000000000000     
  -6.5396298665850963E-002   8.3882871476933241E-002   0.0000000000000000     
  -6.0135300787530953E-002   6.1888368843735123E-002   0.0000000000000000     
  -6.3003808116702198E-002   6.7301754806874559E-002   0.0000000000000000     
  -6.5787003518557707E-002   7.2895515115116438E-002   0.0000000000000000     
  -6.8484886993097446E-002   7.8669649768460706E-002   0.0000000000000000     
  -7.1097458540321415E-002   8.4624158766907362E-002   0.0000000000000000     
  -6.5312127409063683E-002   6.2786731989390443E-002   0.0000000000000000     
  -6.8368094110626221E-002   6.8177476869559980E-002   0.0000000000000000     
  -7.1333710682390833E-002   7.3745673470694356E-002   0.0000000000000000     
  -7.4208977124357534E-002   7.9491321792793598E-002   0.0000000000000000     
  -7.6993893436526281E-002   8.5414421835857679E-002   0.0000000000000000     
  -5.4579803982113248E-002   8.2547224233913433E-002   0.0000000000000000     
  -5.6599303647637211E-002   8.8744959896038589E-002   0.0000000000000000     
  -5.8539190664195655E-002   9.5099825938251323E-002   0.0000000000000000     
  -6.0399465031788564E-002  0.10161182236055166        0.0000000000000000     
  -6.2180126750415947E-002  0.10828094916293958        0.0000000000000000     
  -5.9890413813114898E-002   8.3190559965935246E-002   0.0000000000000000     
  -6.2077082728980638E-002   8.9367216975872688E-002   0.0000000000000000     
  -6.4177693566708688E-002   9.5700451095154404E-002   0.0000000000000000     
  -6.6192246326299067E-002  0.10219026232378038        0.0000000000000000     
  -6.8120741007751770E-002  0.10883665066175062        0.0000000000000000     
  -6.5396298665850963E-002   8.3882871476933241E-002   0.0000000000000000     
  -6.7750002970043813E-002   9.0034858807069129E-002   0.0000000000000000     
  -7.0011313577047027E-002   9.6343733421001859E-002   0.0000000000000000     
  -7.2180230486860578E-002  0.10280949531873147        0.0000000000000000     
  -7.4256753699484479E-002  0.10943214450025791        0.0000000000000000     
  -7.1097458540321415E-002   8.4624158766907362E-002   0.0000000000000000     
  -7.3618064370826797E-002   9.0747885389627900E-002   0.0000000000000000     
  -7.6040050695210679E-002   9.7029672915793785E-002   0.0000000000000000     
  -7.8363417513473130E-002  0.10346952134540498        0.0000000000000000     
  -8.0588164825614053E-002  0.11006743067846148        0.0000000000000000     
  -7.6993893436526281E-002   8.5414421835857679E-002   0.0000000000000000     
  -7.9681266931329514E-002   9.1506296723549041E-002   0.0000000000000000     
  -8.2263904921199629E-002   9.7758269579530099E-002   0.0000000000000000     
  -8.4741807406136641E-002  0.10417034040380087        0.0000000000000000     
  -8.7114974386140534E-002  0.11074250919636133        0.0000000000000000     
  -6.2180126750415947E-002  0.10828094916293958        0.0000000000000000     
  -6.3889511985343914E-002  0.11509591457870053        0.0000000000000000     
  -6.5535956901838624E-002  0.12204542684111995        0.0000000000000000     
  -6.7119461499900085E-002  0.12912948595019783        0.0000000000000000     
  -6.8640025779528269E-002  0.13634809190593422        0.0000000000000000     
  -6.8120741007751770E-002  0.10883665066175062        0.0000000000000000     
  -6.9972623166383641E-002  0.11562877885260875        0.0000000000000000     
  -7.1757338357511607E-002  0.12255580963989841        0.0000000000000000     
  -7.3474886581135601E-002  0.12961774302361959        0.0000000000000000     
  -7.5125267837255663E-002  0.13681457900377234        0.0000000000000000     
  -7.4256753699484479E-002  0.10943214450025791        0.0000000000000000     
  -7.6251101436489402E-002  0.11620031796545109        0.0000000000000000     
  -7.8173491919446031E-002  0.12310265271418087        0.0000000000000000     
  -8.0023925148354380E-002  0.13013914874644730        0.0000000000000000     
  -8.1802401123214435E-002  0.13730980606225032        0.0000000000000000     
  -8.0588164825614053E-002  0.11006743067846148        0.0000000000000000     
  -8.2724946795661142E-002  0.11681053191722753        0.0000000000000000     
  -8.4784417587641936E-002  0.12368595606396733        0.0000000000000000     
  -8.6766577201556408E-002  0.13069370311868084        0.0000000000000000     
  -8.8671425637404613E-002  0.13783377308136815        0.0000000000000000     
  -8.7114974386140534E-002  0.11074250919636133        0.0000000000000000     
  -8.9394159243898902E-002  0.11745942070793811        0.0000000000000000     
  -9.1590115362099295E-002  0.12430571968925778        0.0000000000000000     
  -9.3702842740741726E-002  0.13128140614032036        0.0000000000000000     
  -9.5732341379826197E-002  0.13838648006112581        0.0000000000000000     
  -6.8640025779528269E-002  0.13634809190593422        0.0000000000000000     
  -7.0085971487753279E-002  0.14368757088800557        0.0000000000000000     
  -7.1445620371605151E-002  0.15113424907608849        0.0000000000000000     
  -7.2718972431083898E-002  0.15868812647018282        0.0000000000000000     
  -7.3906027666189547E-002  0.16634920307028869        0.0000000000000000     
  -7.5125267837255663E-002  0.13681457900377234        0.0000000000000000     
  -7.6695835331025627E-002  0.14413026520023561        0.0000000000000000     
  -7.8173942267599397E-002  0.15154874923288844        0.0000000000000000     
  -7.9559588646976959E-002  0.15907003110173085        0.0000000000000000     
  -8.0852774469158312E-002  0.16669411080676277        0.0000000000000000     
  -8.1802401123214435E-002  0.13730980606225032        0.0000000000000000     
  -8.3495748458553357E-002  0.14459965844574743        0.0000000000000000     
  -8.5090795768898317E-002  0.15199373968109614        0.0000000000000000     
  -8.6587543054249302E-002  0.15949204976829634        0.0000000000000000     
  -8.7985990314606327E-002  0.16709458870734820        0.0000000000000000     
  -8.8671425637404613E-002  0.13783377308136815        0.0000000000000000     
  -9.0485710870336467E-002  0.14509575062454108        0.0000000000000000     
  -9.2196180875501910E-002  0.15246922042071148        0.0000000000000000     
  -9.3802835652900943E-002  0.15995418246987944        0.0000000000000000     
  -9.5305675202533580E-002  0.16755063677204488        0.0000000000000000     
  -9.5732341379826197E-002  0.13838648006112581        0.0000000000000000     
  -9.7665722566374930E-002  0.14561854173661645        0.0000000000000000     
  -9.9490097587410148E-002  0.15297519145173452        0.0000000000000000     
 -0.10120546644293188       0.16045642920647996        0.0000000000000000     
 -0.10281182913294011       0.16806225500085289        0.0000000000000000     
 </DataArray>
 <DataArray  type="Float64" Name="stress" NumberOfComponents="3" format="ascii">
   13416149400.577530        4024844820.1732588        2893806380.5124617     
   11766280158.321741        1890647747.3188431        1715792718.3298359     
   10313622046.002794        413821107.58723879        810816298.87417090     
   9058175063.6206932       -405635099.02155399        178877122.14546588     
   7999939211.1754351       -567720872.50753450       -180024811.85627729     
   10539651894.917740        3161895568.4753218        2225687608.2844095     
   9667407611.3107834        1589714663.0706768        1446718857.4853890     
   8943759029.6915760        512852764.29186630        863189870.43163955     
   8368706150.0601196       -68690127.861113071        475100647.12316203     
   7942248972.4164162       -154914013.38825893        282451187.55995601     
   8337791529.0249090        2501337458.7074728        1712361943.3299141     
   8021465121.2619600        1424660595.9111516        1275720104.6405554     
   7805118987.5376692        681251313.24368477        956920550.71477973     
   7688753127.8520346        271109610.70507336        755963281.55258656     
   7672367542.2050571        194235488.29531479        672848297.15397751     
   6810568302.8990393        2043170490.8697119        1353829385.6489749     
   6828452688.1752768        1395485545.8402677        1202796459.7953355     
   6897701919.5410738        919016754.44269872        1092008339.7235913     
   7018315996.9964342        613764116.67700458        1021465025.4337401     
   7190294920.5413589        479727632.54318810        991166516.92578423     
   5957982216.5401316        1787394664.9620395        1150089935.2415919     
   6088370312.0507250        1502189512.8580234        1227947922.9497302     
   6221507825.7017870        1226149087.8889041        1268453237.4580739     
   6357394757.4933186        959273390.05468202        1271605878.7666228     
   6496031107.4253197        701562419.35535765        1237405846.8753767     
   7999939211.1754351       -567720872.50753450       -180024811.85627729     
   7917256726.8264885       -200756766.55375242       -78374857.160699755     
   7793220608.5918188        28361893.114280701       -9230507.2830696665     
   7627830856.4714251        119635106.49657965        27408237.776617546     
   7421087470.4653130        73062873.593133450        31541378.018357955     
   7942248972.4164162       -154914013.38825893        282451187.55995601     
   7739463690.7844648        15994237.323945999        281053176.46920711     
   7513377586.7927771        109233080.17036390        265017661.95753244     
   7263990660.4413557        124802515.15099907        234344644.02493113     
   6991302911.7301979        62702542.265851021        189034122.67140710     
   7672367542.2050571        194235488.29531479        672848297.15397751     
   7400531181.5672998        184403399.24910212        589463933.72388709     
   7123446810.0957966        157077940.75706291        509310168.26989084     
   6841114427.7905455        112259112.81919813        432387000.79199213     
   6553534034.6515455        49946915.435508013        358694431.29018325     
   7190294920.5413589        479727632.54318810        991166516.92578423     
   6900459199.1749973        304470719.22171855        846857414.60333824     
   6623428278.5008736        171896474.87437963        723647011.65400755     
   6359202158.5189924        82004899.501174927        621535308.07779133     
   6107780839.2293510        34795993.102102280        540522303.87468958     
   6496031107.4253197        701562419.35535765        1237405846.8753767     
   6239247743.6075544        376196197.24179101        1053233619.1075609     
   6013321992.0080147        153688682.52231693        908028192.10987961     
   5818253852.6267014        34039875.196930408        801789565.88233256     
   5654043325.4636154        17249775.265634537        734517740.42492235     
   7421087470.4653130        73062873.593133450        31541378.018357955     
   7219543798.5786600       -16728176.823248863        15050320.398835240     
   7029829322.0620594       -67088576.006134033        2631711.4672645372     
   6851944040.9155064       -78018323.955520153       -5714448.7763528712     
   6685887955.1390038       -49517420.671410084       -9988160.3320182655     
   6991302911.7301979        62702542.265851021        189034122.67140710     
   6808918962.0528698        3854583.9194812775        180798488.13874179     
   6634117730.2266827       -29717648.256414890        176087939.21682715     
   6466899216.2516356       -38014154.261845589        174902475.90566629     
   6307263420.1277285       -21034934.096809864        177242098.20526540     
   6553534034.6515455        49946915.435508013        358694431.29018325     
   6388745912.6772575        21572880.807265282        353759996.07231390     
   6227294031.0352020        4319647.2864644527        351803283.38799906     
   6069178389.7253761       -1812785.1268975735        352824293.23724067     
   5914398988.7477884        3175583.5671906471        356823025.62003803     
   6107780839.2293510        34795993.102102280        540522303.87468958     
   5959024650.4518223        36426713.840101242        533934844.19955528     
   5809358224.4876194        35023310.622514725        529777743.98078024     
   5658781561.3367443        30585783.449347019        528051003.21836340     
   5507294660.9991884        23114132.320589781        528754621.91230291     
   5654043325.4636154        17249775.265634537        734517740.42492235     
   5519755175.3765707        48416083.017992020        721323032.52046549     
   5380310310.5839424        62393341.751738787        710011320.99516833     
   5235708731.0857306        59181551.466872931        700582605.84903085     
   5085950436.8819342        38780712.163395643        693036887.08205616     
   6685887955.1390038       -49517420.671410084       -9988160.3320182655     
   6510317482.2818060       -11954751.862024546       -5111844.0632538572     
   6330774571.1860895        12366456.152297735        1623529.8636134111     
   6147259221.8518572        23446203.371559381        10217961.448580017     
   5959771434.2791033        21284489.795758486        20671450.691639874     
   6307263420.1277285       -21034934.096809864        177242098.20526540     
   6132812598.2570734       -772947.68209934235        173933781.39818349     
   5955873964.4520102        11196332.284566879        173620142.09066227     
   5776447518.7125225        14872905.803164005        176301180.28269088     
   5594533261.0386286        10256772.873723269        181976895.97427377     
   5914398988.7477884        3175583.5671906471        356823025.62003803     
   5744312445.9821291        7110276.0227575302        347062139.75856668     
   5573222717.5861616        7701016.3772959709        341431551.23809993     
   5401129803.5598793        4947804.6307795048        339931260.05864704     
   5228033703.9032812       -1149359.2167801857        342561266.22021317     
   5507294660.9991884        23114132.320589781        528754621.91230291     
   5344817025.4569759        11694919.252556801        514273231.01788688     
   5182820830.5885544        1880508.4304955006        505057757.30593956     
   5021306076.3939180       -6329100.1456065178        501108200.77646226     
   4860272762.8730745       -12933906.475740194        502424561.42945009     
   5085950436.8819342        38780712.163395643        693036887.08205616     
   4934326336.6816111        12980982.007293701        675567055.17615461     
   4784668303.4591818       -6265191.5558314323        664498760.29417455     
   4636976337.2146435       -18957808.525984049        659832002.43612039     
   4491250437.9479961       -25096868.903157949        661566781.60199189     
   5959771434.2791033        21284489.795758486        20671450.691639874     
   5786521288.9276981        19278269.540076733        15063721.846090369     
   5614529867.9601288        21467797.230497122        12892003.596799599     
   5443797171.3763742        27853072.866982698        14156295.943783900     
   5274323199.1764650        38434096.449608326        18856598.887035262     
   5594533261.0386286        10256772.873723269        181976895.97427377     
   5430324415.5393858        8482084.5160999298        177177790.61214364     
   5266974692.4708843        9571137.5942754745        175844090.25584787     
   5104484091.8331289        13523932.108276606        177975794.90539545     
   4942852613.6261110        20340468.058070183        183572904.56078762     
   5228033703.9032812       -1149359.2167801857        342561266.22021317     
   5072950142.2835608       -2667320.4681372643        338104582.06288898     
   4918326101.1414919       -2653546.7939770222        337142697.32099336     
   4764161580.4770813       -1108038.1942868233        339675611.99450755     
   4610456580.2903271        1969205.3309195042        345703326.08344293     
   4860272762.8730745       -12933906.475740194        502424561.42945009     
   4714398469.1602268       -14169945.412625313        497844096.19834793     
   4568584093.9719486       -15206255.934284687        496787824.79223937     
   4422829637.3082457       -16042838.040691376        499255747.21112710     
   4277135099.1691093       -16679691.731866121        505247863.45500535     
   4491250437.9479961       -25096868.903157949        661566781.60199189     
   4354669396.1693830       -26025790.317369699        656396333.01850843     
   4217748670.9622545       -28086989.826629639        654779472.66959190     
   4080488262.3266110       -31280467.430935383        656716200.55525076     
   3942888170.2624564       -35606223.130289078        662206516.67547143     
   5274323199.1764650        38434096.449608326        18856598.887035262     
   5071082703.2532234        39557888.426900148        13087462.571754919     
   4867027038.2285748        37964450.066138506        12171547.674846636     
   4662156204.1025343        33653781.367417097        16108854.196313616     
   4456470200.8750725        26625882.330626249        24899382.136143688     
   4942852613.6261110        20340468.058070183        183572904.56078762     
   4751429715.7276888        18731129.142829180        176707311.70909581     
   4559484981.8000736        15382336.796947241        174709679.97178274     
   4367018411.8432693        10294091.020451784        177580009.34884077     
   4174030005.8572826        3466391.8133244514        185318299.84028265     
   4610456580.2903271        1969205.3309195042        345703326.08344293     
   4430893393.8338671       -2360630.4517264366        338083498.61293322     
   4251101704.4204388       -7452142.7576107979        335346371.95280355     
   4071081512.0500493       -13305331.586693525        337491946.10305542     
   3890832816.7226882       -19920196.939001799        344520221.06368536     
   4277135099.1691093       -16679691.731866121        505247863.45500535     
   4109473737.5717707       -23717390.356764793        497216023.28325897     
   3941877206.0896873       -30538988.597490072        494081623.61790580     
   3774345504.7228575       -37144486.454026937        495844664.45893431     
   3606878633.4712873       -43533883.926372051        502505145.80635178     
   3942888170.2624564       -35606223.130289078        662206516.67547143     
   3787170746.9413953       -45339150.572287083        654104885.72008622     
   3631811486.8078103       -53878200.722710609        650915434.96709716     
   3476810389.8617024       -61223373.581541777        652638164.41649377     
   3322167456.1030698       -67374669.148793697        659273074.06827843     
   4456470200.8750725        26625882.330626249        24899382.136143688     
   4304360269.3674240        37927521.627012491        19753093.458303619     
   4154553452.1153851        56906208.442115545        18306127.649459362     
   4007049749.1189609        83561942.775933266        20558484.709585939     
   3861849160.3781428        117894724.62842441        26510164.638704479     
   4174030005.8572826        3466391.8133244514        185318299.84028265     
   4030588409.5919595        12345480.150099277        181793260.77176163     
   3888224305.1542988        24816207.912421942        181795899.24210063     
   3746937692.5442991        40878575.100276947        185326215.25131759     
   3606728571.7619605        60532581.713669538        192384208.79940867     
   3890832816.7226882       -19920196.939001799        344520221.06368536     
   3755569140.4708133       -13610784.130501986        341186538.77185142     
   3620157333.6186442       -7795139.9896214008        341208888.68878591     
   3484597396.1661901       -2473264.5163667202        344587270.81447780     
   3348889328.1134448        2354842.2892343998        351321685.14893264     
   3606878633.4712873       -43533883.926372051        502505145.80635178     
   3479302462.0039668       -39941271.214814663        497932927.45860410     
   3350352537.5084095       -40927835.264049292        496545095.98951435     
   3220028859.9846144       -46493576.074080586        498341651.39907414     
   3088331429.4325762       -56638493.644923329        503322593.68729103     
   3322167456.1030698       -67374669.148793697        659273074.06827843     
   3201788374.1914258       -66645981.102839231        652032426.83200717     
   3078809916.8235946       -74581877.910853028        647804521.14428663     
   2953232083.9995747       -91182359.572827578        646589357.00510192     
   2825054875.7193608       -116447426.08877158        648386934.41447055     
   3861849160.3781428        117894724.62842441        26510164.638704479     
   3659205787.3956375        156025743.53065383        3231786.9857194475     
   3468125941.2490978        232701851.88610935       -15802033.689293893     
   3288609621.9384966        347923049.69471836       -30591297.386366926     
   3120656829.4638901        501689336.95658576       -41136004.105456740     
   3606728571.7619605        60532581.713669538        192384208.79940867     
   3408559350.0493436        75871376.803297758        179405305.26543984     
   3217932077.4466181        116350002.25925112        170883243.53325072     
   3034846753.9537940        181968458.08152008        166818023.60284382     
   2859303379.5708737        272726744.27015889        167209645.47423452     
   3348889328.1134448        2354842.2892343998        351321685.14893264     
   3155800785.7387619       -4916628.0133612156        343950415.05357003     
   2966232614.7479281       -453527.03647708893        341248271.58381248     
   2780184815.1409235        15744145.219861865        343215254.73965889     
   2597657386.9177651        43676388.755664468        349851364.52111858     
   3088331429.4325762       -56638493.644923329        503322593.68729103     
   2900930094.4639072       -86338270.919287086        496867116.35012275     
   2713027553.1530180       -117708736.00106108        495293050.46238977     
   2524623805.4998984       -150749888.89025152        498600396.02407700     
   2335718851.5045614       -185461729.58685195        506789153.03519672     
   2825054875.7193608       -116447426.08877158        648386934.41447055     
   2643947276.2247677       -168393551.91451514        638155409.15509832     
   2458316892.6618986       -235415624.63451648        633017580.16897726     
   2268163725.0307441       -317513644.24879229        632973447.45610392     
   2073487773.3312998       -414687610.75737238        638023011.01649582     
   5957982216.5401316        1787394664.9620395        1150089935.2415919     
   6088370312.0507250        1502189512.8580234        1227947922.9497302     
   6221507825.7017870        1226149087.8889041        1268453237.4580739     
   6357394757.4933186        959273390.05468202        1271605878.7666228     
   6496031107.4253197        701562419.35535765        1237405846.8753767     
   5434671832.2157278        1630401549.6647182        1033487523.9846039     
   5489873620.5816717        1372473034.8231568        1113896103.5922589     
   5547285489.5507507        1121911455.3253803        1167527126.9201808     
   5606907439.1229658        878716811.17138863        1194380593.9683700     
   5668739469.2983150        642889102.36118174        1194456504.7368257     
   4895275712.1933727        1468582713.6580119        936366083.75484848     
   4905505813.1862707        1246995222.0103867        1018696028.1351317     
   4917406657.2449703        1030976873.9154335        1084823533.1557431     
   4930978244.3694735        820527669.37315369        1134748598.8166823     
   4946220574.5597773        615647608.38354564        1168471225.1179504     
   4339793856.4730673        1301938156.9419203        858725614.55232644     
   4335266889.8645239        1125756074.4197123        942347696.57834768     
   4331871328.7844496        953345343.65906429        1020342456.1647589     
   4329607173.2328434        784705964.65997684        1092709893.3115602     
   4328474423.2097025        619837937.42244887        1159450008.0187507     
   3768226265.0548086        1130467879.5164425        800566116.37703717     
   3779156850.6164293        1008755592.0511334        884851108.92190742     
   3790679504.1691842        889016864.55627191        974083895.94722927     
   3802794225.7130728        771251697.03185844        1068264477.4530026     
   3815501015.2480965        655460089.47789228        1167392853.4392269     
   6496031107.4253197        701562419.35535765        1237405846.8753767     
   6239247743.6075544        376196197.24179101        1053233619.1075609     
   6013321992.0080147        153688682.52231693        908028192.10987961     
   5818253852.6267014        34039875.196930408        801789565.88233256     
   5654043325.4636154        17249775.265634537        734517740.42492235     
   5668739469.2983150        642889102.36118174        1194456504.7368257     
   5518786085.7471495        383456644.79066539        1073537737.3633845     
   5392950671.2792091        204417417.49756503        980613592.99187756     
   5291233225.8944931        105771420.48187876        915684071.62230027     
   5213633749.5930023        87518653.743605137        878749173.25465608     
   4946220574.5597773        615647608.38354564        1168471225.1179504     
   4871748091.9374905        412744191.55476260        1102943001.1480486     
   4814653935.2634296        267768527.88672066        1054437222.4118764     
   4774938104.5375872        180720617.37941599        1022953888.9094348     
   4752600599.7599678        151600460.03285027        1008493000.6407223     
   4328474423.2097025        619837937.42244887        1159450008.0187507     
   4298133762.1785774        464058837.53408349        1141449410.4615514     
   4278431783.9606714        343742013.68978286        1129499080.3698795     
   4269368488.5559850        258887465.88954520        1123599017.7437353     
   4270943875.9645176        209495194.13337064        1123749222.5831177     
   3815501015.2480965        655460089.47789228        1167392853.4392269     
   3797943096.4704099        537400582.72862887        1189056965.3038943     
   3784284217.3709393        432337874.90675330        1205799166.8658850     
   3774524377.9496856        340271966.01226676        1217619458.1252022     
   3768663578.2066464        261202856.04516482        1224517839.0818443     
   5654043325.4636154        17249775.265634537        734517740.42492235     
   5519755175.3765707        48416083.017992020        721323032.52046549     
   5380310310.5839424        62393341.751738787        710011320.99516833     
   5235708731.0857306        59181551.466872931        700582605.84903085     
   5085950436.8819342        38780712.163395643        693036887.08205616     
   5213633749.5930023        87518653.743605137        878749173.25465608     
   5076981394.2434559        85111043.444899559        855249007.78692865     
   4938339214.9671602        76070686.723687649        835795053.74989974     
   4797707211.7641096        60397583.579965591        820387311.14357162     
   4655085384.6343069        38091734.013736486        809025779.96794629     
   4752600599.7599678        151600460.03285027        1008493000.6407223     
   4619764653.5808954        117473116.01297164        978382083.51835799     
   4488105774.2539005        87269328.166690826        954480592.87823498     
   4357623961.7789860        60989096.494006872        936788528.72035170     
   4228319216.1561480        38632420.994919062        925305891.04470968     
   4270943875.9645176        209495194.13337064        1123749222.5831177     
   4148104953.3888884        145502300.72221375        1090722259.7147546     
   4029609988.4441695        95989266.080754042        1066067938.3801725     
   3915458981.1303620        60956090.208998203        1049786258.5793712     
   3805651931.4474635        40402773.106942654        1041877220.3123513     
   3768663578.2066464        261202856.04516482        1224517839.0818443     
   3662002293.6674337        169198597.57261539        1192269536.3761179     
   3562851857.5379639        102230500.46587467        1170557090.2557135     
   3471212269.8182359        60298564.724940300        1159380500.7206297     
   3387083530.5082488        43402790.349808574        1158739767.7708685     
   5085950436.8819342        38780712.163395643        693036887.08205616     
   4934326336.6816111        12980982.007293701        675567055.17615461     
   4784668303.4591818       -6265191.5558314323        664498760.29417455     
   4636976337.2146435       -18957808.525984049        659832002.43612039     
   4491250437.9479961       -25096868.903157949        661566781.60199189     
   4655085384.6343069        38091734.013736486        809025779.96794629     
   4520905783.6523542        17749133.098526716        794757370.02082169     
   4388340565.3707781        2787807.8512380123        786246931.08523226     
   4257389729.7895784       -6792241.7281231880        783494463.16118252     
   4128053276.9087572       -10991015.639562368        786499966.24866962     
   4228319216.1561480        38632420.994919062        925305891.04470968     
   4109745354.3571744        23195321.309983492        913828604.73259461     
   3992434190.9810615        11967216.367918730        907465723.41963005     
   3876385726.0278111        4948106.1687250137        906217247.10581601     
   3761599959.4974208        2137990.7124035358        910083175.79115295     
   3805651931.4474635        40402773.106942654        1041877220.3123513     
   3700845048.7960773        29319546.641666412        1032780759.3114777     
   3596949180.2900324        21273033.994203091        1028155137.2973677     
   3493964325.9293342        16263235.164562225        1028000354.2700200     
   3391890485.7139826        14290150.152739763        1032316410.2294414     
   3387083530.5082488        43402790.349808574        1158739767.7708685     
   3294204866.9690537        36121809.093567133        1151613833.7574699     
   3201885533.2976885        30705260.730091810        1148315172.7184446     
   3110125529.4941559        27153145.259388924        1148843784.6537986     
   3018924855.5584521        25465462.681448698        1153199669.5635300     
   4491250437.9479961       -25096868.903157949        661566781.60199189     
   4354669396.1693830       -26025790.317369699        656396333.01850843     
   4217748670.9622545       -28086989.826629639        654779472.66959190     
   4080488262.3266110       -31280467.430935383        656716200.55525076     
   3942888170.2624564       -35606223.130289078        662206516.67547143     
   4128053276.9087572       -10991015.639562368        786499966.24866962     
   4001078465.1300921       -12209922.564848423        780098172.14139915     
   3873986880.3140202       -13818072.948149681        777599117.22514367     
   3746778522.4605489       -15815466.789452791        779002801.49991786     
   3619453391.5696716       -18202104.088778973        784309224.96571708     
   3761599959.4974208        2137990.7124035358        910083175.79115295     
   3645228951.8800035        928370.52443766594        902710098.28304899     
   3528964081.6162953        72541.515489578247        899588910.92242396     
   3412805348.7062926       -429496.31443047523        900719613.70927680     
   3296752753.1499958       -577742.96533346176        906102206.64361298     
   3391890485.7139826        14290150.152739763        1032316410.2294414     
   3287120856.4191189        13389088.950484395        1024232111.4434686     
   3182680274.8690743        13584853.564279914        1020748853.7614336     
   3078568741.0638461        14877443.994134307        1021866637.1833291     
   2974786255.0034332        17266860.240047812        1027585461.7091647     
   3018924855.5584521        25465462.681448698        1153199669.5635300     
   2926754178.7474442        25172232.713289857        1144664211.6226528     
   2835135460.0723577        26718863.198212385        1141078945.7421670     
   2744068699.5332060        30105354.136242747        1142443871.9220734     
   2653553897.1299767        35331705.527354479        1148758990.1623681     
   3942888170.2624564       -35606223.130289078        662206516.67547143     
   3787170746.9413953       -45339150.572287083        654104885.72008622     
   3631811486.8078103       -53878200.722710609        650915434.96709716     
   3476810389.8617024       -61223373.581541777        652638164.41649377     
   3322167456.1030698       -67374669.148793697        659273074.06827843     
   3619453391.5696716       -18202104.088778973        784309224.96571708     
   3477289845.0403161       -24825319.572303772        776766297.38528752     
   3335384794.5202389       -30586881.691570759        774019622.83643615     
   3193738240.0094347       -35486790.446594834        776069201.31916475     
   3052350181.5079055       -39525045.837365031        782915032.83347404     
   3296752753.1499958       -577742.96533346176        906102206.64361298     
   3167811862.9243150       -4190612.6367886066        899001704.06357229     
   3039029801.5297098       -7274052.8713284731        896581527.34430015     
   2910406568.9661813       -9828063.6689400673        898841676.48579550     
   2781942165.2337298       -11852645.029633164        905782151.48806226     
   2974786255.0034332        17266860.240047812        1027585461.7091647     
   2858736800.5933928        16564970.234242558        1020811105.7549453     
   2742746507.8362298        16060285.738030553        1018601148.4906874     
   2626815376.7319436        15752806.751410365        1020955589.9163848     
   2510943407.2805405        15642533.274394512        1027874430.0320399     
   2653553897.1299767        35331705.527354479        1148758990.1623681     
   2550064658.0475492        37441429.040802360        1142194502.4594088     
   2446534913.4397969        39416134.136508822        1140078486.2755966     
   2342964663.3067245        41255820.814475656        1142410941.6109319     
   2239353907.6483316        42960489.074709654        1149191868.4654131     
   3322167456.1030698       -67374669.148793697        659273074.06827843     
   3201788374.1914258       -66645981.102839231        652032426.83200717     
   3078809916.8235946       -74581877.910853028        647804521.14428663     
   2953232083.9995747       -91182359.572827578        646589357.00510192     
   2825054875.7193608       -116447426.08877158        648386934.41447055     
   3052350181.5079055       -39525045.837365031        782915032.83347404     
   2940835470.9898520       -36289137.927499294        773258702.13435662     
   2827949402.2024703       -37624424.248734117        766829787.91316319     
   2713691975.1457567       -43530904.801069856        763628290.16990125     
   2598063189.8197122       -54008579.584512949        763654208.90456319     
   2781942165.2337298       -11852645.029633164        905782151.48806226     
   2679905183.0503597       -5925510.1735464334        895142824.04409504     
   2577724859.7845192       -476178.92568266392        887945588.00744510     
   2475401195.4362130        4495348.7139503956        884190443.37810552     
   2372934190.0054369        8989072.7453575134        883877390.15607905     
   2510943407.2805405        15642533.274394512        1027874430.0320399     
   2418997510.3729506        24444902.159043670        1017684792.5612345     
   2328136289.5697522        36862858.058325291        1011151921.4271272     
   2238359744.8709497        52896400.972264528        1008275816.6297162     
   2149667876.2765403        72545530.900845051        1009056478.1690030     
   2239353907.6483316        42960489.074709654        1149191868.4654131     
   2158112452.9576182        54822099.070235252        1140884607.6857681     
   2079183691.5581710        74392686.703305483        1136448788.1722102     
   2002567623.4499652        101672251.97386050        1135884409.9247272     
   1928264248.6330218        136660794.88194603        1139191472.9433324     
   2825054875.7193608       -116447426.08877158        648386934.41447055     
   2643947276.2247677       -168393551.91451514        638155409.15509832     
   2458316892.6618986       -235415624.63451648        633017580.16897726     
   2268163725.0307441       -317513644.24879229        632973447.45610392     
   2073487773.3312998       -414687610.75737238        638023011.01649582     
   2598063189.8197122       -54008579.584512949        763654208.90456319     
   2436641123.3825264       -83102127.272609591        750201007.72607672     
   2273374224.9478793       -118345114.95225561        741523156.13289392     
   2108262494.5157676       -159737542.62344944        737620654.12499654     
   1941305932.0861843       -207279410.28620696        738493501.70240605     
   2372934190.0054369        8989072.7453575134        883877390.15607905     
   2230288094.6600733        2475234.6052172184        870326790.47442913     
   2088475119.3880677       -1261536.6237384081        861233193.69012153     
   1947495264.1894083       -2221240.9415261745        856596599.80315340     
   1807348529.0641105       -403878.34813582897        856417008.81353354     
   2149667876.2765403        72545530.900845051        1009056478.1690030     
   2024888190.0574155        88338533.718983293        998532757.40013993     
   1903619575.9824648        115835110.35104764        992147692.84067094     
   1785862034.0516775        155035260.79699135        989901284.49059343     
   1671615564.2650681        205938985.05684817        991793532.34989893     
   1928264248.6330218        136660794.88194603        1139191472.9433324     
   1820441409.5745499        174487770.06869406        1134818908.5032203     
   1718807594.7310674        232944825.97208369        1134266653.5845416     
   1623362804.1025729        312031962.59209549        1137534708.1873002     
   1534107037.6890702        411749179.92874545        1144623072.3114972     
   3768226265.0548086        1130467879.5164425        800566116.37703717     
   3779156850.6164293        1008755592.0511334        884851108.92190742     
   3790679504.1691842        889016864.55627191        974083895.94722927     
   3802794225.7130728        771251697.03185844        1068264477.4530026     
   3815501015.2480965        655460089.47789228        1167392853.4392269     
   3207760933.1821194        962328279.95463586        756721163.83103836     
   3235915235.1823807        868236078.80872011        853075908.34172606     
   3263783270.3075995        773189654.74599218        951358004.94336522     
   3291365038.5577745        677189007.76645207        1051567453.6359552     
   3318660539.9329047        580234137.87009883        1153704254.4194963     
   2685585856.0985198        805675756.82955599        722024331.51638770     
   2722334039.1388516        736614691.38346243        829424103.98235166     
   2757917620.4379611        663671620.13329637        935730786.14976680     
   2792336599.9958491        586846543.07905769        1040944378.0186335     
   2825590977.8125157        506139460.22074646        1145064879.5889504     
   2201701033.8040099        660510310.14120305        696475619.43308461     
   2238413262.4858398        613891429.77535999        813895695.84378397     
   2273082554.5602689        560462760.71818388        927202239.56643438     
   2305708910.0272989        500224302.96967578        1036395250.6010358     
   2336292328.8869281        433176056.52983421        1141474728.9475877     
   1756106466.2985899        526831939.88957697        680075027.58112943     
   1784152905.2233446        500066293.98441243        806490683.92602324     
   1809278072.6745217        463563076.50065541        925772365.19336760     
   1831481968.6521206        417322287.43830538        1037920071.3831630     
   1850764593.1561418        361343926.79736280        1142933802.4954090     
   3815501015.2480965        655460089.47789228        1167392853.4392269     
   3797943096.4704099        537400582.72862887        1189056965.3038943     
   3784284217.3709393        432337874.90675330        1205799166.8658850     
   3774524377.9496856        340271966.01226676        1217619458.1252022     
   3768663578.2066464        261202856.04516482        1224517839.0818443     
   3318660539.9329047        580234137.87009883        1153704254.4194963     
   3293891088.5228252        472937942.13170433        1182065999.6653955     
   3272888009.4780235        378196320.94423485        1207318481.4173133     
   3255651302.7985001        296009274.30769122        1229461699.6752498     
   3242180968.4842515        226376802.22207177        1248495654.4392047     
   2825590977.8125157        506139460.22074646        1145064879.5889504     
   2798788984.6520257        411160272.75781602        1179969479.6843200     
   2775620696.5438747        328293435.46934736        1213577463.0944014     
   2756086113.4880614        257538948.35534215        1245888829.8191950     
   2740185235.4845877        198896811.41579854        1276903579.8587017     
   2336292328.8869281        433176056.52983421        1141474728.9475877     
   2312636784.8580089        352067574.60696208        1182767405.3606658     
   2292482278.5684896        282629218.48208886        1224576111.8971488     
   2275828810.0183706        224860988.15521735        1266900848.5570381     
   2262676379.2076521        178762883.62634408        1309741615.3403335     
   1850764593.1561418        361343926.79736280        1142933802.4954090     
   1835434489.1407759        295659847.67914355        1190459776.6944330     
   1823472755.5518706        241203669.98246074        1240314427.8255565     
   1814879392.3894267        197975393.70731521        1292497755.8887792     
   1809654399.6534441        165975018.85370666        1347009760.8841016     
   3768663578.2066464        261202856.04516482        1224517839.0818443     
   3662002293.6674337        169198597.57261539        1192269536.3761179     
   3562851857.5379639        102230500.46587467        1170557090.2557135     
   3471212269.8182359        60298564.724940300        1159380500.7206297     
   3387083530.5082488        43402790.349808574        1158739767.7708685     
   3242180968.4842515        226376802.22207177        1248495654.4392047     
   3165121935.9138212        152410695.13231277        1231440710.8578176     
   3094017173.4875937        98292155.189898610        1222458223.4249108     
   3028866681.2055707        64021182.394831896        1221548192.1404877     
   2969670459.0677514        49597776.747114778        1228710617.0045469     
   2740185235.4845877        198896811.41579854        1276903579.8587017     
   2685690167.9205403        140857369.62010777        1273225987.4251890     
   2635592792.2351594        97476900.753305674        1275157450.7033215     
   2589893108.4284444        68755404.815388322        1282697969.6930976     
   2548591116.5003963        54692881.806361914        1295847544.3945150     
   2262676379.2076521        178762883.62634408        1309741615.3403335     
   2223706989.6875906        134538621.03600287        1317625366.0782390     
   2187578713.7806587        99784737.156090498        1328654772.0909469     
   2154291551.4868560        74501231.986608148        1342829833.3784604     
   2123845502.8061805        58688105.527549982        1360150549.9407771     
   1809654399.6534441        165975018.85370666        1347009760.8841016     
   1779172401.2149734        133454449.37999713        1364638846.8169615     
   1749974938.1240945        105215664.39825886        1382950187.5877876     
   1722062010.3808045        81258663.908484042        1401943783.1965775     
   1695433617.9851072        61583447.910684049        1421619633.6433342     
   3387083530.5082488        43402790.349808574        1158739767.7708685     
   3294204866.9690537        36121809.093567133        1151613833.7574699     
   3201885533.2976885        30705260.730091810        1148315172.7184446     
   3110125529.4941559        27153145.259388924        1148843784.6537986     
   3018924855.5584521        25465462.681448698        1153199669.5635300     
   2969670459.0677514        49597776.747114778        1228710617.0045469     
   2885987983.4646282        38093991.719337940        1221299676.5228398     
   2803119697.0532541        29304170.664064169        1218109946.9648604     
   2721065599.8336315        23228313.581297278        1219141428.3306029     
   2639825691.8057637        19866420.471039653        1224394120.6200683     
   2548591116.5003963        54692881.806361914        1295847544.3945150     
   2475230365.8314743        39303954.106487036        1288448933.3224156     
   2402938663.6782250        27478521.458856583        1285665471.1233833     
   2331716010.0406494        19216583.863472462        1287497157.7974243     
   2261562404.9187474        14518141.320331454        1293943993.3445327     
   2123845502.8061805        58688105.527549982        1360150549.9407771     
   2061932014.0695958        39751696.255020380        1353061604.1561902     
   2001342433.1726046        25228313.114472270        1350981745.1940191     
   1942076760.1152072        15117956.105906725        1353910973.0542624     
   1884134994.8974056        9420625.2293217182        1361849287.7369258     
   1695433617.9851072        61583447.910684049        1421619633.6433342     
   1646092928.1789899        39437218.164935052        1415137689.0241654     
   1598331005.5363901        22553545.630908549        1414058769.1767626     
   1552147850.0573063        10932430.308604002        1418382874.1011214     
   1507543461.7417383        4573872.1980212927        1428110003.7972453     
   3018924855.5584521        25465462.681448698        1153199669.5635300     
   2926754178.7474442        25172232.713289857        1144664211.6226528     
   2835135460.0723577        26718863.198212385        1141078945.7421670     
   2744068699.5332060        30105354.136242747        1142443871.9220734     
   2653553897.1299767        35331705.527354479        1148758990.1623681     
   2639825691.8057637        19866420.471039653        1224394120.6200683     
   2560034067.5756941        18934480.585772753        1216650418.4988596     
   2480743947.3971591        19674220.872286081        1213626267.0527034     
   2401955331.2701607        22085641.330586791        1215321666.2815967     
   2323668219.1946983        26168741.960670233        1221736616.1855402     
   2261562404.9187474        14518141.320331454        1293943993.3445327     
   2193490857.8829317        12749798.901952386        1286933183.9445369     
   2125870360.8142574        12484956.374046922        1284411283.8342485     
   2058700913.7127252        13723613.736617088        1286378293.0136685     
   1991982516.5783339        16465770.989653945        1292834211.4828012     
   1884134994.8974056        9420625.2293217182        1361849287.7369258     
   1827124549.6691544        6618187.6618288755        1355512507.9596820     
   1770514700.3236523        5151069.7034960985        1353433996.0868030     
   1714305446.8608980        5019271.3543248177        1355613752.1182950     
   1658496789.2808938        6222792.6143196821        1362051776.0541511     
   1507543461.7417383        4573872.1980212927        1428110003.7972453     
   1460935142.9343619        539646.86539685726        1422388390.5442934     
   1414676965.9253452       -2327439.1393631101        1420694403.8103666     
   1368768930.7146823       -4027385.8162758946        1423028043.5954697     
   1323211037.3023717       -4560193.1653457284        1429389309.8995984     
   2653553897.1299767        35331705.527354479        1148758990.1623681     
   2550064658.0475492        37441429.040802360        1142194502.4594088     
   2446534913.4397969        39416134.136508822        1140078486.2755966     
   2342964663.3067245        41255820.814475656        1142410941.6109319     
   2239353907.6483316        42960489.074709654        1149191868.4654131     
   2323668219.1946983        26168741.960670233        1221736616.1855402     
   2231596872.7333026        26878749.186763287        1214623623.9253569     
   2139526556.4479184        27592190.332896829        1212168165.9208288     
   2047457270.3385549        28309065.399093270        1214370242.1719582     
   1955389014.4052060        29029374.385337472        1221229852.6787362     
   1991982516.5783339        16465770.989653945        1292834211.4828012     
   1911926384.8422747        15955258.559677362        1285221172.9836276     
   1831912818.9835668        15586632.387546182        1282474731.4766135     
   1751941819.0022128        15359892.473255515        1284594886.9617574     
   1672013384.8982096        15275038.816807151        1291581639.4390612     
   1658496789.2808938        6222792.6143196821        1362051776.0541511     
   1591053194.3744726        4670957.1595652699        1353987149.6342132     
   1523693701.0467405        3399460.3004482985        1350998182.9429381     
   1456418309.2977004        2408302.0369684100        1353084875.9803276     
   1389227019.1273499        1697482.3691195250        1360247228.7463822     
   1323211037.3023717       -4560193.1653457284        1429389309.8995984     
   1268977301.3298924       -6974155.0135784745        1420921553.8771191     
   1214869202.6374421       -8969325.9283837080        1417738520.3198094     
   1160886741.2250154       -10545705.909770310        1419840209.2276728     
   1107029917.0926166       -11703294.957736790        1427226620.6007078     
   2239353907.6483316        42960489.074709654        1149191868.4654131     
   2158112452.9576182        54822099.070235252        1140884607.6857681     
   2079183691.5581710        74392686.703305483        1136448788.1722102     
   2002567623.4499652        101672251.97386050        1135884409.9247272     
   1928264248.6330218        136660794.88194603        1139191472.9433324     
   1955389014.4052060        29029374.385337472        1221229852.6787362     
   1883494988.1849380        38437142.877287865        1215497698.2886343     
   1813337420.0909262        53633105.123427153        1213650703.3413115     
   1744916310.1231639        74617261.123732030        1215688867.8367662     
   1678231658.2816629        101389610.87823975        1221612191.7749968     
   1672013384.8982096        15275038.816807151        1291581639.4390612     
   1609505981.9389417        22240724.242336571        1287752317.0793381     
   1548158801.9409313        33073819.538723588        1287821872.3390830     
   1487971844.9041724        47774324.705949724        1291790305.2183008     
   1428945110.8286734        66342239.744040906        1299657615.7169936     
   1389227019.1273499        1697482.3691195250        1360247228.7463822     
   1336145434.2196407        6232843.1653951406        1357648464.0578673     
   1283647837.1081853        12714829.949188054        1358962295.1655209     
   1231734227.7929888        21143442.720511556        1364188722.0693390     
   1180404606.2740469        31518681.479349315        1373327744.7693293     
   1107029917.0926166       -11703294.957736790        1427226620.6007078     
   1063413345.0270288       -9586500.3535346985        1425186139.2242310     
   1019804525.5926917       -7443863.6451601386        1427071971.8206222     
   976203458.78961349       -5275384.8325895667        1432884118.3898754     
   932610144.61779702       -3081063.9158159494        1442622578.9319956     
   1928264248.6330218        136660794.88194603        1139191472.9433324     
   1820441409.5745499        174487770.06869406        1134818908.5032203     
   1718807594.7310674        232944825.97208369        1134266653.5845416     
   1623362804.1025729        312031962.59209549        1137534708.1873002     
   1534107037.6890702        411749179.92874545        1144623072.3114972     
   1678231658.2816629        101389610.87823975        1221612191.7749968     
   1576895745.4573786        123981679.53742081        1222921030.5047626     
   1477921240.7922451        154445108.72711241        1228915250.6303735     
   1381308144.2862504        192779898.44727597        1239594852.1518185     
   1287056455.9394128        238986048.69793543        1254959835.0691061     
   1428945110.8286734        66342239.744040906        1299657615.7169936     
   1336567758.1654468        74440892.053722620        1302182305.5514889     
   1242724197.6055298        77652184.707758844        1310257448.6562324     
   1147414429.1489182        75976117.706145048        1323883045.0312099     
   1050638452.7956083        69412691.048881233        1343059094.6764498     
   1180404606.2740469        31518681.479349315        1373327744.7693293     
   1099457447.6987586        25865407.617592752        1372602733.6434011     
   1013216465.1709329        2566053.9140478969        1378293247.6621306     
   921681658.69057012       -38379379.631289780        1390399286.8255053     
   824853028.25767148       -96970893.018412650        1408920851.1335399     
   932610144.61779702       -3081063.9158159494        1442622578.9319956     
   865564814.05731297       -21744773.770957887        1434182314.7805014     
   789398043.48844874       -70813283.654030859        1433022647.6480651     
   704109832.91120839       -150286593.56502566        1439143577.5346828     
   609700182.32558906       -260164703.50395030        1452545104.4403572     
   1756106466.2985899        526831939.88957697        680075027.58112943     
   1784152905.2233446        500066293.98441243        806490683.92602324     
   1809278072.6745217        463563076.50065541        925772365.19336760     
   1831481968.6521206        417322287.43830538        1037920071.3831630     
   1850764593.1561418        361343926.79736280        1142933802.4954090     
   1326519902.4218714        397955970.72656143        669726134.20641363     
   1339698266.8022239        375522944.43884987        791879883.58295000     
   1350686781.1379881        345790418.00251007        908730792.32192898     
   1359485445.4291635        308758391.41754204        1020278860.4233515     
   1366094259.6757505        264426864.68394575        1126524087.8872168     
   890659091.01346684        267197727.30404004        662332517.55482829     
   894201193.53510964        250666864.43948928        781077684.96349442     
   896284867.44115329        229274572.85627457        896351146.17459619     
   896910112.73159778        203020852.55439606        1008152901.1881334     
   896076929.40644312        171905703.53385377        1116482950.0041058     
   448524032.07337624        134557209.62201288        657894177.62637389     
   447661685.42200190        125498053.98633051        774084088.06765759     
   446072331.58401769        114015541.06194887        888633426.75136924     
   443755970.55942351        100109670.84886757        1001542193.6775086     
   440712602.34821969        83780443.347087115        1112810388.8460755     
   114725.60159979612        34417.680479938834        656411114.42105007     
   79742.462900660961        16513.079373758304        770899092.89543903     
   49173.566581000137        13322.619532535584        885577634.05224800     
   23018.912640983785        24846.300956686009        1000446737.8914771     
   1278.5010803874320        51084.123645569787        1115506404.4131267     
   1850764593.1561418        361343926.79736280        1142933802.4954090     
   1835434489.1407759        295659847.67914355        1190459776.6944330     
   1823472755.5518706        241203669.98246074        1240314427.8255565     
   1814879392.3894267        197975393.70731521        1292497755.8887792     
   1809654399.6534441        165975018.85370666        1347009760.8841016     
   1366094259.6757505        264426864.68394575        1126524087.8872168     
   1360493519.1401274        216938300.06323388        1181929361.4289677     
   1357416141.9771459        177860946.68466106        1238291118.9082282     
   1356862128.1868060        147194804.54822725        1295609360.3249969     
   1358831477.7691081        124939873.65393293        1353884085.6792743     
   896076929.40644312        171905703.53385377        1116482950.0041058     
   896285000.93744624        141436487.98671445        1178781681.3257949     
   898171428.78727138        116561793.50231561        1240664703.5904026     
   901736212.95591938        97281620.080658913        1302132016.7979279     
   906979353.44339001        83595967.721743971        1363183620.9483714     
   440712602.34821969        83780443.347087115        1112810388.8460755     
   442808934.53273225        69154411.449584380        1181016736.3849142     
   445738615.98224843        57306210.435427353        1247435181.8720796     
   449501646.69676691        48235840.304610819        1312065725.3075721     
   454098026.67628932        41943301.057141289        1374908366.6913917     
   1278.5010803874320        51084.123645569787        1115506404.4131267     
   65319.925985877824        92070.451845593445        1188634526.6063247     
   117703.56207553766        94197.483992197987        1258602553.7532592     
   158429.40934843259        57465.220083418266        1325410485.8539302     
   187497.46780552983       -18126.339878367384        1389058322.9083369     
   1809654399.6534441        165975018.85370666        1347009760.8841016     
   1779172401.2149734        133454449.37999713        1364638846.8169615     
   1749974938.1240945        105215664.39825886        1382950187.5877876     
   1722062010.3808045        81258663.908484042        1401943783.1965775     
   1695433617.9851072        61583447.910684049        1421619633.6433342     
   1358831477.7691081        124939873.65393293        1353884085.6792743     
   1333146804.8047347        99700462.320088089        1372796009.4524782     
   1308441005.6047223        77723963.534114897        1393035661.4893610     
   1284714080.1690698        59010377.296007335        1414603041.7899230     
   1261966028.4977779        43559703.605768979        1437498150.3541620     
   906979353.44339001        83595967.721743971        1363183620.9483714     
   887936215.74086571        66190977.464092404        1383021777.3814843     
   869566290.21947205        51030027.810209334        1404833135.5039892     
   851869576.87920833        38113118.760091782        1428617695.3158855     
   834846075.72007513        27440250.313743412        1454375456.8171747     
   454098026.67628932        41943301.057141289        1374908366.6913917     
   443540634.02336609        32925994.812005058        1395316150.6039791     
   433350791.96834391        25133857.226539493        1418342609.6316707     
   423528500.51122087        18566888.300737977        1443987743.7744682     
   414073759.65199804        13225088.034603074        1472251553.0323708     
   187497.46780552983       -18126.339878367384        1389058322.9083369     
  -39940.347763178055       -94485.636168232013        1409679129.1199625     
  -205489.14866245224        35451.783106682196        1433564083.8724058     
  -309148.93489222706        371685.91794746189        1460713187.1656673     
  -350919.70645139570        914216.76835519355        1491126438.9997494     
   1695433617.9851072        61583447.910684049        1421619633.6433342     
   1646092928.1789899        39437218.164935052        1415137689.0241654     
   1598331005.5363901        22553545.630908549        1414058769.1767626     
   1552147850.0573063        10932430.308604002        1418382874.1011214     
   1507543461.7417383        4573872.1980212927        1428110003.7972453     
   1261966028.4977779        43559703.605768979        1437498150.3541620     
   1227776921.2118149        27913418.226413369        1434507216.3222067     
   1194743031.3671739        16117857.651464939        1436268333.8340533     
   1162864358.9638548        8173021.8809223771        1442781502.8897040     
   1132140904.0018594        4078910.9147901535        1454046723.4891546     
   834846075.72007513        27440250.313743412        1454375456.8171747     
   813948627.44580817        17735932.248243898        1454381392.0298696     
   793782846.89066839        10470506.579835802        1458488405.5584071     
   774348734.05465674        5643973.3085209429        1466696497.4027863     
   755646288.93777132        3256332.4342937469        1479005667.5630088     
   414073759.65199804        13225088.034603074        1472251553.0323708     
   404608046.88096827        8904760.2304235995        1474760216.1471560     
   395450452.10687178        5611492.4160220325        1480718984.3498230     
   386600975.32970625        3345284.5913916975        1490127857.6403706     
   378059616.54947430        2106136.7565367967        1502986836.0188024     
  -350919.70645139570        914216.76835519355        1491126438.9997494     
  -244820.48270413734        1419902.1729535789        1495643688.6740646     
  -254152.98421793478        1540815.1600151111        1502960070.2083018     
  -378917.21099317115        1276955.7295381664        1513075583.6024599     
  -619113.16303185374        628323.88151709491        1525990228.8565371     
   1507543461.7417383        4573872.1980212927        1428110003.7972453     
   1460935142.9343619        539646.86539685726        1422388390.5442934     
   1414676965.9253452       -2327439.1393631101        1420694403.8103666     
   1368768930.7146823       -4027385.8162758946        1423028043.5954697     
   1323211037.3023717       -4560193.1653457284        1429389309.8995984     
   1132140904.0018594        4078910.9147901535        1454046723.4891546     
   1096413043.3320315        622978.67962062359        1448386586.4459341     
   1060940624.8538395       -1981479.5834304094        1446934953.8131549     
   1025723648.5672848       -3734463.8743563890        1449691825.5908210     
   990762114.47236383       -4635974.1931683421        1456657201.7789290     
   755646288.93777132        3256332.4342937469        1479005667.5630088     
   731315680.38096845        533731.48922169209        1473296523.8550096     
   707145814.40908265       -1653060.8394599557        1471976762.4488716     
   683136691.02210963       -3304044.5517653525        1475046383.3445952     
   659288310.22005165       -4419219.6476873159        1482505386.5421774     
   378059616.54947430        2106136.7565367967        1502986836.0188024     
   365643054.08117443        271905.29420828819        1497118202.7715189     
   353292534.59106660       -1342182.9074788243        1495819829.7175152     
   341008058.07915455       -2736127.8485140353        1499091716.8567848     
   328789624.54544026       -3909929.5288901925        1506933864.1893373     
  -619113.16303185374        628323.88151709491        1525990228.8565371     
  -604835.56735445966       -162499.90543390828        1519851623.1954646     
  -619214.60020104924       -1048845.7874627754        1518464155.6190846     
  -662250.26157618617       -2030713.7645878412        1521827826.1274006     
  -733942.55147578719       -3108103.8367944541        1529942634.7204087     
   1323211037.3023717       -4560193.1653457284        1429389309.8995984     
   1268977301.3298924       -6974155.0135784745        1420921553.8771191     
   1214869202.6374421       -8969325.9283837080        1417738520.3198094     
   1160886741.2250154       -10545705.909770310        1419840209.2276728     
   1107029917.0926166       -11703294.957736790        1427226620.6007078     
   990762114.47236383       -4635974.1931683421        1456657201.7789290     
   950315007.16973817       -6538331.1732215881        1448661823.1503446     
   910037617.21464455       -7874963.6614981294        1445868758.3715115     
   869929944.60707986       -8645871.6580128074        1448278007.4424293     
   829991989.34704828       -8851055.1627509594        1455889570.3630991     
   659288310.22005165       -4419219.6476873159        1482505386.5421774     
   632392378.40036559       -5880607.7156376541        1475033812.0529082     
   605710243.99571800       -6629337.7334582806        1472682142.7979717     
   579241907.00610530       -6665409.7011638284        1475450378.7773676     
   552987367.43152988       -5988823.6187435389        1483338519.9910934     
   328789624.54544026       -3909929.5288901925        1506933864.1893373     
   315209415.02178079       -5000984.6408136338        1500037520.5848057     
   301887082.98066491       -5232448.1442561597        1498178673.5991888     
   288822628.42209017       -4604320.0392269492        1501357323.2324820     
   276016051.34605747       -3116600.3257273436        1509573469.4846897     
  -733942.55147578719       -3108103.8367944541        1529942634.7204087     
  -1233882.9660194651       -3899461.9487542836        1523672948.7460389     
  -1431865.8305137013       -3684294.8938850686        1522358350.7751639     
  -1327891.1449651292       -2462602.6722054519        1525998840.8077807     
  -921958.90936803014       -234385.28369706517        1534594418.8438914     
   1107029917.0926166       -11703294.957736790        1427226620.6007078     
   1063413345.0270288       -9586500.3535346985        1425186139.2242310     
   1019804525.5926917       -7443863.6451601386        1427071971.8206222     
   976203458.78961349       -5275384.8325895667        1432884118.3898754     
   932610144.61779702       -3081063.9158159494        1442622578.9319956     
   829991989.34704828       -8851055.1627509594        1455889570.3630991     
   796641083.25374806       -7339917.1472865641        1453758248.6822519     
   762949167.57347465       -6965477.7550644577        1455737046.0661621     
   728916242.30621886       -7727736.9861182868        1461825962.5148327     
   694542307.45199192       -9626694.8404087722        1472024998.0282600     
   552987367.43152988       -5988823.6187435389        1483338519.9910934     
   530427284.71592963       -4925794.9703856409        1480709468.7512710     
   507177430.19511920       -6162005.6727294922        1482374341.6680970     
   483237803.86910200       -9697455.7257633805        1488333138.7415769     
   458608405.73787814       -15532145.129484177        1498585859.9717066     
   276016051.34605747       -3116600.3257273436        1509573469.4846897     
   264771949.41356701       -2344133.8228550851        1506039799.4312859     
   252489313.45763463       -5033447.3981236368        1506983858.6264277     
   239168143.47826433       -11184541.051518172        1512405647.0701122     
   224808439.47545126       -20797414.783055186        1522305164.7623451     
  -921958.90936803014       -234385.28369706517        1534594418.8438914     
  -324922.65333800064        405066.29531441000        1529749240.7223017     
  -1115182.6389822410       -3579802.9312550137        1529565596.9411511     
  -3292738.8663018262       -12188992.963407533        1534043487.5004380     
  -6857591.3352885898       -25422503.801120088        1543182912.4001658     
   932610144.61779702       -3081063.9158159494        1442622578.9319956     
   865564814.05731297       -21744773.770957887        1434182314.7805014     
   789398043.48844874       -70813283.654030859        1433022647.6480651     
   704109832.91120839       -150286593.56502566        1439143577.5346828     
   609700182.32558906       -260164703.50395030        1452545104.4403572     
   694542307.45199192       -9626694.8404087722        1472024998.0282600     
   647308733.84791422       -22532535.415730149        1456135021.5493605     
   595702549.32789576       -50013745.710851312        1446875522.0302143     
   539723753.89195263       -92070325.725727111        1444246499.4708226     
   479372347.54006445       -148702275.46041143        1448247953.8711982     
   458608405.73787814       -15532145.129484177        1498585859.9717066     
   429329103.20649552       -23237362.190108359        1480786471.7732503     
   400426018.85161847       -29688518.662381560        1468967440.4752548     
   371899152.67325640       -34885614.546270415        1463128766.0777144     
   343748504.67139792       -38828649.841815129        1463270448.5806456     
   224808439.47545126       -20797414.783055186        1522305164.7623451     
   211625922.13305670       -23859254.094092607        1508136665.4521794     
   203568452.05960914       -9837602.5086385459        1499298402.9831779     
   200636029.25512031        21267539.973342523        1495790377.3553400     
   202828653.71958429        69456173.351837009        1497612588.5686641     
  -6857591.3352885898       -25422503.801120088        1543182912.4001658     
  -5800809.3724033982       -24398211.127683248        1538185602.5861442     
   5129848.9518739479        9539002.7503934186        1537868409.5539954     
   25934383.637556009        76389137.833156988        1542231333.3037069     
   56612794.684627891        176152194.12054634        1551274373.8352873     
   114725.60159979612        34417.680479938834        656411114.42105007     
   79742.462900660961        16513.079373758304        770899092.89543903     
   49173.566581000137        13322.619532535584        885577634.05224800     
   23018.912640983785        24846.300956686009        1000446737.8914771     
   1278.5010803874320        51084.123645569787        1115506404.4131267     
  -448304198.84980136       -134491259.65494043        657883735.26430929     
  -447505920.66810930       -125467116.85017383        774078200.64680135     
  -445973844.87880945       -113996982.02004787        888636447.26889586     
  -443707971.48190153       -100080855.16456248        1001558475.1305928     
  -440708300.47738618       -83718736.283718213        1112844284.2318916     
  -890468111.72876585       -267140433.51862976        662312447.48160434     
  -894055947.77759039       -250640055.97326279        781064347.03163254     
  -896180602.85357893       -229262408.51844224        896353246.37844539     
  -896842076.95673132       -203007491.15416801        1008179145.5220430     
  -896040370.08704793       -171875303.88044038        1116542044.4624252     
  -1326377013.0352936       -397913103.91058809        669697251.07293475     
  -1339570338.8655429       -375502304.28989309        791857532.04993212     
  -1350571100.3577278       -345782956.87565017        908728031.38089633     
  -1359379297.5118482       -308755061.66785955        1020308749.0658271     
  -1365994930.3279045       -264418618.66652101        1126599685.1047256     
  -1756030902.7693851       -526809270.83081549        680038146.03830075     
  -1784049093.9319668       -500053861.80006486        806457755.70170045     
  -1809145337.3912556       -463558627.09167212        925760802.27624905     
  -1831319633.1472523       -417323566.70563734        1037947285.7619468     
  -1850571981.1999559       -361348680.64196032        1143017206.1587934     
   1278.5010803874320        51084.123645569787        1115506404.4131267     
   65319.925985877824        92070.451845593445        1188634526.6063247     
   117703.56207553766        94197.483992197987        1258602553.7532592     
   158429.40934843259        57465.220083418266        1325410485.8539302     
   187497.46780552983       -18126.339878367384        1389058322.9083369     
  -440708300.47738618       -83718736.283718213        1112844284.2318916     
  -442689873.32815045       -69026773.600558326        1181034899.9140887     
  -445521144.69274348       -57167139.296827078        1247431066.6562741     
  -449202114.57116503       -48139833.372524023        1312032784.4584470     
  -453732782.96341389       -41944855.827646717        1374840053.3206096     
  -896040370.08704793       -171875303.88044038        1116542044.4624252     
  -896165711.19561899       -141361811.03696257        1178817439.4544394     
  -897978791.54303038       -116474115.65628594        1240664031.6126952     
  -901479611.12928212       -97212217.738410741        1302081820.9371903     
  -906668169.95437479       -83576117.283337265        1363070807.4279275     
  -1365994930.3279045       -264418618.66652101        1126599685.1047256     
  -1360362193.6764188       -216913041.85736582        1181982145.2273769     
  -1357255236.9887853       -177826731.59438533        1238301448.6225214     
  -1356674060.2650044       -147159687.87757987        1295557595.2901585     
  -1358618663.5050757       -124911910.70695001        1353750585.2302890     
  -1850571981.1999559       -361348680.64196032        1143017206.1587934     
  -1835279320.7705498       -295680466.06176829        1190529017.2329009     
  -1823350481.0300086       -241224987.11112529        1240343317.6857538     
  -1814785461.9783309       -197982243.79003102        1292460107.5173514     
  -1809584263.6155186       -165952236.09848577        1346879386.7276947     
   187497.46780552983       -18126.339878367384        1389058322.9083369     
  -39940.347763178055       -94485.636168232013        1409679129.1199625     
  -205489.14866245224        35451.783106682196        1433564083.8724058     
  -309148.93489222706        371685.91794746189        1460713187.1656673     
  -350919.70645139570        914216.76835519355        1491126438.9997494     
  -453732782.96341389       -41944855.827646717        1374840053.3206096     
  -443589254.16237944       -33068668.157811373        1395367088.2770312     
  -433730784.45170885       -25142677.455856204        1418541668.9439926     
  -424157373.83140242       -18166883.721780717        1444363795.3214943     
  -414869022.30146229       -12141286.955593035        1472833467.4095342     
  -906668169.95437479       -83576117.283337265        1363070807.4279275     
  -887915396.90896094       -66275899.359041423        1383099298.3399379     
  -869794631.05894613       -51082372.086074710        1405158732.1322093     
  -852305872.40432978       -37995535.464437425        1429249108.8047431     
  -835449120.94511294       -27015389.494130254        1455370428.3575358     
  -1358618663.5050757       -124911910.70695001        1353750585.2302890     
  -1333018368.5875084       -99716179.239862978        1372875759.3086822     
  -1308397028.9703743       -77783632.107553422        1393415273.4370577     
  -1284754644.6536720       -59114269.310016870        1415369127.6154156     
  -1262091215.6374040       -43708090.847261846        1438737321.8437562     
  -1809584263.6155186       -165952236.09848577        1346879386.7276947     
  -1778898169.1980217       -133389507.80027336        1364696471.1832640     
  -1749537978.1859915       -105246457.52028263        1383311292.8585362     
  -1721503690.5794294       -81523085.258519530        1402723851.7535131     
  -1694795306.3783348       -62219391.014982164        1422934147.8681931     
  -350919.70645139570        914216.76835519355        1491126438.9997494     
  -244820.48270413734        1419902.1729535789        1495643688.6740646     
  -254152.98421793478        1540815.1600151111        1502960070.2083018     
  -378917.21099317115        1276955.7295381664        1513075583.6024599     
  -619113.16303185374        628323.88151709491        1525990228.8565371     
  -414869022.30146229       -12141286.955593035        1472833467.4095342     
  -405288154.54735541       -7223263.7755145580        1475204120.0356572     
  -396210356.35345286       -3982139.1294487417        1481045692.4924109     
  -387635627.71975243       -2417913.0173910707        1490358184.7797928     
  -379563968.64625674       -2530585.4393491745        1503141596.8978035     
  -835449120.94511294       -27015389.494130254        1455370428.3575358     
  -814474090.45862532       -17109210.277968317        1455142239.7947044     
  -794389767.36728084       -10172055.712285459        1459056759.0332079     
  -775196151.67108274       -6203925.7970899642        1467113986.0730484     
  -756893243.37002981       -5204820.5323773623        1479313920.9142282     
  -1262091215.6374040       -43708090.847261846        1438737321.8437562     
  -1227802628.2165110       -28237937.334405124        1435458047.9512017     
  -1194792386.0257053       -17028934.588506162        1436993269.8306913     
  -1163060489.0649850       -10081082.609557927        1443342987.4822268     
  -1132606937.3343525       -7394381.3975700736        1454507200.9058073     
  -1694795306.3783348       -62219391.014982164        1422934147.8681931     
  -1645273767.8210154       -40609444.944830537        1416151544.5051510     
  -1597418212.3287227       -24552775.758098423        1414855224.8848629     
  -1551228639.9014604       -14049383.454803348        1419045189.0073273     
  -1506705050.5392256       -9099268.0349311829        1428721436.8725441     
  -619113.16303185374        628323.88151709491        1525990228.8565371     
  -604835.56735445966       -162499.90543390828        1519851623.1954646     
  -619214.60020104924       -1048845.7874627754        1518464155.6190846     
  -662250.26157618617       -2030713.7645878412        1521827826.1274006     
  -733942.55147578719       -3108103.8367944541        1529942634.7204087     
  -379563968.64625674       -2530585.4393491745        1503141596.8978035     
  -367130643.49154973       -2148808.7373511642        1497422207.5684769     
  -354730985.50218397       -1879255.9198229015        1496234193.5485668     
  -342364994.67815667       -1721926.9867565930        1499577554.8380752     
  -330032671.01947230       -1676821.9381669760        1507452291.4370003     
  -756893243.37002981       -5204820.5323773623        1479313920.9142282     
  -732668764.29994321       -3838811.4345270693        1474007902.2903631     
  -708482962.93201232       -2601728.0105285347        1473013496.2006388     
  -684335839.26623750       -1493570.2603821158        1476330702.6450548     
  -660227393.30261815       -514338.18408927321        1483959521.6236091     
  -1132606937.3343525       -7394381.3975700736        1454507200.9058073     
  -1097219197.9925363       -5232507.9969632030        1449608707.3611219     
  -1061875146.8896899       -3216262.0595896840        1448802063.5752993     
  -1026574784.0258143       -1345643.5854514837        1452087269.5483384     
  -991318109.40091169        379347.42544496059        1459464325.2802403     
  -1506705050.5392256       -9099268.0349311829        1428721436.8725441     
  -1460781944.5693283       -6329898.4246598482        1424224622.7807543     
  -1414907537.3752184       -3722858.0670118928        1423599895.6725478     
  -1369081828.9568906       -1278146.9619730115        1426847255.5479269     
  -1323304819.3143528        1004234.8904348016        1433966702.4068909     
  -733942.55147578719       -3108103.8367944541        1529942634.7204087     
  -1233882.9660194651       -3899461.9487542836        1523672948.7460389     
  -1431865.8305137013       -3684294.8938850686        1522358350.7751639     
  -1327891.1449651292       -2462602.6722054519        1525998840.8077807     
  -921958.90936803014       -234385.28369706517        1534594418.8438914     
  -330032671.01947230       -1676821.9381669760        1507452291.4370003     
  -317194076.90156811       -1423908.0714371502        1501140924.0228918     
  -304284940.22467804       -935852.34141914546        1499893893.9428594     
  -291305260.98879129       -212654.74807977676        1503711201.1969049     
  -278255039.19392020        745684.70854063332        1512592845.7850237     
  -660227393.30261815       -514338.18408927321        1483959521.6236091     
  -633738123.70774722        876489.94467750192        1477336488.6135311     
  -607409726.54494107        1731076.6332271695        1475887042.2681115     
  -581242201.81420088        2049421.8815575540        1479611182.5873508     
  -555235549.51552689        1831525.6896669269        1488508909.5712492     
  -991318109.40091169        379347.42544496059        1459464325.2802403     
  -950866023.38454771        3001732.0996124148        1452259642.5179591     
  -910806224.79130590        4316492.0300428867        1450337795.7509193     
  -871138713.62118781        4323627.2167283297        1453698784.9791219     
  -831863489.87419248        3023137.6596681476        1462342610.2025661     
  -1323304819.3143528        1004234.8904348016        1433966702.4068909     
  -1268577775.9319756        4951818.3933575153        1425910385.7361746     
  -1214474434.9637773        6820393.8490158319        1423246154.3912821     
  -1160994796.4097538        6609961.2574251890        1425974008.3722169     
  -1108138860.2699132        4320520.6185594797        1434093947.6789753     
  -921958.90936803014       -234385.28369706517        1534594418.8438914     
  -324922.65333800064        405066.29531441000        1529749240.7223017     
  -1115182.6389822410       -3579802.9312550137        1529565596.9411511     
  -3292738.8663018262       -12188992.963407533        1534043487.5004380     
  -6857591.3352885898       -25422503.801120088        1543182912.4001658     
  -278255039.19392020        745684.70854063332        1512592845.7850237     
  -266152662.99115667        420671.83767001331        1506511311.7013714     
  -254779509.77586347       -2335084.3247698992        1504841073.4939702     
  -244135579.54804790       -7521583.7788000703        1507582131.1628237     
  -234220872.30770704       -15138826.524413370        1514734484.7079251     
  -555235549.51552689        1831525.6896669269        1488508909.5712492     
  -532342800.40655738        327558.25676685572        1481958771.6554296     
  -509521201.03086525       -1413574.9537238479        1479569691.1516747     
  -486770751.38844621       -3391873.9417948425        1481341668.0599866     
  -464091451.47930634       -5607338.7074575424        1487274702.3803661     
  -831863489.87419248        3023137.6596681476        1462342610.2025661     
  -798895334.89954853        125725.55257862806        1456091620.5844777     
  -765340256.40398359       -815274.81810799241        1453751449.9142687     
  -731198254.38749647        200136.54761144519        1455322098.1919405     
  -696469328.85008550        3171959.6497459412        1460803565.4174943     
  -1108138860.2699132        4320520.6185594797        1434093947.6789753     
  -1065810266.4701267       -184826.27488237619        1428909858.4885154     
  -1022236675.8952222       -540183.91793155670        1427386349.7817492     
  -977418088.54519296        3254447.6894346476        1429523421.5586772     
  -931354504.42004907        11199068.547184169        1435321073.8193004     
  -6857591.3352885898       -25422503.801120088        1543182912.4001658     
  -5800809.3724033982       -24398211.127683248        1538185602.5861442     
   5129848.9518739479        9539002.7503934186        1537868409.5539954     
   25934383.637556009        76389137.833156988        1542231333.3037069     
   56612794.684627891        176152194.12054634        1551274373.8352873     
  -234220872.30770704       -15138826.524413370        1514734484.7079251     
  -220303178.31633803       -14253642.186913557        1518135481.7934258     
  -200842065.03565061        5109606.4483117834        1526781473.2734153     
  -175837532.46564406        42950919.381269574        1540672459.1478961     
  -145289580.60632253        99270296.611945212        1559808439.4168782     
  -464091451.47930634       -5607338.7074575424        1487274702.3803661     
  -435698909.42337573       -4377081.8950714469        1494021806.4479580     
  -406093405.15020603        896382.30811427534        1506578782.5226669     
  -375274938.65979779        10213053.902094409        1524945630.6044953     
  -343243509.95214915        23572932.886874557        1549122350.6934428     
  -696469328.85008550        3171959.6497459412        1460803565.4174943     
  -651988002.69351697        5231469.7478479445        1465844576.5497508     
  -610624171.39179206       -3100669.6701957881        1477260337.3017545     
  -572377834.94489968       -21824458.604347736        1495050847.6734912     
  -537248993.35285616       -50939897.054660216        1519216107.6649907     
  -931354504.42004907        11199068.547184169        1435321073.8193004     
  -869170458.12676990        14572012.741810441        1433603792.0987976     
  -814434363.76040339       -6881549.4866043031        1438826137.6106677     
  -767146221.32095909       -53161618.138098121        1450988110.3549087     
  -727306030.80843496       -124268193.21264984        1470089710.3315244     
  -1756030902.7693851       -526809270.83081549        680038146.03830075     
  -1784049093.9319668       -500053861.80006486        806457755.70170045     
  -1809145337.3912556       -463558627.09167212        925760802.27624905     
  -1831319633.1472523       -417323566.70563734        1037947285.7619468     
  -1850571981.1999559       -361348680.64196032        1143017206.1587934     
  -2201690035.2756305       -660507010.58268917        696434327.93436074     
  -2238331814.0007553       -613873742.26575935        813862029.42885947     
  -2272932998.1514950       -560438492.03420734        927185566.82113421     
  -2305493587.7278457       -500201259.88803232        1036404940.1111852     
  -2336013582.7298107       -433162045.82723480        1141520149.2990122     
  -2685614664.8986206       -805684399.46958613        721984992.31777298     
  -2722273176.9387836       -736591215.59222579        829392540.32631409     
  -2757772447.5334659       -663633893.56326199        935708323.21925831     
  -2792112476.6826673       -586812433.38269520        1040932340.9966056     
  -2825293264.3863873       -506126835.05052465        1145064593.6583560     
  -3207804791.6383553       -962341437.49150658        756690139.18853748     
  -3235873182.7460499       -868206281.77946377        853049288.39406407     
  -3263663685.5371714       -773144831.67883718        951329071.47062075     
  -3291176300.0117159       -677157087.18962646        1051529488.4182084     
  -3318411026.1696854       -580243048.31183136        1153650539.2368248     
  -3768260415.4948349       -1130478124.6484504        800549768.54665422     
  -3779131831.4225564       -1008718940.8274736        884832273.63210988     
  -3790606712.1626091       -888971306.38093209        974047811.57522237     
  -3802685057.7149925       -771235221.30882609        1068196382.3759922     
  -3815366868.0797057       -655510685.61115503        1167277986.0344191     
  -1850571981.1999559       -361348680.64196032        1143017206.1587934     
  -1835279320.7705498       -295680466.06176829        1190529017.2329009     
  -1823350481.0300086       -241224987.11112529        1240343317.6857538     
  -1814785461.9783309       -197982243.79003102        1292460107.5173514     
  -1809584263.6155186       -165952236.09848577        1346879386.7276947     
  -2336013582.7298107       -433162045.82723480        1141520149.2990122     
  -2312459023.5854893       -352095787.06976545        1182790168.8853750     
  -2292392523.7719598       -282656392.74827123        1224559610.9866333     
  -2275814083.2892241       -224843862.86275274        1266828475.6027865     
  -2262723702.1372786       -178658197.41320789        1309596762.7338345     
  -2825293264.3863873       -506126835.05052465        1145064593.6583560     
  -2798628426.1381512       -411208017.99907982        1179947876.6747255     
  -2775575885.8626347       -328330194.19003534        1213527515.3421407     
  -2756135643.5598388       -257493363.62339067        1245803509.6605997     
  -2740307699.2297626       -198697526.29914701        1276775859.6301045     
  -3318411026.1696854       -580243048.31183136        1153650539.2368248     
  -3293787528.4285355       -473017158.84971118        1182002140.6009524     
  -3272900567.3020315       -378246391.43641543        1207247030.7522740     
  -3255750142.7901764       -295930746.07194662        1229385209.6907918     
  -3242336254.8929701       -226070222.75630367        1248416677.4165030     
  -3815366868.0797057       -655510685.61115503        1167277986.0344191     
  -3797936330.4566407       -537523209.62165761        1188952960.6640553     
  -3784366568.0901518       -432404984.48741245        1205718157.2170360     
  -3774657580.9802384       -340156010.20841730        1217573575.6933615     
  -3768809369.1268997       -260776286.78467667        1224519216.0930312     
  -1809584263.6155186       -165952236.09848577        1346879386.7276947     
  -1778898169.1980217       -133389507.80027336        1364696471.1832640     
  -1749537978.1859915       -105246457.52028263        1383311292.8585362     
  -1721503690.5794294       -81523085.258519530        1402723851.7535131     
  -1694795306.3783348       -62219391.014982164        1422934147.8681931     
  -2262723702.1372786       -178658197.41320789        1309596762.7338345     
  -2223283344.9321775       -134261725.17427003        1317594831.1618352     
  -2186746699.4028029       -99544291.854419947        1328798346.6819682     
  -2153113765.5491538       -74505897.453661561        1343207309.2942333     
  -2122384543.3712335       -59146541.971989632        1360821718.9986312     
  -2740307699.2297626       -198697526.29914701        1276775859.6301045     
  -2685233908.1729736       -140403558.80025911        1273114135.7152336     
  -2634641637.0621724       -97047991.121326447        1275065568.7649236     
  -2588530885.8973565       -68630823.262342930        1282630158.7791750     
  -2546901654.6785269       -55152055.223316431        1295807905.7579868     
  -3242336254.8929701       -226070222.75630367        1248416677.4165030     
  -3164749858.9204135       -151815008.67824244        1231254384.8434589     
  -3093222791.1641026       -97757555.321000338        1222112959.1074042     
  -3027755051.6240354       -63897862.684568763        1220992400.2083399     
  -2968346640.3002157       -50235930.768961430        1227892708.1462650     
  -3768809369.1268997       -260776286.78467667        1224519216.0930312     
  -3661831197.1744938       -168496074.80821598        1192015578.5465119     
  -3562490161.7085915       -101672984.45344007        1169940517.7094095     
  -3470786262.7291918       -60307015.720337391        1158294033.5817263     
  -3386719500.2362995       -44398168.608924150        1157076126.1634617     
  -1694795306.3783348       -62219391.014982164        1422934147.8681931     
  -1645273767.8210154       -40609444.944830537        1416151544.5051510     
  -1597418212.3287227       -24552775.758098423        1414855224.8848629     
  -1551228639.9014604       -14049383.454803348        1419045189.0073273     
  -1506705050.5392256       -9099268.0349311829        1428721436.8725441     
  -2122384543.3712335       -59146541.971989632        1360821718.9986312     
  -2060128673.7400067       -40575151.525289893        1353196214.4274926     
  -1999087307.3369868       -26052105.172608137        1350581270.5450952     
  -1939260444.1621683       -15577402.913934708        1352976887.3514383     
  -1880648084.2155540       -9151044.7492775917        1360383064.8465230     
  -2546901654.6785269       -55152055.223316431        1295807905.7579868     
  -2473270662.6991420       -40026983.017792821        1287866226.4550459     
  -2400402694.1111398       -27445322.116876125        1284459384.7868342     
  -2328297748.9145174       -17407072.520560026        1285587380.7533526     
  -2256955827.1092768       -9912234.2288488150        1291250214.3545988     
  -2968346640.3002157       -50235930.768961430        1227892708.1462650     
  -2884699734.6984215       -38964939.422339797        1220161580.5878158     
  -2801364372.6511846       -28732426.590912461        1216489567.6100829     
  -2718340554.1585069       -19538392.274678349        1216876669.2130678     
  -2635628279.2203841       -11382836.473632932        1221322885.3967712     
  -3386719500.2362995       -44398168.608924150        1157076126.1634617     
  -3294415889.7378430       -37389020.738928556        1150082276.8257978     
  -3201972342.9571228       -29913418.594722152        1146671819.0148396     
  -3109388859.8941345       -21971362.176285267        1146844752.7305858     
  -3016665440.5488806       -13562851.483633876        1150601077.9730392     
  -1506705050.5392256       -9099268.0349311829        1428721436.8725441     
  -1460781944.5693283       -6329898.4246598482        1424224622.7807543     
  -1414907537.3752184       -3722858.0670118928        1423599895.6725478     
  -1369081828.9568906       -1278146.9619730115        1426847255.5479269     
  -1323304819.3143528        1004234.8904348016        1433966702.4068909     
  -1880648084.2155540       -9151044.7492775917        1360383064.8465230     
  -1824028562.1757255       -5699819.5269950628        1354987559.6099973     
  -1767761975.3057122       -3425044.8707654476        1353790628.4562924     
  -1711848323.6055164       -2326720.7805948257        1356792271.3854103     
  -1656287607.0751355       -2404847.2564752102        1363992488.3973498     
  -2256955827.1092768       -9912234.2288488150        1291250214.3545988     
  -2188707068.7159767       -5499307.3094860315        1284601075.5136328     
  -2121115481.8865256       -3276952.2696168423        1282476997.8547261     
  -2054181066.6209219       -3245169.1092441082        1284877981.3778813     
  -1987903822.9191680       -5403957.8283655643        1291804026.0830915     
  -2635628279.2203841       -11382836.473632932        1221322885.3967712     
  -2554817464.1900797       -5728361.7721285820        1213065170.4916625     
  -2474968057.1176577       -3278580.2635661364        1209659003.8678508     
  -2396080058.0031128       -4033491.9479291439        1211104385.5253360     
  -2318153466.8464503       -7993096.8252296448        1217401315.4641166     
  -3016665440.5488806       -13562851.483633876        1150601077.9730392     
  -2922359748.5980406       -6386982.9149386883        1140379844.5440857     
  -2829319700.9991083       -3429928.8526072502        1135336646.4956648     
  -2737545297.7520905       -4691689.2966589928        1135471483.8277776     
  -2647036538.8569798       -10172264.247067928        1140784356.5404265     
  -1323304819.3143528        1004234.8904348016        1433966702.4068909     
  -1268577775.9319756        4951818.3933575153        1425910385.7361746     
  -1214474434.9637773        6820393.8490158319        1423246154.3912821     
  -1160994796.4097538        6609961.2574251890        1425974008.3722169     
  -1108138860.2699132        4320520.6185594797        1434093947.6789753     
  -1656287607.0751355       -2404847.2564752102        1363992488.3973498     
  -1588262175.1182342        156406.25982475281        1355716074.7565918     
  -1520609105.5535622        1476451.8020271063        1352597027.7673233     
  -1453328398.3811133        1555289.3701508045        1354635347.4295459     
  -1386420053.6008992        392918.96416211128        1361831033.7432604     
  -1987903822.9191680       -5403957.8283655643        1291804026.0830915     
  -1907250627.1715515       -4430221.7338181734        1283600745.4979005     
  -1826718453.7942195       -3859893.5402164459        1280320112.8898635     
  -1746307302.7871616       -3692973.2475302219        1281962128.2589846     
  -1666017174.1503870       -3929460.8557808399        1288526791.6052604     
  -2318153466.8464503       -7993096.8252296448        1217401315.4641166     
  -2225543132.0919366       -8808065.5875899792        1209564397.9600992     
  -2132802479.6857531       -9188642.1777198315        1206415409.7589004     
  -2039931509.6279006       -9134826.5956186056        1207954350.8605254     
  -1946930221.9183748       -8646618.8412778378        1214181221.2649705     
  -2647036538.8569798       -10172264.247067928        1140784356.5404265     
  -2543139689.8793802       -12977125.301469564        1133607032.1431892     
  -2438861183.2281647       -14509794.110498905        1130882918.3744373     
  -2334201018.9033222       -14770270.674099684        1132612015.2341738     
  -2229159196.9048696       -13758554.992323756        1138794322.7223957     
  -1108138860.2699132        4320520.6185594797        1434093947.6789753     
  -1065810266.4701267       -184826.27488237619        1428909858.4885154     
  -1022236675.8952222       -540183.91793155670        1427386349.7817492     
  -977418088.54519296        3254447.6894346476        1429523421.5586772     
  -931354504.42004907        11199068.547184169        1435321073.8193004     
  -1386420053.6008992        392918.96416211128        1361831033.7432604     
  -1334625103.7080255       -4794606.1335578561        1357384584.9526210     
  -1282122276.8463552       -7622541.3352861404        1356716793.7970331     
  -1228911573.0158863       -8090886.6410149336        1359827660.2764962     
  -1174992992.2166207       -6199642.0507582426        1366717184.3910103     
  -1666017174.1503870       -3929460.8557808399        1288526791.6052604     
  -1604418504.8748355       -9697955.1708983779        1284191343.4403977     
  -1542649078.4368119       -14897258.944434583        1283752630.0619476     
  -1480708894.8363109       -19527372.176380515        1287210651.4699028     
  -1418597954.0733333       -23588294.866741121        1294565407.6642628     
  -1946930221.9183748       -8646618.8412778378        1214181221.2649705     
  -1875190469.9705565       -14894873.386909723        1209330133.9518464     
  -1803817080.6665905       -22364336.745379448        1208493858.5764868     
  -1732810054.0064671       -31055008.916657329        1211672395.1388905     
  -1662169389.9901907       -40966889.900768399        1218865743.6390595     
  -2229159196.9048696       -13758554.992323756        1138794322.7223957     
  -2146940998.9951975       -20385360.781608701        1132800956.4869671     
  -2065626283.5356934       -30023774.738123298        1130940479.3406551     
  -1985215050.5263603       -42673796.861869693        1133212891.2834656     
  -1905707299.9671926       -58335427.152839184        1139618192.3153956     
  -931354504.42004907        11199068.547184169        1435321073.8193004     
  -869170458.12676990        14572012.741810441        1433603792.0987976     
  -814434363.76040339       -6881549.4866043031        1438826137.6106677     
  -767146221.32095909       -53161618.138098121        1450988110.3549087     
  -727306030.80843496       -124268193.21264984        1470089710.3315244     
  -1174992992.2166207       -6199642.0507582426        1366717184.3910103     
  -1095496169.8671904       -2340904.5211060047        1357722542.0958600     
  -1020469408.7891937       -13382371.229561329        1354993686.4572940     
  -949912708.98263347       -39324042.176132500        1358530617.4753091     
  -883826070.44749677       -80165917.360793352        1368333335.1499054     
  -1418597954.0733333       -23588294.866741121        1294565407.6642628     
  -1323713614.4557261       -19821341.638465345        1281767610.5591998     
  -1230321445.4540660       -21028290.463349223        1274561759.5349274     
  -1138421447.0683451       -27209141.341367960        1272947854.5914505     
  -1048013619.2985697       -38363894.272533476        1276925895.7287674     
  -1662169389.9901907       -40966889.900768399        1218865743.6390595     
  -1553822791.8923757       -37869298.610267937        1205738997.4888155     
  -1443990473.7550113       -29819307.187945843        1197530356.8435798     
  -1332672435.5781107       -16816915.633828163        1194239821.7033513     
  -1219868677.3616610        1137876.0521141887        1195867392.0681255     
  -1905707299.9671926       -58335427.152839184        1139618192.3153956     
  -1785823702.1771357       -56484775.436500311        1129636702.8847125     
  -1661476493.6920464       -39755421.403392732        1123899478.3832440     
  -1532665674.5119195       -8147365.0534969568        1122406518.8109930     
  -1399391244.6367669        38339393.613164067        1125157824.1679618     
  -3768260415.4948349       -1130478124.6484504        800549768.54665422     
  -3779131831.4225564       -1008718940.8274736        884832273.63210988     
  -3790606712.1626091       -888971306.38093209        974047811.57522237     
  -3802685057.7149925       -771235221.30882609        1068196382.3759922     
  -3815366868.0797057       -655510685.61115503        1167277986.0344191     
  -4339810346.4949360       -1301943103.9484808        858722151.69681895     
  -4335268346.6194286       -1125741978.1106253        942330677.25794566     
  -4331861733.2984200       -953325474.12110233        1020299118.5753891     
  -4329590506.5319118       -784693591.97991264        1092627475.6491494     
  -4328454666.3199034       -619846331.68705559        1159315748.4792271     
  -4895283394.6655350       -1468585018.3996606        936365559.94372702     
  -4905536884.9906273       -1247004622.3460751        1018679530.6146609     
  -4917457683.6123886       -1030981920.6147199        1084780299.9405708     
  -4931045790.5308180       -820516913.20559549        1134667867.9214575     
  -4946301205.7459173       -615609600.11870122        1168342234.5573213     
  -5434679560.0066328       -1630403868.0019898        1033479993.2873789     
  -5489937446.5361538       -1372506873.5338230        1113878833.7022552     
  -5547394563.1045132       -1121940645.8617847        1167491355.6707680     
  -5607050909.7117100       -878705184.98587370        1194317559.1929169     
  -5668906486.3577461       -642800490.90609169        1194357444.2687025     
  -5957998842.5182285       -1787399652.7554684        1150065451.7277744     
  -6088470031.2560072       -1502248731.6738694        1227928586.5207293     
  -6221672371.7747936       -1226201649.8622956        1268432285.7659802     
  -6357605864.0745878       -959258407.32074797        1271576549.4635270     
  -6496270508.1553898       -701419004.04922652        1237361377.6133707     
  -3815366868.0797057       -655510685.61115503        1167277986.0344191     
  -3797936330.4566407       -537523209.62165761        1188952960.6640553     
  -3784366568.0901518       -432404984.48741245        1205718157.2170360     
  -3774657580.9802384       -340156010.20841730        1217573575.6933615     
  -3768809369.1268997       -260776286.78467667        1224519216.0930312     
  -4328454666.3199034       -619846331.68705559        1159315748.4792271     
  -4298189330.7646236       -464091457.20079279        1141365648.6071990     
  -4278545466.5073113       -343741487.04108775        1129482694.7988918     
  -4269523073.5479693       -258796421.20794201        1123666887.0543056     
  -4271122151.8865891       -209256259.70135236        1123918225.3734393     
  -4946301205.7459173       -615609600.11870122        1168342234.5573213     
  -4871838431.8573484       -412678535.01535058        1102879581.4686723     
  -4814757825.3081379       -267688027.70986319        1054460998.5841196     
  -4775059386.0982885       -180638078.20224237        1023086485.9036644     
  -4752743114.2277975       -151528686.49248481        1008756043.4273064     
  -5668906486.3577461       -642800490.90609169        1194357444.2687025     
  -5518883633.7348127       -383284443.06533051        1073494759.2484741     
  -5393003644.4926281       -204244606.49373746        980653068.57272029     
  -5291266518.6312017       -105680981.19132113        915832372.24143910     
  -5213672256.1505194       -87593567.158071041        879032670.25462973     
  -6496270508.1553898       -701419004.04922652        1237361377.6133707     
  -6239324936.3970165       -375909181.35073113        1053211181.9466066     
  -6013282924.0607872       -153411223.39271426        908058904.76469278     
  -5818144471.1467028       -33925130.175175428        801904546.06762850     
  -5653909577.6547585       -17450901.698112726        734748105.85541248     
  -3768809369.1268997       -260776286.78467667        1224519216.0930312     
  -3661831197.1744938       -168496074.80821598        1192015578.5465119     
  -3562490161.7085915       -101672984.45344007        1169940517.7094095     
  -3470786262.7291918       -60307015.720337391        1158294033.5817263     
  -3386719500.2362995       -44398168.608924150        1157076126.1634617     
  -4271122151.8865891       -209256259.70135236        1123918225.3734393     
  -4148270563.8249860       -145144645.03389692        1090569105.8306696     
  -4029806568.2626939       -95658338.697470188        1065502175.1953247     
  -3915730165.1997061       -60797340.692067623        1048717433.4674060     
  -3806041354.6360264       -40561651.017694473        1040214880.6469142     
  -4752743114.2277975       -151528686.49248481        1008756043.4273064     
  -4620150646.6341171       -117425430.10716891        978352576.54001343     
  -4488696227.5525532       -87115668.762229681        954084910.75815403     
  -4358379856.9830980       -60599402.457663298        935953046.08173001     
  -4229201534.9257560       -37876631.193469048        923956982.51073742     
  -5213672256.1505194       -87593567.158071041        879032670.25462973     
  -5077471445.6018877       -85338430.028032303        855365990.67454422     
  -4939159139.5781708       -76044974.647716045        835688724.39790022     
  -4798735338.0793715       -59713201.017119884        820000871.42469430     
  -4656200041.1054878       -36343109.136243582        808302431.75493324     
  -5653909577.6547585       -17450901.698112726        734748105.85541248     
  -5520232960.7282915       -48883644.796486378        721609348.23426116     
  -5381195304.3395481       -62446256.353929758        710313616.11455929     
  -5236796608.4885216       -58138736.370441914        700860909.49630582     
  -5087036873.1752176       -35961084.846017122        693251228.37950039     
  -3386719500.2362995       -44398168.608924150        1157076126.1634617     
  -3294415889.7378430       -37389020.738928556        1150082276.8257978     
  -3201972342.9571228       -29913418.594722152        1146671819.0148396     
  -3109388859.8941345       -21971362.176285267        1146844752.7305858     
  -3016665440.5488806       -13562851.483633876        1150601077.9730392     
  -3806041354.6360264       -40561651.017694473        1040214880.6469142     
  -3702221188.5065904       -29691969.786603689        1031994122.8345168     
  -3599027989.2930150       -20912178.275050879        1028157970.1282234     
  -3496461756.9953051       -14222276.483043909        1028706422.5280323     
  -3394522491.6134529       -9622264.4105706215        1033639480.0339442     
  -4229201534.9257560       -37876631.193469048        923956982.51073742     
  -4111575631.5099154       -22459662.104650021        913614595.82579076     
  -3995343598.2080665       -11688926.729133606        908458027.82634664     
  -3880505435.0202088       -5564425.0669207573        908487278.51240098     
  -3767061141.9463429       -4086157.1180119514        913702347.88395917     
  -4656200041.1054878       -36343109.136243582        808302431.75493324     
  -4522479218.7478209       -15692097.693075657        794943695.79962182     
  -4390919169.7022743       -2243663.9569654465        787571992.10920775     
  -4261519893.9688482        4002192.0720758438        786187320.68369257     
  -4134281391.5475411        3045470.3940589428        790789681.52307630     
  -5087036873.1752176       -35961084.846017122        693251228.37950039     
  -4934931950.2203035       -9389276.5518665314        675981422.75600636     
  -4785754703.7756395        7423610.0414648056        665499862.97680962     
  -4639505133.8412209        14477574.933964491        661806549.04190636     
  -4496183240.4170523        11772618.125635862        664901480.95130181     
  -3016665440.5488806       -13562851.483633876        1150601077.9730392     
  -2922359748.5980406       -6386982.9149386883        1140379844.5440857     
  -2829319700.9991083       -3429928.8526072502        1135336646.4956648     
  -2737545297.7520905       -4691689.2966589928        1135471483.8277776     
  -2647036538.8569798       -10172264.247067928        1140784356.5404265     
  -3394522491.6134529       -9622264.4105706215        1033639480.0339442     
  -3288325176.7340202       -5695913.9450840950        1023927321.1441215     
  -3182787318.9758148       -3967753.8836975098        1018934417.9195750     
  -3077908918.3388419       -4437784.2264089584        1018660770.3603064     
  -2973689974.8230977       -7106004.9732140303        1023106378.4663161     
  -3767061141.9463429       -4086157.1180119514        913702347.88395917     
  -3650283003.3247628       -3802564.5116693974        905206481.96906042     
  -3533558134.5937333       -3696538.2071547508        900971092.00418365     
  -3416886535.7532496       -3768078.2044625282        900996177.98932636     
  -3300268206.8033118       -4017184.5035941601        905281739.92449117     
  -4134281391.5475411        3045470.3940589428        790789681.52307630     
  -4008233228.3702641       -706934.61468172073        784217327.01890135     
  -3881632147.8528528       -2616281.8229691982        781446668.74949062     
  -3754478149.9953079       -2682571.2308113575        782477706.71484375     
  -3626771234.7976255       -905802.83819627762        787310440.91496301     
  -4496183240.4170523        11772618.125635862        664901480.95130181     
  -4362175851.8705244        3590975.7458851337        660959856.29364204     
  -4227009358.7531829       -726984.73115229607        660361148.15549326     
  -4090683761.0650191       -1181263.3054506779        663105356.53685355     
  -3953199058.8060441        2228140.0229599476        669192481.43771970     
  -2647036538.8569798       -10172264.247067928        1140784356.5404265     
  -2543139689.8793802       -12977125.301469564        1133607032.1431892     
  -2438861183.2281647       -14509794.110498905        1130882918.3744373     
  -2334201018.9033222       -14770270.674099684        1132612015.2341738     
  -2229159196.9048696       -13758554.992323756        1138794322.7223957     
  -2973689974.8230977       -7106004.9732140303        1023106378.4663161     
  -2857197075.1314487       -6894478.2992761135        1016297441.4006696     
  -2740573799.2627692       -6248364.3685551882        1014028474.0108029     
  -2623820147.2170534       -5167663.1810439825        1016299476.2967111     
  -2506936118.9942966       -3652374.7367446423        1023110448.2583970     
  -3300268206.8033118       -4017184.5035941601        905281739.92449117     
  -3170931373.4053617       -714905.20362937450        898548028.44442785     
  -3041715445.3269577        2184356.3645132780        896441045.68742859     
  -2912620422.5681033        4680600.2008225918        898960791.65349972     
  -2783646305.1287923        6773826.3053106070        906107266.34263361     
  -3626771234.7976255       -905802.83819627762        787310440.91496301     
  -3484342584.7011147        5561593.9854652882        780358793.27445936     
  -3342286121.4207301        10788368.088699818        778120633.40431857     
  -3200601844.9564829        14774519.471483469        780595961.30453014     
  -3059289755.3083596        17520048.133847594        787784776.97510397     
  -3953199058.8060441        2228140.0229599476        669192481.43771970     
  -3797430709.0187097        11935019.268002510        661729735.89077055     
  -3642285827.5440860        19563670.804017305        659067237.16146886     
  -3487764414.3821807        25114094.630959034        661204985.24981070     
  -3333866469.5329900        28586290.748862028        668142980.15580499     
  -2229159196.9048696       -13758554.992323756        1138794322.7223957     
  -2146940998.9951975       -20385360.781608701        1132800956.4869671     
  -2065626283.5356934       -30023774.738123298        1130940479.3406551     
  -1985215050.5263603       -42673796.861869693        1133212891.2834656     
  -1905707299.9671926       -58335427.152839184        1139618192.3153956     
  -2506936118.9942966       -3652374.7367446423        1023110448.2583970     
  -2414291655.6847253       -10021902.385940671        1016499133.7566907     
  -2322181709.1804595       -18173152.719483852        1013715762.4411500     
  -2230606279.4815006       -28106125.737387300        1014760334.3117759     
  -2139565366.5878384       -39820821.439623952        1019632849.3685697     
  -2783646305.1287923        6773826.3053106070        906107266.34263361     
  -2681446850.4277654        400194.59366643429        899308463.49365819     
  -2579412946.8871765       -6525274.3194438219        896032657.92789423     
  -2477544594.5070276       -14002580.434024572        896279849.64534354     
  -2375841793.2873240       -22031723.750073910        900050038.64600384     
  -3059289755.3083596        17520048.133847594        787784776.97510397     
  -2948406583.2243152        10880930.157217383        781228945.69786501     
  -2837319996.6558409        4919860.4620156288        777891165.80088973     
  -2726029995.6029449       -363160.95177721977        777771437.28416979     
  -2614536580.0656281       -4968134.0841697454        780869760.14770877     
  -3333866469.5329900        28586290.748862028        668142980.15580499     
  -3215170854.0743647        21420304.304735422        662260580.36931622     
  -3095902858.4864507        16162251.624895811        659291286.06013274     
  -2976062482.7692509        12812132.709347963        659235097.22825217     
  -2855649726.9227614        11369947.558096051        662092013.87368000     
  -1905707299.9671926       -58335427.152839184        1139618192.3153956     
  -1785823702.1771357       -56484775.436500311        1129636702.8847125     
  -1661476493.6920464       -39755421.403392732        1123899478.3832440     
  -1532665674.5119195       -8147365.0534969568        1122406518.8109930     
  -1399391244.6367669        38339393.613164067        1125157824.1679618     
  -2139565366.5878384       -39820821.439623952        1019632849.3685697     
  -2008194642.0853493       -36926115.330343962        1012739462.0960553     
  -1874634153.5277412       -26732195.704001427        1010197125.5824389     
  -1738883900.9150174       -9239062.5606135130        1012005839.8277218     
  -1600943884.2471743        15553284.099844098        1018165604.8319016     
  -2375841793.2873240       -22031723.750073910        900050038.64600384     
  -2232678839.7018757       -18001432.536682963        893591932.45175838     
  -2089599968.7012250       -14251416.605950117        891591662.84609628     
  -1946605180.2853751       -10781675.957894683        894049229.82900715     
  -1803694474.4543247       -7592210.5924987793        900964633.40050447     
  -2614536580.0656281       -4968134.0841697454        780869760.14770877     
  -2459276295.0267072        289272.94448757172        772194113.95183134     
  -2306373939.2125082       -2313084.1092501879        768083090.17421401     
  -2155829512.6230216       -12775205.245369077        768536688.81485820     
  -2007643015.2582514       -31097090.463877916        773554909.87376356     
  -2855649726.9227614        11369947.558096051        662092013.87368000     
  -2687987008.0598536        17946001.113166571        648546006.59626651     
  -2524956065.0615740        9082801.7861322165        639671407.56679273     
  -2366556897.9279318       -15219650.423022985        635468216.78526258     
  -2212789506.6589227       -54961355.514273643        635936434.25167930     
  -5957998842.5182285       -1787399652.7554684        1150065451.7277744     
  -6088470031.2560072       -1502248731.6738694        1227928586.5207293     
  -6221672371.7747936       -1226201649.8622956        1268432285.7659802     
  -6357605864.0745878       -959258407.32074797        1271576549.4635270     
  -6496270508.1553898       -701419004.04922652        1237361377.6133707     
  -6810627947.5755548       -2043188384.2726665        1353801243.9373322     
  -6828573080.4908743       -1395485680.6464267        1202769615.1876292     
  -6897884379.1763487       -919003529.58737445        1091990130.4926054     
  -7018561843.6319790       -613741931.09551096        1021462789.8522613     
  -7190605473.8577662       -479700885.17083406        991187593.26659584     
  -8337953580.5538425       -2501386074.1661530        1712366678.5884712     
  -8021625287.3541794       -1424607376.9075160        1275699436.6421037     
  -7805298173.9138193       -681165945.51322937        956895918.35279858     
  -7688972240.2327652       -271061779.98329163        755956123.72055614     
  -7672647486.3110132       -194294880.31770372        672880052.74537623     
  -10539975741.453096       -3161992722.4359288        2225761755.6811910     
  -9667626651.8459244       -1589613820.4571373        1446718050.8841524     
  -8943913755.9872036       -512688897.63985682        863149649.34655964     
  -8368837053.8769379        68782046.015911102        475056551.06841254     
  -7942396545.5151291        154799010.51016665        282438756.04971188     
  -13416694430.273312       -4025008329.0819936        2893986475.2154922     
  -11766577173.966108       -1890505011.2952902        1715825457.9137754     
  -10313731125.396509       -413572385.96726179        810751323.47388864     
  -9058156284.5645084        405789546.90209389        178764071.89582983     
  -7999852651.4701109        567580787.31277752       -180136296.82040033     
  -6496270508.1553898       -701419004.04922652        1237361377.6133707     
  -6239324936.3970165       -375909181.35073113        1053211181.9466066     
  -6013282924.0607872       -153411223.39271426        908058904.76469278     
  -5818144471.1467028       -33925130.175175428        801904546.06762850     
  -5653909577.6547585       -17450901.698112726        734748105.85541248     
  -7190605473.8577662       -479700885.17083406        991187593.26659584     
  -6900601632.0366745       -304384996.09640741        846885091.46247852     
  -6623411447.6087093       -171781298.33240676        723674248.21192813     
  -6359034920.5738726       -81889791.878830194        621555063.51494277     
  -6107472050.9321623       -34710476.735678911        540527537.37152386     
  -7672647486.3110132       -194294880.31770372        672880052.74537623     
  -7400746117.0880098       -184521147.66558838        589530130.50442374     
  -7123568503.2291212       -157159932.89384699        509365606.88575464     
  -6841114644.7343407       -112211236.00247478        432386481.88936681     
  -6553384541.6036730       -49675056.991480589        358592755.51526105     
  -7942396545.5151291        154799010.51016665        282438756.04971188     
  -7739758391.5510244       -16317636.058271408        281146299.07244122     
  -7513754090.9220181       -109547127.07703304        265132980.78617176     
  -7264383643.6281071       -124889462.54611111        234398801.19090012     
  -6991647049.6692915       -62344642.465510368        188943760.28663000     
  -7999852651.4701109        567580787.31277752       -180136296.82040033     
  -7917638455.4257174        200225538.72554207       -78266402.833468556     
  -7793968210.6874037       -28942880.881965637       -9023630.0868193153     
  -7628841917.2551670       -119924471.50973177        27592021.419545423     
  -7422259575.1290150       -72719233.157774925        31580551.685623750     
  -5653909577.6547585       -17450901.698112726        734748105.85541248     
  -5520232960.7282915       -48883644.796486378        721609348.23426116     
  -5381195304.3395481       -62446256.353929758        710313616.11455929     
  -5236796608.4885216       -58138736.370441914        700860909.49630582     
  -5087036873.1752176       -35961084.846017122        693251228.37950039     
  -6107472050.9321623       -34710476.735678911        540527537.37152386     
  -5959257565.6174507       -36458097.415476561        534098197.40529370     
  -5810046403.4754419       -34883462.004282951        530158394.75505304     
  -5659838564.5061417       -29986570.502112865        528708129.42080373     
  -5508634048.7095394       -21767422.908948660        529747401.40254921     
  -6553384541.6036730       -49675056.991480589        358592755.51526105     
  -6388785011.2877350       -21183402.268798351        353781076.79646701     
  -6227553166.7794857       -3917366.9050827026        352105447.20821077     
  -6069689008.0789223        2123049.0996732712        353565866.75048584     
  -5915192535.1860533       -3062154.2545368671        358162335.42329746     
  -6991647049.6692915       -62344642.465510368        188943760.28663000     
  -6808815297.7391453       -3059559.3564634323        180657986.40779272     
  -6633715594.2516747        30452028.943672657        176154773.47403347     
  -6466347939.2068748        38190122.434904814        175434121.48534939     
  -6306712332.6047497        20154721.117216587        178496030.44174835     
  -7422259575.1290150       -72719233.157774925        31580551.685623750     
  -7219348424.9716825        17913431.321534157        14728926.239261534     
  -7028533685.8920059        68224725.541994095        2306373.5525211231     
  -6849815357.8899889        78214649.503582478       -5687106.3746022489     
  -6683193440.9656286        47883203.206325054       -9251513.5420997348     
  -5087036873.1752176       -35961084.846017122        693251228.37950039     
  -4934931950.2203035       -9389276.5518665314        675981422.75600636     
  -4785754703.7756395        7423610.0414648056        665499862.97680962     
  -4639505133.8412209        14477574.933964491        661806549.04190636     
  -4496183240.4170523        11772618.125635862        664901480.95130181     
  -5508634048.7095394       -21767422.908948660        529747401.40254921     
  -5345067663.8555937       -9803542.1296300888        514771382.15390235     
  -5182474105.8494120       -1082417.5095205307        505194686.40979451     
  -5020853374.6909885        4395950.9513866901        501017314.17022222     
  -4860205470.3803310        6631563.2530705929        502239265.43518800     
  -5915192535.1860533       -3062154.2545368671        358162335.42329746     
  -5744133037.9752417       -6896705.8526985645        347760760.48906714     
  -5572091517.9497080       -7457848.0684583187        341369586.71961319     
  -5399067975.1094542       -4745580.9018070698        338988814.11493480     
  -5225062409.4544764        1240095.6472456455        340618442.67503840     
  -6306712332.6047497        20154721.117216587        178496030.44174835     
  -6132128072.5792408       -668767.72107338905        174949557.76149470     
  -5954606940.0765257       -11702681.635337591        174024563.90626287     
  -5774148935.0966129       -12947020.625604153        175721048.87604517     
  -5590754057.6394873       -4401784.6918389797        180039012.67085028     
  -6683193440.9656286        47883203.206325054       -9251513.5420997348     
  -6509052767.6675987        8880272.2652397156       -3662226.0288108420     
  -6330020372.2298822       -13816918.210213900        3159617.9697436607     
  -6146096254.6524677       -20208368.220011473        11214018.453550722     
  -5957280414.9353657       -10294077.764183283        20500975.422621954     
  -4496183240.4170523        11772618.125635862        664901480.95130181     
  -4362175851.8705244        3590975.7458851337        660959856.29364204     
  -4227009358.7531829       -726984.73115229607        660361148.15549326     
  -4090683761.0650191       -1181263.3054506779        663105356.53685355     
  -3953199058.8060441        2228140.0229599476        669192481.43771970     
  -4860205470.3803310        6631563.2530705929        502239265.43518800     
  -4716030007.3824739        2904051.6777031422        498910219.54805905     
  -4571555162.4708405        174479.81492900848        499031976.53373706     
  -4426780935.6454258       -1557152.3352589607        502604536.39223009     
  -4281707326.9062424       -2290844.7728672028        509627899.12352997     
  -5225062409.4544764        1240095.6472456455        340618442.67503840     
  -5070410625.2815638        2059188.8933944702        336898965.79188454     
  -4916319181.8519201        1010479.6619732380        336738178.13484770     
  -4762788079.1655369       -1906032.0469787121        340136079.70392048     
  -4609817317.2224216       -6690346.2334880829        347092670.49911201     
  -5590754057.6394873       -4401784.6918389797        180039012.67085028     
  -5425317705.5678005        1056387.3929238319        174926095.02512917     
  -5261301416.8964224        1781014.8100059032        173479752.95882174     
  -5098705191.6253490       -2227902.4406168461        175699986.47194117     
  -4937529029.7545834       -10970364.358907461        181586795.56446379     
  -5957280414.9353657       -10294077.764183283        20500975.422621954     
  -5780751248.2411842       -104352.82368254662        12991607.247787541     
  -5606501867.6043482        2486085.2589995861        9256701.0056693312     
  -5434532273.0248613       -2522763.5161437988        9296256.6962690856     
  -5264842464.5027237       -15130899.149120092        13110274.319587924     
  -3953199058.8060441        2228140.0229599476        669192481.43771970     
  -3797430709.0187097        11935019.268002510        661729735.89077055     
  -3642285827.5440860        19563670.804017305        659067237.16146886     
  -3487764414.3821807        25114094.630959034        661204985.24981070     
  -3333866469.5329900        28586290.748862028        668142980.15580499     
  -4281707326.9062424       -2290844.7728672028        509627899.12352997     
  -4114612831.9486198        3919105.0047352314        501855436.36155015     
  -3947595272.9599319        9872601.5525445938        498802129.86694282     
  -3780654649.9401822        15569644.870567083        500467979.63970268     
  -3613790962.8893671        21010234.958790064        506852985.67983276     
  -4609817317.2224216       -6690346.2334880829        347092670.49911201     
  -4431628364.3810167       -4046832.1092905998        339648111.58984333     
  -4252969815.1647768        162003.26437282562        336841618.39766753     
  -4073841669.5736947        5936159.8875055313        338673190.92258412     
  -3894243927.6077657        13275637.760118484        345142829.16459143     
  -4937529029.7545834       -10970364.358907461        181586795.56446379     
  -4748477306.3159132       -11962792.074074745        175107761.57564908     
  -4558409454.1586208       -9568124.0605058670        173185702.75364798     
  -4367325473.2827034       -3786360.3181841373        175820619.09845930     
  -4175225363.6881757        5382499.1528449059        183012510.61008209     
  -5264842464.5027237       -15130899.149120092        13110274.319587924     
  -5065159657.7532835       -19828774.889574528        8234386.3189611351     
  -4863914189.9414597       -19317780.422061205        7834382.9348733863     
  -4661106061.0672369       -13597915.746550322        11910264.167323317     
  -4456735271.1306114       -2669180.8630533218        20462030.016307965     
  -3333866469.5329900        28586290.748862028        668142980.15580499     
  -3215170854.0743647        21420304.304735422        662260580.36931622     
  -3095902858.4864507        16162251.624895811        659291286.06013274     
  -2976062482.7692509        12812132.709347963        659235097.22825217     
  -2855649726.9227614        11369947.558096051        662092013.87368000     
  -3613790962.8893671        21010234.958790064        506852985.67983276     
  -3486884923.5003023        14161774.230447769        501256440.73931998     
  -3360100908.4838624        6906565.5933384895        498989225.87204981     
  -3233438917.8400612       -755390.95255088806        500051341.07801747     
  -3106898951.5688891       -8824095.4072227478        504442786.35722786     
  -3894243927.6077657        13275637.760118484        345142829.16459143     
  -3757938251.1570034        7101466.6869490147        339022000.48448378     
  -3622449003.5807996       -1794133.9680771828        336646726.47355378     
  -3487776184.8791490       -13411164.204939604        338017007.13179785     
  -3353919795.0520530       -27749624.023657322        343132842.45921856     
  -4175225363.6881757        5382499.1528449059        183012510.61008209     
  -4028330837.0444937        239381.67418336868        175557259.60480955     
  -3882947143.7772679       -9939847.0593514442        172263787.86464286     
  -3739074283.8865266       -25155187.047825336        173132095.38958687     
  -3596712257.3722515       -45406638.291186571        178162182.17963856     
  -4456735271.1306114       -2669180.8630533218        20462030.016307965     
  -4298062681.1627388       -6424480.8077826500        10862218.100283930     
  -4141595329.0732613       -17530573.680486917        5840410.0453129932     
  -3987333214.8621750       -35987459.481163025        5396605.8513834644     
  -3835276338.5294900       -61795138.209854126        9530805.5185035113     
  -2855649726.9227614        11369947.558096051        662092013.87368000     
  -2687987008.0598536        17946001.113166571        648546006.59626651     
  -2524956065.0615740        9082801.7861322165        639671407.56679273     
  -2366556897.9279318       -15219650.423022985        635468216.78526258     
  -2212789506.6589227       -54961355.514273643        635936434.25167930     
  -3106898951.5688891       -8824095.4072227478        504442786.35722786     
  -2927523336.8135672       -2652945.6119060516        489006741.53206819     
  -2749087790.1879916        384643.75094389915        478002647.70537543     
  -2571592311.6921496        288672.68134939671        471430504.87714493     
  -2395036901.3260341       -2940858.8207002878        469290313.04738969     
  -3353919795.0520530       -27749624.023657322        343132842.45921856     
  -3163515447.9742489       -22188627.059063792        330113752.44368452     
  -2970359461.2912941       -7455498.0772802830        321287156.17714405     
  -2774451835.0031748        16449762.921671271        316653053.65959907     
  -2575792569.1099100        49527155.937844038        316211444.89104623     
  -3596712257.3722515       -45406638.291186571        178162182.17963856     
  -3395963341.5418992       -40661043.228321791        171867039.33110872     
  -3188771078.3714862       -14437623.698589206        169524932.98210344     
  -2975135467.8610353        33263620.297963619        171135863.13261351     
  -2755056510.0105138        102442688.76135981        176699829.78264466     
  -3835276338.5294900       -61795138.209854126        9530805.5185035113     
  -3624867017.5164971       -58070194.119637012        14266602.194357585     
  -3404322641.4285707       -20561733.112962961        22715978.120258793     
  -3173643210.2657013        50730244.810176611        34878933.296199448     
  -2932828724.0278692        155805739.64987040        50755467.722194925     
 </DataArray>
 <DataArray  type="Float64" Name="VM" NumberOfComponents="1" format="ascii">
   12935102135.166586     
   11340451514.367731     
   10210108830.474169     
   9272830211.4362831     
   8304233476.9206953     
   10130035687.063812     
   9321830794.2936440     
   8826228087.6227703     
   8443457249.8408432     
   8035733866.6173830     
   7982253858.6706591     
   7734861380.8896923     
   7669017474.3753767     
   7669444025.7386971     
   7666216769.9982691     
   6491671286.8889160     
   6586827534.3736696     
   6757309122.4728518     
   6961037832.1564093     
   7171354800.8095455     
   5657842939.7247066     
   5890883521.2107372     
   6116291843.2719555     
   6331598412.0343227     
   6536570841.5498953     
   8304233476.9206953     
   8020668804.5919781     
   7779094868.1731911     
   7568871343.2906399     
   7385029182.5827351     
   8035733866.6173830     
   7746789004.5862541     
   7473470969.6822615     
   7213828658.5460510     
   6967860306.0523577     
   7666216769.9982691     
   7381028821.5368900     
   7101226804.0264320     
   6826884123.9278564     
   6558197870.8011684     
   7171354800.8095455     
   6910828766.8712540     
   6658213091.9856443     
   6409649723.6666431     
   6161993534.9041214     
   6536570841.5498953     
   6328543108.7566900     
   6142721518.1194324     
   5965214455.1201801     
   5787013170.6482897     
   7385029182.5827351     
   7227969412.8554220     
   7063614031.8432665     
   6891291544.6521378     
   6710805982.8980112     
   6967860306.0523577     
   6814191883.1230392     
   6656017762.9974308     
   6493060671.3410940     
   6325261375.9303265     
   6558197870.8011684     
   6407351596.1212740     
   6254886613.2939520     
   6100769351.0336781     
   5945024123.5028887     
   6161993534.9041214     
   6012444865.2787447     
   5864162346.7591105     
   5717182834.8979273     
   5571559634.3610239     
   5787013170.6482897     
   5635930902.7093992     
   5488923815.7544212     
   5345908619.6755848     
   5206924177.5403824     
   6710805982.8980112     
   6516309097.8781118     
   6324601035.7821913     
   6135595243.7730522     
   5949265484.9736023     
   6325261375.9303265     
   6140593634.7397051     
   5957877806.3637457     
   5777101427.0524597     
   5598291929.2646418     
   5945024123.5028887     
   5772147674.1850433     
   5600685475.7781067     
   5430668806.4468756     
   5262166025.7199869     
   5571559634.3610239     
   5412774655.5388203     
   5255201135.5107651     
   5098888448.0849981     
   4943942985.9785919     
   5206924177.5403824     
   5064865747.4297581     
   4924199701.2206926     
   4784971334.7364635     
   4647331330.1514120     
   5949265484.9736023     
   5776965198.8678408     
   5603871298.2236290     
   5429979572.6697416     
   5255313050.2913103     
   5598291929.2646418     
   5434759483.3237162     
   5271002419.8960609     
   5107047502.7091770     
   4942950818.3710213     
   5262166025.7199869     
   5107964914.6873932     
   4954188660.3164701     
   4800901397.6324253     
   4648200424.8775244     
   4943942985.9785919     
   4799594015.6114559     
   4656399611.4475279     
   4514465972.4299078     
   4373937628.0632811     
   4647331330.1514120     
   4513283177.7213430     
   4381194479.5800133     
   4251215239.3210039     
   4123539583.2308621     
   5255313050.2913103     
   5051470788.8912554     
   4848202133.2728968     
   4645504531.0933685     
   4443426389.1068611     
   4942950818.3710213     
   4751958751.6218052     
   4561860892.0880747     
   4372711432.4900913     
   4184626422.8716230     
   4648200424.8775244     
   4470590889.1413517     
   4294295357.8069391     
   4119435791.4758077     
   3946209006.8904681     
   4373937628.0632811     
   4210400720.6703200     
   4048710835.9518828     
   3889067448.7832880     
   3731758885.0424213     
   4123539583.2308621     
   3974919447.5322967     
   3828799513.5460892     
   3685462056.6290555     
   3545291080.3232222     
   4443426389.1068611     
   4285658953.1018682     
   4126516468.0686402     
   3966088927.6766453     
   3804549227.8030519     
   4184626422.8716230     
   4036729141.0496478     
   3888645311.1005983     
   3740465355.2771783     
   3592334288.9004517     
   3946209006.8904681     
   3808520162.1990666     
   3671932738.3165708     
   3536561129.5609512     
   3402566670.9691639     
   3731758885.0424213     
   3604153200.3050146     
   3478984188.9657655     
   3356410489.3576217     
   3236652325.6245894     
   3545291080.3232222     
   3427056413.9371119     
   3312583354.2140813     
   3202094630.7415419     
   3095913802.5571179     
   3804549227.8030519     
   3583745534.6027718     
   3357939469.3679929     
   3129637053.6409554     
   2903388967.2164264     
   3592334288.9004517     
   3385554608.7007651     
   3175188344.3924923     
   2962202848.2847095     
   2748465824.5089116     
   3402566670.9691639     
   3213957736.9801750     
   3024769833.5154676     
   2835364876.7379603     
   2646405706.7331896     
   3236652325.6245894     
   3068214756.5539970     
   2903388797.9781713     
   2742780470.8383255     
   2587212940.8585954     
   3095913802.5571179     
   2947162065.3439951     
   2807062955.8870711     
   2677222568.9079928     
   2559763102.1418948     
   5657842939.7247066     
   5890883521.2107372     
   6116291843.2719555     
   6331598412.0343227     
   6536570841.5498953     
   5151452139.5971384     
   5311307247.8660021     
   5467801866.9083881     
   5618033948.7611771     
   5760531378.6926861     
   4643456312.2901821     
   4755530133.3866501     
   4868736519.7013645     
   4980438852.5128040     
   5088709668.9069967     
   4134118952.0190511     
   4224389926.8051023     
   4320590628.1839886     
   4421067505.1207590     
   4524368486.9453993     
   3624961568.8922381     
   3719711439.7005095     
   3825721159.5319886     
   3942934007.1336293     
   4071263380.3505092     
   6536570841.5498953     
   6328543108.7566900     
   6142721518.1194324     
   5965214455.1201801     
   5787013170.6482897     
   5760531378.6926861     
   5652014993.2163420     
   5559505322.4899340     
   5473948058.4734459     
   5389800229.2532978     
   5088709668.9069967     
   5054003492.5431118     
   5029800520.1367359     
   5010894935.8388348     
   4994083811.8787069     
   4524368486.9453993     
   4539100985.3229017     
   4558482736.9198847     
   4580029288.1315346     
   4602015271.3071661     
   4071263380.3505092     
   4112629781.2159147     
   4151323713.2008553     
   4186435941.7241158     
   4217226366.0248923     
   5787013170.6482897     
   5635930902.7093992     
   5488923815.7544212     
   5345908619.6755848     
   5206924177.5403824     
   5389800229.2532978     
   5248354921.2260485     
   5110085929.9744081     
   4975035523.1351919     
   4843296272.3863602     
   4994083811.8787069     
   4866725977.7398233     
   4742587374.7790089     
   4621640072.1495094     
   4503931463.2456341     
   4602015271.3071661     
   4493708040.4718523     
   4389723663.3432589     
   4289757239.4123645     
   4193731577.3081670     
   4217226366.0248923     
   4133255769.2406869     
   4055951677.4918699     
   3984486272.7423930     
   3918576695.2708087     
   5206924177.5403824     
   5064865747.4297581     
   4924199701.2206926     
   4784971334.7364635     
   4647331330.1514120     
   4843296272.3863602     
   4717370009.8163118     
   4593458343.0343771     
   4471679929.0036087     
   4352248010.8878040     
   4503931463.2456341     
   4393229585.7463541     
   4285134510.9959607     
   4179820463.7806673     
   4077542240.2585154     
   4193731577.3081670     
   4097379028.4038811     
   4004158698.7068367     
   3914279272.7823501     
   3828013344.2313032     
   3918576695.2708087     
   3835719113.4961605     
   3756405497.1389713     
   3680855136.6285095     
   3609333163.9923716     
   4647331330.1514120     
   4513283177.7213430     
   4381194479.5800133     
   4251215239.3210039     
   4123539583.2308621     
   4352248010.8878040     
   4228863948.9946933     
   4107977298.2120380     
   3989786030.7145538     
   3874542388.3105555     
   4077542240.2585154     
   3965976224.7155290     
   3857604454.0830522     
   3752678215.2892175     
   3651513022.2352843     
   3828013344.2313032     
   3729408196.1092343     
   3634857177.6861978     
   3544663576.4671741     
   3459202485.0041451     
   3609333163.9923716     
   3524715477.7290187     
   3445161659.3931255     
   3371015010.5878792     
   3302693398.1118178     
   4123539583.2308621     
   3974919447.5322967     
   3828799513.5460892     
   3685462056.6290555     
   3545291080.3232222     
   3874542388.3105555     
   3740131473.2001028     
   3609025551.9408369     
   3481581392.6099377     
   3358260857.4298544     
   3651513022.2352843     
   3531704521.0874662     
   3416055680.9586501     
   3304983468.4522505     
   3199006093.5765729     
   3459202485.0041451     
   3354319833.3185740     
   3254460315.5550427     
   3160075696.7356300     
   3071706610.2340264     
   3302693398.1118178     
   3212876966.2459106     
   3128896072.1950665     
   3051201862.2942939     
   2980314352.5270176     
   3545291080.3232222     
   3427056413.9371119     
   3312583354.2140813     
   3202094630.7415419     
   3095913802.5571179     
   3358260857.4298544     
   3248128324.7852120     
   3141527838.1183600     
   3038672907.5891328     
   2939841869.8717198     
   3199006093.5765729     
   3098652728.7758813     
   3001871955.8864579     
   2908931370.0103321     
   2820156860.5237260     
   3071706610.2340264     
   2983297062.3119764     
   2898799806.8425336     
   2818600995.0524492     
   2743168052.3454075     
   2980314352.5270176     
   2906371557.7364488     
   2836972079.2644305     
   2772671807.3792138     
   2714154140.1574469     
   3095913802.5571179     
   2947162065.3439951     
   2807062955.8870711     
   2677222568.9079928     
   2559763102.1418948     
   2939841869.8717198     
   2799110688.1380677     
   2664741721.0895414     
   2537579198.0861840     
   2418707130.0262027     
   2820156860.5237260     
   2690924895.3380075     
   2567008462.2707400     
   2449151240.4399838     
   2338287641.9554777     
   2743168052.3454075     
   2630646921.9419084     
   2523836447.2426801     
   2424083581.4116063     
   2333114202.0875783     
   2714154140.1574469     
   2624928572.5118823     
   2543198385.4823165     
   2471454085.0786629     
   2412849023.1614513     
   3624961568.8922381     
   3719711439.7005095     
   3825721159.5319886     
   3942934007.1336293     
   4071263380.3505092     
   3137955962.2283497     
   3255558087.1576567     
   3382576854.7840238     
   3518547267.4473515     
   3663015126.4747829     
   2694759878.7983747     
   2830587502.4336958     
   2973717249.0987935     
   3123068213.5306177     
   3277730795.8674049     
   2298858400.3314509     
   2449590274.7659020     
   2605025270.7603302     
   2763239339.0903635     
   2922801928.7177858     
   1955452624.5831785     
   2119517592.7927654     
   2284912859.8282633     
   2448673124.8312349     
   2608836809.3280644     
   4071263380.3505092     
   4112629781.2159147     
   4151323713.2008553     
   4186435941.7241158     
   4217226366.0248923     
   3663015126.4747829     
   3702353685.1360865     
   3740305859.4758139     
   3775965059.3264933     
   3808576312.2951574     
   3277730795.8674049     
   3320919394.8577185     
   3364363172.0756145     
   3407235592.7411232     
   3448856218.6760507     
   2922801928.7177858     
   2975710378.6368423     
   3030873101.8308792     
   3087608686.6108146     
   3145385081.0654650     
   2608836809.3280644     
   2676780466.8584208     
   2749280527.6139994     
   2825832859.5524511     
   2906087613.5654473     
   4217226366.0248923     
   4133255769.2406869     
   4055951677.4918699     
   3984486272.7423930     
   3918576695.2708087     
   3808576312.2951574     
   3756083881.8956690     
   3709676310.0692420     
   3668890897.1554976     
   3633634938.1157794     
   3448856218.6760507     
   3423125248.8242412     
   3402502206.8883572     
   3386760504.3820682     
   3375882221.3841238     
   3145385081.0654650     
   3142007122.9316878     
   3142155496.7876472     
   3145727424.9312716     
   3152704886.2905235     
   2906087613.5654473     
   2921051796.3353405     
   2937177473.0767388     
   2954404710.5392427     
   2972689720.5110483     
   3918576695.2708087     
   3835719113.4961605     
   3756405497.1389713     
   3680855136.6285095     
   3609333163.9923716     
   3633634938.1157794     
   3563026479.0185766     
   3496794417.9085212     
   3435178198.4254503     
   3378469085.0211158     
   3375882221.3841238     
   3318331777.4719286     
   3266136433.1307096     
   3219535371.1881871     
   3178822860.5738783     
   3152704886.2905235     
   3108617964.1126089     
   3070988853.2179527     
   3040025531.5429335     
   3015991403.3427048     
   2972689720.5110483     
   2941785840.8013124     
   2918528609.1573496     
   2903057638.2326002     
   2895566861.0925708     
   3609333163.9923716     
   3524715477.7290187     
   3445161659.3931255     
   3371015010.5878792     
   3302693398.1118178     
   3378469085.0211158     
   3308530602.6772866     
   3244123464.2668476     
   3185568822.4604468     
   3133246303.7409668     
   3178822860.5738783     
   3122849531.0324564     
   3072796170.3527918     
   3028942441.1445765     
   2991609405.5166578     
   3015991403.3427048     
   2972974629.0484610     
   2936150462.4659967     
   2905740822.7157159     
   2881993227.5403676     
   2895566861.0925708     
   2864107119.9720354     
   2838965775.8569436     
   2820298495.6704664     
   2808274156.8968811     
   3302693398.1118178     
   3212876966.2459106     
   3128896072.1950665     
   3051201862.2942939     
   2980314352.5270176     
   3133246303.7409668     
   3057236690.2671170     
   2987868132.6593137     
   2925577948.1149454     
   2870859146.9605064     
   2991609405.5166578     
   2929264785.2269626     
   2874337920.0118432     
   2827220984.7005539     
   2788345640.4723859     
   2881993227.5403676     
   2832646103.5548072     
   2791426621.9333901     
   2758653410.8538189     
   2734668896.5366211     
   2808274156.8968811     
   2770605757.1142340     
   2741684103.2765174     
   2721736627.0915575     
   2711002689.3663673     
   2980314352.5270176     
   2906371557.7364488     
   2836972079.2644305     
   2772671807.3792138     
   2714154140.1574469     
   2870859146.9605064     
   2812283517.3815126     
   2759104615.9494925     
   2711788719.4961634     
   2670879094.7057252     
   2788345640.4723859     
   2744107444.5857577     
   2705945593.1999450     
   2674214337.9364424     
   2649304768.7431693     
   2734668896.5366211     
   2703076680.4991541     
   2678045487.2339840     
   2659813106.0768461     
   2648628125.7762313     
   2711002689.3663673     
   2689721333.1661825     
   2675303946.4005818     
   2667887096.8914237     
   2667606478.0990829     
   2714154140.1574469     
   2624928572.5118823     
   2543198385.4823165     
   2471454085.0786629     
   2412849023.1614513     
   2670879094.7057252     
   2606352433.2825317     
   2551576935.6549087     
   2507722876.9106116     
   2476047794.0260925     
   2649304768.7431693     
   2603746491.7006140     
   2569867076.2217155     
   2548167007.8151107     
   2539124816.3930020     
   2648628125.7762313     
   2614029949.4811797     
   2592892410.3215332     
   2585725073.8313589     
   2593250181.0188508     
   2667606478.0990829     
   2634223515.5114818     
   2616242608.3587036     
   2614876229.4933715     
   2632053246.7522655     
   1955452624.5831785     
   2119517592.7927654     
   2284912859.8282633     
   2448673124.8312349     
   2608836809.3280644     
   1654003257.3181508     
   1820423780.3692169     
   1988528653.5590084     
   2155617484.7125659     
   2319929445.6744156     
   1393821813.7163191     
   1571155654.9017799     
   1749495411.5309525     
   1926834341.0015411     
   2101919891.9800656     
   1207228874.1860271     
   1399138521.3706083     
   1590637919.7635701     
   1780948438.5022912     
   1969610252.7946622     
   1136937405.4029560     
   1335236398.3938503     
   1533865456.8576550     
   1732824580.4605749     
   1932113769.2708516     
   2608836809.3280644     
   2676780466.8584208     
   2749280527.6139994     
   2825832859.5524511     
   2906087613.5654473     
   2319929445.6744156     
   2407017394.3266320     
   2496572943.9172339     
   2588209599.9593062     
   2681653794.9970713     
   2101919891.9800656     
   2205706788.5282249     
   2309405294.6131926     
   2412781158.5783257     
   2515668652.6454396     
   1969610252.7946622     
   2086777776.5580468     
   2201069495.3867879     
   2312411239.2926412     
   2420751316.9440813     
   1932113769.2708516     
   2058775393.3471107     
   2179963572.3063340     
   2295678306.5866618     
   2405919598.0342469     
   2906087613.5654473     
   2921051796.3353405     
   2937177473.0767388     
   2954404710.5392427     
   2972689720.5110483     
   2681653794.9970713     
   2703333476.1501913     
   2727270929.1877279     
   2753446263.7481985     
   2781849678.8133030     
   2515668652.6454396     
   2544068849.8565688     
   2575857919.3506684     
   2611036678.7142792     
   2649610624.2932720     
   2420751316.9440813     
   2454369548.1647339     
   2492512811.9298944     
   2535184278.5560822     
   2582388376.2285509     
   2405919598.0342469     
   2441635875.3872833     
   2483005839.3959460     
   2530029524.3551679     
   2582707000.6111493     
   2972689720.5110483     
   2941785840.8013124     
   2918528609.1573496     
   2903057638.2326002     
   2895566861.0925708     
   2781849678.8133030     
   2765389075.2529526     
   2756268161.5817761     
   2754572851.6462846     
   2760416161.4522228     
   2649610624.2932720     
   2644629746.1368618     
   2646404129.8428850     
   2654971423.4358664     
   2670379107.2088118     
   2582388376.2285509     
   2585524533.6492238     
   2594567326.8480949     
   2609525112.1835814     
   2630407867.9855766     
   2582707000.6111493     
   2590531326.5992503     
   2603203746.9682426     
   2620724217.2988110     
   2643092829.0153704     
   2895566861.0925708     
   2864107119.9720354     
   2838965775.8569436     
   2820298495.6704664     
   2808274156.8968811     
   2760416161.4522228     
   2737683330.6886506     
   2721867639.9878092     
   2713074389.8602929     
   2711415648.2929707     
   2670379107.2088118     
   2654475564.8984537     
   2646010895.3041739     
   2645038613.7913055     
   2651614754.9613676     
   2630407867.9855766     
   2618718051.9974980     
   2614903915.7457418     
   2618979753.7133932     
   2630960368.7895565     
   2643092829.0153704     
   2632460287.1717224     
   2630057225.5644021     
   2635883725.5577168     
   2649939869.9625521     
   2808274156.8968811     
   2770605757.1142340     
   2741684103.2765174     
   2721736627.0915575     
   2711002689.3663673     
   2711415648.2929707     
   2684253726.9084959     
   2665896920.7883615     
   2656482961.1344352     
   2656154112.9453063     
   2651614754.9613676     
   2632650336.3347955     
   2622464944.8037004     
   2621123415.6078315     
   2628692095.5148458     
   2630960368.7895565     
   2617498048.1550603     
   2612730528.0058160     
   2616675558.4785256     
   2629351818.3822265     
   2649939869.9625521     
   2639081219.1011357     
   2636803973.2557454     
   2643108386.7444034     
   2657995632.0301871     
   2711002689.3663673     
   2689721333.1661825     
   2675303946.4005818     
   2667887096.8914237     
   2667606478.0990829     
   2656154112.9453063     
   2642116066.0148349     
   2635330206.5404816     
   2635871186.7747726     
   2643811759.8274989     
   2628692095.5148458     
   2619444929.0694060     
   2617764926.9411016     
   2623681685.8325028     
   2637226730.6363139     
   2629351818.3822265     
   2622059872.2101460     
   2622603311.8187518     
   2630991068.8941941     
   2647241176.2568746     
   2657995632.0301871     
   2649603483.4933372     
   2649287227.2603974     
   2657063707.0148230     
   2672968293.2066789     
   2667606478.0990829     
   2634223515.5114818     
   2616242608.3587036     
   2614876229.4933715     
   2632053246.7522655     
   2643811759.8274989     
   2606739231.6812320     
   2582150759.8526835     
   2570411459.4590459     
   2572053728.2221613     
   2637226730.6363139     
   2602503728.0840974     
   2578120727.1143384     
   2564125050.5238404     
   2560566188.5415311     
   2647241176.2568746     
   2621799503.5122957     
   2605230627.4446120     
   2597808046.9284086     
   2600078136.7049179     
   2672968293.2066789     
   2664307083.7900281     
   2663679055.2904239     
   2672070216.8353353     
   2691397162.2134628     
   1136937405.4029560     
   1335236398.3938503     
   1533865456.8576550     
   1732824580.4605749     
   1932113769.2708516     
   1207147292.0045779     
   1399088078.3402689     
   1590620167.1340842     
   1780967266.8568523     
   1969671113.0977349     
   1393696798.4794238     
   1571068039.6572306     
   1749453579.9193113     
   1926849153.6331961     
   2102003964.1182580     
   1653877640.2876949     
   1820316999.1750307     
   1988457589.9140654     
   2155601158.3864179     
   2319988235.8388100     
   1955360534.5489783     
   2119407164.8442907     
   2284808025.3795366     
   2448599889.9487863     
   2608822106.5242438     
   1932113769.2708516     
   2058775393.3471107     
   2179963572.3063340     
   2295678306.5866618     
   2405919598.0342469     
   1969671113.0977349     
   2086794640.1610196     
   2201031758.2949624     
   2312307408.3753777     
   2420569472.1995273     
   2102003964.1182580     
   2205729857.0551023     
   2309346782.5487623     
   2412619339.5479760     
   2515381166.0792212     
   2319988235.8388100     
   2407031707.1369791     
   2496513427.7731915     
   2588045825.7948232     
   2681354498.4045448     
   2608822106.5242438     
   2676770236.8638525     
   2749238696.7989349     
   2825722444.3804336     
   2905870445.1525869     
   2405919598.0342469     
   2441635875.3872833     
   2483005839.3959460     
   2530029524.3551679     
   2582707000.6111493     
   2420569472.1995273     
   2454453908.8192229     
   2492916122.5331717     
   2535960215.6690307     
   2583590900.4388323     
   2515381166.0792212     
   2544175674.4816685     
   2576457669.6380787     
   2612229734.9019866     
   2651498507.0268121     
   2681354498.4045448     
   2703390711.7384953     
   2727819564.8600564     
   2754623561.2065682     
   2783795301.3974347     
   2905870445.1525869     
   2920988613.6942234     
   2937427050.7170534     
   2955127965.2162843     
   2974050776.0948772     
   2582707000.6111493     
   2590531326.5992503     
   2603203746.9682426     
   2620724217.2988110     
   2643092829.0153704     
   2583590900.4388323     
   2586515947.7221704     
   2595363128.5238724     
   2610140324.5364289     
   2630858922.8763752     
   2651498507.0268121     
   2646137293.2501774     
   2647568294.5838795     
   2655829182.6191006     
   2670970611.6604781     
   2783795301.3974347     
   2766811428.9863162     
   2757230813.9772859     
   2755141259.3772473     
   2760661481.6319857     
   2974050776.0948772     
   2942484806.1830602     
   2918659393.4321451     
   2902719693.2829165     
   2894869224.2365942     
   2643092829.0153704     
   2632460287.1717224     
   2630057225.5644021     
   2635883725.5577168     
   2649939869.9625521     
   2630858922.8763752     
   2619316788.0943260     
   2615591951.9690957     
   2619699554.5314517     
   2631655031.0640965     
   2670970611.6604781     
   2655579704.2203856     
   2647530524.4230161     
   2646876026.3216014     
   2653670755.8972898     
   2760661481.6319857     
   2739027629.0550547     
   2724198260.3028016     
   2716274748.4991722     
   2715362985.3484387     
   2894869224.2365942     
   2865296613.6630707     
   2841939423.6912346     
   2824945321.9935389     
   2814471011.2228231     
   2649939869.9625521     
   2639081219.1011357     
   2636803973.2557454     
   2643108386.7444034     
   2657995632.0301871     
   2631655031.0640965     
   2619243149.4724245     
   2615597544.3776884     
   2620732527.8765125     
   2634662267.6863923     
   2653670755.8972898     
   2636237763.2783999     
   2627685051.5076704     
   2628076418.7327905     
   2637476657.6642690     
   2715362985.3484387     
   2689643778.9690175     
   2672818225.0918536     
   2665030638.3835387     
   2666431805.2095547     
   2814471011.2228231     
   2777635171.3839312     
   2749575733.2518730     
   2730537008.9347029     
   2720781962.8998470     
   2657995632.0301871     
   2649603483.4933372     
   2649287227.2603974     
   2657063707.0148230     
   2672968293.2066789     
   2634662267.6863923     
   2622914100.1497707     
   2618771293.7567372     
   2622257446.5168691     
   2633401687.8229961     
   2637476657.6642690     
   2621482164.8026180     
   2612713726.9532423     
   2611211522.7957077     
   2617015116.6253681     
   2666431805.2095547     
   2645551480.5230308     
   2631596900.0762124     
   2624630354.0166545     
   2624715209.3464723     
   2720781962.8998470     
   2694643709.2108483     
   2675203037.5582972     
   2662545643.8603005     
   2656768091.0884824     
   2672968293.2066789     
   2664307083.7900281     
   2663679055.2904239     
   2672070216.8353353     
   2691397162.2134628     
   2633401687.8229961     
   2638143771.1497045     
   2652277298.5623617     
   2676066307.4951849     
   2710054187.0619397     
   2617015116.6253681     
   2623785258.5790162     
   2640949745.0716462     
   2668547510.9377360     
   2706622104.9062338     
   2624715209.3464723     
   2621951095.5097942     
   2630184872.1120105     
   2649741868.1736636     
   2681029035.8223977     
   2656768091.0884824     
   2633247935.5325494     
   2620764789.3380737     
   2620430544.2484188     
   2633918546.4249468     
   1955360534.5489783     
   2119407164.8442907     
   2284808025.3795366     
   2448599889.9487863     
   2608822106.5242438     
   2298812549.6454554     
   2449496144.6706371     
   2604898424.3968115     
   2763095507.9155602     
   2922656522.3841929     
   2694750940.0254273     
   2830514320.4088144     
   2973586680.8566260     
   3122885686.8763576     
   3277500333.4708953     
   3137968936.9764833     
   3255507831.8940353     
   3382462103.1003819     
   3518363624.8667731     
   3662755452.4410591     
   3624978783.0218668     
   3719684650.6119657     
   3825641913.0228019     
   3942788771.4998164     
   4071034086.7498817     
   2608822106.5242438     
   2676770236.8638525     
   2749238696.7989349     
   2825722444.3804336     
   2905870445.1525869     
   2922656522.3841929     
   2975602266.7510524     
   3030781655.0279164     
   3087514345.6370616     
   3145268543.1831732     
   3277500333.4708953     
   3320756785.4985499     
   3364262762.6988301     
   3407195185.8671904     
   3448875819.6668129     
   3662755452.4410591     
   3702181880.6754260     
   3740230180.9847193     
   3775999392.3978095     
   3808738512.6011138     
   4071034086.7498817     
   4112493169.9413357     
   4151300308.2223315     
   4186553443.9397111     
   4217517534.2173700     
   2905870445.1525869     
   2920988613.6942234     
   2937427050.7170534     
   2955127965.2162843     
   2974050776.0948772     
   3145268543.1831732     
   3141764090.8526092     
   3141847733.4471517     
   3145416978.7096467     
   3152457772.8477702     
   3448875819.6668129     
   3422811229.3377948     
   3401829625.9616380     
   3385700770.0085897     
   3374409179.8368325     
   3808738512.6011138     
   3755821484.0017381     
   3708891765.9762926     
   3667476494.4112334     
   3631480314.9070911     
   4217517534.2173700     
   4133170439.1404810     
   4055335619.4211259     
   3983166662.4282117     
   3916369685.3676043     
   2974050776.0948772     
   2942484806.1830602     
   2918659393.4321451     
   2902719693.2829165     
   2894869224.2365942     
   3152457772.8477702     
   3107347171.8511200     
   3068738771.3523955     
   3036841197.2971821     
   3011915887.4163456     
   3374409179.8368325     
   3315941890.2107096     
   3262869020.9619107     
   3215423658.9703279     
   3173886849.1677279     
   3631480314.9070911     
   3560476305.7331018     
   3493925944.9533367     
   3432056467.6731954     
   3375137603.2195225     
   3916369685.3676043     
   3833988359.3734827     
   3755304054.2969556     
   3680519389.2437277     
   3609873719.0786219     
   2894869224.2365942     
   2865296613.6630707     
   2841939423.6912346     
   2824945321.9935389     
   2814471011.2228231     
   3011915887.4163456     
   2970637963.4773011     
   2935504499.2762513     
   2906734061.9097562     
   2884568915.3054361     
   3173886849.1677279     
   3119139668.5431066     
   3070249596.0103655     
   3027497068.8232417     
   2991207312.9297485     
   3375137603.2195225     
   3305612120.9758544     
   3241479287.0434880     
   3183060295.0168962     
   3130745605.9242682     
   3609873719.0786219     
   3524622079.2474103     
   3444172654.2416511     
   3368860197.3039222     
   3299112972.0336981     
   2814471011.2228231     
   2777635171.3839312     
   2749575733.2518730     
   2730537008.9347029     
   2720781962.8998470     
   2884568915.3054361     
   2834911533.2900453     
   2793394976.8035655     
   2760350878.4558668     
   2736139024.8929420     
   2991207312.9297485     
   2927809361.9733596     
   2871850108.1814542     
   2823727051.7064738     
   2783879665.8637052     
   3130745605.9242682     
   3053302340.6441817     
   2982557243.7739377     
   2918943426.9459434     
   2862950541.6116629     
   3299112972.0336981     
   3207790509.9272990     
   3122427830.5130992     
   3043462782.3987894     
   2971401612.3671432     
   2720781962.8998470     
   2694643709.2108483     
   2675203037.5582972     
   2662545643.8603005     
   2656768091.0884824     
   2736139024.8929420     
   2702281792.9276719     
   2675100742.3240423     
   2654757979.4529414     
   2641421968.8805699     
   2783879665.8637052     
   2739732729.6810217     
   2702049094.7273774     
   2671085842.8006115     
   2647114096.5739551     
   2862950541.6116629     
   2806433421.6131029     
   2755954874.4663372     
   2711868847.2327552     
   2674563994.3255692     
   2971401612.3671432     
   2900985879.0267682     
   2835978592.2123594     
   2776814282.0316224     
   2723993751.5725160     
   2656768091.0884824     
   2633247935.5325494     
   2620764789.3380737     
   2620430544.2484188     
   2633918546.4249468     
   2641421968.8805699     
   2593797291.6240964     
   2556541467.0399632     
   2530482650.2866311     
   2516690429.4393344     
   2647114096.5739551     
   2579759186.6940017     
   2522257823.4653192     
   2475269072.2394853     
   2439511770.9247155     
   2674563994.3255692     
   2591983171.8751264     
   2518963229.2966800     
   2456117555.1081915     
   2404114265.6621280     
   2723993751.5725160     
   2630536488.2167745     
   2546660960.3545589     
   2473061350.4394541     
   2410675831.4370589     
   3624978783.0218668     
   3719684650.6119657     
   3825641913.0228019     
   3942788771.4998164     
   4071034086.7498817     
   4134130469.3786092     
   4224383314.7835078     
   4320556939.7239504     
   4420995415.3791246     
   4524244858.5942154     
   4643462393.6967344     
   4755545126.0358639     
   4868752275.5812998     
   4980448537.4036970     
   5088708187.8937712     
   5151454047.7751923     
   5311345363.7139416     
   5467869604.2715340     
   5618129697.3250895     
   5760658509.5704775     
   5657841840.6365681     
   5890946276.4325027     
   6116413495.7815285     
   6331781968.9896612     
   6536826529.8181162     
   4071034086.7498817     
   4112493169.9413357     
   4151300308.2223315     
   4186553443.9397111     
   4217517534.2173700     
   4524244858.5942154     
   4539075465.9256039     
   4558573177.1469746     
   4580256258.1886759     
   4602400471.9612236     
   5088708187.8937712     
   5054071650.2791939     
   5029946397.6262054     
   5011125879.2981558     
   4994408613.3183060     
   5760658509.5704775     
   5652154835.2380857     
   5559654088.5478783     
   5474096309.4994535     
   5389940832.9569616     
   6536826529.8181162     
   6328730143.3130569     
   6142826251.9661570     
   5965209752.8957443     
   5786872779.2470922     
   4217517534.2173700     
   4133170439.1404810     
   4055335619.4211259     
   3983166662.4282117     
   3916369685.3676043     
   4602400471.9612236     
   4493900232.9785719     
   4389634557.6620903     
   4289288732.1971788     
   4192774464.8746705     
   4994408613.3183060     
   4867091415.2557297     
   4742971773.0621014     
   4622018645.9734831     
   4504273734.1350317     
   5389940832.9569616     
   5248775897.3755283     
   5110832079.5106211     
   4976151419.6061735     
   4844827893.9154453     
   5786872779.2470922     
   5636281806.1706915     
   5489878253.3519354     
   5347576660.2524796     
   5209423555.5390949     
   3916369685.3676043     
   3833988359.3734827     
   3755304054.2969556     
   3680519389.2437277     
   3609873719.0786219     
   4192774464.8746705     
   4097857087.6397638     
   4006183059.5468678     
   3917962500.6768436     
   3833463742.5094533     
   4504273734.1350317     
   4395143786.0170574     
   4288600445.9659681     
   4184830703.6234293     
   4084106938.0868211     
   4844827893.9154453     
   4719947433.8910913     
   4596861251.9927607     
   4475700476.4594889     
   4356710650.4994068     
   5209423555.5390949     
   5067362106.9258299     
   4926225834.6768980     
   4786057876.3122978     
   4647043803.5777903     
   3609873719.0786219     
   3524622079.2474103     
   3444172654.2416511     
   3368860197.3039222     
   3299112972.0336981     
   3833463742.5094533     
   3733586261.3718324     
   3637609708.0667677     
   3545827576.6150351     
   3458611208.4036808     
   4084106938.0868211     
   3971006969.5543137     
   3861117914.3064466     
   3754681749.3892641     
   3652004062.7348909     
   4356710650.4994068     
   4231795245.7491627     
   4109610227.3625021     
   3990345323.9570475     
   3874242953.3364902     
   4647043803.5777903     
   4511635991.5586748     
   4378671740.8606081     
   4248292479.9743366     
   4120685838.0411539     
   3299112972.0336981     
   3207790509.9272990     
   3122427830.5130992     
   3043462782.3987894     
   2971401612.3671432     
   3458611208.4036808     
   3352984527.9887762     
   3252448450.9212708     
   3157450510.6936078     
   3068525825.6071844     
   3652004062.7348909     
   3531954848.0778699     
   3416065200.9914637     
   3304754750.4322753     
   3198543372.8031759     
   3874242953.3364902     
   3739910723.0486116     
   3608803940.3176084     
   3481285391.2108474     
   3357822840.3670778     
   4120685838.0411539     
   3972354915.3179302     
   3826355202.6631041     
   3682974269.6753531     
   3542602265.9487948     
   2971401612.3671432     
   2900985879.0267682     
   2835978592.2123594     
   2776814282.0316224     
   2723993751.5725160     
   3068525825.6071844     
   2984044287.3248663     
   2904051606.3172231     
   2828942600.3512683     
   2759181010.3426313     
   3198543372.8031759     
   3101209056.1410747     
   3007524883.5101180     
   2917821786.7455807     
   2832496416.5411682     
   3357822840.3670778     
   3249039423.8201089     
   3143200945.5987539     
   3040564899.3452425     
   2941446853.0808501     
   3542602265.9487948     
   3423801924.3737049     
   3307401924.1984677     
   3193589594.7701888     
   3082601292.8575168     
   2723993751.5725160     
   2630536488.2167745     
   2546660960.3545589     
   2473061350.4394541     
   2410675831.4370589     
   2759181010.3426313     
   2652730307.7761397     
   2554672078.8389626     
   2465807045.0723567     
   2387079126.6320562     
   2832496416.5411682     
   2709337014.9439731     
   2592616140.5321259     
   2483218150.3549070     
   2382202590.5576706     
   2941446853.0808501     
   2799571865.4679785     
   2661557093.3501778     
   2528273888.4525967     
   2400901340.1336012     
   3082601292.8575168     
   2921587000.2978230     
   2761513684.9584155     
   2603125925.4652553     
   2447669439.6613874     
   5657841840.6365681     
   5890946276.4325027     
   6116413495.7815285     
   6331781968.9896612     
   6536826529.8181162     
   6491703114.4448996     
   6586924843.1325655     
   6757479089.1285954     
   6961283107.6322355     
   7171676146.0846806     
   7982390629.1212130     
   7735020299.1235666     
   7669218520.4271879     
   7669679985.5619783     
   7666473538.7782764     
   10130350744.035995     
   9322073996.5491619     
   8826442083.1759014     
   8443626384.4201584     
   8035820785.6414652     
   12935669592.645710     
   11340800037.101978     
   10210316869.774235     
   9272887109.5605736     
   8304077330.9238920     
   6536826529.8181162     
   6328730143.3130569     
   6142826251.9661570     
   5965209752.8957443     
   5786872779.2470922     
   7171676146.0846806     
   6911017044.0760536     
   6658259761.6408911     
   6409546247.8898697     
   6161731612.0994606     
   7666473538.7782764     
   7381201413.0993633     
   7101320150.5922289     
   6826907442.1091719     
   6558166138.7730885     
   8035820785.6414652     
   7746932385.7037210     
   7473705736.1242199     
   7214183981.8987398     
   6968373039.6478167     
   8304077330.9238920     
   8020771739.1659536     
   7779552849.8583794     
   7569743060.4424295     
   7386370980.1632881     
   5786872779.2470922     
   5636281806.1706915     
   5489878253.3519354     
   5347576660.2524796     
   5209423555.5390949     
   6161731612.0994606     
   6012703168.0268011     
   5865013666.1467657     
   5718701730.3653116     
   5573823738.1703701     
   6558166138.7730885     
   6407586878.4575462     
   6255395504.5236397     
   6101560609.9020720     
   5946111304.7662573     
   6968373039.6478167     
   6814473939.2882109     
   6655990649.2886496     
   6492641694.1631393     
   6324375003.5788279     
   7386370980.1632881     
   7228366807.1123972     
   7062894316.5428629     
   6889262725.8292961     
   6707282374.5258179     
   5209423555.5390949     
   5067362106.9258299     
   4926225834.6768980     
   4786057876.3122978     
   4647043803.5777903     
   5573823738.1703701     
   5414093882.8449001     
   5255292041.5751009     
   5097461565.0336123     
   4940708936.0921125     
   5946111304.7662573     
   5772201396.8828583     
   5599669925.6431026     
   5428542719.2576752     
   5258880210.4776154     
   6324375003.5788279     
   6139276522.5009260     
   5956395683.7008390     
   5775711141.1251097     
   5597247819.3612785     
   6707282374.5258179     
   6513500532.5846777     
   6323125603.3609848     
   6136047770.0225878     
   5952245968.7360821     
   4647043803.5777903     
   4511635991.5586748     
   4378671740.8606081     
   4248292479.9743366     
   4120685838.0411539     
   4940708936.0921125     
   4795975112.5721655     
   4652635061.8617392     
   4510801776.2534981     
   4370626492.9754372     
   5258880210.4776154     
   5104900765.1399584     
   4951296896.9048948     
   4798140634.8122711     
   4645539704.9980869     
   5597247819.3612785     
   5434298664.5648003     
   5270763882.1382818     
   5106667370.4731236     
   4942071232.6963100     
   5952245968.7360821     
   5780742868.5933094     
   5607768243.5403023     
   5433295189.1374836     
   5257342385.4312534     
   4120685838.0411539     
   3972354915.3179302     
   3826355202.6631041     
   3682974269.6753531     
   3542602265.9487948     
   4370626492.9754372     
   4207345523.3649926     
   4045860802.9512153     
   3886368490.2705097     
   3729149098.3780499     
   4645539704.9980869     
   4468500285.3300457     
   4292881095.2081342     
   4118798702.6565437     
   3946439065.7365499     
   4942071232.6963100     
   4752195595.1748886     
   4563502244.6033249     
   4376042564.7541771     
   4189927170.3675942     
   5257342385.4312534     
   5055294555.5690212     
   4854303094.1741982     
   4654367717.6931200     
   4455542240.0630312     
   3542602265.9487948     
   3423801924.3737049     
   3307401924.1984677     
   3193589594.7701888     
   3082601292.8575168     
   3729149098.3780499     
   3600239097.7246475     
   3472823536.5155272     
   3347064284.8107662     
   3223177153.2563806     
   3946439065.7365499     
   3807052003.0697989     
   3668192184.0317130     
   3529979309.7610369     
   3392594650.5115657     
   4189927170.3675942     
   4039910240.6819592     
   3889448014.6940308     
   3738606202.6137547     
   3587521637.8583360     
   4455542240.0630312     
   4294895252.1915917     
   4132870307.6569481     
   3969472841.7183352     
   3804790967.8903031     
   3082601292.8575168     
   2921587000.2978230     
   2761513684.9584155     
   2603125925.4652553     
   2447669439.6613874     
   3223177153.2563806     
   3046311892.3231978     
   2871236813.4988184     
   2698253066.7304363     
   2527818651.6693001     
   3392594650.5115657     
   3203912222.4132705     
   3018380644.4275694     
   2836247542.7141242     
   2657950528.5334449     
   3587521637.8583360     
   3388916015.9151082     
   3195097379.9015579     
   3006553466.6871295     
   2824311378.7156296     
   3804790967.8903031     
   3596268471.4261117     
   3394316529.9091096     
   3199880326.0066872     
   3015035597.4872713     
 </DataArray>
 <DataArray  type="Float64" Name="strain" NumberOfComponents="3" format="ascii">
  0.20347826590875920        0.0000000000000000       0.12539827648887333     
  0.18665143056876812       -2.7320605002961316E-002   7.4351017794292887E-002
  0.16982459522877705       -4.4671091770226656E-002   3.5135372951214071E-002
  0.15299775988878597       -5.2051460301796026E-002   7.7513419596368545E-003
  0.13617092454879492       -4.9461710597669420E-002  -7.8010751804386824E-003
  0.15985138707291904        0.0000000000000000        9.6446463025657750E-002
  0.15317488687315967       -2.1841793672042632E-002   6.2691150491033520E-002
  0.14649838667340029       -3.6171249076926787E-002   3.7404894385371049E-002
  0.13982188647364091       -4.2988366214652490E-002   2.0587694708670355E-002
  0.13314538627388156       -4.2293145085219724E-002   1.2239551460931426E-002
  0.12645650485687779        0.0000000000000000        7.4202350877629608E-002
  0.12656778237481026       -1.6362982341123943E-002   5.5281204534424068E-002
  0.12667905989274272       -2.7671406383626931E-002   4.1466557197640454E-002
  0.12679033741067522       -3.3925272127508954E-002   3.2758408867278752E-002
  0.12690161492860771       -3.5124579572770036E-002   2.9156759543339027E-002
  0.10329361926063543        0.0000000000000000        5.8665940044788915E-002
  0.10683011707371994       -1.0884171010205255E-002   5.2121179924464536E-002
  0.11036661488680441       -1.9171563690327062E-002   4.7320361388022293E-002
  0.11390311269988888       -2.4862178040365425E-002   4.4263484435462075E-002
  0.11743961051297337       -2.7956014060320326E-002   4.2950549066783986E-002
   9.0362730284191992E-002   0.0000000000000000        4.9837230527135651E-002
   9.3961890969888634E-002  -5.4053596792865708E-003   5.3211076661154974E-002
   9.7561051655585262E-002  -1.0671720997027200E-002   5.4966306956516539E-002
  0.10116021234128190       -1.5799083953221892E-002   5.5102921413220318E-002
  0.10475937302697855       -2.0787448547870638E-002   5.3620920031266325E-002
  0.13617092454879492       -4.9461710597669420E-002  -7.8010751804386824E-003
  0.13295806261321025       -4.2932229743361659E-002  -3.3962438102969894E-003
  0.12974520067762557       -3.8493404824387747E-002  -3.9998864893301886E-004
  0.12653233874204087       -3.6145235840747469E-002   1.1876903036534270E-003
  0.12331947680645622       -3.5887722792441012E-002   1.3667930474621781E-003
  0.13314538627388156       -4.2293145085219724E-002   1.2239551460931426E-002
  0.12891109032645467       -3.8430747831856557E-002   1.2178970980332309E-002
  0.12467679437902779       -3.5746336597791147E-002   1.1484098684826406E-002
  0.12044249843160093       -3.4239911383023458E-002   1.0154934574413682E-002
  0.11620820248417404       -3.3911472187553471E-002   8.1914786490943081E-003
  0.12690161492860771       -3.5124579572770036E-002   2.9156759543339027E-002
  0.12242016936320949       -3.3929265920351462E-002   2.5543437128035106E-002
  0.11793872379781130       -3.2999268371194608E-002   2.2070107291695271E-002
  0.11345727823241310       -3.2334586925299419E-002   1.8736770034319658E-002
  0.10897583266701488       -3.1935221582665929E-002   1.5543425355907942E-002
  0.11743961051297337       -2.7956014060320326E-002   4.2950549066783986E-002
  0.11348529972347469       -2.9427784008846346E-002   3.6697154632811327E-002
  0.10953098893397600       -3.0252200144598038E-002   3.1358037171673660E-002
  0.10557667814447734       -3.0429262467575380E-002   2.6933196683370960E-002
  0.10162236735497868       -2.9958970977778387E-002   2.3422633167903217E-002
  0.10475937302697855       -2.0787448547870638E-002   5.3620920031266325E-002
  0.10210648140725027       -2.4926302097341251E-002   4.5640123494660970E-002
   9.9453589787521987E-002  -2.7505131918001455E-002   3.9347888324761451E-002
   9.6800698167793700E-002  -2.8523938009851334E-002   3.4744214521567743E-002
   9.4147806548065413E-002  -2.7982720372890832E-002   3.1829102085079969E-002
  0.12331947680645622       -3.5887722792441012E-002   1.3667930474621781E-003
  0.12040937086042725       -3.6376521939947448E-002   6.5218055061619373E-004
  0.11749926491439833       -3.6267289543745862E-002   1.1404083024812994E-004
  0.11458915896836938       -3.5560025603836198E-002  -2.4762611364195775E-004
  0.11167905302234044       -3.4254730120218513E-002  -4.3282028105412484E-004
  0.11620820248417404       -3.3911472187553471E-002   8.1914786490943081E-003
  0.11346270978128375       -3.3980351744939657E-002   7.8346011526788106E-003
  0.11071721707839345       -3.3665882788740331E-002   7.6304773660625103E-003
  0.10797172437550315       -3.2968065318955603E-002   7.5791072892455388E-003
  0.10522623167261286       -3.1886899335585472E-002   7.6804909222281670E-003
  0.10897583266701488       -3.1935221582665929E-002   1.5543425355907942E-002
  0.10637123414058464       -3.1584181549931867E-002   1.5329599829800269E-002
  0.10376663561415439       -3.1064476033734939E-002   1.5244808946813293E-002
  0.10116203708772409       -3.0376105034075174E-002   1.5289052706947096E-002
   9.8557438561293856E-002  -2.9519068550952432E-002   1.5462331110201649E-002
  0.10162236735497868       -2.9958970977778387E-002   2.3422633167903217E-002
   9.9134943938329861E-002  -2.9188011354924090E-002   2.3137176581980730E-002
   9.6647520521681088E-002  -2.8463069278729519E-002   2.2957035572500478E-002
   9.4160097105032342E-002  -2.7784144749194606E-002   2.2882210139462414E-002
   9.1672673688383527E-002  -2.7151237766319447E-002   2.2912700282866461E-002
   9.4147806548065413E-002  -2.7982720372890832E-002   3.1829102085079969E-002
   9.1753839174519555E-002  -2.6791841159916320E-002   3.1257331409220171E-002
   8.9359871800973684E-002  -2.5861662523724068E-002   3.0767157243123962E-002
   8.6965904427427812E-002  -2.5192184464314107E-002   3.0358579586791338E-002
   8.4571937053881913E-002  -2.4783406981686407E-002   3.0031598440222435E-002
  0.11167905302234044       -3.4254730120218513E-002  -4.3282028105412484E-004
  0.10856506513067354       -3.2750833275776103E-002  -2.2151324274100048E-004
  0.10545107723900668       -3.1447765253392157E-002   7.0352960756581151E-005
  0.10233708934733983       -3.0345526053066632E-002   4.4277832943846740E-004
   9.9223101455672924E-002  -2.9444115674799543E-002   8.9576286330439459E-004
  0.10522623167261286       -3.1886899335585472E-002   7.6804909222281670E-003
  0.10221740804269505       -3.0676945452653689E-002   7.5371305272546180E-003
   9.9208584412777329E-002  -2.9592764284183934E-002   7.5235394905953656E-003
   9.6199760782859564E-002  -2.8634355830176549E-002   7.6397178122499382E-003
   9.3190937152941855E-002  -2.7801720090631088E-002   7.8856654922185299E-003
   9.8557438561293856E-002  -2.9519068550952432E-002   1.5462331110201649E-002
   9.5702989386255044E-002  -2.8603057629531359E-002   1.5039359389537890E-002
   9.2848540211216218E-002  -2.7737763314975877E-002   1.4795367220317664E-002
   8.9994091036177434E-002  -2.6923185607286411E-002   1.4730354602541372E-002
   8.7139641861138595E-002  -2.6159324506462744E-002   1.4844321536209237E-002
   9.1672673688383527E-002  -2.7151237766319447E-002   2.2912700282866461E-002
   8.9021809161353480E-002  -2.6529169806408931E-002   2.2285173344108431E-002
   8.6370944634323432E-002  -2.5882762345767849E-002   2.1885836149924048E-002
   8.3720080107293343E-002  -2.5212015384396370E-002   2.1714688700313366E-002
   8.1069215580263268E-002  -2.4516928922294373E-002   2.1771730995276170E-002
   8.4571937053881913E-002  -2.4783406981686407E-002   3.0031598440222435E-002
   8.2173867367990372E-002  -2.4455281983286489E-002   2.9274572390966702E-002
   7.9775797682098845E-002  -2.4027761376559764E-002   2.8794946279414230E-002
   7.7377727996207318E-002  -2.3500845161506287E-002   2.8592720105565218E-002
   7.4979658310315722E-002  -2.2874533338125946E-002   2.8667893869419647E-002
   9.9223101455672924E-002  -2.9444115674799543E-002   8.9576286330439459E-004
   9.6345630134427929E-002  -2.8611301952303880E-002   6.5276127999724931E-004
   9.3468158813182989E-002  -2.7714852719292360E-002   5.5865348919464930E-004
   9.0590687491937993E-002  -2.6754767975765495E-002   6.1343949089730232E-004
   8.7713216170693054E-002  -2.5731047721722189E-002   8.1711928510486143E-004
   9.3190937152941855E-002  -2.7801720090631088E-002   7.8856654922185299E-003
   9.0462996503075932E-002  -2.7010254002428596E-002   7.6777042598595580E-003
   8.7735055853210037E-002  -2.6175354502449830E-002   7.6199105777534082E-003
   8.5007115203344100E-002  -2.5297021590694368E-002   7.7122844459004691E-003
   8.2279174553478163E-002  -2.4375255267162721E-002   7.9548258643007963E-003
   8.7139641861138595E-002  -2.6159324506462744E-002   1.4844321536209237E-002
   8.4562505640400035E-002  -2.5409206052553424E-002   1.4651198556058523E-002
   8.1985369419661419E-002  -2.4635856285607077E-002   1.4609516883909712E-002
   7.9408233198922790E-002  -2.3839275205623518E-002   1.4719276519761994E-002
   7.6831096978184188E-002  -2.3019462812602975E-002   1.4980477463615860E-002
   8.1069215580263268E-002  -2.4516928922294373E-002   2.1771730995276170E-002
   7.8644157546400237E-002  -2.3808158102678223E-002   2.1573244168595077E-002
   7.6219099512537247E-002  -2.3096358068764491E-002   2.1527472407663707E-002
   7.3794041478674216E-002  -2.2381528820552752E-002   2.1634415712482175E-002
   7.1368983444811157E-002  -2.1663670358043313E-002   2.1894074083050233E-002
   7.4979658310315722E-002  -2.2874533338125946E-002   2.8667893869419647E-002
   7.2707952221076566E-002  -2.2207110152803078E-002   2.8443841097468697E-002
   7.0436246131837382E-002  -2.1556859851921767E-002   2.8373777149015650E-002
   6.8164540042598198E-002  -2.0923782435481979E-002   2.8457702024060866E-002
   6.5892833953359042E-002  -2.0307877903483762E-002   2.8695615722603762E-002
   8.7713216170693054E-002  -2.5731047721722189E-002   8.1711928510486143E-004
   8.4320255612085893E-002  -2.4696115375817784E-002   5.6712337810937985E-004
   8.0927295053478898E-002  -2.3702394356707235E-002   5.2743373257668758E-004
   7.7534334494871820E-002  -2.2749884664389056E-002   6.9805034850692338E-004
   7.4141373936264743E-002  -2.1838586298864926E-002   1.0789732258995599E-003
   8.2279174553478163E-002  -2.4375255267162721E-002   7.9548258643007963E-003
   7.9096839616414005E-002  -2.3444963092924626E-002   7.6573168407274850E-003
   7.5914504679349820E-002  -2.2541052629051248E-002   7.5707527987772527E-003
   7.2732169742285566E-002  -2.1663523875542153E-002   7.6951337384497664E-003
   6.9549834805221422E-002  -2.0812376832397672E-002   8.0304596597455813E-003
   7.6831096978184188E-002  -2.3019462812602975E-002   1.4980477463615860E-002
   7.3860026382823074E-002  -2.2193810810031439E-002   1.4650284939893773E-002
   7.0888955787462030E-002  -2.1379710901395704E-002   1.4531676117954820E-002
   6.7917885192100957E-002  -2.0577163086695140E-002   1.4624650997799069E-002
   6.4946814596739816E-002  -1.9786167365930141E-002   1.4929209579426367E-002
   7.1368983444811157E-002  -2.1663670358043313E-002   2.1894074083050233E-002
   6.8609815911313335E-002  -2.0942658527138266E-002   2.1546027675607888E-002
   6.5850648377815568E-002  -2.0218369173739939E-002   2.1410203690109250E-002
   6.3091480844317760E-002  -1.9490802297848071E-002   2.1486602126553820E-002
   6.0332313310819986E-002  -1.8759957899462637E-002   2.1775222984941910E-002
   6.5892833953359042E-002  -2.0307877903483762E-002   2.8695615722603762E-002
   6.3346208201884691E-002  -1.9691506244245094E-002   2.8344545047870401E-002
   6.0799582450410394E-002  -1.9057027446084229E-002   2.8206335515240877E-002
   5.8252956698936084E-002  -1.8404441509000877E-002   2.8280987124714732E-002
   5.5706330947461802E-002  -1.7733748432995244E-002   2.8568499876292064E-002
   7.4141373936264743E-002  -2.1838586298864926E-002   1.0789732258995599E-003
   7.1549700214655343E-002  -2.0889675986386913E-002   8.5596738319315691E-004
   6.8958026493045832E-002  -1.9824330453208333E-002   7.9326553147657242E-004
   6.6366352771436349E-002  -1.8642549699329249E-002   8.9086767074872397E-004
   6.3774679049826921E-002  -1.7344333724750305E-002   1.1487738010105275E-003
   6.9549834805221422E-002  -2.0812376832397672E-002   8.0304596597455813E-003
   6.7114746092448829E-002  -1.9947184045458144E-002   7.8777079667763372E-003
   6.4679657379676209E-002  -1.9027518060564463E-002   7.8778223004910275E-003
   6.2244568666903602E-002  -1.8053378877716880E-002   8.0308026608904293E-003
   5.9809479954130995E-002  -1.7024766496915311E-002   8.3366490479743760E-003
   6.4946814596739816E-002  -1.9786167365930141E-002   1.4929209579426367E-002
   6.2660872928499395E-002  -1.9004692104529097E-002   1.4784750013446896E-002
   6.0374931260258849E-002  -1.8230705667920247E-002   1.4785718509847390E-002
   5.8088989592018338E-002  -1.7464208056103731E-002   1.4932115068627370E-002
   5.5803047923777910E-002  -1.6705199269079984E-002   1.5223939689787080E-002
   6.0332313310819986E-002  -1.8759957899462637E-002   2.1775222984941910E-002
   5.8188080722806852E-002  -1.8062200163600078E-002   2.1577093523206178E-002
   5.6043848134793739E-002  -1.7433893275276204E-002   2.1516954159545621E-002
   5.3899615546780646E-002  -1.6875037234491082E-002   2.1594804893959881E-002
   5.1755382958767554E-002  -1.6385632041244935E-002   2.1810645726449279E-002
   5.5706330947461802E-002  -1.7733748432995244E-002   2.8568499876292064E-002
   5.3696369475371292E-002  -1.7119708222671115E-002   2.8254738496053644E-002
   5.1686408003280837E-002  -1.6637080882632188E-002   2.8071529249585753E-002
   4.9676446531190382E-002  -1.6285866412878332E-002   2.8018872136887751E-002
   4.7666485059099872E-002  -1.6066064813409664E-002   2.8096767157960389E-002
   6.3774679049826921E-002  -1.7344333724750305E-002   1.1487738010105275E-003
   6.0206634405607362E-002  -1.5695599878133959E-002   1.4004410271450940E-004
   5.6638589761387748E-002  -1.3462265508143667E-002  -6.8475479320273536E-004
   5.3070545117168022E-002  -1.0644330614780512E-002  -1.3256228867425668E-003
   4.9502500472948574E-002  -7.2417951980430217E-003  -1.7825601779031253E-003
   5.9809479954130995E-002  -1.7024766496915311E-002   8.3366490479743760E-003
   5.6429965616805910E-002  -1.5778273803525089E-002   7.7742298948357269E-003
   5.3050451279480715E-002  -1.4150493682912241E-002   7.4049405531075307E-003
   4.9670936942155630E-002  -1.2141426135076967E-002   7.2287810227898985E-003
   4.6291422604830434E-002  -9.7510711600183875E-003   7.2457513038834964E-003
   5.5803047923777910E-002  -1.6705199269079984E-002   1.5223939689787080E-002
   5.2621262902379506E-002  -1.5860947728916497E-002   1.4904517985654703E-002
   4.9439477880981186E-002  -1.4838721857680925E-002   1.4787425101965207E-002
   4.6257692859582755E-002  -1.3638521655373589E-002   1.4872661038718551E-002
   4.3075907838184435E-002  -1.2260347121994419E-002   1.5160225795915139E-002
   5.1755382958767554E-002  -1.6385632041244935E-002   2.1810645726449279E-002
   4.8780526262328226E-002  -1.5943621654307655E-002   2.1530908375171985E-002
   4.5805669565888940E-002  -1.5526950032449444E-002   2.1462698853370224E-002
   4.2830812869449564E-002  -1.5135617175670350E-002   2.1606017161043337E-002
   3.9855956173010285E-002  -1.4769623083970340E-002   2.1960863298191857E-002
   4.7666485059099872E-002  -1.6066064813409664E-002   2.8096767157960389E-002
   4.4907755696652035E-002  -1.6026295579699090E-002   2.7653401063387595E-002
   4.2149026334204226E-002  -1.6215178207218101E-002   2.7430761807322346E-002
   3.9390296971756361E-002  -1.6632712695966924E-002   2.7428849389764504E-002
   3.6631567609308524E-002  -1.7278899045946039E-002   2.7647663810714818E-002
   9.0362730284191992E-002   0.0000000000000000        4.9837230527135651E-002
   9.3961890969888634E-002  -5.4053596792865708E-003   5.3211076661154974E-002
   9.7561051655585262E-002  -1.0671720997027200E-002   5.4966306956516539E-002
  0.10116021234128190       -1.5799083953221892E-002   5.5102921413220318E-002
  0.10475937302697855       -2.0787448547870638E-002   5.3620920031266325E-002
   8.2425856121938534E-002   0.0000000000000000        4.4784459372666167E-002
   8.4635528502245400E-002  -4.5748175225224083E-003   4.8268831155664556E-002
   8.6845200882552279E-002  -9.0379031923307467E-003   5.0592842166541169E-002
   8.9054873262859144E-002  -1.3389257009425014E-002   5.1756492405296034E-002
   9.1264545643166009E-002  -1.7628878973805211E-002   5.1759781871929110E-002
   7.4245014968266160E-002   0.0000000000000000        4.0575863629376770E-002
   7.5523454109719251E-002  -3.7442753657582453E-003   4.4143494552522373E-002
   7.6801893251172343E-002  -7.4040853876342939E-003   4.7009019770082199E-002
   7.8080332392625462E-002  -1.0979430065628142E-002   4.9172439282056231E-002
   7.9358771534078554E-002  -1.4470309399739791E-002   5.0633753088444519E-002
   6.5820206823174854E-002   0.0000000000000000        3.7211443297267478E-002
   6.6625667792310175E-002  -2.9137332089940824E-003   4.0835066851728399E-002
   6.7431128761445497E-002  -5.7702675829378394E-003   4.4214839767139552E-002
   6.8236589730580832E-002  -8.5696031218312659E-003   4.7350762043500937E-002
   6.9042050699716140E-002  -1.1311739825674367E-002   5.0242833680812525E-002
   5.7151431686664596E-002   0.0000000000000000        3.4691198376338279E-002
   5.7942169550018151E-002  -2.0831910522299208E-003   3.8343548053282654E-002
   5.8732907413371713E-002  -4.1364497782413884E-003   4.2210302157713271E-002
   5.9523645276725261E-002  -6.1597761780343915E-003   4.6291460689630110E-002
   6.0314383140078816E-002  -8.1531702516089433E-003   5.0587023649033162E-002
  0.10475937302697855       -2.0787448547870638E-002   5.3620920031266325E-002
  0.10210648140725027       -2.4926302097341251E-002   4.5640123494660970E-002
   9.9453589787521987E-002  -2.7505131918001455E-002   3.9347888324761451E-002
   9.6800698167793700E-002  -2.8523938009851334E-002   3.4744214521567743E-002
   9.4147806548065413E-002  -2.7982720372890832E-002   3.1829102085079969E-002
   9.1264545643166009E-002  -1.7628878973805211E-002   5.1759781871929110E-002
   9.0062484871832493E-002  -2.1202986348891322E-002   4.6519968619079997E-002
   8.8860424100499005E-002  -2.3557796398103299E-002   4.2493255696314694E-002
   8.7658363329165503E-002  -2.4693309121441156E-002   3.9679643103633012E-002
   8.6456302557832015E-002  -2.4609524518904927E-002   3.8079130841035098E-002
   7.9358771534078554E-002  -1.4470309399739791E-002   5.0633753088444519E-002
   7.9132080574517705E-002  -1.7479670600441411E-002   4.7794196716415438E-002
   7.8905389614956883E-002  -1.9610460878205137E-002   4.5692279637847978E-002
   7.8678698655396048E-002  -2.0862680233031002E-002   4.4328001852742174E-002
   7.8452007695835213E-002  -2.1236328664919001E-002   4.3701363361097964E-002
   6.9042050699716140E-002  -1.1311739825674367E-002   5.0242833680812525E-002
   6.9315268515305867E-002  -1.3756354851991493E-002   4.9462807786667229E-002
   6.9588486330895608E-002  -1.5663125358306974E-002   4.8944960149361449E-002
   6.9861704146485362E-002  -1.7032051344620842E-002   4.8689290768895194E-002
   7.0134921962075103E-002  -1.7863132810933078E-002   4.8695799645268434E-002
   6.0314383140078816E-002  -8.1531702516089433E-003   5.0587023649033162E-002
   6.0612048694197021E-002  -1.0033039103541568E-002   5.1525801829835419E-002
   6.0909714248315219E-002  -1.1715789838408808E-002   5.2251297230855018E-002
   6.1207379802433425E-002  -1.3201422456210646E-002   5.2763509852092091E-002
   6.1505045356551623E-002  -1.4489936956947155E-002   5.3062439693546584E-002
   9.4147806548065413E-002  -2.7982720372890832E-002   3.1829102085079969E-002
   9.1753839174519555E-002  -2.6791841159916320E-002   3.1257331409220171E-002
   8.9359871800973684E-002  -2.5861662523724068E-002   3.0767157243123962E-002
   8.6965904427427812E-002  -2.5192184464314107E-002   3.0358579586791338E-002
   8.4571937053881913E-002  -2.4783406981686407E-002   3.0031598440222435E-002
   8.6456302557832015E-002  -2.4609524518904927E-002   3.8079130841035098E-002
   8.4190801353499767E-002  -2.3966389580468952E-002   3.7060790337433577E-002
   8.1925300149167560E-002  -2.3423851296107672E-002   3.6217785662495658E-002
   7.9659798944835325E-002  -2.2981909665821119E-002   3.5550116816221437E-002
   7.7394297740503104E-002  -2.2640564689609260E-002   3.5057783798611006E-002
   7.8452007695835213E-002  -2.1236328664919001E-002   4.3701363361097964E-002
   7.6408711979616725E-002  -2.1140938001021615E-002   4.2396556952462180E-002
   7.4365416263398224E-002  -2.0986040068491321E-002   4.1360825691390185E-002
   7.2322120547179722E-002  -2.0771634867328144E-002   4.0594169577881908E-002
   7.0278824830961206E-002  -2.0497722397532087E-002   4.0096588611937420E-002
   7.0134921962075103E-002  -1.7863132810933078E-002   4.8695799645268434E-002
   6.8407571052870403E-002  -1.8315486421574212E-002   4.7264631254306029E-002
   6.6680220143665717E-002  -1.8548228840874946E-002   4.6196277329807474E-002
   6.4952869234461044E-002  -1.8561360068835176E-002   4.5490737871772755E-002
   6.3225518325256344E-002  -1.8354880105454940E-002   4.5148012880201892E-002
   6.1505045356551623E-002  -1.4489936956947155E-002   5.3062439693546584E-002
   6.0187378573260814E-002  -1.5490034842126910E-002   5.1665013242965116E-002
   5.8869711789970025E-002  -1.6110417613258574E-002   5.0724140577747580E-002
   5.7552045006679230E-002  -1.6351085270342174E-002   5.0239821697893955E-002
   5.6234378223388434E-002  -1.6212037813377767E-002   5.0212056603404304E-002
   8.4571937053881913E-002  -2.4783406981686407E-002   3.0031598440222435E-002
   8.2173867367990372E-002  -2.4455281983286489E-002   2.9274572390966702E-002
   7.9775797682098845E-002  -2.4027761376559764E-002   2.8794946279414230E-002
   7.7377727996207318E-002  -2.3500845161506287E-002   2.8592720105565218E-002
   7.4979658310315722E-002  -2.2874533338125946E-002   2.8667893869419647E-002
   7.7394297740503104E-002  -2.2640564689609260E-002   3.5057783798611006E-002
   7.5259684062046611E-002  -2.2308710033286328E-002   3.4439486034235606E-002
   7.3125070383590104E-002  -2.1895239362666588E-002   3.4070700347026729E-002
   7.0990456705133598E-002  -2.1400152677749949E-002   3.3951426736984577E-002
   6.8855843026677105E-002  -2.0823449978536496E-002   3.4081665204109018E-002
   7.0278824830961206E-002  -2.0497722397532087E-002   4.0096588611937420E-002
   6.8379779299402990E-002  -2.0162138083286145E-002   3.9599239538412434E-002
   6.6480733767844760E-002  -1.9762717348773329E-002   3.9323514681517305E-002
   6.4581688236286558E-002  -1.9299460193993638E-002   3.9269414041252025E-002
   6.2682642704728328E-002  -1.8772366618947045E-002   3.9436937617616630E-002
   6.3225518325256344E-002  -1.8354880105454940E-002   4.5148012880201892E-002
   6.1534153080059620E-002  -1.8015566133285945E-002   4.4753832903497368E-002
   5.9842787834862861E-002  -1.7630195334880111E-002   4.4553389282885936E-002
   5.8151422589666095E-002  -1.7198767710237300E-002   4.4546682018367534E-002
   5.6460057344469343E-002  -1.6721283259357581E-002   4.4733711109942460E-002
   5.6234378223388434E-002  -1.6212037813377767E-002   5.0212056603404304E-002
   5.4722805404016389E-002  -1.5868994183285814E-002   4.9903266129490365E-002
   5.3211232584644351E-002  -1.5497673320986914E-002   4.9760324151132601E-002
   5.1699659765272327E-002  -1.5098075226480967E-002   4.9783230668331270E-002
   5.0188086945900295E-002  -1.4670199899768116E-002   4.9971985681086295E-002
   7.4979658310315722E-002  -2.2874533338125946E-002   2.8667893869419647E-002
   7.2707952221076566E-002  -2.2207110152803078E-002   2.8443841097468697E-002
   7.0436246131837382E-002  -2.1556859851921767E-002   2.8373777149015650E-002
   6.8164540042598198E-002  -2.0923782435481979E-002   2.8457702024060866E-002
   6.5892833953359042E-002  -2.0307877903483762E-002   2.8695615722603762E-002
   6.8855843026677105E-002  -2.0823449978536496E-002   3.4081665204109018E-002
   6.6745690698325769E-002  -2.0208891035064597E-002   3.3804254126127295E-002
   6.4635538369974418E-002  -1.9600235617372598E-002   3.3695961746422892E-002
   6.2525386041623082E-002  -1.8997483725460292E-002   3.3756788064996442E-002
   6.0415233713271760E-002  -1.8400635359328010E-002   3.3986733081847742E-002
   6.2682642704728328E-002  -1.8772366618947045E-002   3.9436937617616630E-002
   6.0749174012044542E-002  -1.8210671917326060E-002   3.9117437592265457E-002
   5.8815705319360811E-002  -1.7643611382823318E-002   3.8982186139971703E-002
   5.6882236626677025E-002  -1.7071185015438636E-002   3.9031183260735326E-002
   5.4948767933993267E-002  -1.6493392815172203E-002   3.9264428954556563E-002
   5.6460057344469343E-002  -1.6721283259357581E-002   4.4733711109942460E-002
   5.4718402162232900E-002  -1.6212452799587523E-002   4.4383391495883641E-002
   5.2976746979996506E-002  -1.5686987148274038E-002   4.4232450329662124E-002
   5.1235091797760098E-002  -1.5144886305416992E-002   4.4280887611277596E-002
   4.9493436615523648E-002  -1.4586150271016368E-002   4.4528703340730474E-002
   5.0188086945900295E-002  -1.4670199899768116E-002   4.9971985681086295E-002
   4.8653375148890954E-002  -1.4214233681849056E-002   4.9602115836981625E-002
   4.7118663351881571E-002  -1.3730362913724918E-002   4.9446754315493904E-002
   4.5583951554872222E-002  -1.3218587595395319E-002   4.9505901116623181E-002
   4.4049239757862846E-002  -1.2678907726860644E-002   4.9779556240369283E-002
   6.5892833953359042E-002  -2.0307877903483762E-002   2.8695615722603762E-002
   6.3346208201884691E-002  -1.9691506244245094E-002   2.8344545047870401E-002
   6.0799582450410394E-002  -1.9057027446084229E-002   2.8206335515240877E-002
   5.8252956698936084E-002  -1.8404441509000877E-002   2.8280987124714732E-002
   5.5706330947461802E-002  -1.7733748432995244E-002   2.8568499876292064E-002
   6.0415233713271760E-002  -1.8400635359328010E-002   3.3986733081847742E-002
   5.8078957348533453E-002  -1.7800204551406643E-002   3.3659872886695794E-002
   5.5742680983795173E-002  -1.7186705334127375E-002   3.3540850322912236E-002
   5.3406404619056887E-002  -1.6560137707490419E-002   3.3629665390497138E-002
   5.1070128254318586E-002  -1.5920501671495613E-002   3.3926318089450541E-002
   5.4948767933993267E-002  -1.6493392815172203E-002   3.9264428954556563E-002
   5.2817817445255863E-002  -1.5908902858568053E-002   3.8956740509421467E-002
   5.0686866956518466E-002  -1.5316383222170687E-002   3.8851866184919676E-002
   4.8555916467781055E-002  -1.4715833905979907E-002   3.8949805981051140E-002
   4.6424965979043664E-002  -1.4107254909995870E-002   3.9250559897816034E-002
   4.9493436615523648E-002  -1.4586150271016368E-002   4.4528703340730474E-002
   4.7562788492051998E-002  -1.4017601165729587E-002   4.4235147916047629E-002
   4.5632140368580341E-002  -1.3446061110213972E-002   4.4139383101263120E-002
   4.3701492245108678E-002  -1.2871530104469547E-002   4.4241408896376677E-002
   4.1770844121637035E-002  -1.2294008148496127E-002   4.4541225301388397E-002
   4.4049239757862846E-002  -1.2678907726860644E-002   4.9779556240369283E-002
   4.2313870488921809E-002  -1.2126299472891039E-002   4.9495095106574377E-002
   4.0578501219980745E-002  -1.1575738998257173E-002   4.9403401071942521E-002
   3.8843131951039694E-002  -1.1027226302959027E-002   4.9504474136473714E-002
   3.7107762682098644E-002  -1.0480761386996496E-002   4.9798314300167901E-002
   5.5706330947461802E-002  -1.7733748432995244E-002   2.8568499876292064E-002
   5.3696369475371292E-002  -1.7119708222671115E-002   2.8254738496053644E-002
   5.1686408003280837E-002  -1.6637080882632188E-002   2.8071529249585753E-002
   4.9676446531190382E-002  -1.6285866412878332E-002   2.8018872136887751E-002
   4.7666485059099872E-002  -1.6066064813409664E-002   2.8096767157960389E-002
   5.1070128254318586E-002  -1.5920501671495613E-002   3.3926318089450541E-002
   4.9195370206135028E-002  -1.5308996320407581E-002   3.3507877092488786E-002
   4.7320612157951511E-002  -1.4766820748491255E-002   3.3229290809570405E-002
   4.5445854109767959E-002  -1.4293974955746615E-002   3.3090559240695719E-002
   4.3571096061584436E-002  -1.3890458942173778E-002   3.3091682385864407E-002
   4.6424965979043664E-002  -1.4107254909995870E-002   3.9250559897816034E-002
   4.4694713935040396E-002  -1.3498284418144241E-002   3.8789522375244120E-002
   4.2964461891037073E-002  -1.2896560614350641E-002   3.8477642146989288E-002
   4.1234209847033805E-002  -1.2302083498615227E-002   3.8314919213051239E-002
   3.9503957803030496E-002  -1.1714853070937892E-002   3.8301353573430091E-002
   4.1770844121637035E-002  -1.2294008148496127E-002   4.4541225301388397E-002
   4.0194400662087293E-002  -1.1687572515880693E-002   4.4099674344320161E-002
   3.8617957202537578E-002  -1.1026300480210006E-002   4.3816583261842179E-002
   3.7041513742987843E-002  -1.0310192041483675E-002   4.3691952053954368E-002
   3.5465070283438115E-002  -9.5392471997019501E-003   4.3725780720656797E-002
   3.7107762682098644E-002  -1.0480761386996496E-002   4.9798314300167901E-002
   3.5694430387275794E-002  -9.8768606136175052E-003   4.9438332999716617E-002
   3.4281098092452986E-002  -9.1560403460690942E-003   4.9246114154129106E-002
   3.2867765797630115E-002  -8.3183005843521507E-003   4.9221657763404841E-002
   3.1454433502807300E-002  -7.3636413284660085E-003   4.9364963827544406E-002
   4.7666485059099872E-002  -1.6066064813409664E-002   2.8096767157960389E-002
   4.4907755696652035E-002  -1.6026295579699090E-002   2.7653401063387595E-002
   4.2149026334204226E-002  -1.6215178207218101E-002   2.7430761807322346E-002
   3.9390296971756361E-002  -1.6632712695966924E-002   2.7428849389764504E-002
   3.6631567609308524E-002  -1.7278899045946039E-002   2.7647663810714818E-002
   4.3571096061584436E-002  -1.3890458942173778E-002   3.3091682385864407E-002
   4.1026196026071826E-002  -1.3568241071456127E-002   3.2508710334796659E-002
   3.8481295990559272E-002  -1.3339289707276991E-002   3.2132670099092070E-002
   3.5936395955046704E-002  -1.3203604849636327E-002   3.1963561678749849E-002
   3.3391495919534109E-002  -1.3161186498534372E-002   3.2001385073770927E-002
   3.9503957803030496E-002  -1.1714853070937892E-002   3.8301353573430091E-002
   3.7159092071308471E-002  -1.1110186563213414E-002   3.7714160920558598E-002
   3.4814226339586488E-002  -1.0463401207335979E-002   3.7320105059905267E-002
   3.2469360607864435E-002  -9.7744970033058105E-003   3.7119185991469981E-002
   3.0124494876142521E-002  -9.0434739511228157E-003   3.7111403715253122E-002
   3.5465070283438115E-002  -9.5392471997019501E-003   4.3725780720656797E-002
   3.3306443832362004E-002  -8.6521320549706876E-003   4.3269752820672733E-002
   3.1147817381285841E-002  -7.5875127073948626E-003   4.2993066689762410E-002
   2.8989190930209671E-002  -6.3453891569751984E-003   4.2895722327925719E-002
   2.6830564479133560E-002  -4.9257614037112041E-003   4.2977719735162290E-002
   3.1454433502807300E-002  -7.3636413284660085E-003   4.9364963827544406E-002
   2.9468251309232363E-002  -6.1940775467278497E-003   4.9175486035139548E-002
   2.7482069115657370E-002  -4.7116242074539405E-003   4.9151554988663471E-002
   2.5495886922082406E-002  -2.9162813106446070E-003   4.9293170688116339E-002
   2.3509704728507441E-002  -8.0804885629959244E-004   4.9600333133498209E-002
   5.7151431686664596E-002   0.0000000000000000        3.4691198376338279E-002
   5.7942169550018151E-002  -2.0831910522299208E-003   3.8343548053282654E-002
   5.8732907413371713E-002  -4.1364497782413884E-003   4.2210302157713271E-002
   5.9523645276725261E-002  -6.1597761780343915E-003   4.6291460689630110E-002
   6.0314383140078816E-002  -8.1531702516089433E-003   5.0587023649033162E-002
   4.8651040819928812E-002   0.0000000000000000        3.2791250432678332E-002
   4.9590740192329417E-002  -1.7089748624332371E-003   3.6966622694808132E-002
   5.0530439564730030E-002  -3.4324221057714620E-003   4.1225513547545826E-002
   5.1470138937130649E-002  -5.1703417300146704E-003   4.5567922990891394E-002
   5.2409838309531255E-002  -6.9227337351628788E-003   4.9993851024844840E-002
   4.0731385484160887E-002   0.0000000000000000        3.1287721032376800E-002
   4.1689160528730215E-002  -1.3347586726365512E-003   3.5941711172568572E-002
   4.2646935573299544E-002  -2.7283944333015356E-003   4.0548334066489895E-002
   4.3604710617868865E-002  -4.1809072819949528E-003   4.5107589714140785E-002
   4.4562485662438193E-002  -5.6922972187168040E-003   4.9619478115521184E-002
   3.3392465679360821E-002   0.0000000000000000        3.0180610175433664E-002
   3.4237430559220530E-002  -9.6054248283986552E-004   3.5268813486563973E-002
   3.5082395439080226E-002  -2.0243667608316109E-003   4.0178763714545492E-002
   3.5927360318939935E-002  -3.1914728339752316E-003   4.4910460859378221E-002
   3.6772325198799631E-002  -4.4618607022707379E-003   4.9463904921062132E-002
   2.6634281405528613E-002   0.0000000000000000        2.9469917861848941E-002
   2.7235550283800349E-002  -5.8632629304318160E-004   3.4947929636794342E-002
   2.7836819162072084E-002  -1.3203390883616845E-003   4.0116802491712594E-002
   2.8438088040343819E-002  -2.2020383859555140E-003   4.4976536426603729E-002
   2.9039356918615550E-002  -3.2314241858246613E-003   4.9527131441467726E-002
   6.0314383140078816E-002  -8.1531702516089433E-003   5.0587023649033162E-002
   6.0612048694197021E-002  -1.0033039103541568E-002   5.1525801829835419E-002
   6.0909714248315219E-002  -1.1715789838408808E-002   5.2251297230855018E-002
   6.1207379802433425E-002  -1.3201422456210646E-002   5.2763509852092091E-002
   6.1505045356551623E-002  -1.4489936956947155E-002   5.3062439693546584E-002
   5.2409838309531255E-002  -6.9227337351628788E-003   4.9993851024844840E-002
   5.2533495098055237E-002  -8.5871564070857231E-003   5.1222859985500475E-002
   5.2657151886579219E-002  -1.0061168031652870E-002   5.2317134194750245E-002
   5.2780808675103208E-002  -1.1344768608864311E-002   5.3276673652594156E-002
   5.2904465463627169E-002  -1.2437958138720062E-002   5.4101478359032201E-002
   4.4562485662438193E-002  -5.6922972187168040E-003   4.9619478115521184E-002
   4.4590681713744681E-002  -7.1412737106298623E-003   5.1132010786320528E-002
   4.4618877765051169E-002  -8.4065462248969162E-003   5.2588356734090728E-002
   4.4647073816357651E-002  -9.4881147615179396E-003   5.3988515958831786E-002
   4.4675269867664132E-002  -1.0385979320492962E-002   5.5332488460543741E-002
   3.6772325198799631E-002  -4.4618607022707379E-003   4.9463904921062132E-002
   3.6783608541265340E-002  -5.6953910141740111E-003   5.1253254232295514E-002
   3.6794891883731050E-002  -6.7519244181409683E-003   5.3064964848876447E-002
   3.6806175226196759E-002  -7.6314609141715653E-003   5.4899036770804988E-002
   3.6817458568662476E-002  -8.3340005022658585E-003   5.6755469998081121E-002
   2.9039356918615550E-002  -3.2314241858246613E-003   4.9527131441467726E-002
   2.9112275580617214E-002  -4.2495083177181538E-003   5.1586590323425427E-002
   2.9185194242618874E-002  -5.0973026113850075E-003   5.3746958539107451E-002
   2.9258112904620538E-002  -5.7748070668252145E-003   5.6008236088513769E-002
   2.9331031566622201E-002  -6.2820216840387758E-003   5.8370422971644402E-002
   6.1505045356551623E-002  -1.4489936956947155E-002   5.3062439693546584E-002
   6.0187378573260814E-002  -1.5490034842126910E-002   5.1665013242965116E-002
   5.8869711789970025E-002  -1.6110417613258574E-002   5.0724140577747580E-002
   5.7552045006679230E-002  -1.6351085270342174E-002   5.0239821697893955E-002
   5.6234378223388434E-002  -1.6212037813377767E-002   5.0212056603404304E-002
   5.2904465463627169E-002  -1.2437958138720062E-002   5.4101478359032201E-002
   5.1989978789568791E-002  -1.3285431427363895E-002   5.3362430803838762E-002
   5.1075492115510407E-002  -1.3831883280939660E-002   5.2973189681746136E-002
   5.0161005441452022E-002  -1.4077313699447324E-002   5.2933754992754468E-002
   4.9246518767393617E-002  -1.4021722682886845E-002   5.3244126736863698E-002
   4.4675269867664132E-002  -1.0385979320492962E-002   5.5332488460543741E-002
   4.4057215950575136E-002  -1.1080828012600907E-002   5.5173126121758190E-002
   4.3439162033486127E-002  -1.1553348948620703E-002   5.5256822863810597E-002
   4.2821108116397132E-002  -1.1803542128552415E-002   5.5583578686700899E-002
   4.2203054199308129E-002  -1.1831407552395951E-002   5.6153393590428986E-002
   3.6817458568662476E-002  -8.3340005022658585E-003   5.6755469998081121E-002
   3.6389090056279834E-002  -8.8762245978379062E-003   5.7097099196723684E-002
   3.5960721543897199E-002  -9.2748146163017867E-003   5.7575040123941032E-002
   3.5532353031514564E-002  -9.5297705576574774E-003   5.8189292779733282E-002
   3.5103984519131930E-002  -9.6410924219050703E-003   5.8939857164100336E-002
   2.9331031566622201E-002  -6.2820216840387758E-003   5.8370422971644402E-002
   2.8985601106682905E-002  -6.6716211830749154E-003   5.9134350028735003E-002
   2.8640170646743617E-002  -6.9962802839828257E-003   5.9927841462137463E-002
   2.8294740186804321E-002  -7.2559989867626209E-003   6.0750897271851699E-002
   2.7949309726865032E-002  -7.4507772914141346E-003   6.1603517457877816E-002
   5.6234378223388434E-002  -1.6212037813377767E-002   5.0212056603404304E-002
   5.4722805404016389E-002  -1.5868994183285814E-002   4.9903266129490365E-002
   5.3211232584644351E-002  -1.5497673320986914E-002   4.9760324151132601E-002
   5.1699659765272327E-002  -1.5098075226480967E-002   4.9783230668331270E-002
   5.0188086945900295E-002  -1.4670199899768116E-002   4.9971985681086295E-002
   4.9246518767393617E-002  -1.4021722682886845E-002   5.3244126736863698E-002
   4.7909329765813781E-002  -1.3795040055334176E-002   5.2922985982656393E-002
   4.6572140764233910E-002  -1.3527195640865200E-002   5.2784764368477281E-002
   4.5234951762654040E-002  -1.3218189439479871E-002   5.2829461894326121E-002
   4.3897762761074197E-002  -1.2868021451178158E-002   5.3057078560202961E-002
   4.2203054199308129E-002  -1.1831407552395951E-002   5.6153393590428986E-002
   4.1057319659992132E-002  -1.1721085927382587E-002   5.5832787110638007E-002
   3.9911585120676135E-002  -1.1556717960743517E-002   5.5712170415346610E-002
   3.8765850581360131E-002  -1.1338303652478707E-002   5.5791543504555056E-002
   3.7620116042044134E-002  -1.1065843002588213E-002   5.6070906378263084E-002
   3.5103984519131930E-002  -9.6410924219050703E-003   5.8939857164100336E-002
   3.4166775086551499E-002  -9.6471317994309726E-003   5.8632669513434904E-002
   3.3229565653971047E-002  -9.5862402806218185E-003   5.8542542291740829E-002
   3.2292356221390588E-002  -9.4584178654775908E-003   5.8669475499018041E-002
   3.1355146788810150E-002  -9.2636645539983312E-003   5.9013469135266783E-002
   2.7949309726865032E-002  -7.4507772914141346E-003   6.1603517457877816E-002
   2.7237696045491824E-002  -7.5731776714793655E-003   6.1322633191047166E-002
   2.6526082364118624E-002  -7.6157626005001408E-003   6.1275879997659710E-002
   2.5814468682745419E-002  -7.5785320784764656E-003   6.1463257877715262E-002
   2.5102855001372201E-002  -7.4614861054083381E-003   6.1884766831213966E-002
   5.0188086945900295E-002  -1.4670199899768116E-002   4.9971985681086295E-002
   4.8653375148890954E-002  -1.4214233681849056E-002   4.9602115836981625E-002
   4.7118663351881571E-002  -1.3730362913724918E-002   4.9446754315493904E-002
   4.5583951554872222E-002  -1.3218587595395319E-002   4.9505901116623181E-002
   4.4049239757862846E-002  -1.2678907726860644E-002   4.9779556240369283E-002
   4.3897762761074197E-002  -1.2868021451178158E-002   5.3057078560202961E-002
   4.2572562056666041E-002  -1.2484595661448925E-002   5.2721518134950587E-002
   4.1247361352257893E-002  -1.2075816055781029E-002   5.2590471572283810E-002
   3.9922160647849744E-002  -1.1641682634174358E-002   5.2663938872202526E-002
   3.8596959943441617E-002  -1.1182195396628986E-002   5.2941920034706741E-002
   3.7620116042044134E-002  -1.1065843002588213E-002   5.6070906378263084E-002
   3.6494431970205764E-002  -1.0754957641048786E-002   5.5767104637596605E-002
   3.5368747898367386E-002  -1.0421269197837171E-002   5.5657822299484100E-002
   3.4243063826529002E-002  -1.0064777672953343E-002   5.5743059363925637E-002
   3.3117379754690632E-002  -9.6854830663974378E-003   5.6022815830921391E-002
   3.1355146788810150E-002  -9.2636645539983312E-003   5.9013469135266783E-002
   3.0418984889510097E-002  -9.0253196206486232E-003   5.8738875344919554E-002
   2.9482822990210055E-002  -8.7667223398933247E-003   5.8648806497094794E-002
   2.8546661090910010E-002  -8.4878727117324096E-003   5.8743262591792786E-002
   2.7610499191609964E-002  -8.1887707361658069E-003   5.9022243629013212E-002
   2.5102855001372201E-002  -7.4614861054083381E-003   6.1884766831213966E-002
   2.4346220814579052E-002  -7.2956816002485297E-003   6.1636830256919378E-002
   2.3589586627785902E-002  -7.1121754819494440E-003   6.1563424165115885E-002
   2.2832952440992753E-002  -6.9109677505113428E-003   6.1664548555803687E-002
   2.2076318254199589E-002  -6.6920584059342869E-003   6.1940203428982599E-002
   4.4049239757862846E-002  -1.2678907726860644E-002   4.9779556240369283E-002
   4.2313870488921809E-002  -1.2126299472891039E-002   4.9495095106574377E-002
   4.0578501219980745E-002  -1.1575738998257173E-002   4.9403401071942521E-002
   3.8843131951039694E-002  -1.1027226302959027E-002   4.9504474136473714E-002
   3.7107762682098644E-002  -1.0480761386996496E-002   4.9798314300167901E-002
   3.8596959943441617E-002  -1.1182195396628986E-002   5.2941920034706741E-002
   3.7058887466287896E-002  -1.0710005210553791E-002   5.2633690370098796E-002
   3.5520814989134161E-002  -1.0237762943357979E-002   5.2527287189902586E-002
   3.3982742511980454E-002  -9.7654685950412223E-003   5.2622710494118187E-002
   3.2444670034826747E-002  -9.2931221656037399E-003   5.2919960282745232E-002
   3.3117379754690632E-002  -9.6854830663974378E-003   5.6022815830921391E-002
   3.1785663454572857E-002  -9.2937109482167518E-003   5.5692917495957193E-002
   3.0453947154455048E-002  -8.8997868884587300E-003   5.5573905030653251E-002
   2.9122230854337270E-002  -8.5037108871234730E-003   5.5665778435009493E-002
   2.7790514554219457E-002  -8.1054829442109289E-003   5.5968537709025989E-002
   2.7610499191609964E-002  -8.1887707361658069E-003   5.9022243629013212E-002
   2.6494198453776718E-002  -7.8774166858796082E-003   5.8672776484149244E-002
   2.5377897715943433E-002  -7.5618108335595638E-003   5.8543254594193989E-002
   2.4261596978110166E-002  -7.2419531792056960E-003   5.8633677959147527E-002
   2.3145296240276898E-002  -6.9178437228180900E-003   5.8944046579009896E-002
   2.2076318254199589E-002  -6.6920584059342869E-003   6.1940203428982599E-002
   2.1184492463899432E-002  -6.4611224235424369E-003   6.1573267334675164E-002
   2.0292666673599288E-002  -6.2238347786602727E-003   6.1435335880525077E-002
   1.9400840883299110E-002  -5.9801954712879156E-003   6.1526409066532492E-002
   1.8509015092998959E-002  -5.7302045014253622E-003   6.1846486892697339E-002
   3.7107762682098644E-002  -1.0480761386996496E-002   4.9798314300167901E-002
   3.5694430387275794E-002  -9.8768606136175052E-003   4.9438332999716617E-002
   3.4281098092452986E-002  -9.1560403460690942E-003   4.9246114154129106E-002
   3.2867765797630115E-002  -8.3183005843521507E-003   4.9221657763404841E-002
   3.1454433502807300E-002  -7.3636413284660085E-003   4.9364963827544406E-002
   3.2444670034826747E-002  -9.2931221656037399E-003   5.2919960282745232E-002
   3.1199397422029193E-002  -8.7768558929698925E-003   5.2671566925840824E-002
   2.9954124809231632E-002  -8.1728020150641789E-003   5.2591530478123497E-002
   2.8708852196434074E-002  -7.4809605318869529E-003   5.2679850939593202E-002
   2.7463579583636516E-002  -6.7013314434376525E-003   5.2936528310249864E-002
   2.7790514554219457E-002  -8.1054829442109289E-003   5.5968537709025989E-002
   2.6713896077770680E-002  -7.6768511723224325E-003   5.5802600406771319E-002
   2.5637277601321905E-002  -7.1895636840592636E-003   5.5805614468026926E-002
   2.4560659124873124E-002  -6.6436204794216996E-003   5.5977579892793033E-002
   2.3484040648424354E-002  -6.0390215584093521E-003   5.6318496681069724E-002
   2.3145296240276898E-002  -6.9178437228180900E-003   5.8944046579009896E-002
   2.2237926354500372E-002  -6.5768464516749517E-003   5.8831433442507582E-002
   2.1330556468723814E-002  -6.2063253530544593E-003   5.8888366123839242E-002
   2.0423186582947256E-002  -5.8062804269564186E-003   5.9114844623004696E-002
   1.9515816697170701E-002  -5.3767116733810794E-003   5.9510868940004270E-002
   1.8509015092998959E-002  -5.7302045014253622E-003   6.1846486892697339E-002
   1.7771488252218151E-002  -5.4768417310273876E-003   6.1758066033050008E-002
   1.7033961411437329E-002  -5.2230870220494607E-003   6.1839785445560291E-002
   1.6296434570656507E-002  -4.9689403744912278E-003   6.2091645130227940E-002
   1.5558907729875698E-002  -4.7144017883525846E-003   6.2513645087053149E-002
   3.1454433502807300E-002  -7.3636413284660085E-003   4.9364963827544406E-002
   2.9468251309232363E-002  -6.1940775467278497E-003   4.9175486035139548E-002
   2.7482069115657370E-002  -4.7116242074539405E-003   4.9151554988663471E-002
   2.5495886922082406E-002  -2.9162813106446070E-003   4.9293170688116339E-002
   2.3509704728507441E-002  -8.0804885629959244E-004   4.9600333133498209E-002
   2.7463579583636516E-002  -6.7013314434376525E-003   5.2936528310249864E-002
   2.5661687359935875E-002  -5.8181174016632142E-003   5.2993244655206384E-002
   2.3859795136235193E-002  -4.8155210585093533E-003   5.3252994193982855E-002
   2.2057902912534462E-002  -3.6935424139766526E-003   5.3715776926578807E-002
   2.0256010688833870E-002  -2.4521814680648069E-003   5.4381592852994598E-002
   2.3484040648424354E-002  -6.0390215584093521E-003   5.6318496681069724E-002
   2.1903924842488834E-002  -5.4421572565985232E-003   5.6427899907231183E-002
   2.0323809036553370E-002  -4.9194179095650020E-003   5.6777822775103404E-002
   1.8743693230617912E-002  -4.4708035173088405E-003   5.7368265284685770E-002
   1.7163577424682400E-002  -4.0963140798300213E-003   5.8199227435979495E-002
   1.9515816697170701E-002  -5.3767116733810794E-003   5.9510868940004270E-002
   1.8194963756891350E-002  -5.0661971115339155E-003   5.9479451791214055E-002
   1.6874110816611977E-002  -5.0233147606205328E-003   5.9726040732025656E-002
   1.5553257876332617E-002  -5.2480646206410127E-003   6.0250635762438561E-002
   1.4232404936053256E-002  -5.7404466915952357E-003   6.1053236882453399E-002
   1.5558907729875698E-002  -4.7144017883525846E-003   6.2513645087053149E-002
   1.4534804103143339E-002  -4.6902369664691967E-003   6.2147900307155057E-002
   1.3510700476410967E-002  -5.1272116116760913E-003   6.2097648064749489E-002
   1.2486596849678601E-002  -6.0253257239731364E-003   6.2362888359836249E-002
   1.1462493222946235E-002  -7.3845793033604501E-003   6.2943621192415478E-002
   2.6634281405528613E-002   0.0000000000000000        2.9469917861848941E-002
   2.7235550283800349E-002  -5.8632629304318160E-004   3.4947929636794342E-002
   2.7836819162072084E-002  -1.3203390883616845E-003   4.0116802491712594E-002
   2.8438088040343819E-002  -2.2020383859555140E-003   4.4976536426603729E-002
   2.9039356918615550E-002  -3.2314241858246613E-003   4.9527131441467726E-002
   2.0118885186731716E-002   0.0000000000000000        2.9021465815611255E-002
   2.0450689724509481E-002  -4.3977559336362115E-004   3.4314794955261164E-002
   2.0782494262287250E-002  -9.9026027231477205E-004   3.9378334333950257E-002
   2.1114298800065014E-002  -1.6514540368534501E-003   4.4212083951678569E-002
   2.1446103337842779E-002  -2.4233568869796570E-003   4.8816043808446064E-002
   1.3508329547037580E-002   0.0000000000000000        2.8701075760709224E-002
   1.3650018903387715E-002  -2.9322489368406070E-004   3.3846699681751427E-002
   1.3791708259737849E-002  -6.6018145626785697E-004   3.8841883000899170E-002
   1.3933397616087983E-002  -1.1008696877513879E-003   4.3686625718152447E-002
   1.4075086972438117E-002  -1.6152895881346527E-003   4.8380927833511250E-002
   6.8026144864462065E-003   0.0000000000000000        2.8508747697142869E-002
   6.8335378204350452E-003  -1.4667419400450068E-004   3.3543643816265165E-002
   6.8644611544238839E-003  -3.3010264022094058E-004   3.8507448492559333E-002
   6.8953844884127209E-003  -5.5028533864932491E-004   4.3400161726025371E-002
   6.9263078224015596E-003  -8.0722228928964673E-004   4.8221783516663279E-002
   1.7400049575969079E-006   0.0000000000000000        2.8444481624912168E-002
   1.2464756514755579E-006  -1.2349432494066642E-007   3.3405627358802356E-002
   7.5294634535399106E-007  -2.3824174029407619E-008   3.8375030808930746E-002
   2.5941703923296634E-007   2.9901045273984794E-007   4.3352691975297342E-002
  -2.3411226688805839E-007   8.4500955535755928E-007   4.8338610857902156E-002
   2.9039356918615550E-002  -3.2314241858246613E-003   4.9527131441467726E-002
   2.9112275580617214E-002  -4.2495083177181538E-003   5.1586590323425427E-002
   2.9185194242618874E-002  -5.0973026113850075E-003   5.3746958539107451E-002
   2.9258112904620538E-002  -5.7748070668252145E-003   5.6008236088513769E-002
   2.9331031566622201E-002  -6.2820216840387758E-003   5.8370422971644402E-002
   2.1446103337842779E-002  -2.4233568869796570E-003   4.8816043808446064E-002
   2.1590200485352620E-002  -3.1868292613134053E-003   5.1216938995255271E-002
   2.1734297632862460E-002  -3.8227315984747118E-003   5.3659281819356551E-002
   2.1878394780372297E-002  -4.3310638984635757E-003   5.6143072280749870E-002
   2.2022491927882137E-002  -4.7118261612799917E-003   5.8668310379435221E-002
   1.4075086972438117E-002  -1.6152895881346527E-003   4.8380927833511250E-002
   1.4230900909023864E-002  -2.1241502049086564E-003   5.1080539524117785E-002
   1.4386714845609612E-002  -2.5481605855644297E-003   5.3762137155584117E-002
   1.4542528782195361E-002  -2.8873207301019477E-003   5.6425720727910203E-002
   1.4698342718781114E-002  -3.1416306385212180E-003   5.9071290241096093E-002
   6.9263078224015596E-003  -8.0722228928964673E-004   4.8221783516663279E-002
   7.0343768516309491E-003  -1.0614711485039216E-003   5.1177391910012943E-002
   7.1424458808603377E-003  -1.2735895726541200E-003   5.4055524547790119E-002
   7.2505149100897280E-003  -1.4435775617403213E-003   5.6856181429994795E-002
   7.3585839393191157E-003  -1.5714351157624252E-003   5.9579362556626971E-002
  -2.3411226688805839E-007   8.4500955535755928E-007   4.8338610857902156E-002
   6.2831317386999666E-007   1.2079079008305016E-006   5.1507496152940736E-002
   1.4907386146313043E-006   9.8144025615894484E-007   5.4539443995974567E-002
   2.3531640553901183E-006   1.6560662131480820E-007   5.7434454387003647E-002
   3.2155894961506670E-006  -1.2395930036671055E-006   6.0192527326027929E-002
   2.9331031566622201E-002  -6.2820216840387758E-003   5.8370422971644402E-002
   2.8985601106682905E-002  -6.6716211830749154E-003   5.9134350028735003E-002
   2.8640170646743617E-002  -6.9962802839828257E-003   5.9927841462137463E-002
   2.8294740186804321E-002  -7.2559989867626209E-003   6.0750897271851699E-002
   2.7949309726865032E-002  -7.4507772914141346E-003   6.1603517457877816E-002
   2.2022491927882137E-002  -4.7118261612799917E-003   5.8668310379435221E-002
   2.1720611101811803E-002  -5.0040596520222053E-003   5.9487827076274050E-002
   2.1418730275741465E-002  -5.2468056357883631E-003   6.0364878664538983E-002
   2.1116849449671127E-002  -5.4400641125785599E-003   6.1299465144229993E-002
   2.0814968623600789E-002  -5.5838350823927407E-003   6.2291586515347018E-002
   1.4698342718781114E-002  -3.1416306385212180E-003   5.9071290241096093E-002
   1.4467982041693967E-002  -3.3364981209694552E-003   5.9930943686530985E-002
   1.4237621364606823E-002  -3.4973309875938720E-003   6.0876102538506199E-002
   1.4007260687519679E-002  -3.6241292383945118E-003   6.1906766797021708E-002
   1.3776900010432535E-002  -3.7168928733713191E-003   6.3022936462077572E-002
   7.3585839393191157E-003  -1.5714351157624252E-003   5.9579362556626971E-002
   7.2277139263294092E-003  -1.6689365899167459E-003   6.0463699859505761E-002
   7.0968439133397019E-003  -1.7478563393993952E-003   6.1461513084039070E-002
   6.9659739003499910E-003  -1.8081943642104712E-003   6.2572802230226959E-002
   6.8351038873602854E-003  -1.8499506643499392E-003   6.3797567298069402E-002
   3.2155894961506670E-006  -1.2395930036671055E-006   6.0192527326027929E-002
  -1.9324428187847409E-007  -1.3750588639879768E-006   6.1086095595198370E-002
  -3.6020780599076152E-006   1.6183087950902980E-006   6.2121110301137580E-002
  -7.0109118379410931E-006   7.7405099735855000E-006   6.3297571443845582E-002
  -1.0419745615965897E-005   1.6991544671510206E-005   6.4615479023322472E-002
   2.7949309726865032E-002  -7.4507772914141346E-003   6.1603517457877816E-002
   2.7237696045491824E-002  -7.5731776714793655E-003   6.1322633191047166E-002
   2.6526082364118624E-002  -7.6157626005001408E-003   6.1275879997659710E-002
   2.5814468682745419E-002  -7.5785320784764656E-003   6.1463257877715262E-002
   2.5102855001372201E-002  -7.4614861054083381E-003   6.1884766831213966E-002
   2.0814968623600789E-002  -5.5838350823927407E-003   6.2291586515347018E-002
   2.0323381595731518E-002  -5.6736609689521864E-003   6.2161979373962291E-002
   1.9831794567862243E-002  -5.7050841959781218E-003   6.2238294466142305E-002
   1.9340207539992969E-002  -5.6781047634705678E-003   6.2520531791887171E-002
   1.8848620512123708E-002  -5.5927226714294620E-003   6.3008691351196702E-002
   1.3776900010432535E-002  -3.7168928733713191E-003   6.3022936462077572E-002
   1.3477130796188917E-002  -3.7741442664249759E-003   6.3023193654627677E-002
   1.3177361581945294E-002  -3.7944057914560785E-003   6.3201164240864305E-002
   1.2877592367701675E-002  -3.7776774484646015E-003   6.3556848220787401E-002
   1.2577823153458054E-002  -3.7239592374506275E-003   6.4090245594397049E-002
   6.8351038873602854E-003  -1.8499506643499392E-003   6.3797567298069402E-002
   6.6989436468640196E-003  -1.8746275638977811E-003   6.3906276033043427E-002
   6.5627834063677528E-003  -1.8837273869339918E-003   6.4164489321825668E-002
   6.4266231658714791E-003  -1.8772501334586695E-003   6.4572207164416057E-002
   6.2904629253752210E-003  -1.8551958034717583E-003   6.5129429560814772E-002
  -1.0419745615965897E-005   1.6991544671510206E-005   6.4615479023322472E-002
  -1.1179852243170182E-005   2.4889138629413665E-005   6.4811226509209466E-002
  -1.1939958870374467E-005   2.6951017588008191E-005   6.5128269709026410E-002
  -1.2700065497577018E-005   2.3177181547268631E-005   6.5566608622773262E-002
  -1.3460172124783037E-005   1.3567630507110851E-005   6.6126243250449940E-002
   2.5102855001372201E-002  -7.4614861054083381E-003   6.1884766831213966E-002
   2.4346220814579052E-002  -7.2956816002485297E-003   6.1636830256919378E-002
   2.3589586627785902E-002  -7.1121754819494440E-003   6.1563424165115885E-002
   2.2832952440992753E-002  -6.9109677505113428E-003   6.1664548555803687E-002
   2.2076318254199589E-002  -6.6920584059342869E-003   6.1940203428982599E-002
   1.8848620512123708E-002  -5.5927226714294620E-003   6.3008691351196702E-002
   1.8270435828802424E-002  -5.4716822386664810E-003   6.2763418745990479E-002
   1.7692251145481144E-002  -5.3377277839930376E-003   6.2700514665236712E-002
   1.7114066462159863E-002  -5.1908593074090313E-003   6.2819979108935581E-002
   1.6535881778838572E-002  -5.0310768089146252E-003   6.3121812077086920E-002
   1.2577823153458054E-002  -3.7239592374506275E-003   6.4090245594397049E-002
   1.2185926015570033E-002  -3.6476828770844807E-003   6.3842849367050411E-002
   1.1794028877682012E-002  -3.5632800860364126E-003   6.3785659706117770E-002
   1.1402131739793988E-002  -3.4707508643066374E-003   6.3918676611599126E-002
   1.1010234601905963E-002  -3.3700952118950467E-003   6.4241900083494355E-002
   6.2904629253752210E-003  -1.8551958034717583E-003   6.5129429560814772E-002
   6.0926913748818659E-003  -1.8236835155024007E-003   6.4875122120099160E-002
   5.8949198243885047E-003  -1.7888323880799802E-003   6.4818859287758990E-002
   5.6971482738951470E-003  -1.7506424212043402E-003   6.4960641063794011E-002
   5.4993767234017884E-003  -1.7091136148753711E-003   6.5300467448204613E-002
  -1.3460172124783037E-005   1.3567630507110851E-005   6.6126243250449940E-002
  -9.2680932620714529E-006   3.1584607954049382E-007   6.5860237005136796E-002
  -5.0760143993702767E-006  -1.4384690123374344E-005   6.5800113410160330E-002
  -8.8393553666389624E-007  -3.0533978101916423E-005   6.5945872465520694E-002
   3.3081433260424842E-006  -4.8132017855861964E-005   6.6297514171217709E-002
   2.2076318254199589E-002  -6.6920584059342869E-003   6.1940203428982599E-002
   2.1184492463899432E-002  -6.4611224235424369E-003   6.1573267334675164E-002
   2.0292666673599288E-002  -6.2238347786602727E-003   6.1435335880525077E-002
   1.9400840883299110E-002  -5.9801954712879156E-003   6.1526409066532492E-002
   1.8509015092998959E-002  -5.7302045014253622E-003   6.1846486892697339E-002
   1.6535881778838572E-002  -5.0310768089146252E-003   6.3121812077086920E-002
   1.5871275108695078E-002  -4.8605472220690504E-003   6.2775345669848270E-002
   1.5206668438551566E-002  -4.6814374804315245E-003   6.2654312862765502E-002
   1.4542061768408063E-002  -4.4937475840022799E-003   6.2758713655838599E-002
   1.3877455098264560E-002  -4.2974775327810910E-003   6.3088548049067633E-002
   1.1010234601905963E-002  -3.3700952118950467E-003   6.4241900083494355E-002
   1.0569276011917615E-002  -3.2599720205957888E-003   6.3918131855626018E-002
   1.0128317421929257E-002  -3.1390401822028943E-003   6.3816226187912106E-002
   9.6873588319409069E-003  -3.0072996967165904E-003   6.3936183080352593E-002
   9.2464002419525501E-003  -2.8647505641367088E-003   6.4278002532947381E-002
   5.4993767234017884E-003  -1.7091136148753711E-003   6.5300467448204613E-002
   5.2784951735670819E-003  -1.6593968191224648E-003   6.5001625892008252E-002
   5.0576136237323625E-003  -1.5966428839742607E-003   6.4921075855964849E-002
   4.8367320738976378E-003  -1.5208518094309001E-003   6.5058817340074224E-002
   4.6158505240629279E-003  -1.4320235954924099E-003   6.5414850344336556E-002
   3.3081433260424842E-006  -4.8132017855861964E-005   6.6297514171217709E-002
  -1.0674063565530023E-006  -5.8821617649140734E-005   6.6025827778995017E-002
  -5.4429560391363457E-006  -5.4245585745515967E-005   6.5968861866923773E-002
  -9.8185057217248933E-006  -3.4403922145265220E-005   6.6126616435003838E-002
  -1.4194055404315176E-005   7.0337315188906402E-007   6.6499091483235295E-002
   1.8509015092998959E-002  -5.7302045014253622E-003   6.1846486892697339E-002
   1.7771488252218151E-002  -5.4768417310273876E-003   6.1758066033050008E-002
   1.7033961411437329E-002  -5.2230870220494607E-003   6.1839785445560291E-002
   1.6296434570656507E-002  -4.9689403744912278E-003   6.2091645130227940E-002
   1.5558907729875698E-002  -4.7144017883525846E-003   6.2513645087053149E-002
   1.3877455098264560E-002  -4.2974775327810910E-003   6.3088548049067633E-002
   1.3314050973298901E-002  -4.1055373687235164E-003   6.2996190776230920E-002
   1.2750646848333234E-002  -3.9308371337851145E-003   6.3081938662867029E-002
   1.2187242723367572E-002  -3.7733768279663987E-003   6.3345791708976085E-002
   1.1623838598401909E-002  -3.6331564512667724E-003   6.3787749914557934E-002
   9.2464002419525501E-003  -2.8647505641367088E-003   6.4278002532947381E-002
   8.8650837201174233E-003  -2.7342330064194093E-003   6.4164076979221746E-002
   8.4837671982823000E-003  -2.6385872455210874E-003   6.4236221472284208E-002
   8.1024506764471836E-003  -2.5778132814415662E-003   6.4494436012135004E-002
   7.7211341546120568E-003  -2.5519111141807937E-003   6.4938720598773952E-002
   4.6158505240629279E-003  -1.4320235954924099E-003   6.5414850344336556E-002
   4.4245864926737259E-003  -1.3629286441154201E-003   6.5261724642022387E-002
   4.2333224612845291E-003  -1.3463373572569007E-003   6.5302633873811869E-002
   4.0420584298953297E-003  -1.3822497349166244E-003   6.5537578039704864E-002
   3.8507943985061303E-003  -1.4706657770948428E-003   6.5966557139701620E-002
  -1.4194055404315176E-005   7.0337315188906402E-007   6.6499091483235295E-002
  -7.4407090322053948E-006   8.3757181885968368E-006   6.6289133764633079E-002
  -6.8736266009561398E-007  -5.4087468992672361E-005   6.6281175867449887E-002
   6.0659837120072280E-006  -1.8668618839194975E-004   6.6475217791685651E-002
   1.2819330084123948E-005  -3.8942044000889187E-004   6.6871259537340522E-002
   1.5558907729875698E-002  -4.7144017883525846E-003   6.2513645087053149E-002
   1.4534804103143339E-002  -4.6902369664691967E-003   6.2147900307155057E-002
   1.3510700476410967E-002  -5.1272116116760913E-003   6.2097648064749489E-002
   1.2486596849678601E-002  -6.0253257239731364E-003   6.2362888359836249E-002
   1.1462493222946235E-002  -7.3845793033604501E-003   6.2943621192415478E-002
   1.1623838598401909E-002  -3.6331564512667724E-003   6.3787749914557934E-002
   1.0901141574543888E-002  -3.6120859261684068E-003   6.3099184267138952E-002
   1.0178444550685853E-002  -3.8120751751536675E-003   6.2697939287975957E-002
   9.4557475268278457E-003  -4.2331241982218812E-003   6.2584014977068975E-002
   8.7330505029697969E-003  -4.8752329953738460E-003   6.2757411334418589E-002
   7.7211341546120568E-003  -2.5519111141807937E-003   6.4938720598773952E-002
   7.2716718643921346E-003  -2.5339348858676169E-003   6.4167413776840848E-002
   6.8222095741722159E-003  -2.4969387386311187E-003   6.3655255753927706E-002
   6.3727472839522920E-003  -2.4409226724707890E-003   6.3402246530034290E-002
   5.9232849937323750E-003  -2.3658866873872419E-003   6.3408386105161307E-002
   3.8507943985061303E-003  -1.4706657770948428E-003   6.5966557139701620E-002
   3.6463949726880749E-003  -1.4557838455668271E-003   6.5352588836261105E-002
   3.4419955468700117E-003  -1.1818023021086879E-003   6.4969597462604375E-002
   3.2375961210519594E-003  -6.4872114671989285E-004   6.4817583018731403E-002
   3.0331966952338862E-003   1.4345962059936213E-004   6.4896545504642106E-002
   1.2819330084123948E-005  -3.8942044000889187E-004   6.6871259537340522E-002
   2.5310899431692929E-005  -3.7763280526603715E-004   6.6654709445399585E-002
   3.7802468779265380E-005   1.3333413441385389E-004   6.6640964414006465E-002
   5.0294038126815280E-005   1.1434803790315029E-003   6.6830024443160635E-002
   6.2785607474399874E-005   2.6528059285859662E-003   6.7221889532862455E-002
   1.7400049575969079E-006   0.0000000000000000        2.8444481624912168E-002
   1.2464756514755579E-006  -1.2349432494066642E-007   3.3405627358802356E-002
   7.5294634535399106E-007  -2.3824174029407619E-008   3.8375030808930746E-002
   2.5941703923296634E-007   2.9901045273984794E-007   4.3352691975297342E-002
  -2.3411226688805839E-007   8.4500955535755928E-007   4.8338610857902156E-002
  -6.7992803492219877E-003   0.0000000000000000        2.8508295194786738E-002
  -6.8310964268842858E-003   1.4641098917098257E-004   3.3543388694694726E-002
  -6.8629125045465847E-003   3.2991952405991582E-004   3.8507579381652154E-002
  -6.8947285822088802E-003   5.5052560466679976E-004   4.3400867255659024E-002
  -6.9265446598711783E-003   8.0822923099162745E-004   4.8223252316715301E-002
  -1.3505433027886283E-002   0.0000000000000000        2.8700206057536187E-002
  -1.3647732183093527E-002   2.9294547266690623E-004   3.3846121704704080E-002
  -1.3790031338300772E-002   6.5986287229385758E-004   3.8841974009732633E-002
  -1.3932330493508017E-002   1.1007521988808571E-003   4.3687762972621863E-002
  -1.4074629648715264E-002   1.6156134524279000E-003   4.8383488593371757E-002
  -2.0116718031035288E-002   0.0000000000000000        2.9020214213160506E-002
  -2.0448660792976251E-002   4.3947995616282968E-004   3.4313826388830390E-002
  -2.0780603554917211E-002   9.8980622052780194E-004   3.9378214693172174E-002
  -2.1112546316858175E-002   1.6509787930949157E-003   4.4213379126185844E-002
  -2.1444489078799134E-002   2.4229976738641711E-003   4.8819319687871447E-002
  -2.6633135358669006E-002   0.0000000000000000        2.9468319661659699E-002
  -2.7233882256532456E-002   5.8601443965875313E-004   3.4946502747073685E-002
  -2.7834629154395902E-002   1.3197495687617428E-003   4.0116301431970793E-002
  -2.8435376052259351E-002   2.2012053873089726E-003   4.4977715716351029E-002
  -2.9036122950122801E-002   3.2303818953004423E-003   4.9530745600214386E-002
  -2.3411226688805839E-007   8.4500955535755928E-007   4.8338610857902156E-002
   6.2831317386999666E-007   1.2079079008305016E-006   5.1507496152940736E-002
   1.4907386146313043E-006   9.8144025615894484E-007   5.4539443995974567E-002
   2.3531640553901183E-006   1.6560662131480820E-007   5.7434454387003647E-002
   3.2155894961506670E-006  -1.2395930036671055E-006   6.0192527326027929E-002
  -6.9265446598711783E-003   8.0822923099162745E-004   4.8223252316715301E-002
  -7.0330306874663824E-003   1.0630031399647801E-003   5.1178178996277184E-002
  -7.1395167150615892E-003   1.2748200685165994E-003   5.4055346221771876E-002
  -7.2460027426567968E-003   1.4436800166470914E-003   5.6854753993199371E-002
  -7.3524887702519984E-003   1.5695829843562908E-003   5.9576402310559752E-002
  -1.4074629648715264E-002   1.6156134524279000E-003   4.8383488593371757E-002
  -1.4229286131408838E-002   2.1247983720287193E-003   5.1082089043025705E-002
  -1.4383942614102410E-002   2.5486586967770532E-003   5.3762108036550127E-002
  -1.4538599096795982E-002   2.8871944266728989E-003   5.6423545573944918E-002
  -1.4693255579489559E-002   3.1404055617162523E-003   5.9066401655210189E-002
  -2.1444489078799134E-002   2.4229976738641711E-003   4.8819319687871447E-002
  -2.1588138018653485E-002   3.1865936040926636E-003   5.1219226293186336E-002
  -2.1731786958507828E-002   3.8224973250375041E-003   5.3659729440309258E-002
  -2.1875435898362175E-002   4.3307088366986912E-003   5.6140829129240205E-002
  -2.2019084838216515E-002   4.7112281390762119E-003   5.8662525359979192E-002
  -2.9036122950122801E-002   3.2303818953004423E-003   4.9530745600214386E-002
  -2.9109586349200321E-002   4.2483888361566097E-003   5.1589590746759041E-002
  -2.9183049748277849E-002   5.0963359532979549E-003   5.3748210433049330E-002
  -2.9256513147355358E-002   5.7742232467244709E-003   5.6006604659085232E-002
  -2.9329976546432882E-002   6.2820507164361647E-003   5.8364773424866769E-002
   3.2155894961506670E-006  -1.2395930036671055E-006   6.0192527326027929E-002
  -1.9324428187847409E-007  -1.3750588639879768E-006   6.1086095595198370E-002
  -3.6020780599076152E-006   1.6183087950902980E-006   6.2121110301137580E-002
  -7.0109118379410931E-006   7.7405099735855000E-006   6.3297571443845582E-002
  -1.0419745615965897E-005   1.6991544671510206E-005   6.4615479023322472E-002
  -7.3524887702519984E-003   1.5695829843562908E-003   5.9576402310559752E-002
  -7.2278108952506005E-003   1.6668018015150408E-003   6.0465907158671353E-002
  -7.1031330202492001E-003   1.7496092979942743E-003   6.1470138987573017E-002
  -6.9784551452478031E-003   1.8180054737939998E-003   6.2589097797264751E-002
  -6.8537772702464070E-003   1.8719903289140943E-003   6.3822783587746484E-002
  -1.4693255579489559E-002   3.1404055617162523E-003   5.9066401655210189E-002
  -1.4467210451687475E-002   3.3349786618941148E-003   5.9934302928063975E-002
  -1.4241165323885394E-002   3.4976002871934852E-003   6.0890211725729067E-002
  -1.4015120196083308E-002   3.6282704376143582E-003   6.1934128048205528E-002
  -1.3789075068281231E-002   3.7269891131567270E-003   6.3066051895493219E-002
  -2.2019084838216515E-002   4.7112281390762119E-003   5.8662525359979192E-002
  -2.1718391913592493E-002   5.0031555222731592E-003   5.9491282903376227E-002
  -2.1417698988968472E-002   5.2455912763926475E-003   6.0381328515605841E-002
  -2.1117006064344451E-002   5.4385354014347452E-003   6.1332662196668004E-002
  -2.0816313139720422E-002   5.5819878973993216E-003   6.2345283946562767E-002
  -2.9329976546432882E-002   6.2820507164361647E-003   5.8364773424866769E-002
  -2.8981355280965664E-002   6.6713323826522210E-003   5.9136847084608105E-002
  -2.8632734015498443E-002   6.9935822655919130E-003   5.9943489357203242E-002
  -2.8284112750031225E-002   7.2488003652551539E-003   6.0784700242652236E-002
  -2.7935491484564003E-002   7.4369866816419716E-003   6.1660479740955038E-002
  -1.0419745615965897E-005   1.6991544671510206E-005   6.4615479023322472E-002
  -1.1179852243170182E-005   2.4889138629413665E-005   6.4811226509209466E-002
  -1.1939958870374467E-005   2.6951017588008191E-005   6.5128269709026410E-002
  -1.2700065497577018E-005   2.3177181547268631E-005   6.5566608622773262E-002
  -1.3460172124783037E-005   1.3567630507110851E-005   6.6126243250449940E-002
  -6.8537772702464070E-003   1.8719903289140943E-003   6.3822783587746484E-002
  -6.7186862569116835E-003   1.9060530431448675E-003   6.3925511868211812E-002
  -6.5835952435769705E-003   1.9146827962764519E-003   6.4178646674671144E-002
  -6.4485042302422522E-003   1.8978795883089110E-003   6.4582188007124355E-002
  -6.3134132169075340E-003   1.8556434192421312E-003   6.5136135865571487E-002
  -1.3789075068281231E-002   3.7269891131567270E-003   6.3066051895493219E-002
  -1.3489022122920580E-002   3.7872169476603212E-003   6.3056163724437189E-002
  -1.3188969177559922E-002   3.8024145749649806E-003   6.3225792891439009E-002
  -1.2888916232199264E-002   3.7725819950705816E-003   6.3574939396498761E-002
  -1.2588863286838611E-002   3.6977192079771931E-003   6.4103603239616558E-002
  -2.0816313139720422E-002   5.5819878973993216E-003   6.2345283946562767E-002
  -2.0322187450269823E-002   5.6683808521758028E-003   6.2203182077885409E-002
  -1.9828061760819228E-002   5.6901463536534252E-003   6.2269708359329962E-002
  -1.9333936071368629E-002   5.6472844018322938E-003   6.2544862790896494E-002
  -1.8839810381918027E-002   5.5397949967122620E-003   6.3028645372584985E-002
  -2.7935491484564003E-002   7.4369866816419716E-003   6.1660479740955038E-002
  -2.7218182238959440E-002   7.5495447566912358E-003   6.1366566928556548E-002
  -2.6500872993354886E-002   7.5778781323419739E-003   6.1310393078344058E-002
  -2.5783563747750326E-002   7.5219868085939137E-003   6.1491958190317518E-002
  -2.5066254502145772E-002   7.3818707854472754E-003   6.1911262264476907E-002
  -1.3460172124783037E-005   1.3567630507110851E-005   6.6126243250449940E-002
  -9.2680932620714529E-006   3.1584607954049382E-007   6.5860237005136796E-002
  -5.0760143993702767E-006  -1.4384690123374344E-005   6.5800113410160330E-002
  -8.8393553666389624E-007  -3.0533978101916423E-005   6.5945872465520694E-002
   3.3081433260424842E-006  -4.8132017855861964E-005   6.6297514171217709E-002
  -6.3134132169075340E-003   1.8556434192421312E-003   6.5136135865571487E-002
  -6.1081000145057395E-003   1.7998397385018960E-003   6.4888295661300666E-002
  -5.9027868121039519E-003   1.7423339955138714E-003   6.4836815053771230E-002
  -5.6974736097021618E-003   1.6831261902781735E-003   6.4981694042983262E-002
  -5.4921604073003699E-003   1.6222163227945785E-003   6.5322932628936681E-002
  -1.2588863286838611E-002   3.6977192079771931E-003   6.4103603239616558E-002
  -1.2191952014493086E-002   3.5993636309242655E-003   6.3873675765915738E-002
  -1.1795040742147562E-002   3.4990526811512525E-003   6.3830584835361012E-002
  -1.1398129469802046E-002   3.3967863586581515E-003   6.3974330447952379E-002
  -1.1001218197456522E-002   3.2925646634449357E-003   6.4304912603689729E-002
  -1.8839810381918027E-002   5.5397949967122620E-003   6.3028645372584985E-002
  -1.8260824093224121E-002   5.3988875233466280E-003   6.2816377318981945E-002
  -1.7681837804530216E-002   5.2557713667886214E-003   6.2781422754929636E-002
  -1.7102851515836313E-002   5.1104465270382128E-003   6.2923781680428004E-002
  -1.6523865227142418E-002   4.9629130040953068E-003   6.3243454095477075E-002
  -2.5066254502145772E-002   7.3818707854472754E-003   6.1911262264476907E-002
  -2.4314716250698837E-002   7.1984114157689766E-003   6.1716400320499354E-002
  -2.3563177999251912E-002   7.0124900524258932E-003   6.1689328812477073E-002
  -2.2811639747804979E-002   6.8241066954182368E-003   6.1830047740410163E-002
  -2.2060101496358054E-002   6.6332613447456779E-003   6.2138557104298608E-002
   3.3081433260424842E-006  -4.8132017855861964E-005   6.6297514171217709E-002
  -1.0674063565530023E-006  -5.8821617649140734E-005   6.6025827778995017E-002
  -5.4429560391363457E-006  -5.4245585745515967E-005   6.5968861866923773E-002
  -9.8185057217248933E-006  -3.4403922145265220E-005   6.6126616435003838E-002
  -1.4194055404315176E-005   7.0337315188906402E-007   6.6499091483235295E-002
  -5.4921604073003699E-003   1.6222163227945785E-003   6.5322932628936681E-002
  -5.2794484080022830E-003   1.5622385833172214E-003   6.5049440040991974E-002
  -5.0667364087042047E-003   1.5058271620997377E-003   6.4995402070857244E-002
  -4.8540244094061229E-003   1.4529820591426268E-003   6.5160818718532548E-002
  -4.6413124101080394E-003   1.4037032744452782E-003   6.5545689984017691E-002
  -1.1001218197456522E-002   3.2925646634449357E-003   6.4304912603689729E-002
  -1.0566684511519176E-002   3.1832987842833615E-003   6.4017914506586351E-002
  -1.0132150825581819E-002   3.0658999099451578E-003   6.3955105164951495E-002
  -9.6976171396444683E-003   2.9403680404302968E-003   6.4116484578785202E-002
  -9.2630834537071171E-003   2.8067031757387506E-003   6.4502052748087471E-002
  -1.6523865227142418E-002   4.9629130040953068E-003   6.3243454095477075E-002
  -1.5862775716907192E-002   4.8043589852496127E-003   6.2931251175778233E-002
  -1.5201686206671981E-002   4.6259726577905780E-003   6.2847971149206511E-002
  -1.4540596696436772E-002   4.4277540217180777E-003   6.2993614015761951E-002
  -1.3879507186201550E-002   4.2097030770320981E-003   6.3368179775444539E-002
  -2.2060101496358054E-002   6.6332613447456779E-003   6.2138557104298608E-002
  -2.1167722024166381E-002   6.4254191862158361E-003   6.1789450048567562E-002
  -2.0275342551974704E-002   6.1860454056358177E-003   6.1674000023622222E-002
  -1.9382963079783024E-002   5.9151400030058553E-003   6.1792207029462740E-002
  -1.8490583607591350E-002   5.6127029783255566E-003   6.2144071066088935E-002
  -1.4194055404315176E-005   7.0337315188906402E-007   6.6499091483235295E-002
  -7.4407090322053948E-006   8.3757181885968368E-006   6.6289133764633079E-002
  -6.8736266009561398E-007  -5.4087468992672361E-005   6.6281175867449887E-002
   6.0659837120072280E-006  -1.8668618839194975E-004   6.6475217791685651E-002
   1.2819330084123948E-005  -3.8942044000889187E-004   6.6871259537340522E-002
  -4.6413124101080394E-003   1.4037032744452782E-003   6.5545689984017691E-002
  -4.4379810757076282E-003   1.3377745122502838E-003   6.5282156840392763E-002
  -4.2346497413072084E-003   1.2349794767998190E-003   6.5209779851405372E-002
  -4.0313184069067981E-003   1.0953181680935717E-003   6.5328559017055698E-002
  -3.8279870725063843E-003   9.1879058613164588E-004   6.5638494337343423E-002
  -9.2630834537071171E-003   2.8067031757387506E-003   6.4502052748087471E-002
  -8.8740177980597898E-003   2.6671733063122344E-003   6.4218213438401950E-002
  -8.4849521424124677E-003   2.5240464225922618E-003   6.4114686616572575E-002
  -8.0958864867651300E-003   2.3773225245789838E-003   6.4191472282599416E-002
  -7.7068208311178183E-003   2.2270016122722391E-003   6.4448570436482527E-002
  -1.3879507186201550E-002   4.2097030770320981E-003   6.3368179775444539E-002
  -1.3315550876088702E-002   3.9965721003740531E-003   6.3097303558660695E-002
  -1.2751594565975853E-002   3.8131133683847844E-003   6.2995896162951648E-002
  -1.2187638255862998E-002   3.6593268810643396E-003   6.3063957588317426E-002
  -1.1623681945750156E-002   3.5352126384128602E-003   6.3301487834758086E-002
  -1.8490583607591350E-002   5.6127029783255566E-003   6.2144071066088935E-002
  -1.7762580309794367E-002   5.3259708944359274E-003   6.1919427201168997E-002
  -1.7034577011997377E-002   5.1021803141772515E-003   6.1853408490542466E-002
  -1.6306573714200391E-002   4.9413312375498758E-003   6.1946014934209342E-002
  -1.5578570416403405E-002   4.8434236645533146E-003   6.2197246532169681E-002
   1.2819330084123948E-005  -3.8942044000889187E-004   6.6871259537340522E-002
   2.5310899431692929E-005  -3.7763280526603715E-004   6.6654709445399585E-002
   3.7802468779265380E-005   1.3333413441385389E-004   6.6640964414006465E-002
   5.0294038126815280E-005   1.1434803790315029E-003   6.6830024443160635E-002
   6.2785607474399874E-005   2.6528059285859662E-003   6.7221889532862455E-002
  -3.8279870725063843E-003   9.1879058613164588E-004   6.5638494337343423E-002
  -3.6004514276710663E-003   8.6395518846646424E-004   6.5785870877715119E-002
  -3.3729157828357361E-003   1.0893704326501163E-003   6.6160530508514670E-002
  -3.1453801380004155E-003   1.5950363186827132E-003   6.6762473229742159E-002
  -2.9178444931651018E-003   2.3809528465640328E-003   6.7591699041398057E-002
  -7.7068208311178183E-003   2.2270016122722391E-003   6.4448570436482527E-002
  -7.2397630809142377E-003   2.1055431821990211E-003   6.4740944946078183E-002
  -6.7727053307106719E-003   2.0454067308862678E-003   6.5285080575982229E-002
  -6.3056475805071018E-003   2.0465922583338958E-003   6.6080977326194792E-002
  -5.8385898303035255E-003   2.1090997645419884E-003   6.7128635196715858E-002
  -1.1623681945750156E-002   3.5352126384128602E-003   6.3301487834758086E-002
  -1.0892624060297855E-002   3.3471311759317168E-003   6.3519931650489206E-002
  -1.0161566174845555E-002   3.0014430291223637E-003   6.4014614616409365E-002
  -9.4305082893932565E-003   2.4981481979853698E-003   6.4785536732517954E-002
  -8.6994504039409684E-003   1.8372466825199441E-003   6.5832697998816261E-002
  -1.5578570416403405E-002   4.8434236645533146E-003   6.2197246532169681E-002
  -1.4559034365821885E-002   4.5887191696640239E-003   6.2122830990947897E-002
  -1.3539498315240369E-002   3.9574793273586123E-003   6.2349132629795606E-002
  -1.2519962264658827E-002   2.9497041376364934E-003   6.2876151448712711E-002
  -1.1500426214077333E-002   1.5653936004980107E-003   6.3703887447699392E-002
  -2.6633135358669006E-002   0.0000000000000000        2.9468319661659699E-002
  -2.7233882256532456E-002   5.8601443965875313E-004   3.4946502747073685E-002
  -2.7834629154395902E-002   1.3197495687617428E-003   4.0116301431970793E-002
  -2.8435376052259351E-002   2.2012053873089726E-003   4.4977715716351029E-002
  -2.9036122950122801E-002   3.2303818953004423E-003   4.9530745600214386E-002
  -3.3392298868347062E-002   0.0000000000000000        3.0178820877155631E-002
  -3.4236161522017125E-002   9.6043003224112033E-004   3.5267354608583913E-002
  -3.5080024175687209E-002   2.0240234568540180E-003   4.0178041228915815E-002
  -3.5923886829357272E-002   3.1907802738386920E-003   4.4910880738151360E-002
  -3.6767749483027343E-002   4.4607004831951416E-003   4.9465873136290528E-002
  -4.0731822417629078E-002   0.0000000000000000        3.1286016333770164E-002
  -4.1688263537685261E-002   1.3348456248234875E-003   3.5940343414140277E-002
  -4.2644704657741450E-002   2.7282973449462939E-003   4.0547360672834529E-002
  -4.3601145777797647E-002   4.1803551603684158E-003   4.5107068109852912E-002
  -4.4557586897853829E-002   5.6910190710898582E-003   4.9619465725195426E-002
  -4.8651706006515055E-002   0.0000000000000000        3.2789906031503294E-002
  -4.9590188303536849E-002   1.7092612174058547E-003   3.6965469163742777E-002
  -5.0528670600558670E-002   3.4325712330385699E-003   4.1224259763726900E-002
  -5.1467152897580470E-002   5.1699300468981413E-003   4.5566277831455698E-002
  -5.2405635194602271E-002   6.9213376589845731E-003   4.9991523366929073E-002
  -5.7151949635004994E-002   0.0000000000000000        3.4690489970355017E-002
  -5.7941935819571910E-002   2.0836768099882219E-003   3.8342731857391427E-002
  -5.8731922004138827E-002   4.1368451211308450E-003   4.2208738501592971E-002
  -5.9521908188705744E-002   6.1595049334278607E-003   4.6288509902959664E-002
  -6.0311894373272654E-002   8.1516562468792776E-003   5.0582046061491498E-002
  -2.9036122950122801E-002   3.2303818953004423E-003   4.9530745600214386E-002
  -2.9109586349200321E-002   4.2483888361566097E-003   5.1589590746759041E-002
  -2.9183049748277849E-002   5.0963359532979549E-003   5.3748210433049330E-002
  -2.9256513147355358E-002   5.7742232467244709E-003   5.6006604659085232E-002
  -2.9329976546432882E-002   6.2820507164361647E-003   5.8364773424866769E-002
  -3.6767749483027343E-002   4.4607004831951416E-003   4.9465873136290528E-002
  -3.6780504791075995E-002   5.6940320000980222E-003   5.1254240651699590E-002
  -3.6793260099124640E-002   6.7510227397219440E-003   5.3064249809420781E-002
  -3.6806015407173306E-002   7.6316727020669089E-003   5.4895900609454082E-002
  -3.6818770715221938E-002   8.3359818871329289E-003   5.6749193051799499E-002
  -4.4557586897853829E-002   5.6910190710898582E-003   4.9619465725195426E-002
  -4.4587767012307121E-002   7.1396751640394268E-003   5.1131074655904774E-002
  -4.4617947126760406E-002   8.4057095261459193E-003   5.2586192331492768E-002
  -4.4648127241213698E-002   9.4891221574093521E-003   5.3984818751959318E-002
  -4.4678307355666975E-002   1.0389913057829697E-002   5.5326953917304529E-002
  -5.2405635194602271E-002   6.9213376589845731E-003   4.9991523366929073E-002
  -5.2531373012893699E-002   8.5853183279808246E-003   5.1220092759374600E-002
  -5.2657110831185114E-002   1.0060396312569901E-002   5.2314037999265213E-002
  -5.2782848649476542E-002   1.1346571612751773E-002   5.3273359086600976E-002
  -5.2908586467767985E-002   1.2443844228526455E-002   5.4098056021381798E-002
  -6.0311894373272654E-002   8.1516562468792776E-003   5.0582046061491498E-002
  -6.0611322792835723E-002   1.0030961491922244E-002   5.1521294962109068E-002
  -6.0910751212398799E-002   1.1715083098993882E-002   5.2247786812738228E-002
  -6.1210179631961889E-002   1.3204021068094238E-002   5.2761521613378999E-002
  -6.1509608051524951E-002   1.4497775399223221E-002   5.3062499364031353E-002
  -2.9329976546432882E-002   6.2820507164361647E-003   5.8364773424866769E-002
  -2.8981355280965664E-002   6.6713323826522210E-003   5.9136847084608105E-002
  -2.8632734015498443E-002   6.9935822655919130E-003   5.9943489357203242E-002
  -2.8284112750031225E-002   7.2488003652551539E-003   6.0784700242652236E-002
  -2.7935491484564003E-002   7.4369866816419716E-003   6.1660479740955038E-002
  -3.6818770715221938E-002   8.3359818871329289E-003   5.6749193051799499E-002
  -3.6383413789664941E-002   8.8787213050897200E-003   5.7095776017012864E-002
  -3.5948056864107944E-002   9.2746619661070138E-003   5.7581261689551952E-002
  -3.5512699938550926E-002   9.5238038701847445E-003   5.8205650069416782E-002
  -3.5077343012993943E-002   9.6261470173230057E-003   5.8968941156607356E-002
  -4.4678307355666975E-002   1.0389913057829697E-002   5.5326953917304529E-002
  -4.4051880675548272E-002   1.1086110227527217E-002   5.5168279214326793E-002
  -4.3425453995429582E-002   1.1555741666622089E-002   5.5252841313146686E-002
  -4.2799027315310899E-002   1.1798807375114403E-002   5.5580640213764257E-002
  -4.2172600635192195E-002   1.1815307353004026E-002   5.6151675916179429E-002
  -5.2908586467767985E-002   1.2443844228526455E-002   5.4098056021381798E-002
  -5.1986755938615681E-002   1.3293499149964694E-002   5.3354356676549884E-002
  -5.1064925409463377E-002   1.3836821367137176E-002   5.2958228227987521E-002
  -5.0143094880311073E-002   1.4073810880044028E-002   5.2909670675694728E-002
  -4.9221264351158783E-002   1.4004467688685053E-002   5.3208684019671486E-002
  -6.1509608051524951E-002   1.4497775399223221E-002   5.3062499364031353E-002
  -6.0188039578867154E-002   1.5500888072402203E-002   5.1654008403682179E-002
  -5.8866471106209323E-002   1.6117901067652290E-002   5.0697422434074407E-002
  -5.7544902633551512E-002   1.6348814384973667E-002   5.0192741455208141E-002
  -5.6223334160893708E-002   1.6193628024366094E-002   5.0139965467083339E-002
  -2.7935491484564003E-002   7.4369866816419716E-003   6.1660479740955038E-002
  -2.7218182238959440E-002   7.5495447566912358E-003   6.1366566928556548E-002
  -2.6500872993354886E-002   7.5778781323419739E-003   6.1310393078344058E-002
  -2.5783563747750326E-002   7.5219868085939137E-003   6.1491958190317518E-002
  -2.5066254502145772E-002   7.3818707854472754E-003   6.1911262264476907E-002
  -3.5077343012993943E-002   9.6261470173230057E-003   5.8968941156607356E-002
  -3.4132602138040327E-002   9.6243908432785338E-003   5.8638502625191345E-002
  -3.3187861263086739E-002   9.5612347838081313E-003   5.8525188390287461E-002
  -3.2243120388133130E-002   9.4366788389119299E-003   5.8628998451895661E-002
  -3.1298379513179514E-002   9.2507230085898118E-003   5.8949932810015995E-002
  -4.2172600635192195E-002   1.1815307353004026E-002   5.6151675916179429E-002
  -4.1021042796563399E-002   1.1699236929865828E-002   5.5807536479718658E-002
  -3.9869484957934617E-002   1.1544591435274431E-002   5.5659906674096149E-002
  -3.8717927119305821E-002   1.1351370869229920E-002   5.5708786499311949E-002
  -3.7566369280677039E-002   1.1119575231732237E-002   5.5954175955365948E-002
  -4.9221264351158783E-002   1.4004467688685053E-002   5.3208684019671486E-002
  -4.7883504214528659E-002   1.3774083016453111E-002   5.2873668492138683E-002
  -4.6545744077898514E-002   1.3527948086740715E-002   5.2714547929770261E-002
  -4.5207983941268390E-002   1.3266062899547895E-002   5.2731322332566270E-002
  -4.3870223804638238E-002   1.2988427454874704E-002   5.2923991700526751E-002
  -5.6223334160893708E-002   1.6193628024366094E-002   5.0139965467083339E-002
  -5.4719986391936079E-002   1.5848929103040407E-002   4.9836898662451237E-002
  -5.3216638622978443E-002   1.5511304738206912E-002   4.9689112157309721E-002
  -5.1713290854020814E-002   1.5180754929865918E-002   4.9696605951658715E-002
  -5.0209943085063172E-002   1.4857279678017171E-002   4.9859380045498364E-002
  -2.5066254502145772E-002   7.3818707854472754E-003   6.1911262264476907E-002
  -2.4314716250698837E-002   7.1984114157689766E-003   6.1716400320499354E-002
  -2.3563177999251912E-002   7.0124900524258932E-003   6.1689328812477073E-002
  -2.2811639747804979E-002   6.8241066954182368E-003   6.1830047740410163E-002
  -2.2060101496358054E-002   6.6332613447456779E-003   6.2138557104298608E-002
  -3.1298379513179514E-002   9.2507230085898118E-003   5.8949932810015995E-002
  -3.0371976938627115E-002   9.0251458187620426E-003   5.8716127583099881E-002
  -2.9445574364074710E-002   8.7817257953491379E-003   5.8664260566439343E-002
  -2.8519171789522298E-002   8.5204629383510005E-003   5.8794331760034443E-002
  -2.7592769214969878E-002   8.2413572477677555E-003   5.9106341163885162E-002
  -3.7566369280677039E-002   1.1119575231732237E-002   5.5954175955365948E-002
  -3.6450954608718847E-002   1.0851880221755116E-002   5.5666046605590755E-002
  -3.5335539936760675E-002   1.0550961538272348E-002   5.5574003240371463E-002
  -3.4220125264802476E-002   1.0216819181283874E-002   5.5678045859708189E-002
  -3.3104710592844311E-002   9.8494531507897498E-003   5.5978174463600636E-002
  -4.3870223804638238E-002   1.2988427454874704E-002   5.2923991700526751E-002
  -4.2551649260974017E-002   1.2678614624748254E-002   5.2566157387972046E-002
  -4.1233074717309796E-002   1.2320197281195520E-002   5.2418556834273530E-002
  -3.9914500173645569E-002   1.1913175424216747E-002   5.2481190039431226E-002
  -3.8595925629981362E-002   1.1457549053811758E-002   5.2754057003445057E-002
  -5.0209943085063172E-002   1.4857279678017171E-002   4.9859380045498364E-002
  -4.8674060895392654E-002   1.4505349027741227E-002   4.9416459930243711E-002
  -4.7138178705722102E-002   1.4089433024118754E-002   4.9197921348145476E-002
  -4.5602296516051549E-002   1.3609531667149470E-002   4.9203764299203694E-002
  -4.4066414326380990E-002   1.3065644956833766E-002   4.9433988783418481E-002
  -2.2060101496358054E-002   6.6332613447456779E-003   6.2138557104298608E-002
  -2.1167722024166381E-002   6.4254191862158361E-003   6.1789450048567562E-002
  -2.0275342551974704E-002   6.1860454056358177E-003   6.1674000023622222E-002
  -1.9382963079783024E-002   5.9151400030058553E-003   6.1792207029462740E-002
  -1.8490583607591350E-002   5.6127029783255566E-003   6.2144071066088935E-002
  -2.7592769214969878E-002   8.2413572477677555E-003   5.9106341163885162E-002
  -2.6471818283269694E-002   7.9439176465882499E-003   5.8747696572785640E-002
  -2.5350867351569502E-002   7.6276530578015950E-003   5.8612537869917339E-002
  -2.4229916419869307E-002   7.2925634814080785E-003   5.8700865055280320E-002
  -2.3108965488169129E-002   6.9386489174071975E-003   5.9012678128874618E-002
  -3.3104710592844311E-002   9.8494531507897498E-003   5.5978174463600636E-002
  -3.1765359344190100E-002   9.4624161069607887E-003   5.5622698971575693E-002
  -3.0426008095535910E-002   9.0692607099674902E-003   5.5480538225227423E-002
  -2.9086656846881710E-002   8.6699869598103035E-003   5.5551692224555999E-002
  -2.7747305598227547E-002   8.2645948564889216E-003   5.5836160969561288E-002
  -3.8595925629981362E-002   1.1457549053811758E-002   5.2754057003445057E-002
  -3.7048345206927659E-002   1.0980914567333182E-002   5.2414457244937637E-002
  -3.5500764783873956E-002   1.0510868362133437E-002   5.2278001089552349E-002
  -3.3953184360820253E-002   1.0047410438212528E-002   5.2344688537289429E-002
  -3.2405603937766522E-002   9.5905407955705763E-003   5.2614519588148723E-002
  -4.4066414326380990E-002   1.3065644956833766E-002   4.9433988783418481E-002
  -4.2320775871482322E-002   1.2499413027705741E-002   4.9122971392871528E-002
  -4.0575137416583591E-002   1.1952476014299176E-002   4.9004926462892284E-002
  -3.8829498961684875E-002   1.1424833916614949E-002   4.9079853993480860E-002
  -3.7083860506786206E-002   1.0916486734652286E-002   4.9347753984637144E-002
  -1.8490583607591350E-002   5.6127029783255566E-003   6.2144071066088935E-002
  -1.7762580309794367E-002   5.3259708944359274E-003   6.1919427201168997E-002
  -1.7034577011997377E-002   5.1021803141772515E-003   6.1853408490542466E-002
  -1.6306573714200391E-002   4.9413312375498758E-003   6.1946014934209342E-002
  -1.5578570416403405E-002   4.8434236645533146E-003   6.2197246532169681E-002
  -2.3108965488169129E-002   6.9386489174071975E-003   5.9012678128874618E-002
  -2.2219778697799304E-002   6.5932154163141632E-003   5.8819998681280239E-002
  -2.1330591907429489E-002   6.2835690286436735E-003   5.8791061064538103E-002
  -2.0441405117059698E-002   6.0097097543958498E-003   5.8925865278648168E-002
  -1.9552218326689890E-002   5.7716375935704667E-003   5.9224411323610449E-002
  -2.7747305598227547E-002   8.2645948564889216E-003   5.5836160969561288E-002
  -2.6691818638726099E-002   7.8604599381925377E-003   5.5648291549083906E-002
  -2.5636331679224696E-002   7.4649577431101510E-003   5.5629280636017728E-002
  -2.4580844719723279E-002   7.0780882712418794E-003   5.5779128230362449E-002
  -2.3525357760221847E-002   6.6998515225876465E-003   5.6097834332118054E-002
  -3.2405603937766522E-002   9.5905407955705763E-003   5.2614519588148723E-002
  -3.1178700132574729E-002   9.1277044600709539E-003   5.2404305804580012E-002
  -2.9951796327382943E-002   8.6463464575766286E-003   5.2368067204981099E-002
  -2.8724892522191167E-002   8.1464667880880477E-003   5.2505803789351921E-002
  -2.7497988716999336E-002   7.6280654516048124E-003   5.2817515557692582E-002
  -3.7083860506786206E-002   1.0916486734652286E-002   4.9347753984637144E-002
  -3.5680423179345250E-002   1.0394948981949176E-002   4.9088041447768571E-002
  -3.4276985851904272E-002   9.8277351720430783E-003   4.9007420771428389E-002
  -3.2873548524463322E-002   9.2148453049339732E-003   4.9105891955616848E-002
  -3.1470111197022352E-002   8.5562793806219783E-003   4.9383455000333809E-002
  -1.5578570416403405E-002   4.8434236645533146E-003   6.2197246532169681E-002
  -1.4559034365821885E-002   4.5887191696640239E-003   6.2122830990947897E-002
  -1.3539498315240369E-002   3.9574793273586123E-003   6.2349132629795606E-002
  -1.2519962264658827E-002   2.9497041376364934E-003   6.2876151448712711E-002
  -1.1500426214077333E-002   1.5653936004980107E-003   6.3703887447699392E-002
  -1.9552218326689890E-002   5.7716375935704667E-003   5.9224411323610449E-002
  -1.8246564975180977E-002   5.4384657739841857E-003   5.8834643490820598E-002
  -1.6940911623672089E-002   4.8793075234532801E-003   5.8716393079816076E-002
  -1.5635258272163229E-002   4.0941628419776249E-003   5.8869660090596729E-002
  -1.4329604920654312E-002   3.0830317295575949E-003   5.9294444523162571E-002
  -2.3525357760221847E-002   6.6998515225876465E-003   5.6097834332118054E-002
  -2.1962786866069776E-002   6.2882123783042088E-003   5.5543263124231995E-002
  -2.0400215971917688E-002   5.8011357195478438E-003   5.5231009579846856E-002
  -1.8837645077765575E-002   5.2386215463189247E-003   5.5161073698962851E-002
  -1.7275074183613494E-002   4.6006698586172901E-003   5.5333455481579918E-002
  -2.7497988716999336E-002   7.6280654516048124E-003   5.2817515557692582E-002
  -2.5707700038488254E-002   7.1379589826240791E-003   5.2248689891182004E-002
  -2.3917411359977127E-002   6.7229639156426262E-003   5.1892982129888458E-002
  -2.2127122681466039E-002   6.3830802506600849E-003   5.1750392273811889E-002
  -2.0336834002954919E-002   6.1183079876768742E-003   5.1820920322952102E-002
  -3.1470111197022352E-002   8.5562793806219783E-003   4.9383455000333809E-002
  -2.9481304492436425E-002   7.9877055869440050E-003   4.8950923791670875E-002
  -2.7492497787850477E-002   7.6447921117370199E-003   4.8702310729940579E-002
  -2.5503691083264505E-002   7.5275389550013144E-003   4.8637615815143032E-002
  -2.3514884378678602E-002   7.6359461167365694E-003   4.8756839047278344E-002
  -5.7151949635004994E-002   0.0000000000000000        3.4690489970355017E-002
  -5.7941935819571910E-002   2.0836768099882219E-003   3.8342731857391427E-002
  -5.8731922004138827E-002   4.1368451211308450E-003   4.2208738501592971E-002
  -5.9521908188705744E-002   6.1595049334278607E-003   4.6288509902959664E-002
  -6.0311894373272654E-002   8.1516562468792776E-003   5.0582046061491498E-002
  -6.5820456921839868E-002   0.0000000000000000        3.7211293240195488E-002
  -6.6625762553104012E-002   2.9139754312533864E-003   4.0834329347844311E-002
  -6.7431068184368156E-002   5.7705507644737275E-003   4.4212961804933532E-002
  -6.8236373815632301E-002   8.5697259996610157E-003   4.7347190611463141E-002
  -6.9041679446896445E-002   1.1311501136815259E-002   5.0237015767433169E-002
  -7.4245131485760618E-002   0.0000000000000000        4.0575840930894835E-002
  -7.5523924971446749E-002   3.7442740525185526E-003   4.4142779659968635E-002
  -7.6802718457132865E-002   7.4042564078166092E-003   4.7007146330758073E-002
  -7.8081511942818996E-002   1.0979947065894169E-002   4.9168940943263156E-002
  -7.9360305428505112E-002   1.4471346026751231E-002   5.0628163497483919E-002
  -8.2425973326767266E-002   0.0000000000000000        4.4784133042453086E-002
  -8.4636423074600106E-002   4.5745726737837170E-003   4.8268082793764391E-002
  -8.6846872822432961E-002   9.0379620511594882E-003   5.0591292079066610E-002
  -8.9057322570265801E-002   1.3390168132127324E-002   5.1753760898359730E-002
  -9.1267772318098642E-002   1.7631190916687203E-002   5.1755489251643777E-002
  -9.0362982444859796E-002   0.0000000000000000        4.9836169574870220E-002
  -9.3963256862564112E-002   5.4048712950488832E-003   5.3210238749231600E-002
  -9.7563531280268415E-002   1.0671667694502377E-002   5.4965399049859143E-002
 -0.10116380569797273        1.5800389198360475E-002   5.5101650476752841E-002
 -0.10476408011567703        2.0791035806623177E-002   5.3618993029912729E-002
  -6.0311894373272654E-002   8.1516562468792776E-003   5.0582046061491498E-002
  -6.0611322792835723E-002   1.0030961491922244E-002   5.1521294962109068E-002
  -6.0910751212398799E-002   1.1715083098993882E-002   5.2247786812738228E-002
  -6.1210179631961889E-002   1.3204021068094238E-002   5.2761521613378999E-002
  -6.1509608051524951E-002   1.4497775399223221E-002   5.3062499364031353E-002
  -6.9041679446896445E-002   1.1311501136815259E-002   5.0237015767433169E-002
  -6.9316031560073099E-002   1.3756089033809905E-002   4.9459178106311959E-002
  -6.9590383673249753E-002   1.5663702548518430E-002   4.8944250107951975E-002
  -6.9864735786426449E-002   1.7034341680940816E-002   4.8692231772353239E-002
  -7.0139087899603061E-002   1.7868006431077076E-002   4.8703123099515702E-002
  -7.9360305428505112E-002   1.4471346026751231E-002   5.0628163497483919E-002
  -7.9133914522545715E-002   1.7481216575697567E-002   4.7791448530309130E-002
  -7.8907523616586317E-002   1.9612321998042970E-002   4.5693309938645184E-002
  -7.8681132710626933E-002   2.0864662293787403E-002   4.4333747722492121E-002
  -7.8454741804667535E-002   2.1238237462930906E-002   4.3712761881849943E-002
  -9.1267772318098642E-002   1.7631190916687203E-002   5.1755489251643777E-002
  -9.0064971680253569E-002   2.1206344117585225E-002   4.6518106234100548E-002
  -8.8862171042408455E-002   2.3560941447567520E-002   4.2494966304817881E-002
  -8.7659370404563425E-002   2.4694982906633991E-002   3.9686069463795694E-002
  -8.6456569766718311E-002   2.4608468494784749E-002   3.8091415711033957E-002
 -0.10476408011567703        2.0791035806623177E-002   5.3618993029912729E-002
 -0.10210920303319662        2.4931471659472897E-002   4.5639151217686288E-002
  -9.9454325950716224E-002   2.7509560897092035E-002   3.9349219206470019E-002
  -9.6799448868235841E-002   2.8525303519480592E-002   3.4749196996263901E-002
  -9.4144571785755415E-002   2.7978699526638583E-002   3.1839084587067877E-002
  -6.1509608051524951E-002   1.4497775399223221E-002   5.3062499364031353E-002
  -6.0188039578867154E-002   1.5500888072402203E-002   5.1654008403682179E-002
  -5.8866471106209323E-002   1.6117901067652290E-002   5.0697422434074407E-002
  -5.7544902633551512E-002   1.6348814384973667E-002   5.0192741455208141E-002
  -5.6223334160893708E-002   1.6193628024366094E-002   5.0139965467083339E-002
  -7.0139087899603061E-002   1.7868006431077076E-002   4.8703123099515702E-002
  -6.8412119505246949E-002   1.8322275401893316E-002   4.7257994585995687E-002
  -6.6685151110890878E-002   1.8554727196355633E-002   4.6171760925130735E-002
  -6.4958182716534765E-002   1.8565361814464072E-002   4.5444422116920929E-002
  -6.3231214322178639E-002   1.8354179256218559E-002   4.5075978161366284E-002
  -7.8454741804667535E-002   2.1238237462930906E-002   4.3712761881849943E-002
  -7.6415383626699446E-002   2.1143662731384440E-002   4.2395278316733918E-002
  -7.4376025448731398E-002   2.0991553325058934E-002   4.1343679466186674E-002
  -7.2336667270763308E-002   2.0781909243954434E-002   4.0557965330208300E-002
  -7.0297309092795246E-002   2.0514730488070961E-002   4.0038135908798622E-002
  -8.6456569766718311E-002   2.4608468494784749E-002   3.8091415711033957E-002
  -8.4197831943224624E-002   2.3965050060875567E-002   3.7065859595896915E-002
  -8.1939094119730937E-002   2.3428379453762256E-002   3.6213178057242341E-002
  -7.9680356296237265E-002   2.2998456673444859E-002   3.5533371095070085E-002
  -7.7421618472743578E-002   2.2675281719923380E-002   3.5026438709380443E-002
  -9.4144571785755415E-002   2.7978699526638583E-002   3.1839084587067877E-002
  -9.1759464454822443E-002   2.6786437390366690E-002   3.1269738423484648E-002
  -8.9374357123889484E-002   2.5865205582465578E-002   3.0780256698297568E-002
  -8.6989249792956483E-002   2.5215004102935243E-002   3.0370639411506584E-002
  -8.4604142462023538E-002   2.4835832951775799E-002   3.0040886563111685E-002
  -5.6223334160893708E-002   1.6193628024366094E-002   5.0139965467083339E-002
  -5.4719986391936079E-002   1.5848929103040407E-002   4.9836898662451237E-002
  -5.3216638622978443E-002   1.5511304738206912E-002   4.9689112157309721E-002
  -5.1713290854020814E-002   1.5180754929865918E-002   4.9696605951658715E-002
  -5.0209943085063172E-002   1.4857279678017171E-002   4.9859380045498364E-002
  -6.3231214322178639E-002   1.8354179256218559E-002   4.5075978161366284E-002
  -6.1555226626176823E-002   1.8016239779422891E-002   4.4719745322829060E-002
  -5.9879238930175001E-002   1.7646603641880896E-002   4.4553512038889680E-002
  -5.8203251234173199E-002   1.7245270843592460E-002   4.4577278309548066E-002
  -5.6527263538171356E-002   1.6812241384557752E-002   4.4791044134804253E-002
  -7.0297309092795246E-002   2.0514730488070961E-002   4.0038135908798622E-002
  -6.8413962214642007E-002   2.0183550455805409E-002   3.9589965819117598E-002
  -6.6530615336488769E-002   1.9781902545554772E-002   3.9366514539141688E-002
  -6.4647268458335544E-002   1.9309786757319033E-002   3.9367782068870712E-002
  -6.2763921580182319E-002   1.8767203091098181E-002   3.9593768408304898E-002
  -7.7421618472743578E-002   2.2675281719923380E-002   3.5026438709380443E-002
  -7.5296193157331631E-002   2.2350861132187840E-002   3.4447560151316947E-002
  -7.3170767841919754E-002   2.1917201449228617E-002   3.4128119658065670E-002
  -7.1045342526507849E-002   2.1374302671045505E-002   3.4068117229626681E-002
  -6.8919917211095971E-002   2.0722164797638686E-002   3.4267552865999973E-002
  -8.4604142462023538E-002   2.4835832951775799E-002   3.0040886563111685E-002
  -8.2201919454245737E-002   2.4518171808570410E-002   2.9292528319426941E-002
  -7.9799696446467977E-002   2.4052500352902607E-002   2.8838327395661750E-002
  -7.7397473438690176E-002   2.3438818584772182E-002   2.8678283791815945E-002
  -7.4995250430912375E-002   2.2677126504179190E-002   2.8812397507889748E-002
  -5.0209943085063172E-002   1.4857279678017171E-002   4.9859380045498364E-002
  -4.8674060895392654E-002   1.4505349027741227E-002   4.9416459930243711E-002
  -4.7138178705722102E-002   1.4089433024118754E-002   4.9197921348145476E-002
  -4.5602296516051549E-002   1.3609531667149470E-002   4.9203764299203694E-002
  -4.4066414326380990E-002   1.3065644956833766E-002   4.9433988783418481E-002
  -5.6527263538171356E-002   1.6812241384557752E-002   4.4791044134804253E-002
  -5.4776940042508250E-002   1.6346693984585367E-002   4.4370183916245268E-002
  -5.3026616546845096E-002   1.5847807363484116E-002   4.4153824776514916E-002
  -5.1276293051181990E-002   1.5315581521254061E-002   4.4141966715613275E-002
  -4.9525969555518891E-002   1.4750016457895254E-002   4.4334609733540364E-002
  -6.2763921580182319E-002   1.8767203091098181E-002   3.9593768408304898E-002
  -6.0819037232854367E-002   1.8188038941429327E-002   3.9225614218659284E-002
  -5.8874152885526443E-002   1.7606181702849420E-002   3.9042080653514624E-002
  -5.6929268538198519E-002   1.7021631375358538E-002   3.9043167712870808E-002
  -5.4984384190870567E-002   1.6434387958956659E-002   3.9228875396727952E-002
  -6.8919917211095971E-002   2.0722164797638686E-002   3.4267552865999973E-002
  -6.6800352466430998E-002   2.0029383898273294E-002   3.3982750837485726E-002
  -6.4680787721766039E-002   1.9364556042214778E-002   3.3862688979144594E-002
  -6.2561222977101080E-002   1.8727681229463018E-002   3.3907367290976563E-002
  -6.0441658232436107E-002   1.8118759460018188E-002   3.4116785772981731E-002
  -7.4995250430912375E-002   2.2677126504179190E-002   2.8812397507889748E-002
  -7.2720885743238164E-002   2.1870728855117372E-002   2.8641593772724488E-002
  -7.0446521055563954E-002   2.1122930381580043E-002   2.8615649753404707E-002
  -6.8172156367889730E-002   2.0433731083567584E-002   2.8734565449930319E-002
  -6.5897791680215534E-002   1.9803130961079551E-002   2.8998340862301186E-002
  -4.4066414326380990E-002   1.3065644956833766E-002   4.9433988783418481E-002
  -4.2320775871482322E-002   1.2499413027705741E-002   4.9122971392871528E-002
  -4.0575137416583591E-002   1.1952476014299176E-002   4.9004926462892284E-002
  -3.8829498961684875E-002   1.1424833916614949E-002   4.9079853993480860E-002
  -3.7083860506786206E-002   1.0916486734652286E-002   4.9347753984637144E-002
  -4.9525969555518891E-002   1.4750016457895254E-002   4.4334609733540364E-002
  -4.7585478860694433E-002   1.4171077404002641E-002   4.4039555794029017E-002
  -4.5644988165870051E-002   1.3598729590171263E-002   4.3941233873801458E-002
  -4.3704497471045670E-002   1.3032973016401200E-002   4.4039643972857478E-002
  -4.1764006776221219E-002   1.2473807682692406E-002   4.4334786091197204E-002
  -5.4984384190870567E-002   1.6434387958956659E-002   3.9228875396727952E-002
  -5.2845281697404545E-002   1.5842741780299652E-002   3.8937081232591875E-002
  -5.0706179203938523E-002   1.5244983166043342E-002   3.8845778646455241E-002
  -4.8567076710472501E-002   1.4641112116187559E-002   3.8954967638318322E-002
  -4.6427974217006424E-002   1.4031128630732470E-002   3.9264648208180791E-002
  -6.0441658232436107E-002   1.8118759460018188E-002   3.4116785772981731E-002
  -5.8100184381612574E-002   1.7514406156596662E-002   3.3815547708559907E-002
  -5.5758710530789006E-002   1.6891236741915314E-002   3.3718560780853807E-002
  -5.3417236679965473E-002   1.6249251215973808E-002   3.3825824989862974E-002
  -5.1075762829141898E-002   1.5588449578772590E-002   3.4137340335587837E-002
  -6.5897791680215534E-002   1.9803130961079551E-002   2.8998340862301186E-002
  -6.3350186913318507E-002   1.9186070532893590E-002   2.8674955221933390E-002
  -6.0802582146421522E-002   1.8537490317787383E-002   2.8559580276996982E-002
  -5.8254977379524474E-002   1.7857390315760221E-002   2.8652216027491795E-002
  -5.5707372612627482E-002   1.7145770526812654E-002   2.8952862473418217E-002
  -3.7083860506786206E-002   1.0916486734652286E-002   4.9347753984637144E-002
  -3.5680423179345250E-002   1.0394948981949176E-002   4.9088041447768571E-002
  -3.4276985851904272E-002   9.8277351720430783E-003   4.9007420771428389E-002
  -3.2873548524463322E-002   9.2148453049339732E-003   4.9105891955616848E-002
  -3.1470111197022352E-002   8.5562793806219783E-003   4.9383455000333809E-002
  -4.1764006776221219E-002   1.2473807682692406E-002   4.4334786091197204E-002
  -4.0188084749482392E-002   1.1904426571991283E-002   4.4048295796123266E-002
  -3.8612162722743572E-002   1.1308022667244233E-002   4.3927683039116497E-002
  -3.7036240696004738E-002   1.0684595968451047E-002   4.3972947820176959E-002
  -3.5460318669265856E-002   1.0034146475612127E-002   4.4184090139304688E-002
  -4.6427974217006424E-002   1.4031128630732470E-002   3.9264648208180791E-002
  -4.4692781813431087E-002   1.3413904162033266E-002   3.8970033418058520E-002
  -4.2957589409855723E-002   1.2788310162445152E-002   3.8828081843542084E-002
  -4.1222397006280338E-002   1.2154346631968061E-002   3.8838793484631554E-002
  -3.9487204602705023E-002   1.1512013570602053E-002   3.9002168341326832E-002
  -5.1075762829141898E-002   1.5588449578772590E-002   3.4137340335587837E-002
  -4.9194514371191343E-002   1.4923381752075200E-002   3.3853254313574152E-002
  -4.7313265913240761E-002   1.4268597657646133E-002   3.3708617184705220E-002
  -4.5432017455290200E-002   1.3624097295485105E-002   3.3703428948980693E-002
  -4.3550768997339624E-002   1.2989880665591980E-002   3.3837689606400712E-002
  -5.5707372612627482E-002   1.7145770526812654E-002   2.8952862473418217E-002
  -5.3693282422763083E-002   1.6432859342117412E-002   2.8697958482670372E-002
  -5.1679192232898657E-002   1.5748885152847183E-002   2.8569289062605752E-002
  -4.9665102043034259E-002   1.5093847959002055E-002   2.8566854213224260E-002
  -4.7651011853169833E-002   1.4467747760582073E-002   2.8690653934526134E-002
  -3.1470111197022352E-002   8.5562793806219783E-003   4.9383455000333809E-002
  -2.9481304492436425E-002   7.9877055869440050E-003   4.8950923791670875E-002
  -2.7492497787850477E-002   7.6447921117370199E-003   4.8702310729940579E-002
  -2.5503691083264505E-002   7.5275389550013144E-003   4.8637615815143032E-002
  -2.3514884378678602E-002   7.6359461167365694E-003   4.8756839047278344E-002
  -3.5460318669265856E-002   1.0034146475612127E-002   4.4184090139304688E-002
  -3.3285280124770771E-002   9.4255379549210150E-003   4.3885376690829064E-002
  -3.1110241580275678E-002   8.9276341725720160E-003   4.3775208775239022E-002
  -2.8935203035780555E-002   8.5404351285648626E-003   4.3853586392534616E-002
  -2.6760164491285460E-002   8.2639408228999400E-003   4.4120509542715736E-002
  -3.9487204602705023E-002   1.1512013570602053E-002   3.9002168341326832E-002
  -3.7121306832347850E-002   1.0863370322897997E-002   3.8722317072909532E-002
  -3.4755409061990664E-002   1.0210476233406957E-002   3.8635638723330840E-002
  -3.2389511291633449E-002   9.5533313021286329E-003   3.8742133292590311E-002
  -3.0023613521276249E-002   8.8919355290633106E-003   3.9041800780688529E-002
  -4.3550768997339624E-002   1.2989880665591980E-002   3.3837689606400712E-002
  -4.0989384615167553E-002   1.2301202690874993E-002   3.3461744937912694E-002
  -3.8428000232995550E-002   1.1493318294241703E-002   3.3283600574215942E-002
  -3.5866615850823520E-002   1.0566227475692292E-002   3.3303256515310520E-002
  -3.3305231468651469E-002   9.5199302352266257E-003   3.3520712761196420E-002
  -4.7651011853169833E-002   1.4467747760582073E-002   2.8690653934526134E-002
  -4.4889513473230058E-002   1.3739035058852045E-002   2.8103660285838217E-002
  -4.2128015093290228E-002   1.2776160355076741E-002   2.7719094327894350E-002
  -3.9366516713350411E-002   1.1579123649255941E-002   2.7536956060694714E-002
  -3.6605018333410677E-002   1.0147924941390052E-002   2.7557245484239434E-002
  -9.0362982444859796E-002   0.0000000000000000        4.9836169574870220E-002
  -9.3963256862564112E-002   5.4048712950488832E-003   5.3210238749231600E-002
  -9.7563531280268415E-002   1.0671667694502377E-002   5.4965399049859143E-002
 -0.10116380569797273        1.5800389198360475E-002   5.5101650476752841E-002
 -0.10476408011567703        2.0791035806623177E-002   5.3618993029912729E-002
 -0.10329452387156259        0.0000000000000000        5.8664720570617723E-002
 -0.10683212293828243        1.0884770725013919E-002   5.2120016658130597E-002
 -0.11036972200500227        1.9172696402758833E-002   4.7319572321346239E-002
 -0.11390732107172211        2.4863777033234717E-002   4.4263387560264655E-002
 -0.11744492013844193        2.7958012616441597E-002   4.2951462374885820E-002
 -0.12645896263839995        0.0000000000000000        7.4202556072167081E-002
 -0.12657071790469873        1.6364670154978958E-002   5.5280308921157824E-002
 -0.12668247317099751        2.7673725111015273E-002   4.1465489795287941E-002
 -0.12679422843729629        3.3927164868108969E-002   3.2758098694557432E-002
 -0.12690598370359504        3.5124989426260009E-002   2.9158135618966304E-002
 -0.15985629874537197        0.0000000000000000        9.6449676079518279E-002
 -0.15317904176181305        2.1844569584943997E-002   6.2691115538313275E-002
 -0.14650178477825412        3.6174753819271738E-002   3.7403151471684250E-002
 -0.13982452779469520        4.2990552702983215E-002   2.0585783879631211E-002
 -0.13314727081113631        4.2291966236078421E-002   1.2239012762154182E-002
 -0.20348653219247856        0.0000000000000000       0.12540608059267133     
 -0.18665709450962537        2.7324469014909040E-002   7.4352436509596942E-002
 -0.16982765682677217        4.4675782527528185E-002   3.5132557350535172E-002
 -0.15299821914391895        5.2053940537857446E-002   7.7464431154859598E-003
 -0.13616878146106576        4.9458943045896847E-002  -7.8059061955506812E-003
 -0.10476408011567703        2.0791035806623177E-002   5.3618993029912729E-002
 -0.10210920303319662        2.4931471659472897E-002   4.5639151217686288E-002
  -9.9454325950716224E-002   2.7509560897092035E-002   3.9349219206470019E-002
  -9.6799448868235841E-002   2.8525303519480592E-002   3.4749196996263901E-002
  -9.4144571785755415E-002   2.7978699526638583E-002   3.1839084587067877E-002
 -0.11744492013844193        2.7958012616441597E-002   4.2951462374885820E-002
 -0.11348810222012920        2.9429924891909910E-002   3.6698353963374071E-002
 -0.10953128430181645        3.0254035599170098E-002   3.1359217422516884E-002
 -0.10557446638350372        3.0430344738222193E-002   2.6934052752314187E-002
 -0.10161764846519097        2.9958852309066163E-002   2.3422859952766033E-002
 -0.12690598370359504        3.5124989426260009E-002   2.9158135618966304E-002
 -0.12242316287980556        3.3928378124346917E-002   2.5546305655191698E-002
 -0.11794034205601611        3.2998510301248153E-002   2.2072509631716034E-002
 -0.11345752123222663        3.2335385956963787E-002   1.8736747548539229E-002
 -0.10897470040843715        3.1939005091493694E-002   1.5539019405661313E-002
 -0.13314727081113631        4.2291966236078421E-002   1.2239012762154182E-002
 -0.12891438501222571        3.8426831356783930E-002   1.2183006293139119E-002
 -0.12468149921331514        3.5742985003326212E-002   1.1489095834067443E-002
 -0.12044861341440458        3.4240427175705357E-002   1.0157281384939005E-002
 -0.11621572761549397        3.3919157873921281E-002   8.1875629457539671E-003
 -0.13616878146106576        4.9458943045896847E-002  -7.8059061955506812E-003
 -0.13296176861738968        4.2925284589220958E-002  -3.3915441227836372E-003
 -0.12975475577371356        3.8487459705404257E-002  -3.9102397042883701E-004
 -0.12654774293003745        3.6145468394446975E-002   1.1956542615136350E-003
 -0.12334073008636137        3.5899310656348826E-002   1.3684905730436958E-003
  -9.4144571785755415E-002   2.7978699526638583E-002   3.1839084587067877E-002
  -9.1759464454822443E-002   2.6786437390366690E-002   3.1269738423484648E-002
  -8.9374357123889484E-002   2.5865205582465578E-002   3.0780256698297568E-002
  -8.6989249792956483E-002   2.5215004102935243E-002   3.0370639411506584E-002
  -8.4604142462023538E-002   2.4835832951775799E-002   3.0040886563111685E-002
 -0.10161764846519097        2.9958852309066163E-002   2.3422859952766033E-002
  -9.9138668939880131E-002   2.9188652871162644E-002   2.3144255220896061E-002
  -9.6659689414569289E-002   2.8468840983972496E-002   2.2973530439385631E-002
  -9.4180709889258460E-002   2.7799416647495492E-002   2.2910685608234827E-002
  -9.1701730363947576E-002   2.7180379861731885E-002   2.2955720727443799E-002
 -0.10897470040843715        3.1939005091493694E-002   1.5539019405661313E-002
 -0.10637383317678492        3.1590868351958699E-002   1.5330513327846905E-002
 -0.10377296594513269        3.1072476385479386E-002   1.5257902712355800E-002
 -0.10117209871348042        3.0383829192055838E-002   1.5321187559187720E-002
  -9.8571231481828198E-002   2.9524926771687984E-002   1.5520367868342891E-002
 -0.11621572761549397        3.3919157873921281E-002   8.1875629457539671E-003
 -0.11346495716553677        3.3993083832754671E-002   7.8285127443376845E-003
 -0.11071418671557960        3.3676111786986249E-002   7.6333735172081172E-003
 -0.10796341626562243        3.2968241736616118E-002   7.6021452643651403E-003
 -0.10521264581566524        3.1869473681644021E-002   7.7348279858090955E-003
 -0.12334073008636137        3.5899310656348826E-002   1.3684905730436958E-003
 -0.12041204090613572        3.6395299313550650E-002   6.3825347036799984E-004
 -0.11748335172591007        3.6279747188493264E-002   9.9942853942582011E-005
 -0.11455466254568440        3.5552654281176321E-002  -2.4644127623276411E-004
 -0.11162597336545876        3.4214020591600225E-002  -4.0089892015765516E-004
  -8.4604142462023538E-002   2.4835832951775799E-002   3.0040886563111685E-002
  -8.2201919454245737E-002   2.4518171808570410E-002   2.9292528319426941E-002
  -7.9799696446467977E-002   2.4052500352902607E-002   2.8838327395661750E-002
  -7.7397473438690176E-002   2.3438818584772182E-002   2.8678283791815945E-002
  -7.4995250430912375E-002   2.2677126504179190E-002   2.8812397507889748E-002
  -9.1701730363947576E-002   2.7180379861731885E-002   2.2955720727443799E-002
  -8.9035443353611743E-002   2.6561945950450798E-002   2.2306759893335769E-002
  -8.6369156343275924E-002   2.5894330237421714E-002   2.1891769744424430E-002
  -8.3702869332940077E-002   2.5177532722644724E-002   2.1710750280709630E-002
  -8.1036582322604217E-002   2.4411553406119502E-002   2.1763701502191479E-002
  -9.8571231481828198E-002   2.9524926771687984E-002   1.5520367868342891E-002
  -9.5701067103657195E-002   2.8605720092331227E-002   1.5069632954526242E-002
  -9.2830902725486178E-002   2.7736160121940901E-002   1.4792682091183239E-002
  -8.9960738347315203E-002   2.6916246860517152E-002   1.4689515278313843E-002
  -8.7090573969144172E-002   2.6145980308059813E-002   1.4760132515918331E-002
 -0.10521264581566524        3.1869473681644021E-002   7.7348279858090955E-003
 -0.10219879070438198        3.0649494234211649E-002   7.5811475029981031E-003
  -9.9184935593098753E-002   2.9577990006460338E-002   7.5410644359380575E-003
  -9.6171080481815538E-002   2.8654960998389666E-002   7.6145787846286245E-003
  -9.3157225370532268E-002   2.7880407210000124E-002   7.8016905490701782E-003
 -0.11162597336545876        3.4214020591600225E-002  -4.0089892015765516E-004
 -0.10852861415578618        3.2693268376091988E-002  -1.5869646124846981E-004
 -0.10543125494611363        3.1419819890979181E-002   1.3691677868889196E-004
 -0.10233389573644107        3.0393675136262146E-002   4.8594079965386464E-004
  -9.9236536526768504E-002   2.9614834111940436E-002   8.8837560164695129E-004
  -7.4995250430912375E-002   2.2677126504179190E-002   2.8812397507889748E-002
  -7.2720885743238164E-002   2.1870728855117372E-002   2.8641593772724488E-002
  -7.0446521055563954E-002   2.1122930381580043E-002   2.8615649753404707E-002
  -6.8172156367889730E-002   2.0433731083567584E-002   2.8734565449930319E-002
  -6.5897791680215534E-002   1.9803130961079551E-002   2.8998340862301186E-002
  -8.1036582322604217E-002   2.4411553406119502E-002   2.1763701502191479E-002
  -7.8615020381429757E-002   2.3628550898207423E-002   2.1619442847082559E-002
  -7.6193458440255324E-002   2.2860683809269686E-002   2.1624718983128607E-002
  -7.3771896499080808E-002   2.2107952139306147E-002   2.1779529910329970E-002
  -7.1350334557906375E-002   2.1370355888316761E-002   2.2083875628686300E-002
  -8.7090573969144172E-002   2.6145980308059813E-002   1.4760132515918331E-002
  -8.4517139699159693E-002   2.5386372941297725E-002   1.4598955184314998E-002
  -8.1943705429175201E-002   2.4598437236959154E-002   1.4591987719176733E-002
  -7.9370271159190722E-002   2.3782173195044706E-002   1.4739230120503221E-002
  -7.6796836889206244E-002   2.2937580815553971E-002   1.5040682388294854E-002
  -9.3157225370532268E-002   2.7880407210000124E-002   7.8016905490701782E-003
  -9.0427243696427961E-002   2.7144194984387734E-002   7.5801307844222642E-003
  -8.7697262022323738E-002   2.6336190664648877E-002   7.5174559615489422E-003
  -8.4967280348219404E-002   2.5456394250783131E-002   7.6136660804507839E-003
  -8.2237298674115181E-002   2.4504805742791125E-002   7.8687611411267649E-003
  -9.9236536526768504E-002   2.9614834111940436E-002   8.8837560164695129E-004
  -9.6345332373234671E-002   2.8902017027477883E-002   5.6296964740412681E-004
  -9.3454128219700811E-002   2.8073944092338404E-002   4.0112371024567106E-004
  -9.0562924066166964E-002   2.7130615306521909E-002   4.0283779017166038E-004
  -8.7671719912633117E-002   2.6072030670028279E-002   5.6811188718214334E-004
  -6.5897791680215534E-002   1.9803130961079551E-002   2.8998340862301186E-002
  -6.3350186913318507E-002   1.9186070532893590E-002   2.8674955221933390E-002
  -6.0802582146421522E-002   1.8537490317787383E-002   2.8559580276996982E-002
  -5.8254977379524474E-002   1.7857390315760221E-002   2.8652216027491795E-002
  -5.5707372612627482E-002   1.7145770526812654E-002   2.8952862473418217E-002
  -7.1350334557906375E-002   2.1370355888316761E-002   2.2083875628686300E-002
  -6.8596476057500674E-002   2.0638382576488687E-002   2.1747068909000508E-002
  -6.5842617557094918E-002   1.9902519724008735E-002   2.1614758960900857E-002
  -6.3088759056689203E-002   1.9162767330877028E-002   2.1686945784387117E-002
  -6.0334900556283405E-002   1.8419125397093339E-002   2.1963629379459421E-002
  -7.6796836889206244E-002   2.2937580815553971E-002   1.5040682388294854E-002
  -7.3840238579137157E-002   2.2090694620083576E-002   1.4718084835559878E-002
  -7.0883640269068141E-002   2.1267549130230094E-002   1.4596470130565593E-002
  -6.7927041958999096E-002   2.0468144345993561E-002   1.4675838273311977E-002
  -6.4970443648930024E-002   1.9692480267374135E-002   1.4956189263798964E-002
  -8.2237298674115181E-002   2.4504805742791125E-002   7.8687611411267649E-003
  -7.9081474478228178E-002   2.3543006663678319E-002   7.5880030016114604E-003
  -7.5925650282341148E-002   2.2632578536451339E-002   7.5047137859914122E-003
  -7.2769826086454145E-002   2.1773521361110451E-002   7.6188934942665694E-003
  -6.9614001890567156E-002   2.0965835137654959E-002   7.9305421264368910E-003
  -8.7671719912633117E-002   2.6072030670028279E-002   5.6811188718214334E-004
  -8.4320183754773514E-002   2.4995318707273506E-002   3.5682340715498251E-004
  -8.0968647596914023E-002   2.3997607942672944E-002   3.3948992717784676E-004
  -7.7617111439054531E-002   2.3078898376227015E-002   5.1611144725067712E-004
  -7.4265575281194929E-002   2.2239190007935505E-002   8.8668796737334521E-004
  -5.5707372612627482E-002   1.7145770526812654E-002   2.8952862473418217E-002
  -5.3693282422763083E-002   1.6432859342117412E-002   2.8697958482670372E-002
  -5.1679192232898657E-002   1.5748885152847183E-002   2.8569289062605752E-002
  -4.9665102043034259E-002   1.5093847959002055E-002   2.8566854213224260E-002
  -4.7651011853169833E-002   1.4467747760582073E-002   2.8690653934526134E-002
  -6.0334900556283405E-002   1.8419125397093339E-002   2.1963629379459421E-002
  -5.8185557596157275E-002   1.7670454188008972E-002   2.1721112432037198E-002
  -5.6036214636031062E-002   1.6915613968974952E-002   2.1622866454455492E-002
  -5.3886871675904939E-002   1.6154604739991127E-002   2.1668891446714092E-002
  -5.1737528715778705E-002   1.5387426501057400E-002   2.1859187408813208E-002
  -6.4970443648930024E-002   1.9692480267374135E-002   1.4956189263798964E-002
  -6.2667811519384803E-002   1.8908049033900837E-002   1.4690953354327629E-002
  -6.0365179389839610E-002   1.8082342785102713E-002   1.4588024813853996E-002
  -5.8062547260294452E-002   1.7215361520980084E-002   1.4647403642377908E-002
  -5.5759915130749266E-002   1.6307105241532643E-002   1.4869089839899471E-002
  -6.9614001890567156E-002   2.0965835137654959E-002   7.9305421264368910E-003
  -6.7140044192445805E-002   2.0145643879792188E-002   7.6074812495417476E-003
  -6.4666086494324371E-002   1.9249071601230478E-002   7.4647641408011906E-003
  -6.2192128796202985E-002   1.8276118301968878E-002   7.5023908002154307E-003
  -5.9718171098081599E-002   1.7226783982008151E-002   7.7203612277843385E-003
  -7.4265575281194929E-002   2.2239190007935505E-002   8.8668796737334521E-004
  -7.1602255615340060E-002   2.1383238725683984E-002   4.7069611767897035E-004
  -6.8938935949485247E-002   2.0415800417358188E-002   2.5308443529689639E-004
  -6.6275616283630434E-002   1.9336875082958158E-002   2.3385292022661680E-004
  -6.3612296617775566E-002   1.8146462722483214E-002   4.1300157246848546E-004
  -4.7651011853169833E-002   1.4467747760582073E-002   2.8690653934526134E-002
  -4.4889513473230058E-002   1.3739035058852045E-002   2.8103660285838217E-002
  -4.2128015093290228E-002   1.2776160355076741E-002   2.7719094327894350E-002
  -3.9366516713350411E-002   1.1579123649255941E-002   2.7536956060694714E-002
  -3.6605018333410677E-002   1.0147924941390052E-002   2.7557245484239434E-002
  -5.1737528715778705E-002   1.5387426501057400E-002   2.1859187408813208E-002
  -4.8778790885499926E-002   1.4593400923869404E-002   2.1190292133056288E-002
  -4.5820053055221251E-002   1.3751849680122358E-002   2.0713448067232937E-002
  -4.2861315224942576E-002   1.2862772769816573E-002   2.0428655211342947E-002
  -3.9902577394663741E-002   1.1926170192951835E-002   2.0335913565386887E-002
  -5.5759915130749266E-002   1.6307105241532643E-002   1.4869089839899471E-002
  -5.2614314330942158E-002   1.5447766788886846E-002   1.4304929272559663E-002
  -4.9468713531135168E-002   1.4727539005168468E-002   1.3922443434342908E-002
  -4.6323112731327942E-002   1.4146421890377065E-002   1.3721632325249294E-002
  -4.3177511931521056E-002   1.3704415444513618E-002   1.3702495945278670E-002
  -5.9718171098081599E-002   1.7226783982008151E-002   7.7203612277843385E-003
  -5.6396083809556713E-002   1.6302132653904136E-002   7.4475717043480452E-003
  -5.3073996521031820E-002   1.5703228330214276E-002   7.3460804292244820E-003
  -4.9751909232507073E-002   1.5430071010937903E-002   7.4158874024132524E-003
  -4.6429821943982034E-002   1.5482660696075234E-002   7.6569926239146019E-003
  -6.3612296617775566E-002   1.8146462722483214E-002   4.1300157246848546E-004
  -6.0124099321343438E-002   1.7156498518921870E-002   6.1821942842216204E-004
  -5.6635902024911366E-002   1.6678917655260139E-002   9.8435905187788109E-004
  -5.3147704728479239E-002   1.6713720131498119E-002   1.5114204428353095E-003
  -4.9659507432047167E-002   1.7260905947637184E-002   2.1994036012951135E-003
 </DataArray>
 </PointData>
 </Piece>
 <Piece  NumberOfPoints="          1600 "  NumberOfCells="         1024 ">
 <Points>
 <DataArray  type="Float64" NumberOfComponents="3"  format="ascii" >
  0.50000000000000000        0.0000000000000000        0.0000000000000000     
  0.53125000000000000        0.0000000000000000        0.0000000000000000     
  0.56250000000000000        0.0000000000000000        0.0000000000000000     
  0.59375000000000000        0.0000000000000000        0.0000000000000000     
  0.62500000000000000        0.0000000000000000        0.0000000000000000     
  0.50000000000000000        3.1250000000000000E-002   0.0000000000000000     
  0.53125000000000000        3.1250000000000000E-002   0.0000000000000000     
  0.56250000000000000        3.1250000000000000E-002   0.0000000000000000     
  0.59375000000000000        3.1250000000000000E-002   0.0000000000000000     
  0.62500000000000000        3.1250000000000000E-002   0.0000000000000000     
  0.50000000000000000        6.2500000000000000E-002   0.0000000000000000     
  0.53125000000000000        6.2500000000000000E-002   0.0000000000000000     
  0.56250000000000000        6.2500000000000000E-002   0.0000000000000000     
  0.59375000000000000        6.2500000000000000E-002   0.0000000000000000     
  0.62500000000000000        6.2500000000000000E-002   0.0000000000000000     
  0.50000000000000000        9.3750000000000000E-002   0.0000000000000000     
  0.53125000000000000        9.3750000000000000E-002   0.0000000000000000     
  0.56250000000000000        9.3750000000000000E-002   0.0000000000000000     
  0.59375000000000000        9.3750000000000000E-002   0.0000000000000000     
  0.62500000000000000        9.3750000000000000E-002   0.0000000000000000     
  0.50000000000000000       0.12500000000000000        0.0000000000000000     
  0.53125000000000000       0.12500000000000000        0.0000000000000000     
  0.56250000000000000       0.12500000000000000        0.0000000000000000     
  0.59375000000000000       0.12500000000000000        0.0000000000000000     
  0.62500000000000000       0.12500000000000000        0.0000000000000000     
  0.62500000000000000        0.0000000000000000        0.0000000000000000     
  0.65625000000000000        0.0000000000000000        0.0000000000000000     
  0.68750000000000000        0.0000000000000000        0.0000000000000000     
  0.71875000000000000        0.0000000000000000        0.0000000000000000     
  0.75000000000000000        0.0000000000000000        0.0000000000000000     
  0.62500000000000000        3.1250000000000000E-002   0.0000000000000000     
  0.65625000000000000        3.1250000000000000E-002   0.0000000000000000     
  0.68750000000000000        3.1250000000000000E-002   0.0000000000000000     
  0.71875000000000000        3.1250000000000000E-002   0.0000000000000000     
  0.75000000000000000        3.1250000000000000E-002   0.0000000000000000     
  0.62500000000000000        6.2500000000000000E-002   0.0000000000000000     
  0.65625000000000000        6.2500000000000000E-002   0.0000000000000000     
  0.68750000000000000        6.2500000000000000E-002   0.0000000000000000     
  0.71875000000000000        6.2500000000000000E-002   0.0000000000000000     
  0.75000000000000000        6.2500000000000000E-002   0.0000000000000000     
  0.62500000000000000        9.3750000000000000E-002   0.0000000000000000     
  0.65625000000000000        9.3750000000000000E-002   0.0000000000000000     
  0.68750000000000000        9.3750000000000000E-002   0.0000000000000000     
  0.71875000000000000        9.3750000000000000E-002   0.0000000000000000     
  0.75000000000000000        9.3750000000000000E-002   0.0000000000000000     
  0.62500000000000000       0.12500000000000000        0.0000000000000000     
  0.65625000000000000       0.12500000000000000        0.0000000000000000     
  0.68750000000000000       0.12500000000000000        0.0000000000000000     
  0.71875000000000000       0.12500000000000000        0.0000000000000000     
  0.75000000000000000       0.12500000000000000        0.0000000000000000     
  0.75000000000000000        0.0000000000000000        0.0000000000000000     
  0.78125000000000000        0.0000000000000000        0.0000000000000000     
  0.81250000000000000        0.0000000000000000        0.0000000000000000     
  0.84375000000000000        0.0000000000000000        0.0000000000000000     
  0.87500000000000000        0.0000000000000000        0.0000000000000000     
  0.75000000000000000        3.1250000000000000E-002   0.0000000000000000     
  0.78125000000000000        3.1250000000000000E-002   0.0000000000000000     
  0.81250000000000000        3.1250000000000000E-002   0.0000000000000000     
  0.84375000000000000        3.1250000000000000E-002   0.0000000000000000     
  0.87500000000000000        3.1250000000000000E-002   0.0000000000000000     
  0.75000000000000000        6.2500000000000000E-002   0.0000000000000000     
  0.78125000000000000        6.2500000000000000E-002   0.0000000000000000     
  0.81250000000000000        6.2500000000000000E-002   0.0000000000000000     
  0.84375000000000000        6.2500000000000000E-002   0.0000000000000000     
  0.87500000000000000        6.2500000000000000E-002   0.0000000000000000     
  0.75000000000000000        9.3750000000000000E-002   0.0000000000000000     
  0.78125000000000000        9.3750000000000000E-002   0.0000000000000000     
  0.81250000000000000        9.3750000000000000E-002   0.0000000000000000     
  0.84375000000000000        9.3750000000000000E-002   0.0000000000000000     
  0.87500000000000000        9.3750000000000000E-002   0.0000000000000000     
  0.75000000000000000       0.12500000000000000        0.0000000000000000     
  0.78125000000000000       0.12500000000000000        0.0000000000000000     
  0.81250000000000000       0.12500000000000000        0.0000000000000000     
  0.84375000000000000       0.12500000000000000        0.0000000000000000     
  0.87500000000000000       0.12500000000000000        0.0000000000000000     
  0.87500000000000000        0.0000000000000000        0.0000000000000000     
  0.90625000000000000        0.0000000000000000        0.0000000000000000     
  0.93750000000000000        0.0000000000000000        0.0000000000000000     
  0.96875000000000000        0.0000000000000000        0.0000000000000000     
   1.0000000000000000        0.0000000000000000        0.0000000000000000     
  0.87500000000000000        3.1250000000000000E-002   0.0000000000000000     
  0.90625000000000000        3.1250000000000000E-002   0.0000000000000000     
  0.93750000000000000        3.1250000000000000E-002   0.0000000000000000     
  0.96875000000000000        3.1250000000000000E-002   0.0000000000000000     
   1.0000000000000000        3.1250000000000000E-002   0.0000000000000000     
  0.87500000000000000        6.2500000000000000E-002   0.0000000000000000     
  0.90625000000000000        6.2500000000000000E-002   0.0000000000000000     
  0.93750000000000000        6.2500000000000000E-002   0.0000000000000000     
  0.96875000000000000        6.2500000000000000E-002   0.0000000000000000     
   1.0000000000000000        6.2500000000000000E-002   0.0000000000000000     
  0.87500000000000000        9.3750000000000000E-002   0.0000000000000000     
  0.90625000000000000        9.3750000000000000E-002   0.0000000000000000     
  0.93750000000000000        9.3750000000000000E-002   0.0000000000000000     
  0.96875000000000000        9.3750000000000000E-002   0.0000000000000000     
   1.0000000000000000        9.3750000000000000E-002   0.0000000000000000     
  0.87500000000000000       0.12500000000000000        0.0000000000000000     
  0.90625000000000000       0.12500000000000000        0.0000000000000000     
  0.93750000000000000       0.12500000000000000        0.0000000000000000     
  0.96875000000000000       0.12500000000000000        0.0000000000000000     
   1.0000000000000000       0.12500000000000000        0.0000000000000000     
   1.0000000000000000        0.0000000000000000        0.0000000000000000     
   1.0312500000000000        0.0000000000000000        0.0000000000000000     
   1.0625000000000000        0.0000000000000000        0.0000000000000000     
   1.0937500000000000        0.0000000000000000        0.0000000000000000     
   1.1250000000000000        0.0000000000000000        0.0000000000000000     
   1.0000000000000000        3.1250000000000000E-002   0.0000000000000000     
   1.0312500000000000        3.1250000000000000E-002   0.0000000000000000     
   1.0625000000000000        3.1250000000000000E-002   0.0000000000000000     
   1.0937500000000000        3.1250000000000000E-002   0.0000000000000000     
   1.1250000000000000        3.1250000000000000E-002   0.0000000000000000     
   1.0000000000000000        6.2500000000000000E-002   0.0000000000000000     
   1.0312500000000000        6.2500000000000000E-002   0.0000000000000000     
   1.0625000000000000        6.2500000000000000E-002   0.0000000000000000     
   1.0937500000000000        6.2500000000000000E-002   0.0000000000000000     
   1.1250000000000000        6.2500000000000000E-002   0.0000000000000000     
   1.0000000000000000        9.3750000000000000E-002   0.0000000000000000     
   1.0312500000000000        9.3750000000000000E-002   0.0000000000000000     
   1.0625000000000000        9.3750000000000000E-002   0.0000000000000000     
   1.0937500000000000        9.3750000000000000E-002   0.0000000000000000     
   1.1250000000000000        9.3750000000000000E-002   0.0000000000000000     
   1.0000000000000000       0.12500000000000000        0.0000000000000000     
   1.0312500000000000       0.12500000000000000        0.0000000000000000     
   1.0625000000000000       0.12500000000000000        0.0000000000000000     
   1.0937500000000000       0.12500000000000000        0.0000000000000000     
   1.1250000000000000       0.12500000000000000        0.0000000000000000     
   1.1250000000000000        0.0000000000000000        0.0000000000000000     
   1.1562500000000000        0.0000000000000000        0.0000000000000000     
   1.1875000000000000        0.0000000000000000        0.0000000000000000     
   1.2187500000000000        0.0000000000000000        0.0000000000000000     
   1.2500000000000000        0.0000000000000000        0.0000000000000000     
   1.1250000000000000        3.1250000000000000E-002   0.0000000000000000     
   1.1562500000000000        3.1250000000000000E-002   0.0000000000000000     
   1.1875000000000000        3.1250000000000000E-002   0.0000000000000000     
   1.2187500000000000        3.1250000000000000E-002   0.0000000000000000     
   1.2500000000000000        3.1250000000000000E-002   0.0000000000000000     
   1.1250000000000000        6.2500000000000000E-002   0.0000000000000000     
   1.1562500000000000        6.2500000000000000E-002   0.0000000000000000     
   1.1875000000000000        6.2500000000000000E-002   0.0000000000000000     
   1.2187500000000000        6.2500000000000000E-002   0.0000000000000000     
   1.2500000000000000        6.2500000000000000E-002   0.0000000000000000     
   1.1250000000000000        9.3750000000000000E-002   0.0000000000000000     
   1.1562500000000000        9.3750000000000000E-002   0.0000000000000000     
   1.1875000000000000        9.3750000000000000E-002   0.0000000000000000     
   1.2187500000000000        9.3750000000000000E-002   0.0000000000000000     
   1.2500000000000000        9.3750000000000000E-002   0.0000000000000000     
   1.1250000000000000       0.12500000000000000        0.0000000000000000     
   1.1562500000000000       0.12500000000000000        0.0000000000000000     
   1.1875000000000000       0.12500000000000000        0.0000000000000000     
   1.2187500000000000       0.12500000000000000        0.0000000000000000     
   1.2500000000000000       0.12500000000000000        0.0000000000000000     
   1.2500000000000000        0.0000000000000000        0.0000000000000000     
   1.2812500000000000        0.0000000000000000        0.0000000000000000     
   1.3125000000000000        0.0000000000000000        0.0000000000000000     
   1.3437500000000000        0.0000000000000000        0.0000000000000000     
   1.3750000000000000        0.0000000000000000        0.0000000000000000     
   1.2500000000000000        3.1250000000000000E-002   0.0000000000000000     
   1.2812500000000000        3.1250000000000000E-002   0.0000000000000000     
   1.3125000000000000        3.1250000000000000E-002   0.0000000000000000     
   1.3437500000000000        3.1250000000000000E-002   0.0000000000000000     
   1.3750000000000000        3.1250000000000000E-002   0.0000000000000000     
   1.2500000000000000        6.2500000000000000E-002   0.0000000000000000     
   1.2812500000000000        6.2500000000000000E-002   0.0000000000000000     
   1.3125000000000000        6.2500000000000000E-002   0.0000000000000000     
   1.3437500000000000        6.2500000000000000E-002   0.0000000000000000     
   1.3750000000000000        6.2500000000000000E-002   0.0000000000000000     
   1.2500000000000000        9.3750000000000000E-002   0.0000000000000000     
   1.2812500000000000        9.3750000000000000E-002   0.0000000000000000     
   1.3125000000000000        9.3750000000000000E-002   0.0000000000000000     
   1.3437500000000000        9.3750000000000000E-002   0.0000000000000000     
   1.3750000000000000        9.3750000000000000E-002   0.0000000000000000     
   1.2500000000000000       0.12500000000000000        0.0000000000000000     
   1.2812500000000000       0.12500000000000000        0.0000000000000000     
   1.3125000000000000       0.12500000000000000        0.0000000000000000     
   1.3437500000000000       0.12500000000000000        0.0000000000000000     
   1.3750000000000000       0.12500000000000000        0.0000000000000000     
   1.3750000000000000        0.0000000000000000        0.0000000000000000     
   1.4062500000000000        0.0000000000000000        0.0000000000000000     
   1.4375000000000000        0.0000000000000000        0.0000000000000000     
   1.4687500000000000        0.0000000000000000        0.0000000000000000     
   1.5000000000000000        0.0000000000000000        0.0000000000000000     
   1.3750000000000000        3.1250000000000000E-002   0.0000000000000000     
   1.4062500000000000        3.1250000000000000E-002   0.0000000000000000     
   1.4375000000000000        3.1250000000000000E-002   0.0000000000000000     
   1.4687500000000000        3.1250000000000000E-002   0.0000000000000000     
   1.5000000000000000        3.1250000000000000E-002   0.0000000000000000     
   1.3750000000000000        6.2500000000000000E-002   0.0000000000000000     
   1.4062500000000000        6.2500000000000000E-002   0.0000000000000000     
   1.4375000000000000        6.2500000000000000E-002   0.0000000000000000     
   1.4687500000000000        6.2500000000000000E-002   0.0000000000000000     
   1.5000000000000000        6.2500000000000000E-002   0.0000000000000000     
   1.3750000000000000        9.3750000000000000E-002   0.0000000000000000     
   1.4062500000000000        9.3750000000000000E-002   0.0000000000000000     
   1.4375000000000000        9.3750000000000000E-002   0.0000000000000000     
   1.4687500000000000        9.3750000000000000E-002   0.0000000000000000     
   1.5000000000000000        9.3750000000000000E-002   0.0000000000000000     
   1.3750000000000000       0.12500000000000000        0.0000000000000000     
   1.4062500000000000       0.12500000000000000        0.0000000000000000     
   1.4375000000000000       0.12500000000000000        0.0000000000000000     
   1.4687500000000000       0.12500000000000000        0.0000000000000000     
   1.5000000000000000       0.12500000000000000        0.0000000000000000     
  0.50000000000000000       0.12500000000000000        0.0000000000000000     
  0.53125000000000000       0.12500000000000000        0.0000000000000000     
  0.56250000000000000       0.12500000000000000        0.0000000000000000     
  0.59375000000000000       0.12500000000000000        0.0000000000000000     
  0.62500000000000000       0.12500000000000000        0.0000000000000000     
  0.50000000000000000       0.15625000000000000        0.0000000000000000     
  0.53125000000000000       0.15625000000000000        0.0000000000000000     
  0.56250000000000000       0.15625000000000000        0.0000000000000000     
  0.59375000000000000       0.15625000000000000        0.0000000000000000     
  0.62500000000000000       0.15625000000000000        0.0000000000000000     
  0.50000000000000000       0.18750000000000000        0.0000000000000000     
  0.53125000000000000       0.18750000000000000        0.0000000000000000     
  0.56250000000000000       0.18750000000000000        0.0000000000000000     
  0.59375000000000000       0.18750000000000000        0.0000000000000000     
  0.62500000000000000       0.18750000000000000        0.0000000000000000     
  0.50000000000000000       0.21875000000000000        0.0000000000000000     
  0.53125000000000000       0.21875000000000000        0.0000000000000000     
  0.56250000000000000       0.21875000000000000        0.0000000000000000     
  0.59375000000000000       0.21875000000000000        0.0000000000000000     
  0.62500000000000000       0.21875000000000000        0.0000000000000000     
  0.50000000000000000       0.25000000000000000        0.0000000000000000     
  0.53125000000000000       0.25000000000000000        0.0000000000000000     
  0.56250000000000000       0.25000000000000000        0.0000000000000000     
  0.59375000000000000       0.25000000000000000        0.0000000000000000     
  0.62500000000000000       0.25000000000000000        0.0000000000000000     
  0.62500000000000000       0.12500000000000000        0.0000000000000000     
  0.65625000000000000       0.12500000000000000        0.0000000000000000     
  0.68750000000000000       0.12500000000000000        0.0000000000000000     
  0.71875000000000000       0.12500000000000000        0.0000000000000000     
  0.75000000000000000       0.12500000000000000        0.0000000000000000     
  0.62500000000000000       0.15625000000000000        0.0000000000000000     
  0.65625000000000000       0.15625000000000000        0.0000000000000000     
  0.68750000000000000       0.15625000000000000        0.0000000000000000     
  0.71875000000000000       0.15625000000000000        0.0000000000000000     
  0.75000000000000000       0.15625000000000000        0.0000000000000000     
  0.62500000000000000       0.18750000000000000        0.0000000000000000     
  0.65625000000000000       0.18750000000000000        0.0000000000000000     
  0.68750000000000000       0.18750000000000000        0.0000000000000000     
  0.71875000000000000       0.18750000000000000        0.0000000000000000     
  0.75000000000000000       0.18750000000000000        0.0000000000000000     
  0.62500000000000000       0.21875000000000000        0.0000000000000000     
  0.65625000000000000       0.21875000000000000        0.0000000000000000     
  0.68750000000000000       0.21875000000000000        0.0000000000000000     
  0.71875000000000000       0.21875000000000000        0.0000000000000000     
  0.75000000000000000       0.21875000000000000        0.0000000000000000     
  0.62500000000000000       0.25000000000000000        0.0000000000000000     
  0.65625000000000000       0.25000000000000000        0.0000000000000000     
  0.68750000000000000       0.25000000000000000        0.0000000000000000     
  0.71875000000000000       0.25000000000000000        0.0000000000000000     
  0.75000000000000000       0.25000000000000000        0.0000000000000000     
  0.75000000000000000       0.12500000000000000        0.0000000000000000     
  0.78125000000000000       0.12500000000000000        0.0000000000000000     
  0.81250000000000000       0.12500000000000000        0.0000000000000000     
  0.84375000000000000       0.12500000000000000        0.0000000000000000     
  0.87500000000000000       0.12500000000000000        0.0000000000000000     
  0.75000000000000000       0.15625000000000000        0.0000000000000000     
  0.78125000000000000       0.15625000000000000        0.0000000000000000     
  0.81250000000000000       0.15625000000000000        0.0000000000000000     
  0.84375000000000000       0.15625000000000000        0.0000000000000000     
  0.87500000000000000       0.15625000000000000        0.0000000000000000     
  0.75000000000000000       0.18750000000000000        0.0000000000000000     
  0.78125000000000000       0.18750000000000000        0.0000000000000000     
  0.81250000000000000       0.18750000000000000        0.0000000000000000     
  0.84375000000000000       0.18750000000000000        0.0000000000000000     
  0.87500000000000000       0.18750000000000000        0.0000000000000000     
  0.75000000000000000       0.21875000000000000        0.0000000000000000     
  0.78125000000000000       0.21875000000000000        0.0000000000000000     
  0.81250000000000000       0.21875000000000000        0.0000000000000000     
  0.84375000000000000       0.21875000000000000        0.0000000000000000     
  0.87500000000000000       0.21875000000000000        0.0000000000000000     
  0.75000000000000000       0.25000000000000000        0.0000000000000000     
  0.78125000000000000       0.25000000000000000        0.0000000000000000     
  0.81250000000000000       0.25000000000000000        0.0000000000000000     
  0.84375000000000000       0.25000000000000000        0.0000000000000000     
  0.87500000000000000       0.25000000000000000        0.0000000000000000     
  0.87500000000000000       0.12500000000000000        0.0000000000000000     
  0.90625000000000000       0.12500000000000000        0.0000000000000000     
  0.93750000000000000       0.12500000000000000        0.0000000000000000     
  0.96875000000000000       0.12500000000000000        0.0000000000000000     
   1.0000000000000000       0.12500000000000000        0.0000000000000000     
  0.87500000000000000       0.15625000000000000        0.0000000000000000     
  0.90625000000000000       0.15625000000000000        0.0000000000000000     
  0.93750000000000000       0.15625000000000000        0.0000000000000000     
  0.96875000000000000       0.15625000000000000        0.0000000000000000     
   1.0000000000000000       0.15625000000000000        0.0000000000000000     
  0.87500000000000000       0.18750000000000000        0.0000000000000000     
  0.90625000000000000       0.18750000000000000        0.0000000000000000     
  0.93750000000000000       0.18750000000000000        0.0000000000000000     
  0.96875000000000000       0.18750000000000000        0.0000000000000000     
   1.0000000000000000       0.18750000000000000        0.0000000000000000     
  0.87500000000000000       0.21875000000000000        0.0000000000000000     
  0.90625000000000000       0.21875000000000000        0.0000000000000000     
  0.93750000000000000       0.21875000000000000        0.0000000000000000     
  0.96875000000000000       0.21875000000000000        0.0000000000000000     
   1.0000000000000000       0.21875000000000000        0.0000000000000000     
  0.87500000000000000       0.25000000000000000        0.0000000000000000     
  0.90625000000000000       0.25000000000000000        0.0000000000000000     
  0.93750000000000000       0.25000000000000000        0.0000000000000000     
  0.96875000000000000       0.25000000000000000        0.0000000000000000     
   1.0000000000000000       0.25000000000000000        0.0000000000000000     
   1.0000000000000000       0.12500000000000000        0.0000000000000000     
   1.0312500000000000       0.12500000000000000        0.0000000000000000     
   1.0625000000000000       0.12500000000000000        0.0000000000000000     
   1.0937500000000000       0.12500000000000000        0.0000000000000000     
   1.1250000000000000       0.12500000000000000        0.0000000000000000     
   1.0000000000000000       0.15625000000000000        0.0000000000000000     
   1.0312500000000000       0.15625000000000000        0.0000000000000000     
   1.0625000000000000       0.15625000000000000        0.0000000000000000     
   1.0937500000000000       0.15625000000000000        0.0000000000000000     
   1.1250000000000000       0.15625000000000000        0.0000000000000000     
   1.0000000000000000       0.18750000000000000        0.0000000000000000     
   1.0312500000000000       0.18750000000000000        0.0000000000000000     
   1.0625000000000000       0.18750000000000000        0.0000000000000000     
   1.0937500000000000       0.18750000000000000        0.0000000000000000     
   1.1250000000000000       0.18750000000000000        0.0000000000000000     
   1.0000000000000000       0.21875000000000000        0.0000000000000000     
   1.0312500000000000       0.21875000000000000        0.0000000000000000     
   1.0625000000000000       0.21875000000000000        0.0000000000000000     
   1.0937500000000000       0.21875000000000000        0.0000000000000000     
   1.1250000000000000       0.21875000000000000        0.0000000000000000     
   1.0000000000000000       0.25000000000000000        0.0000000000000000     
   1.0312500000000000       0.25000000000000000        0.0000000000000000     
   1.0625000000000000       0.25000000000000000        0.0000000000000000     
   1.0937500000000000       0.25000000000000000        0.0000000000000000     
   1.1250000000000000       0.25000000000000000        0.0000000000000000     
   1.1250000000000000       0.12500000000000000        0.0000000000000000     
   1.1562500000000000       0.12500000000000000        0.0000000000000000     
   1.1875000000000000       0.12500000000000000        0.0000000000000000     
   1.2187500000000000       0.12500000000000000        0.0000000000000000     
   1.2500000000000000       0.12500000000000000        0.0000000000000000     
   1.1250000000000000       0.15625000000000000        0.0000000000000000     
   1.1562500000000000       0.15625000000000000        0.0000000000000000     
   1.1875000000000000       0.15625000000000000        0.0000000000000000     
   1.2187500000000000       0.15625000000000000        0.0000000000000000     
   1.2500000000000000       0.15625000000000000        0.0000000000000000     
   1.1250000000000000       0.18750000000000000        0.0000000000000000     
   1.1562500000000000       0.18750000000000000        0.0000000000000000     
   1.1875000000000000       0.18750000000000000        0.0000000000000000     
   1.2187500000000000       0.18750000000000000        0.0000000000000000     
   1.2500000000000000       0.18750000000000000        0.0000000000000000     
   1.1250000000000000       0.21875000000000000        0.0000000000000000     
   1.1562500000000000       0.21875000000000000        0.0000000000000000     
   1.1875000000000000       0.21875000000000000        0.0000000000000000     
   1.2187500000000000       0.21875000000000000        0.0000000000000000     
   1.2500000000000000       0.21875000000000000        0.0000000000000000     
   1.1250000000000000       0.25000000000000000        0.0000000000000000     
   1.1562500000000000       0.25000000000000000        0.0000000000000000     
   1.1875000000000000       0.25000000000000000        0.0000000000000000     
   1.2187500000000000       0.25000000000000000        0.0000000000000000     
   1.2500000000000000       0.25000000000000000        0.0000000000000000     
   1.2500000000000000       0.12500000000000000        0.0000000000000000     
   1.2812500000000000       0.12500000000000000        0.0000000000000000     
   1.3125000000000000       0.12500000000000000        0.0000000000000000     
   1.3437500000000000       0.12500000000000000        0.0000000000000000     
   1.3750000000000000       0.12500000000000000        0.0000000000000000     
   1.2500000000000000       0.15625000000000000        0.0000000000000000     
   1.2812500000000000       0.15625000000000000        0.0000000000000000     
   1.3125000000000000       0.15625000000000000        0.0000000000000000     
   1.3437500000000000       0.15625000000000000        0.0000000000000000     
   1.3750000000000000       0.15625000000000000        0.0000000000000000     
   1.2500000000000000       0.18750000000000000        0.0000000000000000     
   1.2812500000000000       0.18750000000000000        0.0000000000000000     
   1.3125000000000000       0.18750000000000000        0.0000000000000000     
   1.3437500000000000       0.18750000000000000        0.0000000000000000     
   1.3750000000000000       0.18750000000000000        0.0000000000000000     
   1.2500000000000000       0.21875000000000000        0.0000000000000000     
   1.2812500000000000       0.21875000000000000        0.0000000000000000     
   1.3125000000000000       0.21875000000000000        0.0000000000000000     
   1.3437500000000000       0.21875000000000000        0.0000000000000000     
   1.3750000000000000       0.21875000000000000        0.0000000000000000     
   1.2500000000000000       0.25000000000000000        0.0000000000000000     
   1.2812500000000000       0.25000000000000000        0.0000000000000000     
   1.3125000000000000       0.25000000000000000        0.0000000000000000     
   1.3437500000000000       0.25000000000000000        0.0000000000000000     
   1.3750000000000000       0.25000000000000000        0.0000000000000000     
   1.3750000000000000       0.12500000000000000        0.0000000000000000     
   1.4062500000000000       0.12500000000000000        0.0000000000000000     
   1.4375000000000000       0.12500000000000000        0.0000000000000000     
   1.4687500000000000       0.12500000000000000        0.0000000000000000     
   1.5000000000000000       0.12500000000000000        0.0000000000000000     
   1.3750000000000000       0.15625000000000000        0.0000000000000000     
   1.4062500000000000       0.15625000000000000        0.0000000000000000     
   1.4375000000000000       0.15625000000000000        0.0000000000000000     
   1.4687500000000000       0.15625000000000000        0.0000000000000000     
   1.5000000000000000       0.15625000000000000        0.0000000000000000     
   1.3750000000000000       0.18750000000000000        0.0000000000000000     
   1.4062500000000000       0.18750000000000000        0.0000000000000000     
   1.4375000000000000       0.18750000000000000        0.0000000000000000     
   1.4687500000000000       0.18750000000000000        0.0000000000000000     
   1.5000000000000000       0.18750000000000000        0.0000000000000000     
   1.3750000000000000       0.21875000000000000        0.0000000000000000     
   1.4062500000000000       0.21875000000000000        0.0000000000000000     
   1.4375000000000000       0.21875000000000000        0.0000000000000000     
   1.4687500000000000       0.21875000000000000        0.0000000000000000     
   1.5000000000000000       0.21875000000000000        0.0000000000000000     
   1.3750000000000000       0.25000000000000000        0.0000000000000000     
   1.4062500000000000       0.25000000000000000        0.0000000000000000     
   1.4375000000000000       0.25000000000000000        0.0000000000000000     
   1.4687500000000000       0.25000000000000000        0.0000000000000000     
   1.5000000000000000       0.25000000000000000        0.0000000000000000     
  0.50000000000000000       0.25000000000000000        0.0000000000000000     
  0.53125000000000000       0.25000000000000000        0.0000000000000000     
  0.56250000000000000       0.25000000000000000        0.0000000000000000     
  0.59375000000000000       0.25000000000000000        0.0000000000000000     
  0.62500000000000000       0.25000000000000000        0.0000000000000000     
  0.50000000000000000       0.28125000000000000        0.0000000000000000     
  0.53125000000000000       0.28125000000000000        0.0000000000000000     
  0.56250000000000000       0.28125000000000000        0.0000000000000000     
  0.59375000000000000       0.28125000000000000        0.0000000000000000     
  0.62500000000000000       0.28125000000000000        0.0000000000000000     
  0.50000000000000000       0.31250000000000000        0.0000000000000000     
  0.53125000000000000       0.31250000000000000        0.0000000000000000     
  0.56250000000000000       0.31250000000000000        0.0000000000000000     
  0.59375000000000000       0.31250000000000000        0.0000000000000000     
  0.62500000000000000       0.31250000000000000        0.0000000000000000     
  0.50000000000000000       0.34375000000000000        0.0000000000000000     
  0.53125000000000000       0.34375000000000000        0.0000000000000000     
  0.56250000000000000       0.34375000000000000        0.0000000000000000     
  0.59375000000000000       0.34375000000000000        0.0000000000000000     
  0.62500000000000000       0.34375000000000000        0.0000000000000000     
  0.50000000000000000       0.37500000000000000        0.0000000000000000     
  0.53125000000000000       0.37500000000000000        0.0000000000000000     
  0.56250000000000000       0.37500000000000000        0.0000000000000000     
  0.59375000000000000       0.37500000000000000        0.0000000000000000     
  0.62500000000000000       0.37500000000000000        0.0000000000000000     
  0.62500000000000000       0.25000000000000000        0.0000000000000000     
  0.65625000000000000       0.25000000000000000        0.0000000000000000     
  0.68750000000000000       0.25000000000000000        0.0000000000000000     
  0.71875000000000000       0.25000000000000000        0.0000000000000000     
  0.75000000000000000       0.25000000000000000        0.0000000000000000     
  0.62500000000000000       0.28125000000000000        0.0000000000000000     
  0.65625000000000000       0.28125000000000000        0.0000000000000000     
  0.68750000000000000       0.28125000000000000        0.0000000000000000     
  0.71875000000000000       0.28125000000000000        0.0000000000000000     
  0.75000000000000000       0.28125000000000000        0.0000000000000000     
  0.62500000000000000       0.31250000000000000        0.0000000000000000     
  0.65625000000000000       0.31250000000000000        0.0000000000000000     
  0.68750000000000000       0.31250000000000000        0.0000000000000000     
  0.71875000000000000       0.31250000000000000        0.0000000000000000     
  0.75000000000000000       0.31250000000000000        0.0000000000000000     
  0.62500000000000000       0.34375000000000000        0.0000000000000000     
  0.65625000000000000       0.34375000000000000        0.0000000000000000     
  0.68750000000000000       0.34375000000000000        0.0000000000000000     
  0.71875000000000000       0.34375000000000000        0.0000000000000000     
  0.75000000000000000       0.34375000000000000        0.0000000000000000     
  0.62500000000000000       0.37500000000000000        0.0000000000000000     
  0.65625000000000000       0.37500000000000000        0.0000000000000000     
  0.68750000000000000       0.37500000000000000        0.0000000000000000     
  0.71875000000000000       0.37500000000000000        0.0000000000000000     
  0.75000000000000000       0.37500000000000000        0.0000000000000000     
  0.75000000000000000       0.25000000000000000        0.0000000000000000     
  0.78125000000000000       0.25000000000000000        0.0000000000000000     
  0.81250000000000000       0.25000000000000000        0.0000000000000000     
  0.84375000000000000       0.25000000000000000        0.0000000000000000     
  0.87500000000000000       0.25000000000000000        0.0000000000000000     
  0.75000000000000000       0.28125000000000000        0.0000000000000000     
  0.78125000000000000       0.28125000000000000        0.0000000000000000     
  0.81250000000000000       0.28125000000000000        0.0000000000000000     
  0.84375000000000000       0.28125000000000000        0.0000000000000000     
  0.87500000000000000       0.28125000000000000        0.0000000000000000     
  0.75000000000000000       0.31250000000000000        0.0000000000000000     
  0.78125000000000000       0.31250000000000000        0.0000000000000000     
  0.81250000000000000       0.31250000000000000        0.0000000000000000     
  0.84375000000000000       0.31250000000000000        0.0000000000000000     
  0.87500000000000000       0.31250000000000000        0.0000000000000000     
  0.75000000000000000       0.34375000000000000        0.0000000000000000     
  0.78125000000000000       0.34375000000000000        0.0000000000000000     
  0.81250000000000000       0.34375000000000000        0.0000000000000000     
  0.84375000000000000       0.34375000000000000        0.0000000000000000     
  0.87500000000000000       0.34375000000000000        0.0000000000000000     
  0.75000000000000000       0.37500000000000000        0.0000000000000000     
  0.78125000000000000       0.37500000000000000        0.0000000000000000     
  0.81250000000000000       0.37500000000000000        0.0000000000000000     
  0.84375000000000000       0.37500000000000000        0.0000000000000000     
  0.87500000000000000       0.37500000000000000        0.0000000000000000     
  0.87500000000000000       0.25000000000000000        0.0000000000000000     
  0.90625000000000000       0.25000000000000000        0.0000000000000000     
  0.93750000000000000       0.25000000000000000        0.0000000000000000     
  0.96875000000000000       0.25000000000000000        0.0000000000000000     
   1.0000000000000000       0.25000000000000000        0.0000000000000000     
  0.87500000000000000       0.28125000000000000        0.0000000000000000     
  0.90625000000000000       0.28125000000000000        0.0000000000000000     
  0.93750000000000000       0.28125000000000000        0.0000000000000000     
  0.96875000000000000       0.28125000000000000        0.0000000000000000     
   1.0000000000000000       0.28125000000000000        0.0000000000000000     
  0.87500000000000000       0.31250000000000000        0.0000000000000000     
  0.90625000000000000       0.31250000000000000        0.0000000000000000     
  0.93750000000000000       0.31250000000000000        0.0000000000000000     
  0.96875000000000000       0.31250000000000000        0.0000000000000000     
   1.0000000000000000       0.31250000000000000        0.0000000000000000     
  0.87500000000000000       0.34375000000000000        0.0000000000000000     
  0.90625000000000000       0.34375000000000000        0.0000000000000000     
  0.93750000000000000       0.34375000000000000        0.0000000000000000     
  0.96875000000000000       0.34375000000000000        0.0000000000000000     
   1.0000000000000000       0.34375000000000000        0.0000000000000000     
  0.87500000000000000       0.37500000000000000        0.0000000000000000     
  0.90625000000000000       0.37500000000000000        0.0000000000000000     
  0.93750000000000000       0.37500000000000000        0.0000000000000000     
  0.96875000000000000       0.37500000000000000        0.0000000000000000     
   1.0000000000000000       0.37500000000000000        0.0000000000000000     
   1.0000000000000000       0.25000000000000000        0.0000000000000000     
   1.0312500000000000       0.25000000000000000        0.0000000000000000     
   1.0625000000000000       0.25000000000000000        0.0000000000000000     
   1.0937500000000000       0.25000000000000000        0.0000000000000000     
   1.1250000000000000       0.25000000000000000        0.0000000000000000     
   1.0000000000000000       0.28125000000000000        0.0000000000000000     
   1.0312500000000000       0.28125000000000000        0.0000000000000000     
   1.0625000000000000       0.28125000000000000        0.0000000000000000     
   1.0937500000000000       0.28125000000000000        0.0000000000000000     
   1.1250000000000000       0.28125000000000000        0.0000000000000000     
   1.0000000000000000       0.31250000000000000        0.0000000000000000     
   1.0312500000000000       0.31250000000000000        0.0000000000000000     
   1.0625000000000000       0.31250000000000000        0.0000000000000000     
   1.0937500000000000       0.31250000000000000        0.0000000000000000     
   1.1250000000000000       0.31250000000000000        0.0000000000000000     
   1.0000000000000000       0.34375000000000000        0.0000000000000000     
   1.0312500000000000       0.34375000000000000        0.0000000000000000     
   1.0625000000000000       0.34375000000000000        0.0000000000000000     
   1.0937500000000000       0.34375000000000000        0.0000000000000000     
   1.1250000000000000       0.34375000000000000        0.0000000000000000     
   1.0000000000000000       0.37500000000000000        0.0000000000000000     
   1.0312500000000000       0.37500000000000000        0.0000000000000000     
   1.0625000000000000       0.37500000000000000        0.0000000000000000     
   1.0937500000000000       0.37500000000000000        0.0000000000000000     
   1.1250000000000000       0.37500000000000000        0.0000000000000000     
   1.1250000000000000       0.25000000000000000        0.0000000000000000     
   1.1562500000000000       0.25000000000000000        0.0000000000000000     
   1.1875000000000000       0.25000000000000000        0.0000000000000000     
   1.2187500000000000       0.25000000000000000        0.0000000000000000     
   1.2500000000000000       0.25000000000000000        0.0000000000000000     
   1.1250000000000000       0.28125000000000000        0.0000000000000000     
   1.1562500000000000       0.28125000000000000        0.0000000000000000     
   1.1875000000000000       0.28125000000000000        0.0000000000000000     
   1.2187500000000000       0.28125000000000000        0.0000000000000000     
   1.2500000000000000       0.28125000000000000        0.0000000000000000     
   1.1250000000000000       0.31250000000000000        0.0000000000000000     
   1.1562500000000000       0.31250000000000000        0.0000000000000000     
   1.1875000000000000       0.31250000000000000        0.0000000000000000     
   1.2187500000000000       0.31250000000000000        0.0000000000000000     
   1.2500000000000000       0.31250000000000000        0.0000000000000000     
   1.1250000000000000       0.34375000000000000        0.0000000000000000     
   1.1562500000000000       0.34375000000000000        0.0000000000000000     
   1.1875000000000000       0.34375000000000000        0.0000000000000000     
   1.2187500000000000       0.34375000000000000        0.0000000000000000     
   1.2500000000000000       0.34375000000000000        0.0000000000000000     
   1.1250000000000000       0.37500000000000000        0.0000000000000000     
   1.1562500000000000       0.37500000000000000        0.0000000000000000     
   1.1875000000000000       0.37500000000000000        0.0000000000000000     
   1.2187500000000000       0.37500000000000000        0.0000000000000000     
   1.2500000000000000       0.37500000000000000        0.0000000000000000     
   1.2500000000000000       0.25000000000000000        0.0000000000000000     
   1.2812500000000000       0.25000000000000000        0.0000000000000000     
   1.3125000000000000       0.25000000000000000        0.0000000000000000     
   1.3437500000000000       0.25000000000000000        0.0000000000000000     
   1.3750000000000000       0.25000000000000000        0.0000000000000000     
   1.2500000000000000       0.28125000000000000        0.0000000000000000     
   1.2812500000000000       0.28125000000000000        0.0000000000000000     
   1.3125000000000000       0.28125000000000000        0.0000000000000000     
   1.3437500000000000       0.28125000000000000        0.0000000000000000     
   1.3750000000000000       0.28125000000000000        0.0000000000000000     
   1.2500000000000000       0.31250000000000000        0.0000000000000000     
   1.2812500000000000       0.31250000000000000        0.0000000000000000     
   1.3125000000000000       0.31250000000000000        0.0000000000000000     
   1.3437500000000000       0.31250000000000000        0.0000000000000000     
   1.3750000000000000       0.31250000000000000        0.0000000000000000     
   1.2500000000000000       0.34375000000000000        0.0000000000000000     
   1.2812500000000000       0.34375000000000000        0.0000000000000000     
   1.3125000000000000       0.34375000000000000        0.0000000000000000     
   1.3437500000000000       0.34375000000000000        0.0000000000000000     
   1.3750000000000000       0.34375000000000000        0.0000000000000000     
   1.2500000000000000       0.37500000000000000        0.0000000000000000     
   1.2812500000000000       0.37500000000000000        0.0000000000000000     
   1.3125000000000000       0.37500000000000000        0.0000000000000000     
   1.3437500000000000       0.37500000000000000        0.0000000000000000     
   1.3750000000000000       0.37500000000000000        0.0000000000000000     
   1.3750000000000000       0.25000000000000000        0.0000000000000000     
   1.4062500000000000       0.25000000000000000        0.0000000000000000     
   1.4375000000000000       0.25000000000000000        0.0000000000000000     
   1.4687500000000000       0.25000000000000000        0.0000000000000000     
   1.5000000000000000       0.25000000000000000        0.0000000000000000     
   1.3750000000000000       0.28125000000000000        0.0000000000000000     
   1.4062500000000000       0.28125000000000000        0.0000000000000000     
   1.4375000000000000       0.28125000000000000        0.0000000000000000     
   1.4687500000000000       0.28125000000000000        0.0000000000000000     
   1.5000000000000000       0.28125000000000000        0.0000000000000000     
   1.3750000000000000       0.31250000000000000        0.0000000000000000     
   1.4062500000000000       0.31250000000000000        0.0000000000000000     
   1.4375000000000000       0.31250000000000000        0.0000000000000000     
   1.4687500000000000       0.31250000000000000        0.0000000000000000     
   1.5000000000000000       0.31250000000000000        0.0000000000000000     
   1.3750000000000000       0.34375000000000000        0.0000000000000000     
   1.4062500000000000       0.34375000000000000        0.0000000000000000     
   1.4375000000000000       0.34375000000000000        0.0000000000000000     
   1.4687500000000000       0.34375000000000000        0.0000000000000000     
   1.5000000000000000       0.34375000000000000        0.0000000000000000     
   1.3750000000000000       0.37500000000000000        0.0000000000000000     
   1.4062500000000000       0.37500000000000000        0.0000000000000000     
   1.4375000000000000       0.37500000000000000        0.0000000000000000     
   1.4687500000000000       0.37500000000000000        0.0000000000000000     
   1.5000000000000000       0.37500000000000000        0.0000000000000000     
  0.50000000000000000       0.37500000000000000        0.0000000000000000     
  0.53125000000000000       0.37500000000000000        0.0000000000000000     
  0.56250000000000000       0.37500000000000000        0.0000000000000000     
  0.59375000000000000       0.37500000000000000        0.0000000000000000     
  0.62500000000000000       0.37500000000000000        0.0000000000000000     
  0.50000000000000000       0.40625000000000000        0.0000000000000000     
  0.53125000000000000       0.40625000000000000        0.0000000000000000     
  0.56250000000000000       0.40625000000000000        0.0000000000000000     
  0.59375000000000000       0.40625000000000000        0.0000000000000000     
  0.62500000000000000       0.40625000000000000        0.0000000000000000     
  0.50000000000000000       0.43750000000000000        0.0000000000000000     
  0.53125000000000000       0.43750000000000000        0.0000000000000000     
  0.56250000000000000       0.43750000000000000        0.0000000000000000     
  0.59375000000000000       0.43750000000000000        0.0000000000000000     
  0.62500000000000000       0.43750000000000000        0.0000000000000000     
  0.50000000000000000       0.46875000000000000        0.0000000000000000     
  0.53125000000000000       0.46875000000000000        0.0000000000000000     
  0.56250000000000000       0.46875000000000000        0.0000000000000000     
  0.59375000000000000       0.46875000000000000        0.0000000000000000     
  0.62500000000000000       0.46875000000000000        0.0000000000000000     
  0.50000000000000000       0.50000000000000000        0.0000000000000000     
  0.53125000000000000       0.50000000000000000        0.0000000000000000     
  0.56250000000000000       0.50000000000000000        0.0000000000000000     
  0.59375000000000000       0.50000000000000000        0.0000000000000000     
  0.62500000000000000       0.50000000000000000        0.0000000000000000     
  0.62500000000000000       0.37500000000000000        0.0000000000000000     
  0.65625000000000000       0.37500000000000000        0.0000000000000000     
  0.68750000000000000       0.37500000000000000        0.0000000000000000     
  0.71875000000000000       0.37500000000000000        0.0000000000000000     
  0.75000000000000000       0.37500000000000000        0.0000000000000000     
  0.62500000000000000       0.40625000000000000        0.0000000000000000     
  0.65625000000000000       0.40625000000000000        0.0000000000000000     
  0.68750000000000000       0.40625000000000000        0.0000000000000000     
  0.71875000000000000       0.40625000000000000        0.0000000000000000     
  0.75000000000000000       0.40625000000000000        0.0000000000000000     
  0.62500000000000000       0.43750000000000000        0.0000000000000000     
  0.65625000000000000       0.43750000000000000        0.0000000000000000     
  0.68750000000000000       0.43750000000000000        0.0000000000000000     
  0.71875000000000000       0.43750000000000000        0.0000000000000000     
  0.75000000000000000       0.43750000000000000        0.0000000000000000     
  0.62500000000000000       0.46875000000000000        0.0000000000000000     
  0.65625000000000000       0.46875000000000000        0.0000000000000000     
  0.68750000000000000       0.46875000000000000        0.0000000000000000     
  0.71875000000000000       0.46875000000000000        0.0000000000000000     
  0.75000000000000000       0.46875000000000000        0.0000000000000000     
  0.62500000000000000       0.50000000000000000        0.0000000000000000     
  0.65625000000000000       0.50000000000000000        0.0000000000000000     
  0.68750000000000000       0.50000000000000000        0.0000000000000000     
  0.71875000000000000       0.50000000000000000        0.0000000000000000     
  0.75000000000000000       0.50000000000000000        0.0000000000000000     
  0.75000000000000000       0.37500000000000000        0.0000000000000000     
  0.78125000000000000       0.37500000000000000        0.0000000000000000     
  0.81250000000000000       0.37500000000000000        0.0000000000000000     
  0.84375000000000000       0.37500000000000000        0.0000000000000000     
  0.87500000000000000       0.37500000000000000        0.0000000000000000     
  0.75000000000000000       0.40625000000000000        0.0000000000000000     
  0.78125000000000000       0.40625000000000000        0.0000000000000000     
  0.81250000000000000       0.40625000000000000        0.0000000000000000     
  0.84375000000000000       0.40625000000000000        0.0000000000000000     
  0.87500000000000000       0.40625000000000000        0.0000000000000000     
  0.75000000000000000       0.43750000000000000        0.0000000000000000     
  0.78125000000000000       0.43750000000000000        0.0000000000000000     
  0.81250000000000000       0.43750000000000000        0.0000000000000000     
  0.84375000000000000       0.43750000000000000        0.0000000000000000     
  0.87500000000000000       0.43750000000000000        0.0000000000000000     
  0.75000000000000000       0.46875000000000000        0.0000000000000000     
  0.78125000000000000       0.46875000000000000        0.0000000000000000     
  0.81250000000000000       0.46875000000000000        0.0000000000000000     
  0.84375000000000000       0.46875000000000000        0.0000000000000000     
  0.87500000000000000       0.46875000000000000        0.0000000000000000     
  0.75000000000000000       0.50000000000000000        0.0000000000000000     
  0.78125000000000000       0.50000000000000000        0.0000000000000000     
  0.81250000000000000       0.50000000000000000        0.0000000000000000     
  0.84375000000000000       0.50000000000000000        0.0000000000000000     
  0.87500000000000000       0.50000000000000000        0.0000000000000000     
  0.87500000000000000       0.37500000000000000        0.0000000000000000     
  0.90625000000000000       0.37500000000000000        0.0000000000000000     
  0.93750000000000000       0.37500000000000000        0.0000000000000000     
  0.96875000000000000       0.37500000000000000        0.0000000000000000     
   1.0000000000000000       0.37500000000000000        0.0000000000000000     
  0.87500000000000000       0.40625000000000000        0.0000000000000000     
  0.90625000000000000       0.40625000000000000        0.0000000000000000     
  0.93750000000000000       0.40625000000000000        0.0000000000000000     
  0.96875000000000000       0.40625000000000000        0.0000000000000000     
   1.0000000000000000       0.40625000000000000        0.0000000000000000     
  0.87500000000000000       0.43750000000000000        0.0000000000000000     
  0.90625000000000000       0.43750000000000000        0.0000000000000000     
  0.93750000000000000       0.43750000000000000        0.0000000000000000     
  0.96875000000000000       0.43750000000000000        0.0000000000000000     
   1.0000000000000000       0.43750000000000000        0.0000000000000000     
  0.87500000000000000       0.46875000000000000        0.0000000000000000     
  0.90625000000000000       0.46875000000000000        0.0000000000000000     
  0.93750000000000000       0.46875000000000000        0.0000000000000000     
  0.96875000000000000       0.46875000000000000        0.0000000000000000     
   1.0000000000000000       0.46875000000000000        0.0000000000000000     
  0.87500000000000000       0.50000000000000000        0.0000000000000000     
  0.90625000000000000       0.50000000000000000        0.0000000000000000     
  0.93750000000000000       0.50000000000000000        0.0000000000000000     
  0.96875000000000000       0.50000000000000000        0.0000000000000000     
   1.0000000000000000       0.50000000000000000        0.0000000000000000     
   1.0000000000000000       0.37500000000000000        0.0000000000000000     
   1.0312500000000000       0.37500000000000000        0.0000000000000000     
   1.0625000000000000       0.37500000000000000        0.0000000000000000     
   1.0937500000000000       0.37500000000000000        0.0000000000000000     
   1.1250000000000000       0.37500000000000000        0.0000000000000000     
   1.0000000000000000       0.40625000000000000        0.0000000000000000     
   1.0312500000000000       0.40625000000000000        0.0000000000000000     
   1.0625000000000000       0.40625000000000000        0.0000000000000000     
   1.0937500000000000       0.40625000000000000        0.0000000000000000     
   1.1250000000000000       0.40625000000000000        0.0000000000000000     
   1.0000000000000000       0.43750000000000000        0.0000000000000000     
   1.0312500000000000       0.43750000000000000        0.0000000000000000     
   1.0625000000000000       0.43750000000000000        0.0000000000000000     
   1.0937500000000000       0.43750000000000000        0.0000000000000000     
   1.1250000000000000       0.43750000000000000        0.0000000000000000     
   1.0000000000000000       0.46875000000000000        0.0000000000000000     
   1.0312500000000000       0.46875000000000000        0.0000000000000000     
   1.0625000000000000       0.46875000000000000        0.0000000000000000     
   1.0937500000000000       0.46875000000000000        0.0000000000000000     
   1.1250000000000000       0.46875000000000000        0.0000000000000000     
   1.0000000000000000       0.50000000000000000        0.0000000000000000     
   1.0312500000000000       0.50000000000000000        0.0000000000000000     
   1.0625000000000000       0.50000000000000000        0.0000000000000000     
   1.0937500000000000       0.50000000000000000        0.0000000000000000     
   1.1250000000000000       0.50000000000000000        0.0000000000000000     
   1.1250000000000000       0.37500000000000000        0.0000000000000000     
   1.1562500000000000       0.37500000000000000        0.0000000000000000     
   1.1875000000000000       0.37500000000000000        0.0000000000000000     
   1.2187500000000000       0.37500000000000000        0.0000000000000000     
   1.2500000000000000       0.37500000000000000        0.0000000000000000     
   1.1250000000000000       0.40625000000000000        0.0000000000000000     
   1.1562500000000000       0.40625000000000000        0.0000000000000000     
   1.1875000000000000       0.40625000000000000        0.0000000000000000     
   1.2187500000000000       0.40625000000000000        0.0000000000000000     
   1.2500000000000000       0.40625000000000000        0.0000000000000000     
   1.1250000000000000       0.43750000000000000        0.0000000000000000     
   1.1562500000000000       0.43750000000000000        0.0000000000000000     
   1.1875000000000000       0.43750000000000000        0.0000000000000000     
   1.2187500000000000       0.43750000000000000        0.0000000000000000     
   1.2500000000000000       0.43750000000000000        0.0000000000000000     
   1.1250000000000000       0.46875000000000000        0.0000000000000000     
   1.1562500000000000       0.46875000000000000        0.0000000000000000     
   1.1875000000000000       0.46875000000000000        0.0000000000000000     
   1.2187500000000000       0.46875000000000000        0.0000000000000000     
   1.2500000000000000       0.46875000000000000        0.0000000000000000     
   1.1250000000000000       0.50000000000000000        0.0000000000000000     
   1.1562500000000000       0.50000000000000000        0.0000000000000000     
   1.1875000000000000       0.50000000000000000        0.0000000000000000     
   1.2187500000000000       0.50000000000000000        0.0000000000000000     
   1.2500000000000000       0.50000000000000000        0.0000000000000000     
   1.2500000000000000       0.37500000000000000        0.0000000000000000     
   1.2812500000000000       0.37500000000000000        0.0000000000000000     
   1.3125000000000000       0.37500000000000000        0.0000000000000000     
   1.3437500000000000       0.37500000000000000        0.0000000000000000     
   1.3750000000000000       0.37500000000000000        0.0000000000000000     
   1.2500000000000000       0.40625000000000000        0.0000000000000000     
   1.2812500000000000       0.40625000000000000        0.0000000000000000     
   1.3125000000000000       0.40625000000000000        0.0000000000000000     
   1.3437500000000000       0.40625000000000000        0.0000000000000000     
   1.3750000000000000       0.40625000000000000        0.0000000000000000     
   1.2500000000000000       0.43750000000000000        0.0000000000000000     
   1.2812500000000000       0.43750000000000000        0.0000000000000000     
   1.3125000000000000       0.43750000000000000        0.0000000000000000     
   1.3437500000000000       0.43750000000000000        0.0000000000000000     
   1.3750000000000000       0.43750000000000000        0.0000000000000000     
   1.2500000000000000       0.46875000000000000        0.0000000000000000     
   1.2812500000000000       0.46875000000000000        0.0000000000000000     
   1.3125000000000000       0.46875000000000000        0.0000000000000000     
   1.3437500000000000       0.46875000000000000        0.0000000000000000     
   1.3750000000000000       0.46875000000000000        0.0000000000000000     
   1.2500000000000000       0.50000000000000000        0.0000000000000000     
   1.2812500000000000       0.50000000000000000        0.0000000000000000     
   1.3125000000000000       0.50000000000000000        0.0000000000000000     
   1.3437500000000000       0.50000000000000000        0.0000000000000000     
   1.3750000000000000       0.50000000000000000        0.0000000000000000     
   1.3750000000000000       0.37500000000000000        0.0000000000000000     
   1.4062500000000000       0.37500000000000000        0.0000000000000000     
   1.4375000000000000       0.37500000000000000        0.0000000000000000     
   1.4687500000000000       0.37500000000000000        0.0000000000000000     
   1.5000000000000000       0.37500000000000000        0.0000000000000000     
   1.3750000000000000       0.40625000000000000        0.0000000000000000     
   1.4062500000000000       0.40625000000000000        0.0000000000000000     
   1.4375000000000000       0.40625000000000000        0.0000000000000000     
   1.4687500000000000       0.40625000000000000        0.0000000000000000     
   1.5000000000000000       0.40625000000000000        0.0000000000000000     
   1.3750000000000000       0.43750000000000000        0.0000000000000000     
   1.4062500000000000       0.43750000000000000        0.0000000000000000     
   1.4375000000000000       0.43750000000000000        0.0000000000000000     
   1.4687500000000000       0.43750000000000000        0.0000000000000000     
   1.5000000000000000       0.43750000000000000        0.0000000000000000     
   1.3750000000000000       0.46875000000000000        0.0000000000000000     
   1.4062500000000000       0.46875000000000000        0.0000000000000000     
   1.4375000000000000       0.46875000000000000        0.0000000000000000     
   1.4687500000000000       0.46875000000000000        0.0000000000000000     
   1.5000000000000000       0.46875000000000000        0.0000000000000000     
   1.3750000000000000       0.50000000000000000        0.0000000000000000     
   1.4062500000000000       0.50000000000000000        0.0000000000000000     
   1.4375000000000000       0.50000000000000000        0.0000000000000000     
   1.4687500000000000       0.50000000000000000        0.0000000000000000     
   1.5000000000000000       0.50000000000000000        0.0000000000000000     
  0.50000000000000000       0.50000000000000000        0.0000000000000000     
  0.53125000000000000       0.50000000000000000        0.0000000000000000     
  0.56250000000000000       0.50000000000000000        0.0000000000000000     
  0.59375000000000000       0.50000000000000000        0.0000000000000000     
  0.62500000000000000       0.50000000000000000        0.0000000000000000     
  0.50000000000000000       0.53125000000000000        0.0000000000000000     
  0.53125000000000000       0.53125000000000000        0.0000000000000000     
  0.56250000000000000       0.53125000000000000        0.0000000000000000     
  0.59375000000000000       0.53125000000000000        0.0000000000000000     
  0.62500000000000000       0.53125000000000000        0.0000000000000000     
  0.50000000000000000       0.56250000000000000        0.0000000000000000     
  0.53125000000000000       0.56250000000000000        0.0000000000000000     
  0.56250000000000000       0.56250000000000000        0.0000000000000000     
  0.59375000000000000       0.56250000000000000        0.0000000000000000     
  0.62500000000000000       0.56250000000000000        0.0000000000000000     
  0.50000000000000000       0.59375000000000000        0.0000000000000000     
  0.53125000000000000       0.59375000000000000        0.0000000000000000     
  0.56250000000000000       0.59375000000000000        0.0000000000000000     
  0.59375000000000000       0.59375000000000000        0.0000000000000000     
  0.62500000000000000       0.59375000000000000        0.0000000000000000     
  0.50000000000000000       0.62500000000000000        0.0000000000000000     
  0.53125000000000000       0.62500000000000000        0.0000000000000000     
  0.56250000000000000       0.62500000000000000        0.0000000000000000     
  0.59375000000000000       0.62500000000000000        0.0000000000000000     
  0.62500000000000000       0.62500000000000000        0.0000000000000000     
  0.62500000000000000       0.50000000000000000        0.0000000000000000     
  0.65625000000000000       0.50000000000000000        0.0000000000000000     
  0.68750000000000000       0.50000000000000000        0.0000000000000000     
  0.71875000000000000       0.50000000000000000        0.0000000000000000     
  0.75000000000000000       0.50000000000000000        0.0000000000000000     
  0.62500000000000000       0.53125000000000000        0.0000000000000000     
  0.65625000000000000       0.53125000000000000        0.0000000000000000     
  0.68750000000000000       0.53125000000000000        0.0000000000000000     
  0.71875000000000000       0.53125000000000000        0.0000000000000000     
  0.75000000000000000       0.53125000000000000        0.0000000000000000     
  0.62500000000000000       0.56250000000000000        0.0000000000000000     
  0.65625000000000000       0.56250000000000000        0.0000000000000000     
  0.68750000000000000       0.56250000000000000        0.0000000000000000     
  0.71875000000000000       0.56250000000000000        0.0000000000000000     
  0.75000000000000000       0.56250000000000000        0.0000000000000000     
  0.62500000000000000       0.59375000000000000        0.0000000000000000     
  0.65625000000000000       0.59375000000000000        0.0000000000000000     
  0.68750000000000000       0.59375000000000000        0.0000000000000000     
  0.71875000000000000       0.59375000000000000        0.0000000000000000     
  0.75000000000000000       0.59375000000000000        0.0000000000000000     
  0.62500000000000000       0.62500000000000000        0.0000000000000000     
  0.65625000000000000       0.62500000000000000        0.0000000000000000     
  0.68750000000000000       0.62500000000000000        0.0000000000000000     
  0.71875000000000000       0.62500000000000000        0.0000000000000000     
  0.75000000000000000       0.62500000000000000        0.0000000000000000     
  0.75000000000000000       0.50000000000000000        0.0000000000000000     
  0.78125000000000000       0.50000000000000000        0.0000000000000000     
  0.81250000000000000       0.50000000000000000        0.0000000000000000     
  0.84375000000000000       0.50000000000000000        0.0000000000000000     
  0.87500000000000000       0.50000000000000000        0.0000000000000000     
  0.75000000000000000       0.53125000000000000        0.0000000000000000     
  0.78125000000000000       0.53125000000000000        0.0000000000000000     
  0.81250000000000000       0.53125000000000000        0.0000000000000000     
  0.84375000000000000       0.53125000000000000        0.0000000000000000     
  0.87500000000000000       0.53125000000000000        0.0000000000000000     
  0.75000000000000000       0.56250000000000000        0.0000000000000000     
  0.78125000000000000       0.56250000000000000        0.0000000000000000     
  0.81250000000000000       0.56250000000000000        0.0000000000000000     
  0.84375000000000000       0.56250000000000000        0.0000000000000000     
  0.87500000000000000       0.56250000000000000        0.0000000000000000     
  0.75000000000000000       0.59375000000000000        0.0000000000000000     
  0.78125000000000000       0.59375000000000000        0.0000000000000000     
  0.81250000000000000       0.59375000000000000        0.0000000000000000     
  0.84375000000000000       0.59375000000000000        0.0000000000000000     
  0.87500000000000000       0.59375000000000000        0.0000000000000000     
  0.75000000000000000       0.62500000000000000        0.0000000000000000     
  0.78125000000000000       0.62500000000000000        0.0000000000000000     
  0.81250000000000000       0.62500000000000000        0.0000000000000000     
  0.84375000000000000       0.62500000000000000        0.0000000000000000     
  0.87500000000000000       0.62500000000000000        0.0000000000000000     
  0.87500000000000000       0.50000000000000000        0.0000000000000000     
  0.90625000000000000       0.50000000000000000        0.0000000000000000     
  0.93750000000000000       0.50000000000000000        0.0000000000000000     
  0.96875000000000000       0.50000000000000000        0.0000000000000000     
   1.0000000000000000       0.50000000000000000        0.0000000000000000     
  0.87500000000000000       0.53125000000000000        0.0000000000000000     
  0.90625000000000000       0.53125000000000000        0.0000000000000000     
  0.93750000000000000       0.53125000000000000        0.0000000000000000     
  0.96875000000000000       0.53125000000000000        0.0000000000000000     
   1.0000000000000000       0.53125000000000000        0.0000000000000000     
  0.87500000000000000       0.56250000000000000        0.0000000000000000     
  0.90625000000000000       0.56250000000000000        0.0000000000000000     
  0.93750000000000000       0.56250000000000000        0.0000000000000000     
  0.96875000000000000       0.56250000000000000        0.0000000000000000     
   1.0000000000000000       0.56250000000000000        0.0000000000000000     
  0.87500000000000000       0.59375000000000000        0.0000000000000000     
  0.90625000000000000       0.59375000000000000        0.0000000000000000     
  0.93750000000000000       0.59375000000000000        0.0000000000000000     
  0.96875000000000000       0.59375000000000000        0.0000000000000000     
   1.0000000000000000       0.59375000000000000        0.0000000000000000     
  0.87500000000000000       0.62500000000000000        0.0000000000000000     
  0.90625000000000000       0.62500000000000000        0.0000000000000000     
  0.93750000000000000       0.62500000000000000        0.0000000000000000     
  0.96875000000000000       0.62500000000000000        0.0000000000000000     
   1.0000000000000000       0.62500000000000000        0.0000000000000000     
   1.0000000000000000       0.50000000000000000        0.0000000000000000     
   1.0312500000000000       0.50000000000000000        0.0000000000000000     
   1.0625000000000000       0.50000000000000000        0.0000000000000000     
   1.0937500000000000       0.50000000000000000        0.0000000000000000     
   1.1250000000000000       0.50000000000000000        0.0000000000000000     
   1.0000000000000000       0.53125000000000000        0.0000000000000000     
   1.0312500000000000       0.53125000000000000        0.0000000000000000     
   1.0625000000000000       0.53125000000000000        0.0000000000000000     
   1.0937500000000000       0.53125000000000000        0.0000000000000000     
   1.1250000000000000       0.53125000000000000        0.0000000000000000     
   1.0000000000000000       0.56250000000000000        0.0000000000000000     
   1.0312500000000000       0.56250000000000000        0.0000000000000000     
   1.0625000000000000       0.56250000000000000        0.0000000000000000     
   1.0937500000000000       0.56250000000000000        0.0000000000000000     
   1.1250000000000000       0.56250000000000000        0.0000000000000000     
   1.0000000000000000       0.59375000000000000        0.0000000000000000     
   1.0312500000000000       0.59375000000000000        0.0000000000000000     
   1.0625000000000000       0.59375000000000000        0.0000000000000000     
   1.0937500000000000       0.59375000000000000        0.0000000000000000     
   1.1250000000000000       0.59375000000000000        0.0000000000000000     
   1.0000000000000000       0.62500000000000000        0.0000000000000000     
   1.0312500000000000       0.62500000000000000        0.0000000000000000     
   1.0625000000000000       0.62500000000000000        0.0000000000000000     
   1.0937500000000000       0.62500000000000000        0.0000000000000000     
   1.1250000000000000       0.62500000000000000        0.0000000000000000     
   1.1250000000000000       0.50000000000000000        0.0000000000000000     
   1.1562500000000000       0.50000000000000000        0.0000000000000000     
   1.1875000000000000       0.50000000000000000        0.0000000000000000     
   1.2187500000000000       0.50000000000000000        0.0000000000000000     
   1.2500000000000000       0.50000000000000000        0.0000000000000000     
   1.1250000000000000       0.53125000000000000        0.0000000000000000     
   1.1562500000000000       0.53125000000000000        0.0000000000000000     
   1.1875000000000000       0.53125000000000000        0.0000000000000000     
   1.2187500000000000       0.53125000000000000        0.0000000000000000     
   1.2500000000000000       0.53125000000000000        0.0000000000000000     
   1.1250000000000000       0.56250000000000000        0.0000000000000000     
   1.1562500000000000       0.56250000000000000        0.0000000000000000     
   1.1875000000000000       0.56250000000000000        0.0000000000000000     
   1.2187500000000000       0.56250000000000000        0.0000000000000000     
   1.2500000000000000       0.56250000000000000        0.0000000000000000     
   1.1250000000000000       0.59375000000000000        0.0000000000000000     
   1.1562500000000000       0.59375000000000000        0.0000000000000000     
   1.1875000000000000       0.59375000000000000        0.0000000000000000     
   1.2187500000000000       0.59375000000000000        0.0000000000000000     
   1.2500000000000000       0.59375000000000000        0.0000000000000000     
   1.1250000000000000       0.62500000000000000        0.0000000000000000     
   1.1562500000000000       0.62500000000000000        0.0000000000000000     
   1.1875000000000000       0.62500000000000000        0.0000000000000000     
   1.2187500000000000       0.62500000000000000        0.0000000000000000     
   1.2500000000000000       0.62500000000000000        0.0000000000000000     
   1.2500000000000000       0.50000000000000000        0.0000000000000000     
   1.2812500000000000       0.50000000000000000        0.0000000000000000     
   1.3125000000000000       0.50000000000000000        0.0000000000000000     
   1.3437500000000000       0.50000000000000000        0.0000000000000000     
   1.3750000000000000       0.50000000000000000        0.0000000000000000     
   1.2500000000000000       0.53125000000000000        0.0000000000000000     
   1.2812500000000000       0.53125000000000000        0.0000000000000000     
   1.3125000000000000       0.53125000000000000        0.0000000000000000     
   1.3437500000000000       0.53125000000000000        0.0000000000000000     
   1.3750000000000000       0.53125000000000000        0.0000000000000000     
   1.2500000000000000       0.56250000000000000        0.0000000000000000     
   1.2812500000000000       0.56250000000000000        0.0000000000000000     
   1.3125000000000000       0.56250000000000000        0.0000000000000000     
   1.3437500000000000       0.56250000000000000        0.0000000000000000     
   1.3750000000000000       0.56250000000000000        0.0000000000000000     
   1.2500000000000000       0.59375000000000000        0.0000000000000000     
   1.2812500000000000       0.59375000000000000        0.0000000000000000     
   1.3125000000000000       0.59375000000000000        0.0000000000000000     
   1.3437500000000000       0.59375000000000000        0.0000000000000000     
   1.3750000000000000       0.59375000000000000        0.0000000000000000     
   1.2500000000000000       0.62500000000000000        0.0000000000000000     
   1.2812500000000000       0.62500000000000000        0.0000000000000000     
   1.3125000000000000       0.62500000000000000        0.0000000000000000     
   1.3437500000000000       0.62500000000000000        0.0000000000000000     
   1.3750000000000000       0.62500000000000000        0.0000000000000000     
   1.3750000000000000       0.50000000000000000        0.0000000000000000     
   1.4062500000000000       0.50000000000000000        0.0000000000000000     
   1.4375000000000000       0.50000000000000000        0.0000000000000000     
   1.4687500000000000       0.50000000000000000        0.0000000000000000     
   1.5000000000000000       0.50000000000000000        0.0000000000000000     
   1.3750000000000000       0.53125000000000000        0.0000000000000000     
   1.4062500000000000       0.53125000000000000        0.0000000000000000     
   1.4375000000000000       0.53125000000000000        0.0000000000000000     
   1.4687500000000000       0.53125000000000000        0.0000000000000000     
   1.5000000000000000       0.53125000000000000        0.0000000000000000     
   1.3750000000000000       0.56250000000000000        0.0000000000000000     
   1.4062500000000000       0.56250000000000000        0.0000000000000000     
   1.4375000000000000       0.56250000000000000        0.0000000000000000     
   1.4687500000000000       0.56250000000000000        0.0000000000000000     
   1.5000000000000000       0.56250000000000000        0.0000000000000000     
   1.3750000000000000       0.59375000000000000        0.0000000000000000     
   1.4062500000000000       0.59375000000000000        0.0000000000000000     
   1.4375000000000000       0.59375000000000000        0.0000000000000000     
   1.4687500000000000       0.59375000000000000        0.0000000000000000     
   1.5000000000000000       0.59375000000000000        0.0000000000000000     
   1.3750000000000000       0.62500000000000000        0.0000000000000000     
   1.4062500000000000       0.62500000000000000        0.0000000000000000     
   1.4375000000000000       0.62500000000000000        0.0000000000000000     
   1.4687500000000000       0.62500000000000000        0.0000000000000000     
   1.5000000000000000       0.62500000000000000        0.0000000000000000     
  0.50000000000000000       0.62500000000000000        0.0000000000000000     
  0.53125000000000000       0.62500000000000000        0.0000000000000000     
  0.56250000000000000       0.62500000000000000        0.0000000000000000     
  0.59375000000000000       0.62500000000000000        0.0000000000000000     
  0.62500000000000000       0.62500000000000000        0.0000000000000000     
  0.50000000000000000       0.65625000000000000        0.0000000000000000     
  0.53125000000000000       0.65625000000000000        0.0000000000000000     
  0.56250000000000000       0.65625000000000000        0.0000000000000000     
  0.59375000000000000       0.65625000000000000        0.0000000000000000     
  0.62500000000000000       0.65625000000000000        0.0000000000000000     
  0.50000000000000000       0.68750000000000000        0.0000000000000000     
  0.53125000000000000       0.68750000000000000        0.0000000000000000     
  0.56250000000000000       0.68750000000000000        0.0000000000000000     
  0.59375000000000000       0.68750000000000000        0.0000000000000000     
  0.62500000000000000       0.68750000000000000        0.0000000000000000     
  0.50000000000000000       0.71875000000000000        0.0000000000000000     
  0.53125000000000000       0.71875000000000000        0.0000000000000000     
  0.56250000000000000       0.71875000000000000        0.0000000000000000     
  0.59375000000000000       0.71875000000000000        0.0000000000000000     
  0.62500000000000000       0.71875000000000000        0.0000000000000000     
  0.50000000000000000       0.75000000000000000        0.0000000000000000     
  0.53125000000000000       0.75000000000000000        0.0000000000000000     
  0.56250000000000000       0.75000000000000000        0.0000000000000000     
  0.59375000000000000       0.75000000000000000        0.0000000000000000     
  0.62500000000000000       0.75000000000000000        0.0000000000000000     
  0.62500000000000000       0.62500000000000000        0.0000000000000000     
  0.65625000000000000       0.62500000000000000        0.0000000000000000     
  0.68750000000000000       0.62500000000000000        0.0000000000000000     
  0.71875000000000000       0.62500000000000000        0.0000000000000000     
  0.75000000000000000       0.62500000000000000        0.0000000000000000     
  0.62500000000000000       0.65625000000000000        0.0000000000000000     
  0.65625000000000000       0.65625000000000000        0.0000000000000000     
  0.68750000000000000       0.65625000000000000        0.0000000000000000     
  0.71875000000000000       0.65625000000000000        0.0000000000000000     
  0.75000000000000000       0.65625000000000000        0.0000000000000000     
  0.62500000000000000       0.68750000000000000        0.0000000000000000     
  0.65625000000000000       0.68750000000000000        0.0000000000000000     
  0.68750000000000000       0.68750000000000000        0.0000000000000000     
  0.71875000000000000       0.68750000000000000        0.0000000000000000     
  0.75000000000000000       0.68750000000000000        0.0000000000000000     
  0.62500000000000000       0.71875000000000000        0.0000000000000000     
  0.65625000000000000       0.71875000000000000        0.0000000000000000     
  0.68750000000000000       0.71875000000000000        0.0000000000000000     
  0.71875000000000000       0.71875000000000000        0.0000000000000000     
  0.75000000000000000       0.71875000000000000        0.0000000000000000     
  0.62500000000000000       0.75000000000000000        0.0000000000000000     
  0.65625000000000000       0.75000000000000000        0.0000000000000000     
  0.68750000000000000       0.75000000000000000        0.0000000000000000     
  0.71875000000000000       0.75000000000000000        0.0000000000000000     
  0.75000000000000000       0.75000000000000000        0.0000000000000000     
  0.75000000000000000       0.62500000000000000        0.0000000000000000     
  0.78125000000000000       0.62500000000000000        0.0000000000000000     
  0.81250000000000000       0.62500000000000000        0.0000000000000000     
  0.84375000000000000       0.62500000000000000        0.0000000000000000     
  0.87500000000000000       0.62500000000000000        0.0000000000000000     
  0.75000000000000000       0.65625000000000000        0.0000000000000000     
  0.78125000000000000       0.65625000000000000        0.0000000000000000     
  0.81250000000000000       0.65625000000000000        0.0000000000000000     
  0.84375000000000000       0.65625000000000000        0.0000000000000000     
  0.87500000000000000       0.65625000000000000        0.0000000000000000     
  0.75000000000000000       0.68750000000000000        0.0000000000000000     
  0.78125000000000000       0.68750000000000000        0.0000000000000000     
  0.81250000000000000       0.68750000000000000        0.0000000000000000     
  0.84375000000000000       0.68750000000000000        0.0000000000000000     
  0.87500000000000000       0.68750000000000000        0.0000000000000000     
  0.75000000000000000       0.71875000000000000        0.0000000000000000     
  0.78125000000000000       0.71875000000000000        0.0000000000000000     
  0.81250000000000000       0.71875000000000000        0.0000000000000000     
  0.84375000000000000       0.71875000000000000        0.0000000000000000     
  0.87500000000000000       0.71875000000000000        0.0000000000000000     
  0.75000000000000000       0.75000000000000000        0.0000000000000000     
  0.78125000000000000       0.75000000000000000        0.0000000000000000     
  0.81250000000000000       0.75000000000000000        0.0000000000000000     
  0.84375000000000000       0.75000000000000000        0.0000000000000000     
  0.87500000000000000       0.75000000000000000        0.0000000000000000     
  0.87500000000000000       0.62500000000000000        0.0000000000000000     
  0.90625000000000000       0.62500000000000000        0.0000000000000000     
  0.93750000000000000       0.62500000000000000        0.0000000000000000     
  0.96875000000000000       0.62500000000000000        0.0000000000000000     
   1.0000000000000000       0.62500000000000000        0.0000000000000000     
  0.87500000000000000       0.65625000000000000        0.0000000000000000     
  0.90625000000000000       0.65625000000000000        0.0000000000000000     
  0.93750000000000000       0.65625000000000000        0.0000000000000000     
  0.96875000000000000       0.65625000000000000        0.0000000000000000     
   1.0000000000000000       0.65625000000000000        0.0000000000000000     
  0.87500000000000000       0.68750000000000000        0.0000000000000000     
  0.90625000000000000       0.68750000000000000        0.0000000000000000     
  0.93750000000000000       0.68750000000000000        0.0000000000000000     
  0.96875000000000000       0.68750000000000000        0.0000000000000000     
   1.0000000000000000       0.68750000000000000        0.0000000000000000     
  0.87500000000000000       0.71875000000000000        0.0000000000000000     
  0.90625000000000000       0.71875000000000000        0.0000000000000000     
  0.93750000000000000       0.71875000000000000        0.0000000000000000     
  0.96875000000000000       0.71875000000000000        0.0000000000000000     
   1.0000000000000000       0.71875000000000000        0.0000000000000000     
  0.87500000000000000       0.75000000000000000        0.0000000000000000     
  0.90625000000000000       0.75000000000000000        0.0000000000000000     
  0.93750000000000000       0.75000000000000000        0.0000000000000000     
  0.96875000000000000       0.75000000000000000        0.0000000000000000     
   1.0000000000000000       0.75000000000000000        0.0000000000000000     
   1.0000000000000000       0.62500000000000000        0.0000000000000000     
   1.0312500000000000       0.62500000000000000        0.0000000000000000     
   1.0625000000000000       0.62500000000000000        0.0000000000000000     
   1.0937500000000000       0.62500000000000000        0.0000000000000000     
   1.1250000000000000       0.62500000000000000        0.0000000000000000     
   1.0000000000000000       0.65625000000000000        0.0000000000000000     
   1.0312500000000000       0.65625000000000000        0.0000000000000000     
   1.0625000000000000       0.65625000000000000        0.0000000000000000     
   1.0937500000000000       0.65625000000000000        0.0000000000000000     
   1.1250000000000000       0.65625000000000000        0.0000000000000000     
   1.0000000000000000       0.68750000000000000        0.0000000000000000     
   1.0312500000000000       0.68750000000000000        0.0000000000000000     
   1.0625000000000000       0.68750000000000000        0.0000000000000000     
   1.0937500000000000       0.68750000000000000        0.0000000000000000     
   1.1250000000000000       0.68750000000000000        0.0000000000000000     
   1.0000000000000000       0.71875000000000000        0.0000000000000000     
   1.0312500000000000       0.71875000000000000        0.0000000000000000     
   1.0625000000000000       0.71875000000000000        0.0000000000000000     
   1.0937500000000000       0.71875000000000000        0.0000000000000000     
   1.1250000000000000       0.71875000000000000        0.0000000000000000     
   1.0000000000000000       0.75000000000000000        0.0000000000000000     
   1.0312500000000000       0.75000000000000000        0.0000000000000000     
   1.0625000000000000       0.75000000000000000        0.0000000000000000     
   1.0937500000000000       0.75000000000000000        0.0000000000000000     
   1.1250000000000000       0.75000000000000000        0.0000000000000000     
   1.1250000000000000       0.62500000000000000        0.0000000000000000     
   1.1562500000000000       0.62500000000000000        0.0000000000000000     
   1.1875000000000000       0.62500000000000000        0.0000000000000000     
   1.2187500000000000       0.62500000000000000        0.0000000000000000     
   1.2500000000000000       0.62500000000000000        0.0000000000000000     
   1.1250000000000000       0.65625000000000000        0.0000000000000000     
   1.1562500000000000       0.65625000000000000        0.0000000000000000     
   1.1875000000000000       0.65625000000000000        0.0000000000000000     
   1.2187500000000000       0.65625000000000000        0.0000000000000000     
   1.2500000000000000       0.65625000000000000        0.0000000000000000     
   1.1250000000000000       0.68750000000000000        0.0000000000000000     
   1.1562500000000000       0.68750000000000000        0.0000000000000000     
   1.1875000000000000       0.68750000000000000        0.0000000000000000     
   1.2187500000000000       0.68750000000000000        0.0000000000000000     
   1.2500000000000000       0.68750000000000000        0.0000000000000000     
   1.1250000000000000       0.71875000000000000        0.0000000000000000     
   1.1562500000000000       0.71875000000000000        0.0000000000000000     
   1.1875000000000000       0.71875000000000000        0.0000000000000000     
   1.2187500000000000       0.71875000000000000        0.0000000000000000     
   1.2500000000000000       0.71875000000000000        0.0000000000000000     
   1.1250000000000000       0.75000000000000000        0.0000000000000000     
   1.1562500000000000       0.75000000000000000        0.0000000000000000     
   1.1875000000000000       0.75000000000000000        0.0000000000000000     
   1.2187500000000000       0.75000000000000000        0.0000000000000000     
   1.2500000000000000       0.75000000000000000        0.0000000000000000     
   1.2500000000000000       0.62500000000000000        0.0000000000000000     
   1.2812500000000000       0.62500000000000000        0.0000000000000000     
   1.3125000000000000       0.62500000000000000        0.0000000000000000     
   1.3437500000000000       0.62500000000000000        0.0000000000000000     
   1.3750000000000000       0.62500000000000000        0.0000000000000000     
   1.2500000000000000       0.65625000000000000        0.0000000000000000     
   1.2812500000000000       0.65625000000000000        0.0000000000000000     
   1.3125000000000000       0.65625000000000000        0.0000000000000000     
   1.3437500000000000       0.65625000000000000        0.0000000000000000     
   1.3750000000000000       0.65625000000000000        0.0000000000000000     
   1.2500000000000000       0.68750000000000000        0.0000000000000000     
   1.2812500000000000       0.68750000000000000        0.0000000000000000     
   1.3125000000000000       0.68750000000000000        0.0000000000000000     
   1.3437500000000000       0.68750000000000000        0.0000000000000000     
   1.3750000000000000       0.68750000000000000        0.0000000000000000     
   1.2500000000000000       0.71875000000000000        0.0000000000000000     
   1.2812500000000000       0.71875000000000000        0.0000000000000000     
   1.3125000000000000       0.71875000000000000        0.0000000000000000     
   1.3437500000000000       0.71875000000000000        0.0000000000000000     
   1.3750000000000000       0.71875000000000000        0.0000000000000000     
   1.2500000000000000       0.75000000000000000        0.0000000000000000     
   1.2812500000000000       0.75000000000000000        0.0000000000000000     
   1.3125000000000000       0.75000000000000000        0.0000000000000000     
   1.3437500000000000       0.75000000000000000        0.0000000000000000     
   1.3750000000000000       0.75000000000000000        0.0000000000000000     
   1.3750000000000000       0.62500000000000000        0.0000000000000000     
   1.4062500000000000       0.62500000000000000        0.0000000000000000     
   1.4375000000000000       0.62500000000000000        0.0000000000000000     
   1.4687500000000000       0.62500000000000000        0.0000000000000000     
   1.5000000000000000       0.62500000000000000        0.0000000000000000     
   1.3750000000000000       0.65625000000000000        0.0000000000000000     
   1.4062500000000000       0.65625000000000000        0.0000000000000000     
   1.4375000000000000       0.65625000000000000        0.0000000000000000     
   1.4687500000000000       0.65625000000000000        0.0000000000000000     
   1.5000000000000000       0.65625000000000000        0.0000000000000000     
   1.3750000000000000       0.68750000000000000        0.0000000000000000     
   1.4062500000000000       0.68750000000000000        0.0000000000000000     
   1.4375000000000000       0.68750000000000000        0.0000000000000000     
   1.4687500000000000       0.68750000000000000        0.0000000000000000     
   1.5000000000000000       0.68750000000000000        0.0000000000000000     
   1.3750000000000000       0.71875000000000000        0.0000000000000000     
   1.4062500000000000       0.71875000000000000        0.0000000000000000     
   1.4375000000000000       0.71875000000000000        0.0000000000000000     
   1.4687500000000000       0.71875000000000000        0.0000000000000000     
   1.5000000000000000       0.71875000000000000        0.0000000000000000     
   1.3750000000000000       0.75000000000000000        0.0000000000000000     
   1.4062500000000000       0.75000000000000000        0.0000000000000000     
   1.4375000000000000       0.75000000000000000        0.0000000000000000     
   1.4687500000000000       0.75000000000000000        0.0000000000000000     
   1.5000000000000000       0.75000000000000000        0.0000000000000000     
  0.50000000000000000       0.75000000000000000        0.0000000000000000     
  0.53125000000000000       0.75000000000000000        0.0000000000000000     
  0.56250000000000000       0.75000000000000000        0.0000000000000000     
  0.59375000000000000       0.75000000000000000        0.0000000000000000     
  0.62500000000000000       0.75000000000000000        0.0000000000000000     
  0.50000000000000000       0.78125000000000000        0.0000000000000000     
  0.53125000000000000       0.78125000000000000        0.0000000000000000     
  0.56250000000000000       0.78125000000000000        0.0000000000000000     
  0.59375000000000000       0.78125000000000000        0.0000000000000000     
  0.62500000000000000       0.78125000000000000        0.0000000000000000     
  0.50000000000000000       0.81250000000000000        0.0000000000000000     
  0.53125000000000000       0.81250000000000000        0.0000000000000000     
  0.56250000000000000       0.81250000000000000        0.0000000000000000     
  0.59375000000000000       0.81250000000000000        0.0000000000000000     
  0.62500000000000000       0.81250000000000000        0.0000000000000000     
  0.50000000000000000       0.84375000000000000        0.0000000000000000     
  0.53125000000000000       0.84375000000000000        0.0000000000000000     
  0.56250000000000000       0.84375000000000000        0.0000000000000000     
  0.59375000000000000       0.84375000000000000        0.0000000000000000     
  0.62500000000000000       0.84375000000000000        0.0000000000000000     
  0.50000000000000000       0.87500000000000000        0.0000000000000000     
  0.53125000000000000       0.87500000000000000        0.0000000000000000     
  0.56250000000000000       0.87500000000000000        0.0000000000000000     
  0.59375000000000000       0.87500000000000000        0.0000000000000000     
  0.62500000000000000       0.87500000000000000        0.0000000000000000     
  0.62500000000000000       0.75000000000000000        0.0000000000000000     
  0.65625000000000000       0.75000000000000000        0.0000000000000000     
  0.68750000000000000       0.75000000000000000        0.0000000000000000     
  0.71875000000000000       0.75000000000000000        0.0000000000000000     
  0.75000000000000000       0.75000000000000000        0.0000000000000000     
  0.62500000000000000       0.78125000000000000        0.0000000000000000     
  0.65625000000000000       0.78125000000000000        0.0000000000000000     
  0.68750000000000000       0.78125000000000000        0.0000000000000000     
  0.71875000000000000       0.78125000000000000        0.0000000000000000     
  0.75000000000000000       0.78125000000000000        0.0000000000000000     
  0.62500000000000000       0.81250000000000000        0.0000000000000000     
  0.65625000000000000       0.81250000000000000        0.0000000000000000     
  0.68750000000000000       0.81250000000000000        0.0000000000000000     
  0.71875000000000000       0.81250000000000000        0.0000000000000000     
  0.75000000000000000       0.81250000000000000        0.0000000000000000     
  0.62500000000000000       0.84375000000000000        0.0000000000000000     
  0.65625000000000000       0.84375000000000000        0.0000000000000000     
  0.68750000000000000       0.84375000000000000        0.0000000000000000     
  0.71875000000000000       0.84375000000000000        0.0000000000000000     
  0.75000000000000000       0.84375000000000000        0.0000000000000000     
  0.62500000000000000       0.87500000000000000        0.0000000000000000     
  0.65625000000000000       0.87500000000000000        0.0000000000000000     
  0.68750000000000000       0.87500000000000000        0.0000000000000000     
  0.71875000000000000       0.87500000000000000        0.0000000000000000     
  0.75000000000000000       0.87500000000000000        0.0000000000000000     
  0.75000000000000000       0.75000000000000000        0.0000000000000000     
  0.78125000000000000       0.75000000000000000        0.0000000000000000     
  0.81250000000000000       0.75000000000000000        0.0000000000000000     
  0.84375000000000000       0.75000000000000000        0.0000000000000000     
  0.87500000000000000       0.75000000000000000        0.0000000000000000     
  0.75000000000000000       0.78125000000000000        0.0000000000000000     
  0.78125000000000000       0.78125000000000000        0.0000000000000000     
  0.81250000000000000       0.78125000000000000        0.0000000000000000     
  0.84375000000000000       0.78125000000000000        0.0000000000000000     
  0.87500000000000000       0.78125000000000000        0.0000000000000000     
  0.75000000000000000       0.81250000000000000        0.0000000000000000     
  0.78125000000000000       0.81250000000000000        0.0000000000000000     
  0.81250000000000000       0.81250000000000000        0.0000000000000000     
  0.84375000000000000       0.81250000000000000        0.0000000000000000     
  0.87500000000000000       0.81250000000000000        0.0000000000000000     
  0.75000000000000000       0.84375000000000000        0.0000000000000000     
  0.78125000000000000       0.84375000000000000        0.0000000000000000     
  0.81250000000000000       0.84375000000000000        0.0000000000000000     
  0.84375000000000000       0.84375000000000000        0.0000000000000000     
  0.87500000000000000       0.84375000000000000        0.0000000000000000     
  0.75000000000000000       0.87500000000000000        0.0000000000000000     
  0.78125000000000000       0.87500000000000000        0.0000000000000000     
  0.81250000000000000       0.87500000000000000        0.0000000000000000     
  0.84375000000000000       0.87500000000000000        0.0000000000000000     
  0.87500000000000000       0.87500000000000000        0.0000000000000000     
  0.87500000000000000       0.75000000000000000        0.0000000000000000     
  0.90625000000000000       0.75000000000000000        0.0000000000000000     
  0.93750000000000000       0.75000000000000000        0.0000000000000000     
  0.96875000000000000       0.75000000000000000        0.0000000000000000     
   1.0000000000000000       0.75000000000000000        0.0000000000000000     
  0.87500000000000000       0.78125000000000000        0.0000000000000000     
  0.90625000000000000       0.78125000000000000        0.0000000000000000     
  0.93750000000000000       0.78125000000000000        0.0000000000000000     
  0.96875000000000000       0.78125000000000000        0.0000000000000000     
   1.0000000000000000       0.78125000000000000        0.0000000000000000     
  0.87500000000000000       0.81250000000000000        0.0000000000000000     
  0.90625000000000000       0.81250000000000000        0.0000000000000000     
  0.93750000000000000       0.81250000000000000        0.0000000000000000     
  0.96875000000000000       0.81250000000000000        0.0000000000000000     
   1.0000000000000000       0.81250000000000000        0.0000000000000000     
  0.87500000000000000       0.84375000000000000        0.0000000000000000     
  0.90625000000000000       0.84375000000000000        0.0000000000000000     
  0.93750000000000000       0.84375000000000000        0.0000000000000000     
  0.96875000000000000       0.84375000000000000        0.0000000000000000     
   1.0000000000000000       0.84375000000000000        0.0000000000000000     
  0.87500000000000000       0.87500000000000000        0.0000000000000000     
  0.90625000000000000       0.87500000000000000        0.0000000000000000     
  0.93750000000000000       0.87500000000000000        0.0000000000000000     
  0.96875000000000000       0.87500000000000000        0.0000000000000000     
   1.0000000000000000       0.87500000000000000        0.0000000000000000     
   1.0000000000000000       0.75000000000000000        0.0000000000000000     
   1.0312500000000000       0.75000000000000000        0.0000000000000000     
   1.0625000000000000       0.75000000000000000        0.0000000000000000     
   1.0937500000000000       0.75000000000000000        0.0000000000000000     
   1.1250000000000000       0.75000000000000000        0.0000000000000000     
   1.0000000000000000       0.78125000000000000        0.0000000000000000     
   1.0312500000000000       0.78125000000000000        0.0000000000000000     
   1.0625000000000000       0.78125000000000000        0.0000000000000000     
   1.0937500000000000       0.78125000000000000        0.0000000000000000     
   1.1250000000000000       0.78125000000000000        0.0000000000000000     
   1.0000000000000000       0.81250000000000000        0.0000000000000000     
   1.0312500000000000       0.81250000000000000        0.0000000000000000     
   1.0625000000000000       0.81250000000000000        0.0000000000000000     
   1.0937500000000000       0.81250000000000000        0.0000000000000000     
   1.1250000000000000       0.81250000000000000        0.0000000000000000     
   1.0000000000000000       0.84375000000000000        0.0000000000000000     
   1.0312500000000000       0.84375000000000000        0.0000000000000000     
   1.0625000000000000       0.84375000000000000        0.0000000000000000     
   1.0937500000000000       0.84375000000000000        0.0000000000000000     
   1.1250000000000000       0.84375000000000000        0.0000000000000000     
   1.0000000000000000       0.87500000000000000        0.0000000000000000     
   1.0312500000000000       0.87500000000000000        0.0000000000000000     
   1.0625000000000000       0.87500000000000000        0.0000000000000000     
   1.0937500000000000       0.87500000000000000        0.0000000000000000     
   1.1250000000000000       0.87500000000000000        0.0000000000000000     
   1.1250000000000000       0.75000000000000000        0.0000000000000000     
   1.1562500000000000       0.75000000000000000        0.0000000000000000     
   1.1875000000000000       0.75000000000000000        0.0000000000000000     
   1.2187500000000000       0.75000000000000000        0.0000000000000000     
   1.2500000000000000       0.75000000000000000        0.0000000000000000     
   1.1250000000000000       0.78125000000000000        0.0000000000000000     
   1.1562500000000000       0.78125000000000000        0.0000000000000000     
   1.1875000000000000       0.78125000000000000        0.0000000000000000     
   1.2187500000000000       0.78125000000000000        0.0000000000000000     
   1.2500000000000000       0.78125000000000000        0.0000000000000000     
   1.1250000000000000       0.81250000000000000        0.0000000000000000     
   1.1562500000000000       0.81250000000000000        0.0000000000000000     
   1.1875000000000000       0.81250000000000000        0.0000000000000000     
   1.2187500000000000       0.81250000000000000        0.0000000000000000     
   1.2500000000000000       0.81250000000000000        0.0000000000000000     
   1.1250000000000000       0.84375000000000000        0.0000000000000000     
   1.1562500000000000       0.84375000000000000        0.0000000000000000     
   1.1875000000000000       0.84375000000000000        0.0000000000000000     
   1.2187500000000000       0.84375000000000000        0.0000000000000000     
   1.2500000000000000       0.84375000000000000        0.0000000000000000     
   1.1250000000000000       0.87500000000000000        0.0000000000000000     
   1.1562500000000000       0.87500000000000000        0.0000000000000000     
   1.1875000000000000       0.87500000000000000        0.0000000000000000     
   1.2187500000000000       0.87500000000000000        0.0000000000000000     
   1.2500000000000000       0.87500000000000000        0.0000000000000000     
   1.2500000000000000       0.75000000000000000        0.0000000000000000     
   1.2812500000000000       0.75000000000000000        0.0000000000000000     
   1.3125000000000000       0.75000000000000000        0.0000000000000000     
   1.3437500000000000       0.75000000000000000        0.0000000000000000     
   1.3750000000000000       0.75000000000000000        0.0000000000000000     
   1.2500000000000000       0.78125000000000000        0.0000000000000000     
   1.2812500000000000       0.78125000000000000        0.0000000000000000     
   1.3125000000000000       0.78125000000000000        0.0000000000000000     
   1.3437500000000000       0.78125000000000000        0.0000000000000000     
   1.3750000000000000       0.78125000000000000        0.0000000000000000     
   1.2500000000000000       0.81250000000000000        0.0000000000000000     
   1.2812500000000000       0.81250000000000000        0.0000000000000000     
   1.3125000000000000       0.81250000000000000        0.0000000000000000     
   1.3437500000000000       0.81250000000000000        0.0000000000000000     
   1.3750000000000000       0.81250000000000000        0.0000000000000000     
   1.2500000000000000       0.84375000000000000        0.0000000000000000     
   1.2812500000000000       0.84375000000000000        0.0000000000000000     
   1.3125000000000000       0.84375000000000000        0.0000000000000000     
   1.3437500000000000       0.84375000000000000        0.0000000000000000     
   1.3750000000000000       0.84375000000000000        0.0000000000000000     
   1.2500000000000000       0.87500000000000000        0.0000000000000000     
   1.2812500000000000       0.87500000000000000        0.0000000000000000     
   1.3125000000000000       0.87500000000000000        0.0000000000000000     
   1.3437500000000000       0.87500000000000000        0.0000000000000000     
   1.3750000000000000       0.87500000000000000        0.0000000000000000     
   1.3750000000000000       0.75000000000000000        0.0000000000000000     
   1.4062500000000000       0.75000000000000000        0.0000000000000000     
   1.4375000000000000       0.75000000000000000        0.0000000000000000     
   1.4687500000000000       0.75000000000000000        0.0000000000000000     
   1.5000000000000000       0.75000000000000000        0.0000000000000000     
   1.3750000000000000       0.78125000000000000        0.0000000000000000     
   1.4062500000000000       0.78125000000000000        0.0000000000000000     
   1.4375000000000000       0.78125000000000000        0.0000000000000000     
   1.4687500000000000       0.78125000000000000        0.0000000000000000     
   1.5000000000000000       0.78125000000000000        0.0000000000000000     
   1.3750000000000000       0.81250000000000000        0.0000000000000000     
   1.4062500000000000       0.81250000000000000        0.0000000000000000     
   1.4375000000000000       0.81250000000000000        0.0000000000000000     
   1.4687500000000000       0.81250000000000000        0.0000000000000000     
   1.5000000000000000       0.81250000000000000        0.0000000000000000     
   1.3750000000000000       0.84375000000000000        0.0000000000000000     
   1.4062500000000000       0.84375000000000000        0.0000000000000000     
   1.4375000000000000       0.84375000000000000        0.0000000000000000     
   1.4687500000000000       0.84375000000000000        0.0000000000000000     
   1.5000000000000000       0.84375000000000000        0.0000000000000000     
   1.3750000000000000       0.87500000000000000        0.0000000000000000     
   1.4062500000000000       0.87500000000000000        0.0000000000000000     
   1.4375000000000000       0.87500000000000000        0.0000000000000000     
   1.4687500000000000       0.87500000000000000        0.0000000000000000     
   1.5000000000000000       0.87500000000000000        0.0000000000000000     
  0.50000000000000000       0.87500000000000000        0.0000000000000000     
  0.53125000000000000       0.87500000000000000        0.0000000000000000     
  0.56250000000000000       0.87500000000000000        0.0000000000000000     
  0.59375000000000000       0.87500000000000000        0.0000000000000000     
  0.62500000000000000       0.87500000000000000        0.0000000000000000     
  0.50000000000000000       0.90625000000000000        0.0000000000000000     
  0.53125000000000000       0.90625000000000000        0.0000000000000000     
  0.56250000000000000       0.90625000000000000        0.0000000000000000     
  0.59375000000000000       0.90625000000000000        0.0000000000000000     
  0.62500000000000000       0.90625000000000000        0.0000000000000000     
  0.50000000000000000       0.93750000000000000        0.0000000000000000     
  0.53125000000000000       0.93750000000000000        0.0000000000000000     
  0.56250000000000000       0.93750000000000000        0.0000000000000000     
  0.59375000000000000       0.93750000000000000        0.0000000000000000     
  0.62500000000000000       0.93750000000000000        0.0000000000000000     
  0.50000000000000000       0.96875000000000000        0.0000000000000000     
  0.53125000000000000       0.96875000000000000        0.0000000000000000     
  0.56250000000000000       0.96875000000000000        0.0000000000000000     
  0.59375000000000000       0.96875000000000000        0.0000000000000000     
  0.62500000000000000       0.96875000000000000        0.0000000000000000     
  0.50000000000000000        1.0000000000000000        0.0000000000000000     
  0.53125000000000000        1.0000000000000000        0.0000000000000000     
  0.56250000000000000        1.0000000000000000        0.0000000000000000     
  0.59375000000000000        1.0000000000000000        0.0000000000000000     
  0.62500000000000000        1.0000000000000000        0.0000000000000000     
  0.62500000000000000       0.87500000000000000        0.0000000000000000     
  0.65625000000000000       0.87500000000000000        0.0000000000000000     
  0.68750000000000000       0.87500000000000000        0.0000000000000000     
  0.71875000000000000       0.87500000000000000        0.0000000000000000     
  0.75000000000000000       0.87500000000000000        0.0000000000000000     
  0.62500000000000000       0.90625000000000000        0.0000000000000000     
  0.65625000000000000       0.90625000000000000        0.0000000000000000     
  0.68750000000000000       0.90625000000000000        0.0000000000000000     
  0.71875000000000000       0.90625000000000000        0.0000000000000000     
  0.75000000000000000       0.90625000000000000        0.0000000000000000     
  0.62500000000000000       0.93750000000000000        0.0000000000000000     
  0.65625000000000000       0.93750000000000000        0.0000000000000000     
  0.68750000000000000       0.93750000000000000        0.0000000000000000     
  0.71875000000000000       0.93750000000000000        0.0000000000000000     
  0.75000000000000000       0.93750000000000000        0.0000000000000000     
  0.62500000000000000       0.96875000000000000        0.0000000000000000     
  0.65625000000000000       0.96875000000000000        0.0000000000000000     
  0.68750000000000000       0.96875000000000000        0.0000000000000000     
  0.71875000000000000       0.96875000000000000        0.0000000000000000     
  0.75000000000000000       0.96875000000000000        0.0000000000000000     
  0.62500000000000000        1.0000000000000000        0.0000000000000000     
  0.65625000000000000        1.0000000000000000        0.0000000000000000     
  0.68750000000000000        1.0000000000000000        0.0000000000000000     
  0.71875000000000000        1.0000000000000000        0.0000000000000000     
  0.75000000000000000        1.0000000000000000        0.0000000000000000     
  0.75000000000000000       0.87500000000000000        0.0000000000000000     
  0.78125000000000000       0.87500000000000000        0.0000000000000000     
  0.81250000000000000       0.87500000000000000        0.0000000000000000     
  0.84375000000000000       0.87500000000000000        0.0000000000000000     
  0.87500000000000000       0.87500000000000000        0.0000000000000000     
  0.75000000000000000       0.90625000000000000        0.0000000000000000     
  0.78125000000000000       0.90625000000000000        0.0000000000000000     
  0.81250000000000000       0.90625000000000000        0.0000000000000000     
  0.84375000000000000       0.90625000000000000        0.0000000000000000     
  0.87500000000000000       0.90625000000000000        0.0000000000000000     
  0.75000000000000000       0.93750000000000000        0.0000000000000000     
  0.78125000000000000       0.93750000000000000        0.0000000000000000     
  0.81250000000000000       0.93750000000000000        0.0000000000000000     
  0.84375000000000000       0.93750000000000000        0.0000000000000000     
  0.87500000000000000       0.93750000000000000        0.0000000000000000     
  0.75000000000000000       0.96875000000000000        0.0000000000000000     
  0.78125000000000000       0.96875000000000000        0.0000000000000000     
  0.81250000000000000       0.96875000000000000        0.0000000000000000     
  0.84375000000000000       0.96875000000000000        0.0000000000000000     
  0.87500000000000000       0.96875000000000000        0.0000000000000000     
  0.75000000000000000        1.0000000000000000        0.0000000000000000     
  0.78125000000000000        1.0000000000000000        0.0000000000000000     
  0.81250000000000000        1.0000000000000000        0.0000000000000000     
  0.84375000000000000        1.0000000000000000        0.0000000000000000     
  0.87500000000000000        1.0000000000000000        0.0000000000000000     
  0.87500000000000000       0.87500000000000000        0.0000000000000000     
  0.90625000000000000       0.87500000000000000        0.0000000000000000     
  0.93750000000000000       0.87500000000000000        0.0000000000000000     
  0.96875000000000000       0.87500000000000000        0.0000000000000000     
   1.0000000000000000       0.87500000000000000        0.0000000000000000     
  0.87500000000000000       0.90625000000000000        0.0000000000000000     
  0.90625000000000000       0.90625000000000000        0.0000000000000000     
  0.93750000000000000       0.90625000000000000        0.0000000000000000     
  0.96875000000000000       0.90625000000000000        0.0000000000000000     
   1.0000000000000000       0.90625000000000000        0.0000000000000000     
  0.87500000000000000       0.93750000000000000        0.0000000000000000     
  0.90625000000000000       0.93750000000000000        0.0000000000000000     
  0.93750000000000000       0.93750000000000000        0.0000000000000000     
  0.96875000000000000       0.93750000000000000        0.0000000000000000     
   1.0000000000000000       0.93750000000000000        0.0000000000000000     
  0.87500000000000000       0.96875000000000000        0.0000000000000000     
  0.90625000000000000       0.96875000000000000        0.0000000000000000     
  0.93750000000000000       0.96875000000000000        0.0000000000000000     
  0.96875000000000000       0.96875000000000000        0.0000000000000000     
   1.0000000000000000       0.96875000000000000        0.0000000000000000     
  0.87500000000000000        1.0000000000000000        0.0000000000000000     
  0.90625000000000000        1.0000000000000000        0.0000000000000000     
  0.93750000000000000        1.0000000000000000        0.0000000000000000     
  0.96875000000000000        1.0000000000000000        0.0000000000000000     
   1.0000000000000000        1.0000000000000000        0.0000000000000000     
   1.0000000000000000       0.87500000000000000        0.0000000000000000     
   1.0312500000000000       0.87500000000000000        0.0000000000000000     
   1.0625000000000000       0.87500000000000000        0.0000000000000000     
   1.0937500000000000       0.87500000000000000        0.0000000000000000     
   1.1250000000000000       0.87500000000000000        0.0000000000000000     
   1.0000000000000000       0.90625000000000000        0.0000000000000000     
   1.0312500000000000       0.90625000000000000        0.0000000000000000     
   1.0625000000000000       0.90625000000000000        0.0000000000000000     
   1.0937500000000000       0.90625000000000000        0.0000000000000000     
   1.1250000000000000       0.90625000000000000        0.0000000000000000     
   1.0000000000000000       0.93750000000000000        0.0000000000000000     
   1.0312500000000000       0.93750000000000000        0.0000000000000000     
   1.0625000000000000       0.93750000000000000        0.0000000000000000     
   1.0937500000000000       0.93750000000000000        0.0000000000000000     
   1.1250000000000000       0.93750000000000000        0.0000000000000000     
   1.0000000000000000       0.96875000000000000        0.0000000000000000     
   1.0312500000000000       0.96875000000000000        0.0000000000000000     
   1.0625000000000000       0.96875000000000000        0.0000000000000000     
   1.0937500000000000       0.96875000000000000        0.0000000000000000     
   1.1250000000000000       0.96875000000000000        0.0000000000000000     
   1.0000000000000000        1.0000000000000000        0.0000000000000000     
   1.0312500000000000        1.0000000000000000        0.0000000000000000     
   1.0625000000000000        1.0000000000000000        0.0000000000000000     
   1.0937500000000000        1.0000000000000000        0.0000000000000000     
   1.1250000000000000        1.0000000000000000        0.0000000000000000     
   1.1250000000000000       0.87500000000000000        0.0000000000000000     
   1.1562500000000000       0.87500000000000000        0.0000000000000000     
   1.1875000000000000       0.87500000000000000        0.0000000000000000     
   1.2187500000000000       0.87500000000000000        0.0000000000000000     
   1.2500000000000000       0.87500000000000000        0.0000000000000000     
   1.1250000000000000       0.90625000000000000        0.0000000000000000     
   1.1562500000000000       0.90625000000000000        0.0000000000000000     
   1.1875000000000000       0.90625000000000000        0.0000000000000000     
   1.2187500000000000       0.90625000000000000        0.0000000000000000     
   1.2500000000000000       0.90625000000000000        0.0000000000000000     
   1.1250000000000000       0.93750000000000000        0.0000000000000000     
   1.1562500000000000       0.93750000000000000        0.0000000000000000     
   1.1875000000000000       0.93750000000000000        0.0000000000000000     
   1.2187500000000000       0.93750000000000000        0.0000000000000000     
   1.2500000000000000       0.93750000000000000        0.0000000000000000     
   1.1250000000000000       0.96875000000000000        0.0000000000000000     
   1.1562500000000000       0.96875000000000000        0.0000000000000000     
   1.1875000000000000       0.96875000000000000        0.0000000000000000     
   1.2187500000000000       0.96875000000000000        0.0000000000000000     
   1.2500000000000000       0.96875000000000000        0.0000000000000000     
   1.1250000000000000        1.0000000000000000        0.0000000000000000     
   1.1562500000000000        1.0000000000000000        0.0000000000000000     
   1.1875000000000000        1.0000000000000000        0.0000000000000000     
   1.2187500000000000        1.0000000000000000        0.0000000000000000     
   1.2500000000000000        1.0000000000000000        0.0000000000000000     
   1.2500000000000000       0.87500000000000000        0.0000000000000000     
   1.2812500000000000       0.87500000000000000        0.0000000000000000     
   1.3125000000000000       0.87500000000000000        0.0000000000000000     
   1.3437500000000000       0.87500000000000000        0.0000000000000000     
   1.3750000000000000       0.87500000000000000        0.0000000000000000     
   1.2500000000000000       0.90625000000000000        0.0000000000000000     
   1.2812500000000000       0.90625000000000000        0.0000000000000000     
   1.3125000000000000       0.90625000000000000        0.0000000000000000     
   1.3437500000000000       0.90625000000000000        0.0000000000000000     
   1.3750000000000000       0.90625000000000000        0.0000000000000000     
   1.2500000000000000       0.93750000000000000        0.0000000000000000     
   1.2812500000000000       0.93750000000000000        0.0000000000000000     
   1.3125000000000000       0.93750000000000000        0.0000000000000000     
   1.3437500000000000       0.93750000000000000        0.0000000000000000     
   1.3750000000000000       0.93750000000000000        0.0000000000000000     
   1.2500000000000000       0.96875000000000000        0.0000000000000000     
   1.2812500000000000       0.96875000000000000        0.0000000000000000     
   1.3125000000000000       0.96875000000000000        0.0000000000000000     
   1.3437500000000000       0.96875000000000000        0.0000000000000000     
   1.3750000000000000       0.96875000000000000        0.0000000000000000     
   1.2500000000000000        1.0000000000000000        0.0000000000000000     
   1.2812500000000000        1.0000000000000000        0.0000000000000000     
   1.3125000000000000        1.0000000000000000        0.0000000000000000     
   1.3437500000000000        1.0000000000000000        0.0000000000000000     
   1.3750000000000000        1.0000000000000000        0.0000000000000000     
   1.3750000000000000       0.87500000000000000        0.0000000000000000     
   1.4062500000000000       0.87500000000000000        0.0000000000000000     
   1.4375000000000000       0.87500000000000000        0.0000000000000000     
   1.4687500000000000       0.87500000000000000        0.0000000000000000     
   1.5000000000000000       0.87500000000000000        0.0000000000000000     
   1.3750000000000000       0.90625000000000000        0.0000000000000000     
   1.4062500000000000       0.90625000000000000        0.0000000000000000     
   1.4375000000000000       0.90625000000000000        0.0000000000000000     
   1.4687500000000000       0.90625000000000000        0.0000000000000000     
   1.5000000000000000       0.90625000000000000        0.0000000000000000     
   1.3750000000000000       0.93750000000000000        0.0000000000000000     
   1.4062500000000000       0.93750000000000000        0.0000000000000000     
   1.4375000000000000       0.93750000000000000        0.0000000000000000     
   1.4687500000000000       0.93750000000000000        0.0000000000000000     
   1.5000000000000000       0.93750000000000000        0.0000000000000000     
   1.3750000000000000       0.96875000000000000        0.0000000000000000     
   1.4062500000000000       0.96875000000000000        0.0000000000000000     
   1.4375000000000000       0.96875000000000000        0.0000000000000000     
   1.4687500000000000       0.96875000000000000        0.0000000000000000     
   1.5000000000000000       0.96875000000000000        0.0000000000000000     
   1.3750000000000000        1.0000000000000000        0.0000000000000000     
   1.4062500000000000        1.0000000000000000        0.0000000000000000     
   1.4375000000000000        1.0000000000000000        0.0000000000000000     
   1.4687500000000000        1.0000000000000000        0.0000000000000000     
   1.5000000000000000        1.0000000000000000        0.0000000000000000     
 </DataArray>
 </Points>
 <Cells>
 <DataArray  type="Int32"  Name="connectivity"  format="ascii">
           0           1           6           5
           1           2           7           6
           2           3           8           7
           3           4           9           8
           5           6          11          10
           6           7          12          11
           7           8          13          12
           8           9          14          13
          10          11          16          15
          11          12          17          16
          12          13          18          17
          13          14          19          18
          15          16          21          20
          16          17          22          21
          17          18          23          22
          18          19          24          23
          25          26          31          30
          26          27          32          31
          27          28          33          32
          28          29          34          33
          30          31          36          35
          31          32          37          36
          32          33          38          37
          33          34          39          38
          35          36          41          40
          36          37          42          41
          37          38          43          42
          38          39          44          43
          40          41          46          45
          41          42          47          46
          42          43          48          47
          43          44          49          48
          50          51          56          55
          51          52          57          56
          52          53          58          57
          53          54          59          58
          55          56          61          60
          56          57          62          61
          57          58          63          62
          58          59          64          63
          60          61          66          65
          61          62          67          66
          62          63          68          67
          63          64          69          68
          65          66          71          70
          66          67          72          71
          67          68          73          72
          68          69          74          73
          75          76          81          80
          76          77          82          81
          77          78          83          82
          78          79          84          83
          80          81          86          85
          81          82          87          86
          82          83          88          87
          83          84          89          88
          85          86          91          90
          86          87          92          91
          87          88          93          92
          88          89          94          93
          90          91          96          95
          91          92          97          96
          92          93          98          97
          93          94          99          98
         100         101         106         105
         101         102         107         106
         102         103         108         107
         103         104         109         108
         105         106         111         110
         106         107         112         111
         107         108         113         112
         108         109         114         113
         110         111         116         115
         111         112         117         116
         112         113         118         117
         113         114         119         118
         115         116         121         120
         116         117         122         121
         117         118         123         122
         118         119         124         123
         125         126         131         130
         126         127         132         131
         127         128         133         132
         128         129         134         133
         130         131         136         135
         131         132         137         136
         132         133         138         137
         133         134         139         138
         135         136         141         140
         136         137         142         141
         137         138         143         142
         138         139         144         143
         140         141         146         145
         141         142         147         146
         142         143         148         147
         143         144         149         148
         150         151         156         155
         151         152         157         156
         152         153         158         157
         153         154         159         158
         155         156         161         160
         156         157         162         161
         157         158         163         162
         158         159         164         163
         160         161         166         165
         161         162         167         166
         162         163         168         167
         163         164         169         168
         165         166         171         170
         166         167         172         171
         167         168         173         172
         168         169         174         173
         175         176         181         180
         176         177         182         181
         177         178         183         182
         178         179         184         183
         180         181         186         185
         181         182         187         186
         182         183         188         187
         183         184         189         188
         185         186         191         190
         186         187         192         191
         187         188         193         192
         188         189         194         193
         190         191         196         195
         191         192         197         196
         192         193         198         197
         193         194         199         198
         200         201         206         205
         201         202         207         206
         202         203         208         207
         203         204         209         208
         205         206         211         210
         206         207         212         211
         207         208         213         212
         208         209         214         213
         210         211         216         215
         211         212         217         216
         212         213         218         217
         213         214         219         218
         215         216         221         220
         216         217         222         221
         217         218         223         222
         218         219         224         223
         225         226         231         230
         226         227         232         231
         227         228         233         232
         228         229         234         233
         230         231         236         235
         231         232         237         236
         232         233         238         237
         233         234         239         238
         235         236         241         240
         236         237         242         241
         237         238         243         242
         238         239         244         243
         240         241         246         245
         241         242         247         246
         242         243         248         247
         243         244         249         248
         250         251         256         255
         251         252         257         256
         252         253         258         257
         253         254         259         258
         255         256         261         260
         256         257         262         261
         257         258         263         262
         258         259         264         263
         260         261         266         265
         261         262         267         266
         262         263         268         267
         263         264         269         268
         265         266         271         270
         266         267         272         271
         267         268         273         272
         268         269         274         273
         275         276         281         280
         276         277         282         281
         277         278         283         282
         278         279         284         283
         280         281         286         285
         281         282         287         286
         282         283         288         287
         283         284         289         288
         285         286         291         290
         286         287         292         291
         287         288         293         292
         288         289         294         293
         290         291         296         295
         291         292         297         296
         292         293         298         297
         293         294         299         298
         300         301         306         305
         301         302         307         306
         302         303         308         307
         303         304         309         308
         305         306         311         310
         306         307         312         311
         307         308         313         312
         308         309         314         313
         310         311         316         315
         311         312         317         316
         312         313         318         317
         313         314         319         318
         315         316         321         320
         316         317         322         321
         317         318         323         322
         318         319         324         323
         325         326         331         330
         326         327         332         331
         327         328         333         332
         328         329         334         333
         330         331         336         335
         331         332         337         336
         332         333         338         337
         333         334         339         338
         335         336         341         340
         336         337         342         341
         337         338         343         342
         338         339         344         343
         340         341         346         345
         341         342         347         346
         342         343         348         347
         343         344         349         348
         350         351         356         355
         351         352         357         356
         352         353         358         357
         353         354         359         358
         355         356         361         360
         356         357         362         361
         357         358         363         362
         358         359         364         363
         360         361         366         365
         361         362         367         366
         362         363         368         367
         363         364         369         368
         365         366         371         370
         366         367         372         371
         367         368         373         372
         368         369         374         373
         375         376         381         380
         376         377         382         381
         377         378         383         382
         378         379         384         383
         380         381         386         385
         381         382         387         386
         382         383         388         387
         383         384         389         388
         385         386         391         390
         386         387         392         391
         387         388         393         392
         388         389         394         393
         390         391         396         395
         391         392         397         396
         392         393         398         397
         393         394         399         398
         400         401         406         405
         401         402         407         406
         402         403         408         407
         403         404         409         408
         405         406         411         410
         406         407         412         411
         407         408         413         412
         408         409         414         413
         410         411         416         415
         411         412         417         416
         412         413         418         417
         413         414         419         418
         415         416         421         420
         416         417         422         421
         417         418         423         422
         418         419         424         423
         425         426         431         430
         426         427         432         431
         427         428         433         432
         428         429         434         433
         430         431         436         435
         431         432         437         436
         432         433         438         437
         433         434         439         438
         435         436         441         440
         436         437         442         441
         437         438         443         442
         438         439         444         443
         440         441         446         445
         441         442         447         446
         442         443         448         447
         443         444         449         448
         450         451         456         455
         451         452         457         456
         452         453         458         457
         453         454         459         458
         455         456         461         460
         456         457         462         461
         457         458         463         462
         458         459         464         463
         460         461         466         465
         461         462         467         466
         462         463         468         467
         463         464         469         468
         465         466         471         470
         466         467         472         471
         467         468         473         472
         468         469         474         473
         475         476         481         480
         476         477         482         481
         477         478         483         482
         478         479         484         483
         480         481         486         485
         481         482         487         486
         482         483         488         487
         483         484         489         488
         485         486         491         490
         486         487         492         491
         487         488         493         492
         488         489         494         493
         490         491         496         495
         491         492         497         496
         492         493         498         497
         493         494         499         498
         500         501         506         505
         501         502         507         506
         502         503         508         507
         503         504         509         508
         505         506         511         510
         506         507         512         511
         507         508         513         512
         508         509         514         513
         510         511         516         515
         511         512         517         516
         512         513         518         517
         513         514         519         518
         515         516         521         520
         516         517         522         521
         517         518         523         522
         518         519         524         523
         525         526         531         530
         526         527         532         531
         527         528         533         532
         528         529         534         533
         530         531         536         535
         531         532         537         536
         532         533         538         537
         533         534         539         538
         535         536         541         540
         536         537         542         541
         537         538         543         542
         538         539         544         543
         540         541         546         545
         541         542         547         546
         542         543         548         547
         543         544         549         548
         550         551         556         555
         551         552         557         556
         552         553         558         557
         553         554         559         558
         555         556         561         560
         556         557         562         561
         557         558         563         562
         558         559         564         563
         560         561         566         565
         561         562         567         566
         562         563         568         567
         563         564         569         568
         565         566         571         570
         566         567         572         571
         567         568         573         572
         568         569         574         573
         575         576         581         580
         576         577         582         581
         577         578         583         582
         578         579         584         583
         580         581         586         585
         581         582         587         586
         582         583         588         587
         583         584         589         588
         585         586         591         590
         586         587         592         591
         587         588         593         592
         588         589         594         593
         590         591         596         595
         591         592         597         596
         592         593         598         597
         593         594         599         598
         600         601         606         605
         601         602         607         606
         602         603         608         607
         603         604         609         608
         605         606         611         610
         606         607         612         611
         607         608         613         612
         608         609         614         613
         610         611         616         615
         611         612         617         616
         612         613         618         617
         613         614         619         618
         615         616         621         620
         616         617         622         621
         617         618         623         622
         618         619         624         623
         625         626         631         630
         626         627         632         631
         627         628         633         632
         628         629         634         633
         630         631         636         635
         631         632         637         636
         632         633         638         637
         633         634         639         638
         635         636         641         640
         636         637         642         641
         637         638         643         642
         638         639         644         643
         640         641         646         645
         641         642         647         646
         642         643         648         647
         643         644         649         648
         650         651         656         655
         651         652         657         656
         652         653         658         657
         653         654         659         658
         655         656         661         660
         656         657         662         661
         657         658         663         662
         658         659         664         663
         660         661         666         665
         661         662         667         666
         662         663         668         667
         663         664         669         668
         665         666         671         670
         666         667         672         671
         667         668         673         672
         668         669         674         673
         675         676         681         680
         676         677         682         681
         677         678         683         682
         678         679         684         683
         680         681         686         685
         681         682         687         686
         682         683         688         687
         683         684         689         688
         685         686         691         690
         686         687         692         691
         687         688         693         692
         688         689         694         693
         690         691         696         695
         691         692         697         696
         692         693         698         697
         693         694         699         698
         700         701         706         705
         701         702         707         706
         702         703         708         707
         703         704         709         708
         705         706         711         710
         706         707         712         711
         707         708         713         712
         708         709         714         713
         710         711         716         715
         711         712         717         716
         712         713         718         717
         713         714         719         718
         715         716         721         720
         716         717         722         721
         717         718         723         722
         718         719         724         723
         725         726         731         730
         726         727         732         731
         727         728         733         732
         728         729         734         733
         730         731         736         735
         731         732         737         736
         732         733         738         737
         733         734         739         738
         735         736         741         740
         736         737         742         741
         737         738         743         742
         738         739         744         743
         740         741         746         745
         741         742         747         746
         742         743         748         747
         743         744         749         748
         750         751         756         755
         751         752         757         756
         752         753         758         757
         753         754         759         758
         755         756         761         760
         756         757         762         761
         757         758         763         762
         758         759         764         763
         760         761         766         765
         761         762         767         766
         762         763         768         767
         763         764         769         768
         765         766         771         770
         766         767         772         771
         767         768         773         772
         768         769         774         773
         775         776         781         780
         776         777         782         781
         777         778         783         782
         778         779         784         783
         780         781         786         785
         781         782         787         786
         782         783         788         787
         783         784         789         788
         785         786         791         790
         786         787         792         791
         787         788         793         792
         788         789         794         793
         790         791         796         795
         791         792         797         796
         792         793         798         797
         793         794         799         798
         800         801         806         805
         801         802         807         806
         802         803         808         807
         803         804         809         808
         805         806         811         810
         806         807         812         811
         807         808         813         812
         808         809         814         813
         810         811         816         815
         811         812         817         816
         812         813         818         817
         813         814         819         818
         815         816         821         820
         816         817         822         821
         817         818         823         822
         818         819         824         823
         825         826         831         830
         826         827         832         831
         827         828         833         832
         828         829         834         833
         830         831         836         835
         831         832         837         836
         832         833         838         837
         833         834         839         838
         835         836         841         840
         836         837         842         841
         837         838         843         842
         838         839         844         843
         840         841         846         845
         841         842         847         846
         842         843         848         847
         843         844         849         848
         850         851         856         855
         851         852         857         856
         852         853         858         857
         853         854         859         858
         855         856         861         860
         856         857         862         861
         857         858         863         862
         858         859         864         863
         860         861         866         865
         861         862         867         866
         862         863         868         867
         863         864         869         868
         865         866         871         870
         866         867         872         871
         867         868         873         872
         868         869         874         873
         875         876         881         880
         876         877         882         881
         877         878         883         882
         878         879         884         883
         880         881         886         885
         881         882         887         886
         882         883         888         887
         883         884         889         888
         885         886         891         890
         886         887         892         891
         887         888         893         892
         888         889         894         893
         890         891         896         895
         891         892         897         896
         892         893         898         897
         893         894         899         898
         900         901         906         905
         901         902         907         906
         902         903         908         907
         903         904         909         908
         905         906         911         910
         906         907         912         911
         907         908         913         912
         908         909         914         913
         910         911         916         915
         911         912         917         916
         912         913         918         917
         913         914         919         918
         915         916         921         920
         916         917         922         921
         917         918         923         922
         918         919         924         923
         925         926         931         930
         926         927         932         931
         927         928         933         932
         928         929         934         933
         930         931         936         935
         931         932         937         936
         932         933         938         937
         933         934         939         938
         935         936         941         940
         936         937         942         941
         937         938         943         942
         938         939         944         943
         940         941         946         945
         941         942         947         946
         942         943         948         947
         943         944         949         948
         950         951         956         955
         951         952         957         956
         952         953         958         957
         953         954         959         958
         955         956         961         960
         956         957         962         961
         957         958         963         962
         958         959         964         963
         960         961         966         965
         961         962         967         966
         962         963         968         967
         963         964         969         968
         965         966         971         970
         966         967         972         971
         967         968         973         972
         968         969         974         973
         975         976         981         980
         976         977         982         981
         977         978         983         982
         978         979         984         983
         980         981         986         985
         981         982         987         986
         982         983         988         987
         983         984         989         988
         985         986         991         990
         986         987         992         991
         987         988         993         992
         988         989         994         993
         990         991         996         995
         991         992         997         996
         992         993         998         997
         993         994         999         998
        1000        1001        1006        1005
        1001        1002        1007        1006
        1002        1003        1008        1007
        1003        1004        1009        1008
        1005        1006        1011        1010
        1006        1007        1012        1011
        1007        1008        1013        1012
        1008        1009        1014        1013
        1010        1011        1016        1015
        1011        1012        1017        1016
        1012        1013        1018        1017
        1013        1014        1019        1018
        1015        1016        1021        1020
        1016        1017        1022        1021
        1017        1018        1023        1022
        1018        1019        1024        1023
        1025        1026        1031        1030
        1026        1027        1032        1031
        1027        1028        1033        1032
        1028        1029        1034        1033
        1030        1031        1036        1035
        1031        1032        1037        1036
        1032        1033        1038        1037
        1033        1034        1039        1038
        1035        1036        1041        1040
        1036        1037        1042        1041
        1037        1038        1043        1042
        1038        1039        1044        1043
        1040        1041        1046        1045
        1041        1042        1047        1046
        1042        1043        1048        1047
        1043        1044        1049        1048
        1050        1051        1056        1055
        1051        1052        1057        1056
        1052        1053        1058        1057
        1053        1054        1059        1058
        1055        1056        1061        1060
        1056        1057        1062        1061
        1057        1058        1063        1062
        1058        1059        1064        1063
        1060        1061        1066        1065
        1061        1062        1067        1066
        1062        1063        1068        1067
        1063        1064        1069        1068
        1065        1066        1071        1070
        1066        1067        1072        1071
        1067        1068        1073        1072
        1068        1069        1074        1073
        1075        1076        1081        1080
        1076        1077        1082        1081
        1077        1078        1083        1082
        1078        1079        1084        1083
        1080        1081        1086        1085
        1081        1082        1087        1086
        1082        1083        1088        1087
        1083        1084        1089        1088
        1085        1086        1091        1090
        1086        1087        1092        1091
        1087        1088        1093        1092
        1088        1089        1094        1093
        1090        1091        1096        1095
        1091        1092        1097        1096
        1092        1093        1098        1097
        1093        1094        1099        1098
        1100        1101        1106        1105
        1101        1102        1107        1106
        1102        1103        1108        1107
        1103        1104        1109        1108
        1105        1106        1111        1110
        1106        1107        1112        1111
        1107        1108        1113        1112
        1108        1109        1114        1113
        1110        1111        1116        1115
        1111        1112        1117        1116
        1112        1113        1118        1117
        1113        1114        1119        1118
        1115        1116        1121        1120
        1116        1117        1122        1121
        1117        1118        1123        1122
        1118        1119        1124        1123
        1125        1126        1131        1130
        1126        1127        1132        1131
        1127        1128        1133        1132
        1128        1129        1134        1133
        1130        1131        1136        1135
        1131        1132        1137        1136
        1132        1133        1138        1137
        1133        1134        1139        1138
        1135        1136        1141        1140
        1136        1137        1142        1141
        1137        1138        1143        1142
        1138        1139        1144        1143
        1140        1141        1146        1145
        1141        1142        1147        1146
        1142        1143        1148        1147
        1143        1144        1149        1148
        1150        1151        1156        1155
        1151        1152        1157        1156
        1152        1153        1158        1157
        1153        1154        1159        1158
        1155        1156        1161        1160
        1156        1157        1162        1161
        1157        1158        1163        1162
        1158        1159        1164        1163
        1160        1161        1166        1165
        1161        1162        1167        1166
        1162        1163        1168        1167
        1163        1164        1169        1168
        1165        1166        1171        1170
        1166        1167        1172        1171
        1167        1168        1173        1172
        1168        1169        1174        1173
        1175        1176        1181        1180
        1176        1177        1182        1181
        1177        1178        1183        1182
        1178        1179        1184        1183
        1180        1181        1186        1185
        1181        1182        1187        1186
        1182        1183        1188        1187
        1183        1184        1189        1188
        1185        1186        1191        1190
        1186        1187        1192        1191
        1187        1188        1193        1192
        1188        1189        1194        1193
        1190        1191        1196        1195
        1191        1192        1197        1196
        1192        1193        1198        1197
        1193        1194        1199        1198
        1200        1201        1206        1205
        1201        1202        1207        1206
        1202        1203        1208        1207
        1203        1204        1209        1208
        1205        1206        1211        1210
        1206        1207        1212        1211
        1207        1208        1213        1212
        1208        1209        1214        1213
        1210        1211        1216        1215
        1211        1212        1217        1216
        1212        1213        1218        1217
        1213        1214        1219        1218
        1215        1216        1221        1220
        1216        1217        1222        1221
        1217        1218        1223        1222
        1218        1219        1224        1223
        1225        1226        1231        1230
        1226        1227        1232        1231
        1227        1228        1233        1232
        1228        1229        1234        1233
        1230        1231        1236        1235
        1231        1232        1237        1236
        1232        1233        1238        1237
        1233        1234        1239        1238
        1235        1236        1241        1240
        1236        1237        1242        1241
        1237        1238        1243        1242
        1238        1239        1244        1243
        1240        1241        1246        1245
        1241        1242        1247        1246
        1242        1243        1248        1247
        1243        1244        1249        1248
        1250        1251        1256        1255
        1251        1252        1257        1256
        1252        1253        1258        1257
        1253        1254        1259        1258
        1255        1256        1261        1260
        1256        1257        1262        1261
        1257        1258        1263        1262
        1258        1259        1264        1263
        1260        1261        1266        1265
        1261        1262        1267        1266
        1262        1263        1268        1267
        1263        1264        1269        1268
        1265        1266        1271        1270
        1266        1267        1272        1271
        1267        1268        1273        1272
        1268        1269        1274        1273
        1275        1276        1281        1280
        1276        1277        1282        1281
        1277        1278        1283        1282
        1278        1279        1284        1283
        1280        1281        1286        1285
        1281        1282        1287        1286
        1282        1283        1288        1287
        1283        1284        1289        1288
        1285        1286        1291        1290
        1286        1287        1292        1291
        1287        1288        1293        1292
        1288        1289        1294        1293
        1290        1291        1296        1295
        1291        1292        1297        1296
        1292        1293        1298        1297
        1293        1294        1299        1298
        1300        1301        1306        1305
        1301        1302        1307        1306
        1302        1303        1308        1307
        1303        1304        1309        1308
        1305        1306        1311        1310
        1306        1307        1312        1311
        1307        1308        1313        1312
        1308        1309        1314        1313
        1310        1311        1316        1315
        1311        1312        1317        1316
        1312        1313        1318        1317
        1313        1314        1319        1318
        1315        1316        1321        1320
        1316        1317        1322        1321
        1317        1318        1323        1322
        1318        1319        1324        1323
        1325        1326        1331        1330
        1326        1327        1332        1331
        1327        1328        1333        1332
        1328        1329        1334        1333
        1330        1331        1336        1335
        1331        1332        1337        1336
        1332        1333        1338        1337
        1333        1334        1339        1338
        1335        1336        1341        1340
        1336        1337        1342        1341
        1337        1338        1343        1342
        1338        1339        1344        1343
        1340        1341        1346        1345
        1341        1342        1347        1346
        1342        1343        1348        1347
        1343        1344        1349        1348
        1350        1351        1356        1355
        1351        1352        1357        1356
        1352        1353        1358        1357
        1353        1354        1359        1358
        1355        1356        1361        1360
        1356        1357        1362        1361
        1357        1358        1363        1362
        1358        1359        1364        1363
        1360        1361        1366        1365
        1361        1362        1367        1366
        1362        1363        1368        1367
        1363        1364        1369        1368
        1365        1366        1371        1370
        1366        1367        1372        1371
        1367        1368        1373        1372
        1368        1369        1374        1373
        1375        1376        1381        1380
        1376        1377        1382        1381
        1377        1378        1383        1382
        1378        1379        1384        1383
        1380        1381        1386        1385
        1381        1382        1387        1386
        1382        1383        1388        1387
        1383        1384        1389        1388
        1385        1386        1391        1390
        1386        1387        1392        1391
        1387        1388        1393        1392
        1388        1389        1394        1393
        1390        1391        1396        1395
        1391        1392        1397        1396
        1392        1393        1398        1397
        1393        1394        1399        1398
        1400        1401        1406        1405
        1401        1402        1407        1406
        1402        1403        1408        1407
        1403        1404        1409        1408
        1405        1406        1411        1410
        1406        1407        1412        1411
        1407        1408        1413        1412
        1408        1409        1414        1413
        1410        1411        1416        1415
        1411        1412        1417        1416
        1412        1413        1418        1417
        1413        1414        1419        1418
        1415        1416        1421        1420
        1416        1417        1422        1421
        1417        1418        1423        1422
        1418        1419        1424        1423
        1425        1426        1431        1430
        1426        1427        1432        1431
        1427        1428        1433        1432
        1428        1429        1434        1433
        1430        1431        1436        1435
        1431        1432        1437        1436
        1432        1433        1438        1437
        1433        1434        1439        1438
        1435        1436        1441        1440
        1436        1437        1442        1441
        1437        1438        1443        1442
        1438        1439        1444        1443
        1440        1441        1446        1445
        1441        1442        1447        1446
        1442        1443        1448        1447
        1443        1444        1449        1448
        1450        1451        1456        1455
        1451        1452        1457        1456
        1452        1453        1458        1457
        1453        1454        1459        1458
        1455        1456        1461        1460
        1456        1457        1462        1461
        1457        1458        1463        1462
        1458        1459        1464        1463
        1460        1461        1466        1465
        1461        1462        1467        1466
        1462        1463        1468        1467
        1463        1464        1469        1468
        1465        1466        1471        1470
        1466        1467        1472        1471
        1467        1468        1473        1472
        1468        1469        1474        1473
        1475        1476        1481        1480
        1476        1477        1482        1481
        1477        1478        1483        1482
        1478        1479        1484        1483
        1480        1481        1486        1485
        1481        1482        1487        1486
        1482        1483        1488        1487
        1483        1484        1489        1488
        1485        1486        1491        1490
        1486        1487        1492        1491
        1487        1488        1493        1492
        1488        1489        1494        1493
        1490        1491        1496        1495
        1491        1492        1497        1496
        1492        1493        1498        1497
        1493        1494        1499        1498
        1500        1501        1506        1505
        1501        1502        1507        1506
        1502        1503        1508        1507
        1503        1504        1509        1508
        1505        1506        1511        1510
        1506        1507        1512        1511
        1507        1508        1513        1512
        1508        1509        1514        1513
        1510        1511        1516        1515
        1511        1512        1517        1516
        1512        1513        1518        1517
        1513        1514        1519        1518
        1515        1516        1521        1520
        1516        1517        1522        1521
        1517        1518        1523        1522
        1518        1519        1524        1523
        1525        1526        1531        1530
        1526        1527        1532        1531
        1527        1528        1533        1532
        1528        1529        1534        1533
        1530        1531        1536        1535
        1531        1532        1537        1536
        1532        1533        1538        1537
        1533        1534        1539        1538
        1535        1536        1541        1540
        1536        1537        1542        1541
        1537        1538        1543        1542
        1538        1539        1544        1543
        1540        1541        1546        1545
        1541        1542        1547        1546
        1542        1543        1548        1547
        1543        1544        1549        1548
        1550        1551        1556        1555
        1551        1552        1557        1556
        1552        1553        1558        1557
        1553        1554        1559        1558
        1555        1556        1561        1560
        1556        1557        1562        1561
        1557        1558        1563        1562
        1558        1559        1564        1563
        1560        1561        1566        1565
        1561        1562        1567        1566
        1562        1563        1568        1567
        1563        1564        1569        1568
        1565        1566        1571        1570
        1566        1567        1572        1571
        1567        1568        1573        1572
        1568        1569        1574        1573
        1575        1576        1581        1580
        1576        1577        1582        1581
        1577        1578        1583        1582
        1578        1579        1584        1583
        1580        1581        1586        1585
        1581        1582        1587        1586
        1582        1583        1588        1587
        1583        1584        1589        1588
        1585        1586        1591        1590
        1586        1587        1592        1591
        1587        1588        1593        1592
        1588        1589        1594        1593
        1590        1591        1596        1595
        1591        1592        1597        1596
        1592        1593        1598        1597
        1593        1594        1599        1598
 </DataArray>
 <DataArray  type="Int32"  Name="offsets"  format="ascii"> 
           4
           8
          12
          16
          20
          24
          28
          32
          36
          40
          44
          48
          52
          56
          60
          64
          68
          72
          76
          80
          84
          88
          92
          96
         100
         104
         108
         112
         116
         120
         124
         128
         132
         136
         140
         144
         148
         152
         156
         160
         164
         168
         172
         176
         180
         184
         188
         192
         196
         200
         204
         208
         212
         216
         220
         224
         228
         232
         236
         240
         244
         248
         252
         256
         260
         264
         268
         272
         276
         280
         284
         288
         292
         296
         300
         304
         308
         312
         316
         320
         324
         328
         332
         336
         340
         344
         348
         352
         356
         360
         364
         368
         372
         376
         380
         384
         388
         392
         396
         400
         404
         408
         412
         416
         420
         424
         428
         432
         436
         440
         444
         448
         452
         456
         460
         464
         468
         472
         476
         480
         484
         488
         492
         496
         500
         504
         508
         512
         516
         520
         524
         528
         532
         536
         540
         544
         548
         552
         556
         560
         564
         568
         572
         576
         580
         584
         588
         592
         596
         600
         604
         608
         612
         616
         620
         624
         628
         632
         636
         640
         644
         648
         652
         656
         660
         664
         668
         672
         676
         680
         684
         688
         692
         696
         700
         704
         708
         712
         716
         720
         724
         728
         732
         736
         740
         744
         748
         752
         756
         760
         764
         768
         772
         776
         780
         784
         788
         792
         796
         800
         804
         808
         812
         816
         820
         824
         828
         832
         836
         840
         844
         848
         852
         856
         860
         864
         868
         872
         876
         880
         884
         888
         892
         896
         900
         904
         908
         912
         916
         920
         924
         928
         932
         936
         940
         944
         948
         952
         956
         960
         964
         968
         972
         976
         980
         984
         988
         992
         996
        1000
        1004
        1008
        1012
        1016
        1020
        1024
        1028
        1032
        1036
        1040
        1044
        1048
        1052
        1056
        1060
        1064
        1068
        1072
        1076
        1080
        1084
        1088
        1092
        1096
        1100
        1104
        1108
        1112
        1116
        1120
        1124
        1128
        1132
        1136
        1140
        1144
        1148
        1152
        1156
        1160
        1164
        1168
        1172
        1176
        1180
        1184
        1188
        1192
        1196
        1200
        1204
        1208
        1212
        1216
        1220
        1224
        1228
        1232
        1236
        1240
        1244
        1248
        1252
        1256
        1260
        1264
        1268
        1272
        1276
        1280
        1284
        1288
        1292
        1296
        1300
        1304
        1308
        1312
        1316
        1320
        1324
        1328
        1332
        1336
        1340
        1344
        1348
        1352
        1356
        1360
        1364
        1368
        1372
        1376
        1380
        1384
        1388
        1392
        1396
        1400
        1404
        1408
        1412
        1416
        1420
        1424
        1428
        1432
        1436
        1440
        1444
        1448
        1452
        1456
        1460
        1464
        1468
        1472
        1476
        1480
        1484
        1488
        1492
        1496
        1500
        1504
        1508
        1512
        1516
        1520
        1524
        1528
        1532
        1536
        1540
        1544
        1548
        1552
        1556
        1560
        1564
        1568
        1572
        1576
        1580
        1584
        1588
        1592
        1596
        1600
        1604
        1608
        1612
        1616
        1620
        1624
        1628
        1632
        1636
        1640
        1644
        1648
        1652
        1656
        1660
        1664
        1668
        1672
        1676
        1680
        1684
        1688
        1692
        1696
        1700
        1704
        1708
        1712
        1716
        1720
        1724
        1728
        1732
        1736
        1740
        1744
        1748
        1752
        1756
        1760
        1764
        1768
        1772
        1776
        1780
        1784
        1788
        1792
        1796
        1800
        1804
        1808
        1812
        1816
        1820
        1824
        1828
        1832
        1836
        1840
        1844
        1848
        1852
        1856
        1860
        1864
        1868
        1872
        1876
        1880
        1884
        1888
        1892
        1896
        1900
        1904
        1908
        1912
        1916
        1920
        1924
        1928
        1932
        1936
        1940
        1944
        1948
        1952
        1956
        1960
        1964
        1968
        1972
        1976
        1980
        1984
        1988
        1992
        1996
        2000
        2004
        2008
        2012
        2016
        2020
        2024
        2028
        2032
        2036
        2040
        2044
        2048
        2052
        2056
        2060
        2064
        2068
        2072
        2076
        2080
        2084
        2088
        2092
        2096
        2100
        2104
        2108
        2112
        2116
        2120
        2124
        2128
        2132
        2136
        2140
        2144
        2148
        2152
        2156
        2160
        2164
        2168
        2172
        2176
        2180
        2184
        2188
        2192
        2196
        2200
        2204
        2208
        2212
        2216
        2220
        2224
        2228
        2232
        2236
        2240
        2244
        2248
        2252
        2256
        2260
        2264
        2268
        2272
        2276
        2280
        2284
        2288
        2292
        2296
        2300
        2304
        2308
        2312
        2316
        2320
        2324
        2328
        2332
        2336
        2340
        2344
        2348
        2352
        2356
        2360
        2364
        2368
        2372
        2376
        2380
        2384
        2388
        2392
        2396
        2400
        2404
        2408
        2412
        2416
        2420
        2424
        2428
        2432
        2436
        2440
        2444
        2448
        2452
        2456
        2460
        2464
        2468
        2472
        2476
        2480
        2484
        2488
        2492
        2496
        2500
        2504
        2508
        2512
        2516
        2520
        2524
        2528
        2532
        2536
        2540
        2544
        2548
        2552
        2556
        2560
        2564
        2568
        2572
        2576
        2580
        2584
        2588
        2592
        2596
        2600
        2604
        2608
        2612
        2616
        2620
        2624
        2628
        2632
        2636
        2640
        2644
        2648
        2652
        2656
        2660
        2664
        2668
        2672
        2676
        2680
        2684
        2688
        2692
        2696
        2700
        2704
        2708
        2712
        2716
        2720
        2724
        2728
        2732
        2736
        2740
        2744
        2748
        2752
        2756
        2760
        2764
        2768
        2772
        2776
        2780
        2784
        2788
        2792
        2796
        2800
        2804
        2808
        2812
        2816
        2820
        2824
        2828
        2832
        2836
        2840
        2844
        2848
        2852
        2856
        2860
        2864
        2868
        2872
        2876
        2880
        2884
        2888
        2892
        2896
        2900
        2904
        2908
        2912
        2916
        2920
        2924
        2928
        2932
        2936
        2940
        2944
        2948
        2952
        2956
        2960
        2964
        2968
        2972
        2976
        2980
        2984
        2988
        2992
        2996
        3000
        3004
        3008
        3012
        3016
        3020
        3024
        3028
        3032
        3036
        3040
        3044
        3048
        3052
        3056
        3060
        3064
        3068
        3072
        3076
        3080
        3084
        3088
        3092
        3096
        3100
        3104
        3108
        3112
        3116
        3120
        3124
        3128
        3132
        3136
        3140
        3144
        3148
        3152
        3156
        3160
        3164
        3168
        3172
        3176
        3180
        3184
        3188
        3192
        3196
        3200
        3204
        3208
        3212
        3216
        3220
        3224
        3228
        3232
        3236
        3240
        3244
        3248
        3252
        3256
        3260
        3264
        3268
        3272
        3276
        3280
        3284
        3288
        3292
        3296
        3300
        3304
        3308
        3312
        3316
        3320
        3324
        3328
        3332
        3336
        3340
        3344
        3348
        3352
        3356
        3360
        3364
        3368
        3372
        3376
        3380
        3384
        3388
        3392
        3396
        3400
        3404
        3408
        3412
        3416
        3420
        3424
        3428
        3432
        3436
        3440
        3444
        3448
        3452
        3456
        3460
        3464
        3468
        3472
        3476
        3480
        3484
        3488
        3492
        3496
        3500
        3504
        3508
        3512
        3516
        3520
        3524
        3528
        3532
        3536
        3540
        3544
        3548
        3552
        3556
        3560
        3564
        3568
        3572
        3576
        3580
        3584
        3588
        3592
        3596
        3600
        3604
        3608
        3612
        3616
        3620
        3624
        3628
        3632
        3636
        3640
        3644
        3648
        3652
        3656
        3660
        3664
        3668
        3672
        3676
        3680
        3684
        3688
        3692
        3696
        3700
        3704
        3708
        3712
        3716
        3720
        3724
        3728
        3732
        3736
        3740
        3744
        3748
        3752
        3756
        3760
        3764
        3768
        3772
        3776
        3780
        3784
        3788
        3792
        3796
        3800
        3804
        3808
        3812
        3816
        3820
        3824
        3828
        3832
        3836
        3840
        3844
        3848
        3852
        3856
        3860
        3864
        3868
        3872
        3876
        3880
        3884
        3888
        3892
        3896
        3900
        3904
        3908
        3912
        3916
        3920
        3924
        3928
        3932
        3936
        3940
        3944
        3948
        3952
        3956
        3960
        3964
        3968
        3972
        3976
        3980
        3984
        3988
        3992
        3996
        4000
        4004
        4008
        4012
        4016
        4020
        4024
        4028
        4032
        4036
        4040
        4044
        4048
        4052
        4056
        4060
        4064
        4068
        4072
        4076
        4080
        4084
        4088
        4092
        4096
 </DataArray>
 <DataArray  type="UInt8"  Name="types"  format="ascii">
 9
 9
 9
 9
 9
 9
 9
 9
 9
 9
 9
 9
 9
 9
 9
 9
 9
 9
 9
 9
 9
 9
 9
 9
 9
 9
 9
 9
 9
 9
 9
 9
 9
 9
 9
 9
 9
 9
 9
 9
 9
 9
 9
 9
 9
 9
 9
 9
 9
 9
 9
 9
 9
 9
 9
 9
 9
 9
 9
 9
 9
 9
 9
 9
 9
 9
 9
 9
 9
 9
 9
 9
 9
 9
 9
 9
 9
 9
 9
 9
 9
 9
 9
 9
 9
 9
 9
 9
 9
 9
 9
 9
 9
 9
 9
 9
 9
 9
 9
 9
 9
 9
 9
 9
 9
 9
 9
 9
 9
 9
 9
 9
 9
 9
 9
 9
 9
 9
 9
 9
 9
 9
 9
 9
 9
 9
 9
 9
 9
 9
 9
 9
 9
 9
 9
 9
 9
 9
 9
 9
 9
 9
 9
 9
 9
 9
 9
 9
 9
 9
 9
 9
 9
 9
 9
 9
 9
 9
 9
 9
 9
 9
 9
 9
 9
 9
 9
 9
 9
 9
 9
 9
 9
 9
 9
 9
 9
 9
 9
 9
 9
 9
 9
 9
 9
 9
 9
 9
 9
 9
 9
 9
 9
 9
 9
 9
 9
 9
 9
 9
 9
 9
 9
 9
 9
 9
 9
 9
 9
 9
 9
 9
 9
 9
 9
 9
 9
 9
 9
 9
 9
 9
 9
 9
 9
 9
 9
 9
 9
 9
 9
 9
 9
 9
 9
 9
 9
 9
 9
 9
 9
 9
 9
 9
 9
 9
 9
 9
 9
 9
 9
 9
 9
 9
 9
 9
 9
 9
 9
 9
 9
 9
 9
 9
 9
 9
 9
 9
 9
 9
 9
 9
 9
 9
 9
 9
 9
 9
 9
 9
 9
 9
 9
 9
 9
 9
 9
 9
 9
 9
 9
 9
 9
 9
 9
 9
 9
 9
 9
 9
 9
 9
 9
 9
 9
 9
 9
 9
 9
 9
 9
 9
 9
 9
 9
 9
 9
 9
 9
 9
 9
 9
 9
 9
 9
 9
 9
 9
 9
 9
 9
 9
 9
 9
 9
 9
 9
 9
 9
 9
 9
 9
 9
 9
 9
 9
 9
 9
 9
 9
 9
 9
 9
 9
 9
 9
 9
 9
 9
 9
 9
 9
 9
 9
 9
 9
 9
 9
 9
 9
 9
 9
 9
 9
 9
 9
 9
 9
 9
 9
 9
 9
 9
 9
 9
 9
 9
 9
 9
 9
 9
 9
 9
 9
 9
 9
 9
 9
 9
 9
 9
 9
 9
 9
 9
 9
 9
 9
 9
 9
 9
 9
 9
 9
 9
 9
 9
 9
 9
 9
 9
 9
 9
 9
 9
 9
 9
 9
 9
 9
 9
 9
 9
 9
 9
 9
 9
 9
 9
 9
 9
 9
 9
 9
 9
 9
 9
 9
 9
 9
 9
 9
 9
 9
 9
 9
 9
 9
 9
 9
 9
 9
 9
 9
 9
 9
 9
 9
 9
 9
 9
 9
 9
 9
 9
 9
 9
 9
 9
 9
 9
 9
 9
 9
 9
 9
 9
 9
 9
 9
 9
 9
 9
 9
 9
 9
 9
 9
 9
 9
 9
 9
 9
 9
 9
 9
 9
 9
 9
 9
 9
 9
 9
 9
 9
 9
 9
 9
 9
 9
 9
 9
 9
 9
 9
 9
 9
 9
 9
 9
 9
 9
 9
 9
 9
 9
 9
 9
 9
 9
 9
 9
 9
 9
 9
 9
 9
 9
 9
 9
 9
 9
 9
 9
 9
 9
 9
 9
 9
 9
 9
 9
 9
 9
 9
 9
 9
 9
 9
 9
 9
 9
 9
 9
 9
 9
 9
 9
 9
 9
 9
 9
 9
 9
 9
 9
 9
 9
 9
 9
 9
 9
 9
 9
 9
 9
 9
 9
 9
 9
 9
 9
 9
 9
 9
 9
 9
 9
 9
 9
 9
 9
 9
 9
 9
 9
 9
 9
 9
 9
 9
 9
 9
 9
 9
 9
 9
 9
 9
 9
 9
 9
 9
 9
 9
 9
 9
 9
 9
 9
 9
 9
 9
 9
 9
 9
 9
 9
 9
 9
 9
 9
 9
 9
 9
 9
 9
 9
 9
 9
 9
 9
 9
 9
 9
 9
 9
 9
 9
 9
 9
 9
 9
 9
 9
 9
 9
 9
 9
 9
 9
 9
 9
 9
 9
 9
 9
 9
 9
 9
 9
 9
 9
 9
 9
 9
 9
 9
 9
 9
 9
 9
 9
 9
 9
 9
 9
 9
 9
 9
 9
 9
 9
 9
 9
 9
 9
 9
 9
 9
 9
 9
 9
 9
 9
 9
 9
 9
 9
 9
 9
 9
 9
 9
 9
 9
 9
 9
 9
 9
 9
 9
 9
 9
 9
 9
 9
 9
 9
 9
 9
 9
 9
 9
 9
 9
 9
 9
 9
 9
 9
 9
 9
 9
 9
 9
 9
 9
 9
 9
 9
 9
 9
 9
 9
 9
 9
 9
 9
 9
 9
 9
 9
 9
 9
 9
 9
 9
 9
 9
 9
 9
 9
 9
 9
 9
 9
 9
 9
 9
 9
 9
 9
 9
 9
 9
 9
 9
 9
 9
 9
 9
 9
 9
 9
 9
 9
 9
 9
 9
 9
 9
 9
 9
 9
 9
 9
 9
 9
 9
 9
 9
 9
 9
 9
 9
 9
 9
 9
 9
 9
 9
 9
 9
 9
 9
 9
 9
 9
 9
 9
 9
 9
 9
 9
 9
 9
 9
 9
 9
 9
 9
 9
 9
 9
 9
 9
 9
 9
 9
 9
 9
 9
 9
 9
 9
 9
 9
 9
 9
 9
 9
 9
 9
 9
 9
 9
 9
 9
 9
 9
 9
 9
 9
 9
 9
 9
 9
 9
 9
 9
 9
 9
 9
 9
 9
 9
 9
 9
 9
 9
 9
 9
 9
 9
 9
 9
 9
 9
 9
 9
 9
 9
 9
 9
 9
 9
 9
 9
 9
 9
 9
 9
 9
 9
 9
 9
 9
 9
 9
 9
 9
 9
 9
 9
 9
 9
 9
 9
 9
 9
 9
 9
 9
 9
 9
 9
 9
 9
 9
 9
 9
 9
 9
 9
 9
 9
 9
 9
 9
 9
 9
 9
 9
 9
 9
 9
 9
 9
 9
 9
 9
 9
 9
 9
 9
 9
 9
 9
 9
 9
 9
 9
 9
 9
 9
 9
 9
 9
 9
 9
 9
 9
 9
 9
 9
 9
 9
 9
 9
 9
 9
 9
 9
 9
 9
 9
 9
 9
 9
 9
 9
 9
 9
 </DataArray>
 </Cells> 
 <PointData>
 <DataArray  type="Float64" Name="disp" NumberOfComponents="3" format="ascii">
   6.5334940423976459E-002   6.2929499391111546E-002   0.0000000000000000     
   6.8413925520341451E-002   6.8244969889121265E-002   0.0000000000000000     
   7.1382668706565983E-002   7.3761734921881816E-002   0.0000000000000000     
   7.4241169982650040E-002   7.9479794489393171E-002   0.0000000000000000     
   7.6989429348593652E-002   8.5399148591655358E-002   0.0000000000000000     
   6.0092287816917736E-002   6.1823540439240182E-002   0.0000000000000000     
   6.2995087583998147E-002   6.7232474043562862E-002   0.0000000000000000     
   6.5792011268578671E-002   7.2826742967346841E-002   0.0000000000000000     
   6.8483058870659294E-002   7.8606347210592120E-002   0.0000000000000000     
   7.1068230390240045E-002   8.4571286773298657E-002   0.0000000000000000     
   5.5084439390695086E-002   6.0889110180998476E-002   0.0000000000000000     
   5.7803963121317470E-002   6.6358479874280146E-002   0.0000000000000000     
   6.0422879039040200E-002   7.2003940152102736E-002   0.0000000000000000     
   6.2941187143863320E-002   7.7825491014466217E-002   0.0000000000000000     
   6.5358887435786800E-002   8.3823132461370603E-002   0.0000000000000000     
   5.0311395145308475E-002   6.0126208616386456E-002   0.0000000000000000     
   5.2840552132299379E-002   6.5622987381273104E-002   0.0000000000000000     
   5.5275272017950600E-002   7.1293326476149443E-002   0.0000000000000000     
   5.7615554802262110E-002   7.7137225901015474E-002   0.0000000000000000     
   5.9861400485233918E-002   8.3154685655871211E-002   0.0000000000000000     
   4.5773155080757924E-002   5.9534835745404108E-002   0.0000000000000000     
   4.8104854616943908E-002   6.5025996564541749E-002   0.0000000000000000     
   5.0349190205309813E-002   7.0694901939487020E-002   0.0000000000000000     
   5.2506161845855645E-002   7.6541551870239921E-002   0.0000000000000000     
   5.4575769538581412E-002   8.2565946356800438E-002   0.0000000000000000     
   7.6989429348593652E-002   8.5399148591655358E-002   0.0000000000000000     
   7.9641992275152909E-002   9.1497771118167620E-002   0.0000000000000000     
   8.2213404233083931E-002   9.7753635958429216E-002   0.0000000000000000     
   8.4703665222386704E-002  0.10416674311244016        0.0000000000000000     
   8.7112775243061241E-002  0.11073709258020044        0.0000000000000000     
   7.1068230390240045E-002   8.4571286773298657E-002   0.0000000000000000     
   7.3561710853454698E-002   9.0706337505682369E-002   0.0000000000000000     
   7.5977685286437072E-002   9.6996275257959091E-002   0.0000000000000000     
   7.8316153689187151E-002  0.10344110003012881        0.0000000000000000     
   8.0577116061704965E-002  0.11004081182219157        0.0000000000000000     
   6.5358887435786800E-002   8.3823132461370603E-002   0.0000000000000000     
   6.7689679851871951E-002   8.9985998454395005E-002   0.0000000000000000     
   6.9947264329180081E-002   9.6303222955118492E-002   0.0000000000000000     
   7.2131640867711191E-002  0.10277480596354106        0.0000000000000000     
   7.4242809467465268E-002  0.10940074747966266        0.0000000000000000     
   5.9861400485233918E-002   8.3154685655871211E-002   0.0000000000000000     
   6.2025899270404666E-002   8.9336753964305529E-002   0.0000000000000000     
   6.4122141361312959E-002   9.5674479049907404E-002   0.0000000000000000     
   6.6150126757958783E-002  0.10216786091267678        0.0000000000000000     
   6.8109855460342164E-002  0.10881689955261374        0.0000000000000000     
   5.4575769538581412E-002   8.2565946356800438E-002   0.0000000000000000     
   5.6570369109052845E-002   8.8758604035413968E-002   0.0000000000000000     
   5.8502316382835699E-002   9.5110043542325856E-002   0.0000000000000000     
   6.0371611359929966E-002  0.10162026487753612        0.0000000000000000     
   6.2178254040335654E-002  0.10828926804104476        0.0000000000000000     
   8.7112775243061241E-002  0.11073709258020044        0.0000000000000000     
   8.9428686937971597E-002  0.11745270898631915        0.0000000000000000     
   9.1639352949981809E-002  0.12430161695540537        0.0000000000000000     
   9.3744773279091864E-002  0.13128381648745913        0.0000000000000000     
   9.5744947925301790E-002  0.13839930758248040        0.0000000000000000     
   8.0577116061704965E-002  0.11004081182219157        0.0000000000000000     
   8.2749979530446299E-002  0.11678469922344842        0.0000000000000000     
   8.4824151221867025E-002  0.12366205082320048        0.0000000000000000     
   8.6799631135967115E-002  0.13067286662144773        0.0000000000000000     
   8.8676419272746554E-002  0.13781714661819014        0.0000000000000000     
   7.4242809467465268E-002  0.10940074747966266        0.0000000000000000     
   7.6271270293422011E-002  0.11617067073998599        0.0000000000000000     
   7.8207523510561122E-002  0.12307419898101359        0.0000000000000000     
   8.0051569118882587E-002  0.13011133220274546        0.0000000000000000     
   8.1803407118386406E-002  0.13728207040518162        0.0000000000000000     
   6.8109855460342164E-002  0.10881689955261374        0.0000000000000000     
   6.9992559226898732E-002  0.11561062353593184        0.0000000000000000     
   7.1789469816064114E-002  0.12253806142884471        0.0000000000000000     
   7.3500587227838324E-002  0.12959921323135240        0.0000000000000000     
   7.5125911462221320E-002  0.13679407894345483        0.0000000000000000     
   6.2178254040335654E-002  0.10828926804104476        0.0000000000000000     
   6.3913846330876434E-002  0.11510455761128593        0.0000000000000000     
   6.5569990138375972E-002  0.12205363816669385        0.0000000000000000     
   6.7146685462834282E-002  0.12913650970726845        0.0000000000000000     
   6.8643932304251337E-002  0.13635317223300980        0.0000000000000000     
   9.5744947925301790E-002  0.13839930758248040        0.0000000000000000     
   9.7647856255109439E-002  0.14563623899563793        0.0000000000000000     
   9.9461477635012660E-002  0.15298275948210049        0.0000000000000000     
  0.10118581206501144       0.16043886904186810        0.0000000000000000     
  0.10282085954510582       0.16800456767494071        0.0000000000000000     
   8.8676419272746554E-002  0.13781714661819014        0.0000000000000000     
   9.0461808123258422E-002  0.14508287021158794        0.0000000000000000     
   9.2163090178555743E-002  0.15245801679980123        0.0000000000000000     
   9.3780265438638544E-002  0.15994258638283007        0.0000000000000000     
   9.5313333903506797E-002  0.16753657896067439        0.0000000000000000     
   8.1803407118386406E-002  0.13728207040518162        0.0000000000000000     
   8.3469535603608716E-002  0.14457422913096649        0.0000000000000000     
   8.5056452669085666E-002  0.15197562392274436        0.0000000000000000     
   8.6564158314817258E-002  0.15948625478051534        0.0000000000000000     
   8.7992652540803504E-002  0.16710612170427930        0.0000000000000000     
   7.5125911462221320E-002  0.13679407894345483        0.0000000000000000     
   7.6671038696160321E-002  0.14411031575377353        0.0000000000000000     
   7.8141565106602390E-002  0.15153558085092989        0.0000000000000000     
   7.9537490693547624E-002  0.15906987423492386        0.0000000000000000     
   8.0858815456995942E-002  0.16671319590575548        0.0000000000000000     
   6.8643932304251337E-002  0.13635317223300980        0.0000000000000000     
   7.0066317400913222E-002  0.14369113008000914        0.0000000000000000     
   7.1418427491105968E-002  0.15113788758435776        0.0000000000000000     
   7.2700262574829588E-002  0.15869344474605568        0.0000000000000000     
   7.3911822652084083E-002  0.16635780156510291        0.0000000000000000     
  0.10282085954510582       0.16800456767494071        0.0000000000000000     
  0.10436808298904247       0.17566983445197062        0.0000000000000000     
  0.10582894531056813       0.18342464844360995        0.0000000000000000     
  0.10720344650968275       0.19126900964985882        0.0000000000000000     
  0.10849158658638636       0.19920291807071716        0.0000000000000000     
   9.5313333903506797E-002  0.16753657896067439        0.0000000000000000     
   9.6762182783271991E-002  0.17522988238710296        0.0000000000000000     
   9.8126699288045516E-002  0.18301238451588445        0.0000000000000000     
   9.9406883417827441E-002  0.19088408534701892        0.0000000000000000     
  0.10060273517261770       0.19884498488050628        0.0000000000000000     
   8.7992652540803504E-002  0.16710612170427930        0.0000000000000000     
   8.9340673467335749E-002  0.17482518210223044        0.0000000000000000     
   9.0606959214705338E-002  0.18263339338256279        0.0000000000000000     
   9.1791509782912284E-002  0.19053075554527632        0.0000000000000000     
   9.2894325171956602E-002  0.19851726859037105        0.0000000000000000     
   8.0858815456995942E-002  0.16671319590575548        0.0000000000000000     
   8.2103555041233775E-002  0.17445573359735309        0.0000000000000000     
   8.3269725090547586E-002  0.18228767504364496        0.0000000000000000     
   8.4357325604937347E-002  0.19020902024463102        0.0000000000000000     
   8.5366356584403044E-002  0.19821976920031140        0.0000000000000000     
   7.3911822652084083E-002  0.16635780156510291        0.0000000000000000     
   7.5050827504966083E-002  0.17412153687247084        0.0000000000000000     
   7.6114996915572247E-002  0.18197522949913089        0.0000000000000000     
   7.7104330883902575E-002  0.18991887944508304        0.0000000000000000     
   7.8018829409957052E-002  0.19795248671032736        0.0000000000000000     
  0.10849158658638636       0.19920291807071716        0.0000000000000000     
  0.10969904466377037       0.20722237763096413        0.0000000000000000     
  0.11083149986492617       0.21532339225537880        0.0000000000000000     
  0.11188895218985374       0.22350596194396122        0.0000000000000000     
  0.11287140163855315       0.23177008669671140        0.0000000000000000     
  0.10060273517261770       0.19884498488050628        0.0000000000000000     
  0.10171987395515480       0.20688931909441033        0.0000000000000000     
  0.10276391916817719       0.21501132396679473        0.0000000000000000     
  0.10373487081168485       0.22321099949765946        0.0000000000000000     
  0.10463272888567779       0.23148834568700452        0.0000000000000000     
   9.2894325171956602E-002  0.19851726859037105        0.0000000000000000     
   9.3920178884744257E-002  0.20658601984500213        0.0000000000000000     
   9.4873844424181258E-002  0.21473009663632484        0.0000000000000000     
   9.5755321790267633E-002  0.22294949896433894        0.0000000000000000     
   9.6564610983003341E-002  0.23124422682904466        0.0000000000000000     
   8.5366356584403044E-002  0.19821976920031140        0.0000000000000000     
   8.6299959452538738E-002  0.20631247988273957        0.0000000000000000     
   8.7161275632938434E-002  0.21447971026396898        0.0000000000000000     
   8.7950305125602118E-002  0.22272146034399973        0.0000000000000000     
   8.8667047930529819E-002  0.23103773012283174        0.0000000000000000     
   7.8018829409957052E-002  0.19795248671032736        0.0000000000000000     
   7.8859215658538234E-002  0.20606869920762250        0.0000000000000000     
   7.9626212794448648E-002  0.21426016484972735        0.0000000000000000     
   8.0319820817688320E-002  0.22252688363664172        0.0000000000000000     
   8.0940039728257251E-002  0.23086885556836578        0.0000000000000000     
  0.11287140163855315       0.23177008669671140        0.0000000000000000     
  0.11380672404502043       0.24013251849476114        0.0000000000000000     
  0.11472279524325163       0.24861000931924235        0.0000000000000000     
  0.11561961523324679       0.25720255917015505        0.0000000000000000     
  0.11649718401500590       0.26591016804749923        0.0000000000000000     
  0.10463272888567779       0.23148834568700452        0.0000000000000000     
  0.10546242568979169       0.23986680047126113        0.0000000000000000     
  0.10622889352366228       0.24836980178686047        0.0000000000000000     
  0.10693213238728956       0.25699734963380255        0.0000000000000000     
  0.10757214228067352       0.26574944401208722        0.0000000000000000     
   9.6564610983003341E-002  0.23124422682904466        0.0000000000000000     
   9.7292597910906928E-002  0.23964059766726778        0.0000000000000000     
   9.7930168482496957E-002  0.24816492891583419        0.0000000000000000     
   9.8477322697773442E-002  0.25681722057474393        0.0000000000000000     
   9.8934060556736314E-002  0.26559747264399697        0.0000000000000000     
   8.8667047930529819E-002  0.23103773012283174        0.0000000000000000     
   8.9297240708366116E-002  0.23945391008278102        0.0000000000000000     
   8.9826620119755646E-002  0.24799539070616355        0.0000000000000000     
   9.0255186164698367E-002  0.25666217199297936        0.0000000000000000     
   9.0582938843194280E-002  0.26545425394322847        0.0000000000000000     
   8.0940039728257251E-002  0.23086885556836578        0.0000000000000000     
   8.1476354082169300E-002  0.23930673771780092        0.0000000000000000     
   8.1918248435438351E-002  0.24786118715784861        0.0000000000000000     
   8.2265722788064391E-002  0.25653220388850889        0.0000000000000000     
   8.2518777140047433E-002  0.26531978790978161        0.0000000000000000     
  0.11649718401500590       0.26591016804749923        0.0000000000000000     
  0.11729599883695194       0.27489724309618879        0.0000000000000000     
  0.11795655694750784       0.28432819146113747        0.0000000000000000     
  0.11847885834667364       0.29420301314234548        0.0000000000000000     
  0.11886290303444931       0.30452170813981266        0.0000000000000000     
  0.10757214228067352       0.26574944401208722        0.0000000000000000     
  0.10813000230213757       0.27475815986986402        0.0000000000000000     
  0.10858679155000513       0.28415557215528198        0.0000000000000000     
  0.10894251002427617       0.29394168086834122        0.0000000000000000     
  0.10919715772495076       0.30411648600904173        0.0000000000000000     
   9.8934060556736314E-002  0.26559747264399697        0.0000000000000000     
   9.9311395873658587E-002  0.27460397563039091        0.0000000000000000     
   9.9620342462813191E-002  0.28393502004072330        0.0000000000000000     
   9.9860900324200141E-002  0.29359060587499408        0.0000000000000000     
  0.10003306945781940       0.30357073313320326        0.0000000000000000     
   9.0582938843194280E-002  0.26545425394322847        0.0000000000000000     
   9.0840179551514980E-002  0.27443469037776952        0.0000000000000000     
   9.1057209685932061E-002  0.28366653511746137        0.0000000000000000     
   9.1234029246445469E-002  0.29314978816230391        0.0000000000000000     
   9.1370638233055246E-002  0.30288444951229726        0.0000000000000000     
   8.2518777140047433E-002  0.26531978790978161        0.0000000000000000     
   8.2716353335706788E-002  0.27425030411199980        0.0000000000000000     
   8.2897393219361695E-002  0.28335011738549626        0.0000000000000000     
   8.3061896791012210E-002  0.29261922773027088        0.0000000000000000     
   8.3209864050658305E-002  0.30205763514632378        0.0000000000000000     
   4.5773155080757924E-002   5.9534835745404108E-002   0.0000000000000000     
   4.8104854616943908E-002   6.5025996564541749E-002   0.0000000000000000     
   5.0349190205309813E-002   7.0694901939487020E-002   0.0000000000000000     
   5.2506161845855645E-002   7.6541551870239921E-002   0.0000000000000000     
   5.4575769538581412E-002   8.2565946356800438E-002   0.0000000000000000     
   4.1408316546786894E-002   5.9010853568106376E-002   0.0000000000000000     
   4.3541166140366280E-002   6.4490130179251967E-002   0.0000000000000000     
   4.5594016372107402E-002   7.0152694662951820E-002   0.0000000000000000     
   4.7566867242010258E-002   7.5998547019205914E-002   0.0000000000000000     
   4.9459718750074856E-002   8.2027687248014292E-002   0.0000000000000000     
   3.7155476893138840E-002   5.8450124084548215E-002   0.0000000000000000     
   3.9093782267681745E-002   6.3938010980569643E-002   0.0000000000000000     
   4.0959133289332872E-002   6.9610732767380210E-002   0.0000000000000000     
   4.2751529958092248E-002   7.5468289444979936E-002   0.0000000000000000     
   4.4470972273959845E-002   8.1510681013368752E-002   0.0000000000000000     
   3.3014636119813763E-002   5.7852647294729609E-002   0.0000000000000000     
   3.4762702998890289E-002   6.3369638968494776E-002   0.0000000000000000     
   3.6444540956986238E-002   6.9069016252772217E-002   0.0000000000000000     
   3.8060149994101580E-002   7.4950779147561888E-002   0.0000000000000000     
   3.9609530110236366E-002   8.1014927652863819E-002   0.0000000000000000     
   2.8985794226811669E-002   5.7218423198650573E-002   0.0000000000000000     
   3.0547928333991926E-002   6.2785014143027382E-002   0.0000000000000000     
   3.2050239375067464E-002   6.8527545119127814E-002   0.0000000000000000     
   3.3492727350038304E-002   7.4446016126951856E-002   0.0000000000000000     
   3.4875392258904431E-002   8.0540427166499520E-002   0.0000000000000000     
   5.4575769538581412E-002   8.2565946356800438E-002   0.0000000000000000     
   5.6570369109052845E-002   8.8758604035413968E-002   0.0000000000000000     
   5.8502316382835699E-002   9.5110043542325856E-002   0.0000000000000000     
   6.0371611359929966E-002  0.10162026487753612        0.0000000000000000     
   6.2178254040335654E-002  0.10828926804104476        0.0000000000000000     
   4.9459718750074856E-002   8.2027687248014292E-002   0.0000000000000000     
   5.1284080884425313E-002   8.8229425845579926E-002   0.0000000000000000     
   5.3051463633185768E-002   9.4593073308105818E-002   0.0000000000000000     
   5.4761866996356219E-002  0.10111862963559196        0.0000000000000000     
   5.6415290973936674E-002  0.10780609482803838        0.0000000000000000     
   4.4470972273959845E-002   8.1510681013368752E-002   0.0000000000000000     
   4.6128026113130896E-002   8.7727096572663116E-002   0.0000000000000000     
   4.7733257351800625E-002   9.4106725222979290E-002   0.0000000000000000     
   4.9286665989969052E-002  0.10064956696431736        0.0000000000000000     
   5.0788252027636163E-002  0.10735562179667724        0.0000000000000000     
   3.9609530110236366E-002   8.1014927652863819E-002   0.0000000000000000     
   4.1102204795169579E-002   8.7251616216663483E-002   0.0000000000000000     
   4.2547697538680283E-002   9.3650999286946285E-002   0.0000000000000000     
   4.3946008340768450E-002  0.10021307686371224        0.0000000000000000     
   4.5297137201434107E-002  0.10693784894696133        0.0000000000000000     
   3.4875392258904431E-002   8.0540427166499520E-002   0.0000000000000000     
   3.6206616930541391E-002   8.6802984777581069E-002   0.0000000000000000     
   3.7494784193824723E-002   9.3225895500006789E-002   0.0000000000000000     
   3.8739894048754442E-002   9.9809159333776640E-002   0.0000000000000000     
   3.9941946495330526E-002  0.10655277627889065        0.0000000000000000     
   6.2178254040335654E-002  0.10828926804104476        0.0000000000000000     
   6.3913846330876434E-002  0.11510455761128593        0.0000000000000000     
   6.5569990138375972E-002  0.12205363816669385        0.0000000000000000     
   6.7146685462834282E-002  0.12913650970726845        0.0000000000000000     
   6.8643932304251337E-002  0.13635317223300980        0.0000000000000000     
   5.6415290973936674E-002  0.10780609482803838        0.0000000000000000     
   5.8003636724522425E-002  0.11464145677799703        0.0000000000000000     
   5.9518805406708779E-002  0.12161070337801985        0.0000000000000000     
   6.0960797020495741E-002  0.12871383462810682        0.0000000000000000     
   6.2329611565883285E-002  0.13595085052825800        0.0000000000000000     
   5.0788252027636163E-002  0.10735562179667724        0.0000000000000000     
   5.2230435527003981E-002  0.11421030484801374        0.0000000000000000     
   5.3605636550274574E-002  0.12119903124628155        0.0000000000000000     
   5.4913855097447908E-002  0.12832180099148072        0.0000000000000000     
   5.6155091168524011E-002  0.13557861408361116        0.0000000000000000     
   4.5297137201434107E-002  0.10693784894696133        0.0000000000000000     
   4.6594242738321121E-002  0.11381110182133608        0.0000000000000000     
   4.7830483569073344E-002  0.12081862177147895        0.0000000000000000     
   4.9005859693690812E-002  0.12796040879738996        0.0000000000000000     
   5.0120371112173497E-002  0.13523646289906913        0.0000000000000000     
   3.9941946495330526E-002  0.10655277627889065        0.0000000000000000     
   4.1095058358473817E-002  0.11344384769796406        0.0000000000000000     
   4.2193346463105109E-002  0.12046947495361209        0.0000000000000000     
   4.3236810809224431E-002  0.12762965804583476        0.0000000000000000     
   4.4225451396831768E-002  0.13492439697463202        0.0000000000000000     
   6.8643932304251337E-002  0.13635317223300980        0.0000000000000000     
   7.0066317400913222E-002  0.14369113008000914        0.0000000000000000     
   7.1418427491105968E-002  0.15113788758435776        0.0000000000000000     
   7.2700262574829588E-002  0.15869344474605568        0.0000000000000000     
   7.3911822652084083E-002  0.16635780156510291        0.0000000000000000     
   6.2329611565883285E-002  0.13595085052825800        0.0000000000000000     
   6.3628869102683422E-002  0.14330916739203123        0.0000000000000000     
   6.4862189690708116E-002  0.15077620153298427        0.0000000000000000     
   6.6029573329957389E-002  0.15835195295111715        0.0000000000000000     
   6.7131020020431240E-002  0.16603642164642995        0.0000000000000000     
   5.6155091168524011E-002  0.13557861408361116        0.0000000000000000     
   5.7332191186286900E-002  0.14295692297219784        0.0000000000000000     
   5.8448001573520640E-002  0.15044418010676575        0.0000000000000000     
   5.9502522330225245E-002  0.15804038548731483        0.0000000000000000     
   6.0495753456400687E-002  0.16574553911384507        0.0000000000000000     
   5.0120371112173497E-002  0.13523646289906913        0.0000000000000000     
   5.1176283651723664E-002  0.14263439682050899        0.0000000000000000     
   5.2175863139543525E-002  0.15014182330570214        0.0000000000000000     
   5.3119109575633129E-002  0.15775874235464857        0.0000000000000000     
   5.4006022959992420E-002  0.16548515396734823        0.0000000000000000     
   4.4225451396831768E-002  0.13492439697463202        0.0000000000000000     
   4.5161146498993693E-002  0.14234158893696466        0.0000000000000000     
   4.6045774388776786E-002  0.14986913112979344        0.0000000000000000     
   4.6879335066181027E-002  0.15750702355311838        0.0000000000000000     
   4.7661828531206443E-002  0.16525526620693942        0.0000000000000000     
   7.3911822652084083E-002  0.16635780156510291        0.0000000000000000     
   7.5050827504966083E-002  0.17412153687247084        0.0000000000000000     
   7.6114996915572247E-002  0.18197522949913089        0.0000000000000000     
   7.7104330883902575E-002  0.18991887944508304        0.0000000000000000     
   7.8018829409957052E-002  0.19795248671032736        0.0000000000000000     
   6.7131020020431240E-002  0.16603642164642995        0.0000000000000000     
   6.8164169192199836E-002  0.17382047324825375        0.0000000000000000     
   6.9126660275333346E-002  0.18169497338591972        0.0000000000000000     
   7.0018493269831797E-002  0.18965992205942792        0.0000000000000000     
   7.0839668175695161E-002  0.19771531926877822        0.0000000000000000     
   6.0495753456400687E-002  0.16574553911384507        0.0000000000000000     
   6.1425258436602174E-002  0.17355042404537185        0.0000000000000000     
   6.2288600755384879E-002  0.18144582334091047        0.0000000000000000     
   6.3085780412748801E-002  0.18943173700046109        0.0000000000000000     
   6.3816797408693962E-002  0.19750816502402355        0.0000000000000000     
   5.4006022959992420E-002  0.16548515396734823        0.0000000000000000     
   5.4834095238173106E-002  0.17331138926382517        0.0000000000000000     
   5.5600818355726826E-002  0.18122777936410328        0.0000000000000000     
   5.6306192312653623E-002  0.18923432426818262        0.0000000000000000     
   5.6950217108953448E-002  0.19733102397606306        0.0000000000000000     
   4.7661828531206443E-002  0.16525526620693942        0.0000000000000000     
   4.8390679596912643E-002  0.17310336890361366        0.0000000000000000     
   4.9063313076359229E-002  0.18104084145549798        0.0000000000000000     
   4.9679728969546227E-002  0.18906768386259240        0.0000000000000000     
   5.0239927276473612E-002  0.19718389612489695        0.0000000000000000     
   7.8018829409957052E-002  0.19795248671032736        0.0000000000000000     
   7.8859215658538234E-002  0.20606869920762250        0.0000000000000000     
   7.9626212794448648E-002  0.21426016484972735        0.0000000000000000     
   8.0319820817688320E-002  0.22252688363664172        0.0000000000000000     
   8.0940039728257251E-002  0.23086885556836578        0.0000000000000000     
   7.0839668175695161E-002  0.19771531926877822        0.0000000000000000     
   7.1588622714646541E-002  0.20585401263834907        0.0000000000000000     
   7.2263794608409010E-002  0.21406884979251850        0.0000000000000000     
   7.2865183856982527E-002  0.22235983073128654        0.0000000000000000     
   7.3392790460367133E-002  0.23072695545465322        0.0000000000000000     
   6.3816797408693962E-002  0.19750816502402355        0.0000000000000000     
   6.4478855832767482E-002  0.20566775499361711        0.0000000000000000     
   6.5069159774516494E-002  0.21390315449126113        0.0000000000000000     
   6.5587709233940999E-002  0.22221436351695562        0.0000000000000000     
   6.6034504211040998E-002  0.23060138207070047        0.0000000000000000     
   5.6950217108953448E-002  0.19733102397606306        0.0000000000000000     
   5.7529915012901056E-002  0.20550992627342668        0.0000000000000000     
   5.8042308292771155E-002  0.21376307894595528        0.0000000000000000     
   5.8487396948563745E-002  0.22209048199364886        0.0000000000000000     
   5.8865180980278826E-002  0.23049213541650745        0.0000000000000000     
   5.0239927276473612E-002  0.19718389612489695        0.0000000000000000     
   5.0741800255047251E-002  0.20538052647777777        0.0000000000000000     
   5.1183240163172966E-002  0.21364862315660094        0.0000000000000000     
   5.1564247000850758E-002  0.22198818616136645        0.0000000000000000     
   5.1884820768080653E-002  0.23039921549207429        0.0000000000000000     
   8.0940039728257251E-002  0.23086885556836578        0.0000000000000000     
   8.1476354082169300E-002  0.23930673771780092        0.0000000000000000     
   8.1918248435438351E-002  0.24786118715784861        0.0000000000000000     
   8.2265722788064391E-002  0.25653220388850889        0.0000000000000000     
   8.2518777140047433E-002  0.26531978790978161        0.0000000000000000     
   7.3392790460367133E-002  0.23072695545465322        0.0000000000000000     
   7.3843402528358040E-002  0.23918409649694067        0.0000000000000000     
   7.4213808170750462E-002  0.24774512639247101        0.0000000000000000     
   7.4504007387544383E-002  0.25641004514124421        0.0000000000000000     
   7.4714000178739831E-002  0.26517885274326036        0.0000000000000000     
   6.6034504211040998E-002  0.23060138207070047        0.0000000000000000     
   6.6411850542973966E-002  0.23907100234481352        0.0000000000000000     
   6.6722054066897352E-002  0.24763001653161251        0.0000000000000000     
   6.6965114782811225E-002  0.25627842463109740        0.0000000000000000     
   6.7141032690715516E-002  0.26501622664326829        0.0000000000000000     
   5.8865180980278826E-002  0.23049213541650745        0.0000000000000000     
   5.9181698126017056E-002  0.23896745526141941        0.0000000000000000     
   5.9442986123879077E-002  0.24751585757527308        0.0000000000000000     
   5.9649044973864890E-002  0.25613734235806851        0.0000000000000000     
   5.9799874675974488E-002  0.26483190960980552        0.0000000000000000     
   5.1884820768080653E-002  0.23039921549207429        0.0000000000000000     
   5.2152945277487345E-002  0.23887345524675843        0.0000000000000000     
   5.2376604341695596E-002  0.24740264952345276        0.0000000000000000     
   5.2555797960705405E-002  0.25598679832215732        0.0000000000000000     
   5.2690526134516760E-002  0.26462590164287203        0.0000000000000000     
   8.2518777140047433E-002  0.26531978790978161        0.0000000000000000     
   8.2716353335706788E-002  0.27425030411199980        0.0000000000000000     
   8.2897393219361695E-002  0.28335011738549626        0.0000000000000000     
   8.3061896791012210E-002  0.29261922773027088        0.0000000000000000     
   8.3209864050658305E-002  0.30205763514632378        0.0000000000000000     
   7.4714000178739831E-002  0.26517885274326036        0.0000000000000000     
   7.4884711148348992E-002  0.27404512572471379        0.0000000000000000     
   7.5057064900384038E-002  0.28300244061179891        0.0000000000000000     
   7.5231061434845009E-002  0.29205079740451589        0.0000000000000000     
   7.5406700751731864E-002  0.30119019610286457        0.0000000000000000     
   6.7141032690715516E-002  0.26501622664326829        0.0000000000000000     
   6.7290046911556628E-002  0.27381346410754320        0.0000000000000000     
   6.7452396566280937E-002  0.28264017856334045        0.0000000000000000     
   6.7628081654888456E-002  0.29149637001065987        0.0000000000000000     
   6.7817102177379185E-002  0.30038203844950162        0.0000000000000000     
   5.9799874675974488E-002  0.26483190960980552        0.0000000000000000     
   5.9932360625329716E-002  0.27355531926048832        0.0000000000000000     
   6.0083388217052433E-002  0.28226333124012076        0.0000000000000000     
   6.0252957451142612E-002  0.29095594554870297        0.0000000000000000     
   6.0441068327600288E-002  0.29963316218623481        0.0000000000000000     
   5.2690526134516760E-002  0.26462590164287203        0.0000000000000000     
   5.2811652289668262E-002  0.27327069118354896        0.0000000000000000     
   5.2950039852698486E-002  0.28187189864213996        0.0000000000000000     
   5.3105688823607458E-002  0.29042952401864508        0.0000000000000000     
   5.3278599202395152E-002  0.29894356731306426        0.0000000000000000     
   2.8985794226811669E-002   5.7218423198650573E-002   0.0000000000000000     
   3.0547928333991926E-002   6.2785014143027382E-002   0.0000000000000000     
   3.2050239375067464E-002   6.8527545119127814E-002   0.0000000000000000     
   3.3492727350038304E-002   7.4446016126951856E-002   0.0000000000000000     
   3.4875392258904431E-002   8.0540427166499520E-002   0.0000000000000000     
   2.5069219493146409E-002   5.6635777527215533E-002   0.0000000000000000     
   2.6444643618826893E-002   6.2248665175586804E-002   0.0000000000000000     
   2.7766936222569517E-002   6.8032040523282364E-002   0.0000000000000000     
   2.9036097304374286E-002   7.3985903570302214E-002   0.0000000000000000     
   3.0252126864241204E-002   8.0110254316646326E-002   0.0000000000000000     
   2.1265180197831843E-002   5.6193036011328884E-002   0.0000000000000000     
   2.2448034199235450E-002   6.1825120737592415E-002   0.0000000000000000     
   2.3585339178485321E-002   6.7628223622071243E-002   0.0000000000000000     
   2.4677095135581452E-002   7.3602344664765368E-002   0.0000000000000000     
   2.5723302070523847E-002   7.9747483865674776E-002   0.0000000000000000     
   1.7573676340867966E-002   5.5890198650990659E-002   0.0000000000000000     
   1.8558100075217597E-002   6.1514380829044202E-002   0.0000000000000000     
   1.9505448242814871E-002   6.7316094415494437E-002   0.0000000000000000     
   2.0415720843659793E-002   7.3295339410341304E-002   0.0000000000000000     
   2.1288917877752368E-002   7.9452115813584842E-002   0.0000000000000000     
   1.3994707922254785E-002   5.5727265446200838E-002   0.0000000000000000     
   1.4774841246773333E-002   6.1316445449942178E-002   0.0000000000000000     
   1.5527263415558178E-002   6.7095652903551919E-002   0.0000000000000000     
   1.6251974428609321E-002   7.3064887807030049E-002   0.0000000000000000     
   1.6948974285926757E-002   7.9224150160376566E-002   0.0000000000000000     
   3.4875392258904431E-002   8.0540427166499520E-002   0.0000000000000000     
   3.6206616930541391E-002   8.6802984777581069E-002   0.0000000000000000     
   3.7494784193824723E-002   9.3225895500006789E-002   0.0000000000000000     
   3.8739894048754442E-002   9.9809159333776640E-002   0.0000000000000000     
   3.9941946495330526E-002  0.10655277627889065        0.0000000000000000     
   3.0252126864241204E-002   8.0110254316646326E-002   0.0000000000000000     
   3.1422141682360544E-002   8.6398634171193547E-002   0.0000000000000000     
   3.2553258538922568E-002   9.2844584542822683E-002   0.0000000000000000     
   3.3645477433927304E-002   9.9448105431533693E-002   0.0000000000000000     
   3.4698798367374724E-002  0.10620919683732664        0.0000000000000000     
   2.5723302070523847E-002   7.9747483865674776E-002   0.0000000000000000     
   2.6729658213741254E-002   8.6055996313278579E-002   0.0000000000000000     
   2.7701861795662416E-002   9.2520237096055849E-002   0.0000000000000000     
   2.8639912816287333E-002   9.9140206214006571E-002   0.0000000000000000     
   2.9543811275616005E-002  0.10591590366713075        0.0000000000000000     
   2.1288917877752368E-002   7.9452115813584842E-002   0.0000000000000000     
   2.2129166524683538E-002   8.5775071203836137E-002   0.0000000000000000     
   2.2940593964044260E-002   9.2252853159706286E-002   0.0000000000000000     
   2.3723200195834550E-002   9.8885461681195164E-002   0.0000000000000000     
   2.4476985220054384E-002  0.10567289676830294        0.0000000000000000     
   1.6948974285926757E-002   7.9224150160376566E-002   0.0000000000000000     
   1.7620666615187391E-002   8.5555858842866275E-002   0.0000000000000000     
   1.8269455044068114E-002   9.2042432733773952E-002   0.0000000000000000     
   1.8895339572568937E-002   9.8683871833099623E-002   0.0000000000000000     
   1.9498320200689853E-002  0.10548017614084325        0.0000000000000000     
   3.9941946495330526E-002  0.10655277627889065        0.0000000000000000     
   4.1095058358473817E-002  0.11344384769796406        0.0000000000000000     
   4.2193346463105109E-002  0.12046947495361209        0.0000000000000000     
   4.3236810809224431E-002  0.12762965804583476        0.0000000000000000     
   4.4225451396831768E-002  0.13492439697463202        0.0000000000000000     
   3.4698798367374724E-002  0.10620919683732664        0.0000000000000000     
   3.5708322016529216E-002  0.11311652668053400        0.0000000000000000     
   3.6669149058655162E-002  0.12015876288148825        0.0000000000000000     
   3.7581279493752562E-002  0.12733590544018941        0.0000000000000000     
   3.8444713321821394E-002  0.13464795435663746        0.0000000000000000     
   2.9543811275616005E-002  0.10591590366713075        0.0000000000000000     
   3.0409473341554482E-002  0.11283712297168220        0.0000000000000000     
   3.1232815182008808E-002  0.11989365764391478        0.0000000000000000     
   3.2013836796978966E-002  0.12708550768382845        0.0000000000000000     
   3.2752538186464980E-002  0.13441267309142324        0.0000000000000000     
   2.4476985220054384E-002  0.10567289676830294        0.0000000000000000     
   2.5198512333549604E-002  0.11260563657140872        0.0000000000000000     
   2.5884344833166029E-002  0.11967415924089170        0.0000000000000000     
   2.6534482718903664E-002  0.12687846477675191        0.0000000000000000     
   2.7148925990762504E-002  0.13421855317898931        0.0000000000000000     
   1.9498320200689853E-002  0.10548017614084325        0.0000000000000000     
   2.0075438992514585E-002  0.11242206747971351        0.0000000000000000     
   2.0623738012126847E-002  0.11950026767241899        0.0000000000000000     
   2.1143217259526646E-002  0.12671477671895973        0.0000000000000000     
   2.1633876734713980E-002  0.13406559461933570        0.0000000000000000     
   4.4225451396831768E-002  0.13492439697463202        0.0000000000000000     
   4.5161146498993693E-002  0.14234158893696466        0.0000000000000000     
   4.6045774388776786E-002  0.14986913112979344        0.0000000000000000     
   4.6879335066181027E-002  0.15750702355311838        0.0000000000000000     
   4.7661828531206443E-002  0.16525526620693942        0.0000000000000000     
   3.8444713321821394E-002  0.13464795435663746        0.0000000000000000     
   3.9261049362736285E-002  0.14208306112285804        0.0000000000000000     
   4.0031886436371782E-002  0.14962937723087671        0.0000000000000000     
   4.0757224542727913E-002  0.15728690268069354        0.0000000000000000     
   4.1437063681804678E-002  0.16505563747230845        0.0000000000000000     
   3.2752538186464980E-002  0.13441267309142324        0.0000000000000000     
   3.3450261877590683E-002  0.14186337517948233        0.0000000000000000     
   3.4108350397479927E-002  0.14942583526078901        0.0000000000000000     
   3.4726803746132705E-002  0.15710005333534316        0.0000000000000000     
   3.5305621923549024E-002  0.16488602940314498        0.0000000000000000     
   2.7148925990762504E-002  0.13421855317898931        0.0000000000000000     
   2.7728784043556904E-002  0.14168253110683759        0.0000000000000000     
   2.8275166272101197E-002  0.14925850521953027        0.0000000000000000     
   2.8788072676395396E-002  0.15694647551706739        0.0000000000000000     
   2.9267503256439491E-002  0.16474644199944902        0.0000000000000000     
   2.1633876734713980E-002  0.13406559461933570        0.0000000000000000     
   2.2096615860634938E-002  0.14154052890492372        0.0000000000000000     
   2.2532334060235609E-002  0.14912738710710050        0.0000000000000000     
   2.2941031333515990E-002  0.15682616922586615        0.0000000000000000     
   2.3322707680476083E-002  0.16463687526122056        0.0000000000000000     
   4.7661828531206443E-002  0.16525526620693942        0.0000000000000000     
   4.8390679596912643E-002  0.17310336890361366        0.0000000000000000     
   4.9063313076359229E-002  0.18104084145549798        0.0000000000000000     
   4.9679728969546227E-002  0.18906768386259240        0.0000000000000000     
   5.0239927276473612E-002  0.19718389612489695        0.0000000000000000     
   4.1437063681804678E-002  0.16505563747230845        0.0000000000000000     
   4.2068832811863834E-002  0.17292421894946747        0.0000000000000000     
   4.2649960891167175E-002  0.18088128445591642        0.0000000000000000     
   4.3180447919714683E-002  0.18892683399165547        0.0000000000000000     
   4.3660293897506371E-002  0.19706086755668453        0.0000000000000000     
   3.5305621923549024E-002  0.16488602940314498        0.0000000000000000     
   3.5842376182069757E-002  0.17277179538611664        0.0000000000000000     
   3.6334637774035769E-002  0.18074538320618053        0.0000000000000000     
   3.6782406699447066E-002  0.18880679286333671        0.0000000000000000     
   3.7185682958303636E-002  0.19695602435758514        0.0000000000000000     
   2.9267503256439491E-002  0.16474644199944902        0.0000000000000000     
   2.9711309707530397E-002  0.17264609821356117        0.0000000000000000     
   3.0117343724965016E-002  0.18063313770629022        0.0000000000000000     
   3.0485605308743346E-002  0.18870756047763609        0.0000000000000000     
   3.0816094458865392E-002  0.19686936652759873        0.0000000000000000     
   2.3322707680476083E-002  0.16463687526122056        0.0000000000000000     
   2.3675633388245767E-002  0.17254712743180120        0.0000000000000000     
   2.3998078743954928E-002  0.18054454795624555        0.0000000000000000     
   2.4290043747603556E-002  0.18862913683455360        0.0000000000000000     
   2.4551528399191655E-002  0.19680089406672535        0.0000000000000000     
   5.0239927276473612E-002  0.19718389612489695        0.0000000000000000     
   5.0741800255047251E-002  0.20538052647777777        0.0000000000000000     
   5.1183240163172966E-002  0.21364862315660094        0.0000000000000000     
   5.1564247000850758E-002  0.22198818616136645        0.0000000000000000     
   5.1884820768080653E-002  0.23039921549207429        0.0000000000000000     
   4.3660293897506371E-002  0.19706086755668453        0.0000000000000000     
   4.4088613245219656E-002  0.20527316928823602        0.0000000000000000     
   4.4464520383531957E-002  0.21355352332354238        0.0000000000000000     
   4.4788015312443259E-002  0.22190192966260353        0.0000000000000000     
   4.5059098031953577E-002  0.23031838830541956        0.0000000000000000     
   3.7185682958303636E-002  0.19695602435758514        0.0000000000000000     
   3.7544455669431862E-002  0.20518146838636711        0.0000000000000000     
   3.7858713951658129E-002  0.21347151564712386        0.0000000000000000     
   3.8128457804982432E-002  0.22182616613985551        0.0000000000000000     
   3.8353687229404763E-002  0.23024541986456190        0.0000000000000000     
   3.0816094458865392E-002  0.19686936652759873        0.0000000000000000     
   3.1109327527683871E-002  0.20510542377217095        0.0000000000000000     
   3.1365820867551499E-002  0.21340260012734541        0.0000000000000000     
   3.1585574478468277E-002  0.22176089559312226        0.0000000000000000     
   3.1768588360434204E-002  0.23018031016950136        0.0000000000000000     
   2.4551528399191655E-002  0.19680089406672535        0.0000000000000000     
   2.4783228819975672E-002  0.20504503544564762        0.0000000000000000     
   2.4985841131212050E-002  0.21334677676420710        0.0000000000000000     
   2.5159365332900790E-002  0.22170611802240381        0.0000000000000000     
   2.5303801425041898E-002  0.23012305922023787        0.0000000000000000     
   5.1884820768080653E-002  0.23039921549207429        0.0000000000000000     
   5.2152945277487345E-002  0.23887345524675843        0.0000000000000000     
   5.2376604341695596E-002  0.24740264952345276        0.0000000000000000     
   5.2555797960705405E-002  0.25598679832215732        0.0000000000000000     
   5.2690526134516760E-002  0.26462590164287203        0.0000000000000000     
   4.5059098031953577E-002  0.23031838830541956        0.0000000000000000     
   4.5286434253258720E-002  0.23878756920516328        0.0000000000000000     
   4.5478689687554495E-002  0.24729414231500771        0.0000000000000000     
   4.5635864334840889E-002  0.25583810763495274        0.0000000000000000     
   4.5757958195117937E-002  0.26441946516499842        0.0000000000000000     
   3.8353687229404763E-002  0.23024541986456190        0.0000000000000000     
   3.8543007309205089E-002  0.23870836404096687        0.0000000000000000     
   3.8705023128663328E-002  0.24719408588879407        0.0000000000000000     
   3.8839734687779522E-002  0.25570258540804364        0.0000000000000000     
   3.8947141986553635E-002  0.26423386259871534        0.0000000000000000     
   3.1768588360434204E-002  0.23018031016950136        0.0000000000000000     
   3.1922664445326432E-002  0.23863583975416910        0.0000000000000000     
   3.2055604665022122E-002  0.24710248024481196        0.0000000000000000     
   3.2167409019521261E-002  0.25558023164142979        0.0000000000000000     
   3.2258077508823854E-002  0.26406909394402273        0.0000000000000000     
   2.5303801425041898E-002  0.23012305922023787        0.0000000000000000     
   2.5425405661622776E-002  0.23856999634477000        0.0000000000000000     
   2.5530434296630850E-002  0.24701932538306118        0.0000000000000000     
   2.5618887330066117E-002  0.25547104633511142        0.0000000000000000     
   2.5690764761928581E-002  0.26392515920092063        0.0000000000000000     
   5.2690526134516760E-002  0.26462590164287203        0.0000000000000000     
   5.2811652289668262E-002  0.27327069118354896        0.0000000000000000     
   5.2950039852698486E-002  0.28187189864213996        0.0000000000000000     
   5.3105688823607458E-002  0.29042952401864508        0.0000000000000000     
   5.3278599202395152E-002  0.29894356731306426        0.0000000000000000     
   4.5757958195117937E-002  0.26441946516499842        0.0000000000000000     
   4.5869150862461870E-002  0.27298828053796487        0.0000000000000000     
   4.5993621930948969E-002  0.28149461938667225        0.0000000000000000     
   4.6131371400579220E-002  0.28993848171112041        0.0000000000000000     
   4.6282399271352644E-002  0.29831986751130957        0.0000000000000000     
   3.8947141986553635E-002  0.26423386259871534        0.0000000000000000     
   3.9046085301600197E-002  0.27273678798497597        0.0000000000000000     
   3.9155404909533717E-002  0.28116023209099200        0.0000000000000000     
   3.9275100810354173E-002  0.28950419491676349        0.0000000000000000     
   3.9405173004061600E-002  0.29776867646229044        0.0000000000000000     
   3.2258077508823854E-002  0.26406909394402273        0.0000000000000000     
   3.2342455607083223E-002  0.27251621352458205        0.0000000000000000     
   3.2435388788452708E-002  0.28086873675509921        0.0000000000000000     
   3.2536877052932310E-002  0.28912666363557404        0.0000000000000000     
   3.2646920400522021E-002  0.29728999416600682        0.0000000000000000     
   2.5690764761928581E-002  0.26392515920092063        0.0000000000000000     
   2.5758261778910954E-002  0.27232655715678328        0.0000000000000000     
   2.5833573567705971E-002  0.28062013337899383        0.0000000000000000     
   2.5916700128313624E-002  0.28880588786755235        0.0000000000000000     
   2.6007641460733918E-002  0.29688382062245866        0.0000000000000000     
   1.3994707922254785E-002   5.5727265446200838E-002   0.0000000000000000     
   1.4774841246773333E-002   6.1316445449942178E-002   0.0000000000000000     
   1.5527263415558178E-002   6.7095652903551919E-002   0.0000000000000000     
   1.6251974428609321E-002   7.3064887807030049E-002   0.0000000000000000     
   1.6948974285926757E-002   7.9224150160376566E-002   0.0000000000000000     
   1.0479074762618411E-002   5.5635235524546744E-002   0.0000000000000000     
   1.1054784082272706E-002   6.1188008260671493E-002   0.0000000000000000     
   1.1611903434816188E-002   6.6942357274035857E-002   0.0000000000000000     
   1.2150432820248859E-002   7.2898282564639830E-002   0.0000000000000000     
   1.2670372238570714E-002   7.9055784132483417E-002   0.0000000000000000     
   6.9775766825849687E-003   5.5545108013615736E-002   0.0000000000000000     
   7.3544549500857669E-003   6.1085762921617312E-002   0.0000000000000000     
   7.7204870386898593E-003   6.6831665714738364E-002   0.0000000000000000     
   8.0756729483972538E-003   7.2782816392978900E-002   0.0000000000000000     
   8.4200126792079409E-003   7.8939214956338905E-002   0.0000000000000000     
   3.4902136821544534E-003   5.5456882913407793E-002   0.0000000000000000     
   3.6738538502125106E-003   6.1009709432779641E-002   0.0000000000000000     
   3.8530142271791931E-003   6.6763578225659467E-002   0.0000000000000000     
   4.0276948130545005E-003   7.2718489292047245E-002   0.0000000000000000     
   4.1978956078384325E-003   7.8874442631943015E-002   0.0000000000000000     
   1.6985761326869780E-005   5.5370560223922921E-002   0.0000000000000000     
   1.2980782652942131E-005   6.0959847794158466E-002   0.0000000000000000     
   9.4850002841861351E-006   6.6738094806799125E-002   0.0000000000000000     
   6.4984142206024977E-006   7.2705301261844879E-002   0.0000000000000000     
   4.0210244621901887E-006   7.8861467159295776E-002   0.0000000000000000     
   1.6948974285926757E-002   7.9224150160376566E-002   0.0000000000000000     
   1.7620666615187391E-002   8.5555858842866275E-002   0.0000000000000000     
   1.8269455044068114E-002   9.2042432733773952E-002   0.0000000000000000     
   1.8895339572568937E-002   9.8683871833099623E-002   0.0000000000000000     
   1.9498320200689853E-002  0.10548017614084325        0.0000000000000000     
   1.2670372238570714E-002   7.9055784132483417E-002   0.0000000000000000     
   1.3172628100648693E-002   8.5391864507176743E-002   0.0000000000000000     
   1.3658106817349721E-002   9.1883526218329917E-002   0.0000000000000000     
   1.4126808388673803E-002   9.8530769265942966E-002   0.0000000000000000     
   1.4578732814620935E-002  0.10533359365001585        0.0000000000000000     
   8.4200126792079409E-003   7.8939214956338905E-002   0.0000000000000000     
   8.7535205964633343E-003   8.5276593473575329E-002   0.0000000000000000     
   9.0762110655048349E-003   9.1770684013445139E-002   0.0000000000000000     
   9.3880840863324426E-003   9.8421486575948333E-002   0.0000000000000000     
   9.6891396589461557E-003  0.10522900116108490        0.0000000000000000     
   4.1978956078384325E-003   7.8874442631943015E-002   0.0000000000000000     
   4.3633441026313096E-003   8.5210045742062063E-002   0.0000000000000000     
   4.5237677885334492E-003   9.1703906119119646E-002   0.0000000000000000     
   4.6791666655448512E-003   9.8356023763115752E-002   0.0000000000000000     
   4.8295407336655166E-003  0.10516639867405042        0.0000000000000000     
   4.0210244621901887E-006   7.8861467159295776E-002   0.0000000000000000     
   2.0986191526216075E-006   8.5192221312636901E-002   0.0000000000000000     
   7.7698643557029242E-007   9.1683192535353369E-002   0.0000000000000000     
   5.6126311034196863E-008   9.8334380827445222E-002   0.0000000000000000     
  -6.3961220985852413E-008  0.10514578618891240        0.0000000000000000     
   1.9498320200689853E-002  0.10548017614084325        0.0000000000000000     
   2.0075438992514585E-002  0.11242206747971351        0.0000000000000000     
   2.0623738012126847E-002  0.11950026767241899        0.0000000000000000     
   2.1143217259526646E-002  0.12671477671895973        0.0000000000000000     
   2.1633876734713980E-002  0.13406559461933570        0.0000000000000000     
   1.4578732814620935E-002  0.10533359365001585        0.0000000000000000     
   1.5011381504371051E-002  0.11228257808815591        0.0000000000000000     
   1.5422255867104084E-002  0.11936830129797055        0.0000000000000000     
   1.5811355902820030E-002  0.12659076327945964        0.0000000000000000     
   1.6178681611518891E-002  0.13394996403262333        0.0000000000000000     
   9.6891396589461557E-003  0.10522900116108490        0.0000000000000000     
   9.9774680550406454E-003  0.11218333078829534        0.0000000000000000     
   1.0251159546310571E-002  0.11927457847702019        0.0000000000000000     
   1.0510214132755933E-002  0.12650274422725943        0.0000000000000000     
   1.0754631814376735E-002  0.13386782803901304        0.0000000000000000     
   4.8295407336655166E-003  0.10516639867405042        0.0000000000000000     
   4.9736986445233630E-003  0.11212432558013176        0.0000000000000000     
   5.1104490497463117E-003  0.11921909920956798        0.0000000000000000     
   5.2397919493343591E-003  0.12645071956235901        0.0000000000000000     
   5.3617273432875097E-003  0.13381918663850492        0.0000000000000000     
  -6.3961220985852413E-008  0.10514578618891240        0.0000000000000000     
   7.3272819205768419E-008  0.11210556246366521        0.0000000000000000     
   1.2437741130251478E-007  0.11920186349561390        0.0000000000000000     
   8.9352555304820364E-008  0.12643468928475848        0.0000000000000000     
  -3.1801748787748524E-008  0.13380403983109893        0.0000000000000000     
   2.1633876734713980E-002  0.13406559461933570        0.0000000000000000     
   2.2096615860634938E-002  0.14154052890492372        0.0000000000000000     
   2.2532334060235609E-002  0.14912738710710050        0.0000000000000000     
   2.2941031333515990E-002  0.15682616922586615        0.0000000000000000     
   2.3322707680476083E-002  0.16463687526122056        0.0000000000000000     
   1.6178681611518891E-002  0.13394996403262333        0.0000000000000000     
   1.6524931979600293E-002  0.14143340061114842        0.0000000000000000     
   1.6850805993463849E-002  0.14902857006872183        0.0000000000000000     
   1.7156303653109564E-002  0.15673547240534363        0.0000000000000000     
   1.7441424958537434E-002  0.16455410762101380        0.0000000000000000     
   1.0754631814376735E-002  0.13386782803901304        0.0000000000000000     
   1.0984907051228465E-002  0.14135717826291927        0.0000000000000000     
   1.1201534303366619E-002  0.14895814324961637        0.0000000000000000     
   1.1404513570791194E-002  0.15667072299910426        0.0000000000000000     
   1.1593844853502188E-002  0.16449491751138304        0.0000000000000000     
   5.3617273432875097E-003  0.13381918663850492        0.0000000000000000     
   5.4765410755194610E-003  0.14131186186023637        0.0000000000000000     
   5.5845189899439169E-003  0.14891610664978405        0.0000000000000000     
   5.6856610865608790E-003  0.15663192100714801        0.0000000000000000     
   5.7799673653703447E-003  0.16445930493232819        0.0000000000000000     
  -3.1801748787748524E-008  0.13380403983109893        0.0000000000000000     
  -1.6594752672428707E-007  0.14129745140309963        0.0000000000000000     
  -2.3994680425421574E-007  0.14890246026922493        0.0000000000000000     
  -2.5379958137815794E-007  0.15661906642947485        0.0000000000000000     
  -2.0750585809446026E-007  0.16444726988384933        0.0000000000000000     
   2.3322707680476083E-002  0.16463687526122056        0.0000000000000000     
   2.3675633388245767E-002  0.17254712743180120        0.0000000000000000     
   2.3998078743954928E-002  0.18054454795624555        0.0000000000000000     
   2.4290043747603556E-002  0.18862913683455360        0.0000000000000000     
   2.4551528399191655E-002  0.19680089406672535        0.0000000000000000     
   1.7441424958537434E-002  0.16455410762101380        0.0000000000000000     
   1.7704914672680316E-002  0.17247215732058643        0.0000000000000000     
   1.7945517558471080E-002  0.18047730310891572        0.0000000000000000     
   1.8163233615909713E-002  0.18856954498600159        0.0000000000000000     
   1.8358062844996227E-002  0.19674888295184406        0.0000000000000000     
   1.1593844853502188E-002  0.16449491751138304        0.0000000000000000     
   1.1768721009298511E-002  0.17241846215966683        0.0000000000000000     
   1.1928334895979074E-002  0.18042909231716997        0.0000000000000000     
   1.2072686513543875E-002  0.18852680798389235        0.0000000000000000     
   1.2201775861992920E-002  0.19671160915983396        0.0000000000000000     
   5.7799673653703447E-003  0.16445930493232819        0.0000000000000000     
   5.8670523981003446E-003  0.17238604194904239        0.0000000000000000     
   5.9465307564789084E-003  0.18039991558100826        0.0000000000000000     
   6.0184024405060378E-003  0.18850092582822581        0.0000000000000000     
   6.0826674501817312E-003  0.19668907269069505        0.0000000000000000     
  -2.0750585809446026E-007  0.16444726988384933        0.0000000000000000     
  -9.1160914182609673E-008  0.17237489668871303        0.0000000000000000     
   1.0513997058224367E-007  0.18038977290043062        0.0000000000000000     
   3.8139679619749768E-007  0.18849189851900203        0.0000000000000000     
   7.3760956266445341E-007  0.19668127354442733        0.0000000000000000     
   2.4551528399191655E-002  0.19680089406672535        0.0000000000000000     
   2.4783228819975672E-002  0.20504503544564762        0.0000000000000000     
   2.4985841131212050E-002  0.21334677676420710        0.0000000000000000     
   2.5159365332900790E-002  0.22170611802240381        0.0000000000000000     
   2.5303801425041898E-002  0.23012305922023787        0.0000000000000000     
   1.8358062844996227E-002  0.19674888295184406        0.0000000000000000     
   1.8530656229283477E-002  0.20499901761873035        0.0000000000000000     
   1.8681664752324328E-002  0.21330364959894768        0.0000000000000000     
   1.8811088414118778E-002  0.22166277889249603        0.0000000000000000     
   1.8918927214666831E-002  0.23007640549937536        0.0000000000000000     
   1.2201775861992920E-002  0.19671160915983396        0.0000000000000000     
   1.2316106438583484E-002  0.20496608450335266        0.0000000000000000     
   1.2416181740572857E-002  0.21327282267280626        0.0000000000000000     
   1.2502001767961034E-002  0.22163182366819467        0.0000000000000000     
   1.2573566520748021E-002  0.23004308748951788        0.0000000000000000     
   6.0826674501817312E-003  0.19668907269069505        0.0000000000000000     
   6.1395794478756966E-003  0.20494623609951454        0.0000000000000000     
   6.1893920959576378E-003  0.21325429598578269        0.0000000000000000     
   6.2321053944275548E-003  0.22161325234949961        0.0000000000000000     
   6.2677193432854501E-003  0.23002310519066529        0.0000000000000000     
   7.3760956266445341E-007  0.19668127354442733        0.0000000000000000     
   1.0752571601134204E-006  0.20493947240721583        0.0000000000000000     
   1.2958184786740577E-006  0.21324806953787706        0.0000000000000000     
   1.3992935183449015E-006  0.22160706493641102        0.0000000000000000     
   1.3856822791264399E-006  0.23001645860281766        0.0000000000000000     
   2.5303801425041898E-002  0.23012305922023787        0.0000000000000000     
   2.5425405661622776E-002  0.23856999634477000        0.0000000000000000     
   2.5530434296630850E-002  0.24701932538306118        0.0000000000000000     
   2.5618887330066117E-002  0.25547104633511142        0.0000000000000000     
   2.5690764761928581E-002  0.26392515920092063        0.0000000000000000     
   1.8918927214666831E-002  0.23007640549937536        0.0000000000000000     
   1.9009613156150421E-002  0.23851530746057792        0.0000000000000000     
   1.9087578240751472E-002  0.24695026281709570        0.0000000000000000     
   1.9152822468469981E-002  0.25538127156892870        0.0000000000000000     
   1.9205345839305957E-002  0.26380833371607715        0.0000000000000000     
   1.2573566520748021E-002  0.23004308748951788        0.0000000000000000     
   1.2633669126965693E-002  0.23847624674940102        0.0000000000000000     
   1.2685102714645933E-002  0.24690093406046923        0.0000000000000000     
   1.2727867283788743E-002  0.25531714942272232        0.0000000000000000     
   1.2761962834394116E-002  0.26372489283616046        0.0000000000000000     
   6.2677193432854501E-003  0.23002310519066529        0.0000000000000000     
   6.2975735740685886E-003  0.23845281421123937        0.0000000000000000     
   6.3230077183142365E-003  0.24687133911318165        0.0000000000000000     
   6.3440217760223922E-003  0.25527867989649211        0.0000000000000000     
   6.3606157471930574E-003  0.26367483656117069        0.0000000000000000     
   1.3856822791264399E-006  0.23001645860281766        0.0000000000000000     
   1.3264974591076055E-006  0.23844500984609301        0.0000000000000000     
   1.2932517563761384E-006  0.24686147797523317        0.0000000000000000     
   1.2859451709331499E-006  0.25526586299023801        0.0000000000000000     
   1.3045777027789925E-006  0.26365816489110766        0.0000000000000000     
   2.5690764761928581E-002  0.26392515920092063        0.0000000000000000     
   2.5758261778910954E-002  0.27232655715678328        0.0000000000000000     
   2.5833573567705971E-002  0.28062013337899383        0.0000000000000000     
   2.5916700128313624E-002  0.28880588786755235        0.0000000000000000     
   2.6007641460733918E-002  0.29688382062245866        0.0000000000000000     
   1.9205345839305957E-002  0.26380833371607715        0.0000000000000000     
   1.9255096367114807E-002  0.27217413910637156        0.0000000000000000     
   1.9312022065751937E-002  0.28042137758764263        0.0000000000000000     
   1.9376122935217358E-002  0.28855004915989052        0.0000000000000000     
   1.9447398975511062E-002  0.29656015382311512        0.0000000000000000     
   1.2761962834394116E-002  0.26372489283616046        0.0000000000000000     
   1.2794551921726183E-002  0.27206527959813875        0.0000000000000000     
   1.2832797101049056E-002  0.28027942500601227        0.0000000000000000     
   1.2876698372362749E-002  0.28836732905978096        0.0000000000000000     
   1.2926255735667247E-002  0.29632899175944499        0.0000000000000000     
   6.3606157471930574E-003  0.26367483656117069        0.0000000000000000     
   6.3766284427450859E-003  0.27199997863208503        0.0000000000000000     
   6.3958986735973312E-003  0.28019427563410271        0.0000000000000000     
   6.4184264397497926E-003  0.28825772756722379        0.0000000000000000     
   6.4442117412024710E-003  0.29619033443144832        0.0000000000000000     
   1.3045777027789925E-006  0.26365816489110766        0.0000000000000000     
   1.3259301715167881E-006  0.27197823620821027        0.0000000000000000     
   1.3267833967563810E-006  0.28016592947191399        0.0000000000000000     
   1.3071373784948981E-006  0.28822124468221894        0.0000000000000000     
   1.2669921167340198E-006  0.29614418183912505        0.0000000000000000     
   1.6985761326869780E-005   5.5370560223922921E-002   0.0000000000000000     
   1.2980782652942131E-005   6.0959847794158466E-002   0.0000000000000000     
   9.4850002841861351E-006   6.6738094806799125E-002   0.0000000000000000     
   6.4984142206024977E-006   7.2705301261844879E-002   0.0000000000000000     
   4.0210244621901887E-006   7.8861467159295776E-002   0.0000000000000000     
  -3.4602220804273317E-003   5.5330843618955836E-002   0.0000000000000000     
  -3.6511182109363466E-003   6.0957650408637286E-002   0.0000000000000000     
  -3.8365720572377335E-003   6.6760840926614551E-002   0.0000000000000000     
  -4.0165836193314904E-003   7.2740415172887596E-002   0.0000000000000000     
  -4.1911528972176206E-003   7.8896373147456469E-002   0.0000000000000000     
  -6.9595248436376961E-003   5.5382436772301237E-002   0.0000000000000000     
  -7.3413970888987637E-003   6.1024589679099579E-002   0.0000000000000000     
  -7.7116283606291410E-003   6.6837442053562887E-002   0.0000000000000000     
  -8.0702186588288306E-003   7.2820993895691175E-002   0.0000000000000000     
  -8.4171679834978350E-003   7.8975245205484421E-002   0.0000000000000000     
  -1.0480922528304223E-002   5.5525339683959125E-002   0.0000000000000000     
  -1.1057855851234304E-002   6.1160665605545367E-002   0.0000000000000000     
  -1.1615683909890035E-002   6.6967898187644176E-002   0.0000000000000000     
  -1.2154406704271420E-002   7.2947037430255615E-002   0.0000000000000000     
  -1.2674024234378455E-002   7.9098083333379629E-002   0.0000000000000000     
  -1.4024415134426916E-002   5.5759552353929508E-002   0.0000000000000000     
  -1.4800494497942972E-002   6.1365878187974628E-002   0.0000000000000000     
  -1.5548738705020418E-002   6.7152209328858431E-002   0.0000000000000000     
  -1.6269147755659252E-002   7.3118545776580918E-002   0.0000000000000000     
  -1.6961721649859474E-002   7.9264887531142081E-002   0.0000000000000000     
   4.0210244621901887E-006   7.8861467159295776E-002   0.0000000000000000     
   2.0986191526216075E-006   8.5192221312636901E-002   0.0000000000000000     
   7.7698643557029242E-007   9.1683192535353369E-002   0.0000000000000000     
   5.6126311034196863E-008   9.8334380827445222E-002   0.0000000000000000     
  -6.3961220985852413E-008  0.10514578618891240        0.0000000000000000     
  -4.1911528972176206E-003   7.8896373147456469E-002   0.0000000000000000     
  -4.3599523963730570E-003   8.5221423730154566E-002   0.0000000000000000     
  -4.5226546222747318E-003   9.1708275800815281E-002   0.0000000000000000     
  -4.6792595749226475E-003   9.8356929359438586E-002   0.0000000000000000     
  -4.8297672543168024E-003  0.10516738440602455        0.0000000000000000     
  -8.4171679834978350E-003   7.8975245205484421E-002   0.0000000000000000     
  -8.7525454863460507E-003   8.5295956539469739E-002   0.0000000000000000     
  -9.0764203190833847E-003   9.1778888454174201E-002   0.0000000000000000     
  -9.3887924817098282E-003   9.8424040949597780E-002   0.0000000000000000     
  -9.6896619742253901E-003  0.10523141402574053        0.0000000000000000     
  -1.2674024234378455E-002   7.9098083333379629E-002   0.0000000000000000     
  -1.3175680650766368E-002   8.5415819740582405E-002   0.0000000000000000     
  -1.3660520103990386E-002   9.1895030495430130E-002   0.0000000000000000     
  -1.4128542594050515E-002   9.8535715597922777E-002   0.0000000000000000     
  -1.4579748120946749E-002  0.10533787504806040        0.0000000000000000     
  -1.6961721649859474E-002   7.9264887531142081E-002   0.0000000000000000     
  -1.7629357889634000E-002   8.5581013333492578E-002   0.0000000000000000     
  -1.8274953976995738E-002   9.2056701924583081E-002   0.0000000000000000     
  -1.8898509911944701E-002   9.8691953304413590E-002   0.0000000000000000     
  -1.9500025694480873E-002  0.10548676747298411        0.0000000000000000     
  -6.3961220985852413E-008  0.10514578618891240        0.0000000000000000     
   7.3272819205768419E-008  0.11210556246366521        0.0000000000000000     
   1.2437741130251478E-007  0.11920186349561390        0.0000000000000000     
   8.9352555304820364E-008  0.12643468928475848        0.0000000000000000     
  -3.1801748787748524E-008  0.13380403983109893        0.0000000000000000     
  -4.8297672543168024E-003  0.10516738440602455        0.0000000000000000     
  -4.9736053224489329E-003  0.11212682277366520        0.0000000000000000     
  -5.1102014413107726E-003  0.11922242629545268        0.0000000000000000     
  -5.2395556109023252E-003  0.12645419497138696        0.0000000000000000     
  -5.3616678312235835E-003  0.13382212880146807        0.0000000000000000     
  -9.6896619742253901E-003  0.10523141402574053        0.0000000000000000     
  -9.9775344036581604E-003  0.11218788784490133        0.0000000000000000     
  -1.0250915377036238E-002  0.11928034256937906        0.0000000000000000     
  -1.0509804894359622E-002  0.12650877819917375        0.0000000000000000     
  -1.0754202955628308E-002  0.13387319473428533        0.0000000000000000     
  -1.4579748120946749E-002  0.10533787504806040        0.0000000000000000     
  -1.5011713970808476E-002  0.11228875767737360        0.0000000000000000     
  -1.5422017429765086E-002  0.11937561231739305        0.0000000000000000     
  -1.5810658497816581E-002  0.12659843896811876        0.0000000000000000     
  -1.6177637174962962E-002  0.13395723762955078        0.0000000000000000     
  -1.9500025694480873E-002  0.10548676747298411        0.0000000000000000     
  -2.0076144023899883E-002  0.11242943227108200        0.0000000000000000     
  -2.0623507599497326E-002  0.11950823553949466        0.0000000000000000     
  -2.1142116421273217E-002  0.12672317727822208        0.0000000000000000     
  -2.1631970489227544E-002  0.13407425748726429        0.0000000000000000     
  -3.1801748787748524E-008  0.13380403983109893        0.0000000000000000     
  -1.6594752672428707E-007  0.14129745140309963        0.0000000000000000     
  -2.3994680425421574E-007  0.14890246026922493        0.0000000000000000     
  -2.5379958137815794E-007  0.15661906642947485        0.0000000000000000     
  -2.0750585809446026E-007  0.16444726988384933        0.0000000000000000     
  -5.3616678312235835E-003  0.13382212880146807        0.0000000000000000     
  -5.4766901467225319E-003  0.14131395230223370        0.0000000000000000     
  -5.5847746018471405E-003  0.14891738999022158        0.0000000000000000     
  -5.6859211965974129E-003  0.15663244186543171        0.0000000000000000     
  -5.7801299309733481E-003  0.16445910792786406        0.0000000000000000     
  -1.0754202955628308E-002  0.13387319473428533        0.0000000000000000     
  -1.0984507650880399E-002  0.14136136996836318        0.0000000000000000     
  -1.1201117070153983E-002  0.14896108169505665        0.0000000000000000     
  -1.1404031213449057E-002  0.15667232991436553        0.0000000000000000     
  -1.1593250080765626E-002  0.16449511462629007        0.0000000000000000     
  -1.6177637174962962E-002  0.13395723762955078        0.0000000000000000     
  -1.6523618460000330E-002  0.14143970440148809        0.0000000000000000     
  -1.6849267351724779E-002  0.14903353538373001        0.0000000000000000     
  -1.7154583850136320E-002  0.15673873057627641        0.0000000000000000     
  -1.7439567955234936E-002  0.16455528997912744        0.0000000000000000     
  -2.1631970489227544E-002  0.13407425748726429        0.0000000000000000     
  -2.2094022574082321E-002  0.14154895560160846        0.0000000000000000     
  -2.2529225446559529E-002  0.14913475105624180        0.0000000000000000     
  -2.2937579106659185E-002  0.15683164385116433        0.0000000000000000     
  -2.3319083554381281E-002  0.16463963398637604        0.0000000000000000     
  -2.0750585809446026E-007  0.16444726988384933        0.0000000000000000     
  -9.1160914182609673E-008  0.17237489668871303        0.0000000000000000     
   1.0513997058224367E-007  0.18038977290043062        0.0000000000000000     
   3.8139679619749768E-007  0.18849189851900203        0.0000000000000000     
   7.3760956266445341E-007  0.19668127354442733        0.0000000000000000     
  -5.7801299309733481E-003  0.16445910792786406        0.0000000000000000     
  -5.8669944110286551E-003  0.17238528906016276        0.0000000000000000     
  -5.9461082428170445E-003  0.18039888614497182        0.0000000000000000     
  -6.0174714263385174E-003  0.18849989918229129        0.0000000000000000     
  -6.0810839615930727E-003  0.19668832817212112        0.0000000000000000     
  -1.1593250080765626E-002  0.16449511462629007        0.0000000000000000     
  -1.1767942095526656E-002  0.17241748174487537        0.0000000000000000     
  -1.1927275681155107E-002  0.18042747718416666        0.0000000000000000     
  -1.2071250837650978E-002  0.18852510094416380        0.0000000000000000     
  -1.2199867565014275E-002  0.19671035302486700        0.0000000000000000     
  -1.7439567955234936E-002  0.16455528997912744        0.0000000000000000     
  -1.7702934214408189E-002  0.17247147474285093        0.0000000000000000     
  -1.7943397175043604E-002  0.18047554601801502        0.0000000000000000     
  -1.8160956837141192E-002  0.18856750380461965        0.0000000000000000     
  -1.8355613200700938E-002  0.19674734810266487        0.0000000000000000     
  -2.3319083554381281E-002  0.16463963398637604        0.0000000000000000     
  -2.3671970767673252E-002  0.17254726805408943        0.0000000000000000     
  -2.3994472724482543E-002  0.18054309264651699        0.0000000000000000     
  -2.4286589424809144E-002  0.18862710776365874        0.0000000000000000     
  -2.4548320868653065E-002  0.19679931340551468        0.0000000000000000     
   7.3760956266445341E-007  0.19668127354442733        0.0000000000000000     
   1.0752571601134204E-006  0.20493947240721583        0.0000000000000000     
   1.2958184786740577E-006  0.21324806953787706        0.0000000000000000     
   1.3992935183449015E-006  0.22160706493641102        0.0000000000000000     
   1.3856822791264399E-006  0.23001645860281766        0.0000000000000000     
  -6.0810839615930727E-003  0.19668832817212112        0.0000000000000000     
  -6.1373788137006006E-003  0.20494585710169452        0.0000000000000000     
  -6.1867889477809877E-003  0.21325416995824442        0.0000000000000000     
  -6.2293143638342315E-003  0.22161326674177095        0.0000000000000000     
  -6.2649550618603320E-003  0.23002314745227403        0.0000000000000000     
  -1.2199867565014275E-002  0.19671035302486700        0.0000000000000000     
  -1.2313755444843781E-002  0.20496545385818823        0.0000000000000000     
  -1.2413544058738292E-002  0.21327262387603976        0.0000000000000000     
  -1.2499233406697801E-002  0.22163186307842148        0.0000000000000000     
  -1.2570823488722311E-002  0.23004317146533343        0.0000000000000000     
  -1.8355613200700938E-002  0.19674734810266487        0.0000000000000000     
  -1.8528054636269428E-002  0.20499826267669713        0.0000000000000000     
  -1.8678969514393236E-002  0.21330343129126306        0.0000000000000000     
  -1.8808357835072360E-002  0.22166285394636262        0.0000000000000000     
  -1.8916219598306801E-002  0.23007653064199585        0.0000000000000000     
  -2.4548320868653065E-002  0.19679931340551468        0.0000000000000000     
  -2.4780276387977546E-002  0.20504428355722110        0.0000000000000000     
  -2.4983065314745829E-002  0.21334659220391436        0.0000000000000000     
  -2.5156687648957923E-002  0.22170623934559441        0.0000000000000000     
  -2.5301143390613814E-002  0.23012322498226126        0.0000000000000000     
   1.3856822791264399E-006  0.23001645860281766        0.0000000000000000     
   1.3264974591076055E-006  0.23844500984609301        0.0000000000000000     
   1.2932517563761384E-006  0.24686147797523317        0.0000000000000000     
   1.2859451709331499E-006  0.25526586299023801        0.0000000000000000     
   1.3045777027789925E-006  0.26365816489110766        0.0000000000000000     
  -6.2649550618603320E-003  0.23002314745227403        0.0000000000000000     
  -6.2949197841600645E-003  0.23845283551973903        0.0000000000000000     
  -6.3204172730341891E-003  0.24687135437415125        0.0000000000000000     
  -6.3414475284827108E-003  0.25527870401551067        0.0000000000000000     
  -6.3580105505056245E-003  0.26367488444381726        0.0000000000000000     
  -1.2570823488722311E-002  0.23004317146533343        0.0000000000000000     
  -1.2631012952086242E-002  0.23847629309795448        0.0000000000000000     
  -1.2682500444064012E-002  0.24690097203746350        0.0000000000000000     
  -1.2725285964655617E-002  0.25531720828386045        0.0000000000000000     
  -1.2759369513861063E-002  0.26372500183714537        0.0000000000000000     
  -1.8916219598306801E-002  0.23007653064199585        0.0000000000000000     
  -1.9006953006319424E-002  0.23851538258073937        0.0000000000000000     
  -1.9084956261333080E-002  0.24695033096516994        0.0000000000000000     
  -1.9150229363347787E-002  0.25538137579528747        0.0000000000000000     
  -1.9202772312363527E-002  0.26380851707109199        0.0000000000000000     
  -2.5301143390613814E-002  0.23012322498226126        0.0000000000000000     
  -2.5422739946859615E-002  0.23857010396809369        0.0000000000000000     
  -2.5527784724841417E-002  0.24701943115727046        0.0000000000000000     
  -2.5616277724559221E-002  0.25547120654979155        0.0000000000000000     
  -2.5688218946013031E-002  0.26392543014565700        0.0000000000000000     
   1.3045777027789925E-006  0.26365816489110766        0.0000000000000000     
   1.3259301715167881E-006  0.27197823620821027        0.0000000000000000     
   1.3267833967563810E-006  0.28016592947191399        0.0000000000000000     
   1.3071373784948981E-006  0.28822124468221894        0.0000000000000000     
   1.2669921167340198E-006  0.29614418183912505        0.0000000000000000     
  -6.3580105505056245E-003  0.26367488444381726        0.0000000000000000     
  -6.3739875889938895E-003  0.27200005914098196        0.0000000000000000     
  -6.3932598938384469E-003  0.28019439158891568        0.0000000000000000     
  -6.4158274650393038E-003  0.28825788178761824        0.0000000000000000     
  -6.4416903025964600E-003  0.29619052973708970        0.0000000000000000     
  -1.2759369513861063E-002  0.26372500183714537        0.0000000000000000     
  -1.2791944087750497E-002  0.27206545424486783        0.0000000000000000     
  -1.2830202682394060E-002  0.28027966705457708        0.0000000000000000     
  -1.2874145297791762E-002  0.28836764026627332        0.0000000000000000     
  -1.2923771933943604E-002  0.29632937387995650        0.0000000000000000     
  -1.9202772312363527E-002  0.26380851707109199        0.0000000000000000     
  -1.9252543566098301E-002  0.27217442151986759        0.0000000000000000     
  -1.9309501582270086E-002  0.28042175586889839        0.0000000000000000     
  -1.9373646360878880E-002  0.28855052011818427        0.0000000000000000     
  -1.9444977901924700E-002  0.29656071426772540        0.0000000000000000     
  -2.5688218946013031E-002  0.26392543014565700        0.0000000000000000     
  -2.5755786024037310E-002  0.27232696096598152        0.0000000000000000     
  -2.5831156593466520E-002  0.28062065803187952        0.0000000000000000     
  -2.5914330654300658E-002  0.28880652134335122        0.0000000000000000     
  -2.6005308206539738E-002  0.29688455090039645        0.0000000000000000     
  -1.4024415134426916E-002   5.5759552353929508E-002   0.0000000000000000     
  -1.4800494497942972E-002   6.1365878187974628E-002   0.0000000000000000     
  -1.5548738705020418E-002   6.7152209328858431E-002   0.0000000000000000     
  -1.6269147755659252E-002   7.3118545776580918E-002   0.0000000000000000     
  -1.6961721649859474E-002   7.9264887531142081E-002   0.0000000000000000     
  -1.7623566391897279E-002   5.6058633145275406E-002   0.0000000000000000     
  -1.8599713315600168E-002   6.1631392439403236E-002   0.0000000000000000     
  -1.9539031385893774E-002   6.7393111391803845E-002   0.0000000000000000     
  -2.0441520602778086E-002   7.3343790002477247E-002   0.0000000000000000     
  -2.1307180966253107E-002   7.9483428271423434E-002   0.0000000000000000     
  -2.1311940030606817E-002   5.6396140421059851E-002   0.0000000000000000     
  -2.2485912590781306E-002   6.1948373372847004E-002   0.0000000000000000     
  -2.3614800592383595E-002   6.7693340291078652E-002   0.0000000000000000     
  -2.4698604035413674E-002   7.3631041175754752E-002   0.0000000000000000     
  -2.5737322919871561E-002   7.9761476026875333E-002   0.0000000000000000     
  -2.5089536050555538E-002   5.6772074181282835E-002   0.0000000000000000     
  -2.6459092323486373E-002   6.2316820988305967E-002   0.0000000000000000     
  -2.7776046324489868E-002   6.8052896026682838E-002   0.0000000000000000     
  -2.9040398053566029E-002   7.3980299296413435E-002   0.0000000000000000     
  -3.0252147510714852E-002   8.0099030797497778E-002   0.0000000000000000     
  -2.8956354451743431E-002   5.7186434425944371E-002   0.0000000000000000     
  -3.0519252513715379E-002   6.2736735285780110E-002   0.0000000000000000     
  -3.2022768582212612E-002   6.8471778598616417E-002   0.0000000000000000     
  -3.3466902657235134E-002   7.4391564364453308E-002   0.0000000000000000     
  -3.4851654738782947E-002   8.0496092583290768E-002   0.0000000000000000     
  -1.6961721649859474E-002   7.9264887531142081E-002   0.0000000000000000     
  -1.7629357889634000E-002   8.5581013333492578E-002   0.0000000000000000     
  -1.8274953976995738E-002   9.2056701924583081E-002   0.0000000000000000     
  -1.8898509911944701E-002   9.8691953304413590E-002   0.0000000000000000     
  -1.9500025694480873E-002  0.10548676747298411        0.0000000000000000     
  -2.1307180966253107E-002   7.9483428271423434E-002   0.0000000000000000     
  -2.2140808466633518E-002   8.5796305874664330E-002   0.0000000000000000     
  -2.2947199094234011E-002   9.2266702488221830E-002   0.0000000000000000     
  -2.3726352849054572E-002   9.8894618112095975E-002   0.0000000000000000     
  -2.4478269731095220E-002  0.10568005274628672        0.0000000000000000     
  -2.5737322919871561E-002   7.9761476026875333E-002   0.0000000000000000     
  -2.6737263645449507E-002   8.6066465920561677E-002   0.0000000000000000     
  -2.7704732611839769E-002   9.2527831932935137E-002   0.0000000000000000     
  -2.8639729819042337E-002   9.9145574063995670E-002   0.0000000000000000     
  -2.9542255267057227E-002  0.10591969231374332        0.0000000000000000     
  -3.0252147510714852E-002   8.0099030797497778E-002   0.0000000000000000     
  -3.1418723426081957E-002   8.6391493471184688E-002   0.0000000000000000     
  -3.2547554529812998E-002   9.2840090258723001E-002   0.0000000000000000     
  -3.3638640821907990E-002   9.9444821160112717E-002   0.0000000000000000     
  -3.4691982302366892E-002  0.10620568617535386        0.0000000000000000     
  -3.4851654738782947E-002   8.0496092583290768E-002   0.0000000000000000     
  -3.6185187808530875E-002   8.6771388526533322E-002   0.0000000000000000     
  -3.7475664848153727E-002   9.3203477465585424E-002   0.0000000000000000     
  -3.8723085857651510E-002   9.9792359400447117E-002   0.0000000000000000     
  -3.9927450837024231E-002  0.10653803433111837        0.0000000000000000     
  -1.9500025694480873E-002  0.10548676747298411        0.0000000000000000     
  -2.0076144023899883E-002  0.11242943227108200        0.0000000000000000     
  -2.0623507599497326E-002  0.11950823553949466        0.0000000000000000     
  -2.1142116421273217E-002  0.12672317727822208        0.0000000000000000     
  -2.1631970489227544E-002  0.13407425748726429        0.0000000000000000     
  -2.4478269731095220E-002  0.10568005274628672        0.0000000000000000     
  -2.5198720053010073E-002  0.11261236805830492        0.0000000000000000     
  -2.5883474127453270E-002  0.11968092571566145        0.0000000000000000     
  -2.6532531954424829E-002  0.12688572571835627        0.0000000000000000     
  -2.7145893533924735E-002  0.13422676806638936        0.0000000000000000     
  -2.9542255267057227E-002  0.10591969231374332        0.0000000000000000     
  -3.0407337548216756E-002  0.11284002147132081        0.0000000000000000     
  -3.1230005254853269E-002  0.11989639632587099        0.0000000000000000     
  -3.2010258386966743E-002  0.12708881687739385        0.0000000000000000     
  -3.2748096944557208E-002  0.13441728312588938        0.0000000000000000     
  -3.4691982302366892E-002  0.10620568617535386        0.0000000000000000     
  -3.5701996509519926E-002  0.11311239251012963        0.0000000000000000     
  -3.6663100981697283E-002  0.12015464737012334        0.0000000000000000     
  -3.7575295718898963E-002  0.12733245075533489        0.0000000000000000     
  -3.8438580721124965E-002  0.13464580266576440        0.0000000000000000     
  -3.9927450837024231E-002  0.10653803433111837        0.0000000000000000     
  -4.1082696936919599E-002  0.11342948117473139        0.0000000000000000     
  -4.2182761307985345E-002  0.12045567884841842        0.0000000000000000     
  -4.3227643950221488E-002  0.12761662735217938        0.0000000000000000     
  -4.4217344863627994E-002  0.13491232668601436        0.0000000000000000     
  -2.1631970489227544E-002  0.13407425748726429        0.0000000000000000     
  -2.2094022574082321E-002  0.14154895560160846        0.0000000000000000     
  -2.2529225446559529E-002  0.14913475105624180        0.0000000000000000     
  -2.2937579106659185E-002  0.15683164385116433        0.0000000000000000     
  -2.3319083554381281E-002  0.16463963398637604        0.0000000000000000     
  -2.7145893533924735E-002  0.13422676806638936        0.0000000000000000     
  -2.7724800872473351E-002  0.14169135317384465        0.0000000000000000     
  -2.8270495976591072E-002  0.14926678145480607        0.0000000000000000     
  -2.8782978846277864E-002  0.15695305290927353        0.0000000000000000     
  -2.9262249481533751E-002  0.16475016753724714        0.0000000000000000     
  -3.2748096944557208E-002  0.13441728312588938        0.0000000000000000     
  -3.3445034234520429E-002  0.14186912672331722        0.0000000000000000     
  -3.4102583563752210E-002  0.14943167932163692        0.0000000000000000     
  -3.4720744932252544E-002  0.15710494092084851        0.0000000000000000     
  -3.5299518340021437E-002  0.16488891152095198        0.0000000000000000     
  -3.8438580721124965E-002  0.13464580266576440        0.0000000000000000     
  -3.9254722660223541E-002  0.14208227625002609        0.0000000000000000     
  -4.0025488208042956E-002  0.14962944465673439        0.0000000000000000     
  -4.0750877364583230E-002  0.15728730788588913        0.0000000000000000     
  -4.1430890129844349E-002  0.16505586593749050        0.0000000000000000     
  -4.4217344863627994E-002  0.13491232668601436        0.0000000000000000     
  -4.5153866149582680E-002  0.14233080175397131        0.0000000000000000     
  -4.6039209909463329E-002  0.14986007746009836        0.0000000000000000     
  -4.6873376143269925E-002  0.15750015380439550        0.0000000000000000     
  -4.7656364851002483E-002  0.16525103078686273        0.0000000000000000     
  -2.3319083554381281E-002  0.16463963398637604        0.0000000000000000     
  -2.3671970767673252E-002  0.17254726805408943        0.0000000000000000     
  -2.3994472724482543E-002  0.18054309264651699        0.0000000000000000     
  -2.4286589424809144E-002  0.18862710776365874        0.0000000000000000     
  -2.4548320868653065E-002  0.19679931340551468        0.0000000000000000     
  -2.9262249481533751E-002  0.16475016753724714        0.0000000000000000     
  -2.9706121647807001E-002  0.17264693216799581        0.0000000000000000     
  -3.0112409110545899E-002  0.18063215363078866        0.0000000000000000     
  -3.0481111869750457E-002  0.18870583192562565        0.0000000000000000     
  -3.0812229925420660E-002  0.19686796705250670        0.0000000000000000     
  -3.5299518340021437E-002  0.16488891152095198        0.0000000000000000     
  -3.5836456747294583E-002  0.17277253757397520        0.0000000000000000     
  -3.6329113114307685E-002  0.18074476553194613        0.0000000000000000     
  -3.6777487441060727E-002  0.18880559539486477        0.0000000000000000     
  -3.7181579727553725E-002  0.19695502716273106        0.0000000000000000     
  -4.1430890129844349E-002  0.16505586593749050        0.0000000000000000     
  -4.2062976066136001E-002  0.17292408427202755        0.0000000000000000     
  -4.2644584735767863E-002  0.18088092834998945        0.0000000000000000     
  -4.3175716138739946E-002  0.18892639817137619        0.0000000000000000     
  -4.3656370275052252E-002  0.19706049373618781        0.0000000000000000     
  -4.7656364851002483E-002  0.16525103078686273        0.0000000000000000     
  -4.8385679604331253E-002  0.17310157226215281        0.0000000000000000     
  -4.9058823974926467E-002  0.18104064208491852        0.0000000000000000     
  -4.9675797962788135E-002  0.18906824025515989        0.0000000000000000     
  -5.0236601567916261E-002  0.19718436677287685        0.0000000000000000     
  -2.4548320868653065E-002  0.19679931340551468        0.0000000000000000     
  -2.4780276387977546E-002  0.20504428355722110        0.0000000000000000     
  -2.4983065314745829E-002  0.21334659220391436        0.0000000000000000     
  -2.5156687648957923E-002  0.22170623934559441        0.0000000000000000     
  -2.5301143390613814E-002  0.23012322498226126        0.0000000000000000     
  -3.0812229925420660E-002  0.19686796705250670        0.0000000000000000     
  -3.1106085410074112E-002  0.20510477299299926        0.0000000000000000     
  -3.1363000456228411E-002  0.21340246372867067        0.0000000000000000     
  -3.1582975063883571E-002  0.22176103925952087        0.0000000000000000     
  -3.1766009233039579E-002  0.23018049958554992        0.0000000000000000     
  -3.7181579727553725E-002  0.19695502716273106        0.0000000000000000     
  -3.7541146412665115E-002  0.20518098747727062        0.0000000000000000     
  -3.7855943935273341E-002  0.21347140298020892        0.0000000000000000     
  -3.8125972295378417E-002  0.22182627367154603        0.0000000000000000     
  -3.8351231492980323E-002  0.23024559955128190        0.0000000000000000     
  -4.3656370275052252E-002  0.19706049373618781        0.0000000000000000     
  -4.4085459395750551E-002  0.20527292701003516        0.0000000000000000     
  -4.4461895751880615E-002  0.21355340995852920        0.0000000000000000     
  -4.4785679343442450E-002  0.22190194258166993        0.0000000000000000     
  -4.5056810170436050E-002  0.23031852487945731        0.0000000000000000     
  -5.0236601567916261E-002  0.19718436677287685        0.0000000000000000     
  -5.0739024359330420E-002  0.20538059159129290        0.0000000000000000     
  -5.1180855906050232E-002  0.21364848466363143        0.0000000000000000     
  -5.1562096208075683E-002  0.22198804598989252        0.0000000000000000     
  -5.1882745265406760E-002  0.23039927557007606        0.0000000000000000     
  -2.5301143390613814E-002  0.23012322498226126        0.0000000000000000     
  -2.5422739946859615E-002  0.23857010396809369        0.0000000000000000     
  -2.5527784724841417E-002  0.24701943115727046        0.0000000000000000     
  -2.5616277724559221E-002  0.25547120654979155        0.0000000000000000     
  -2.5688218946013031E-002  0.26392543014565700        0.0000000000000000     
  -3.1766009233039579E-002  0.23018049958554992        0.0000000000000000     
  -3.1920031468469057E-002  0.23863598716330928        0.0000000000000000     
  -3.2052970274944664E-002  0.24710264444935048        0.0000000000000000     
  -3.2164825652466381E-002  0.25558047144367352        0.0000000000000000     
  -3.2255597601034219E-002  0.26406946814627846        0.0000000000000000     
  -3.8351231492980323E-002  0.23024559955128190        0.0000000000000000     
  -3.8540485265910029E-002  0.23870856206967789        0.0000000000000000     
  -3.8702497351998495E-002  0.24719434267699525        0.0000000000000000     
  -3.8837267751245734E-002  0.25570294137323396        0.0000000000000000     
  -3.8944796463651739E-002  0.26423435815839408        0.0000000000000000     
  -4.5056810170436050E-002  0.23031852487945731        0.0000000000000000     
  -4.5284101339182502E-002  0.23878782868719950        0.0000000000000000     
  -4.5476365956002927E-002  0.24729452584020467        0.0000000000000000     
  -4.5633604020897285E-002  0.25583861633847277        0.0000000000000000     
  -4.5755815533865603E-002  0.26442010018200390        0.0000000000000000     
  -5.1882745265406760E-002  0.23039927557007606        0.0000000000000000     
  -5.2150879688286515E-002  0.23887378701587417        0.0000000000000000     
  -5.2374576086957926E-002  0.24740319393897886        0.0000000000000000     
  -5.2553834461421020E-002  0.25598749633939016        0.0000000000000000     
  -5.2688654811675797E-002  0.26462669421710805        0.0000000000000000     
  -2.5688218946013031E-002  0.26392543014565700        0.0000000000000000     
  -2.5755786024037310E-002  0.27232696096598152        0.0000000000000000     
  -2.5831156593466520E-002  0.28062065803187952        0.0000000000000000     
  -2.5914330654300658E-002  0.28880652134335122        0.0000000000000000     
  -2.6005308206539738E-002  0.29688455090039645        0.0000000000000000     
  -3.2255597601034219E-002  0.26406946814627846        0.0000000000000000     
  -3.2340089499506147E-002  0.27251674315059665        0.0000000000000000     
  -3.2433104726740145E-002  0.28086940505005964        0.0000000000000000     
  -3.2534643282736225E-002  0.28912745384466743        0.0000000000000000     
  -3.2644705167494383E-002  0.29729088953442001        0.0000000000000000     
  -3.8944796463651739E-002  0.26423435815839408        0.0000000000000000     
  -3.9043872030443433E-002  0.27273743864110050        0.0000000000000000     
  -3.9153282992847753E-002  0.28116102842997787        0.0000000000000000     
  -3.9273029350864699E-002  0.28950512752502655        0.0000000000000000     
  -3.9403111104494272E-002  0.29776973592624623        0.0000000000000000     
  -4.5755815533865603E-002  0.26442010018200390        0.0000000000000000     
  -4.5867133616849180E-002  0.27298904743749286        0.0000000000000000     
  -4.5991691391789338E-002  0.28149552817163442        0.0000000000000000     
  -4.6129488858686070E-002  0.28993954238442854        0.0000000000000000     
  -4.6280526017539389E-002  0.29832109007587521        0.0000000000000000     
  -5.2688654811675797E-002  0.26462669421710805        0.0000000000000000     
  -5.2809874258723376E-002  0.27327156953977388        0.0000000000000000     
  -5.2948329923564894E-002  0.28187290427502898        0.0000000000000000     
  -5.3104021806200365E-002  0.29043069842287333        0.0000000000000000     
  -5.3276949906629761E-002  0.29894495198330695        0.0000000000000000     
  -2.8956354451743431E-002   5.7186434425944371E-002   0.0000000000000000     
  -3.0519252513715379E-002   6.2736735285780110E-002   0.0000000000000000     
  -3.2022768582212612E-002   6.8471778598616417E-002   0.0000000000000000     
  -3.3466902657235134E-002   7.4391564364453308E-002   0.0000000000000000     
  -3.4851654738782947E-002   8.0496092583290768E-002   0.0000000000000000     
  -3.2940461865303271E-002   5.7657626769989007E-002   0.0000000000000000     
  -3.4695641048397216E-002   6.3212828997255596E-002   0.0000000000000000     
  -3.6384889377786195E-002   6.8945703296519792E-002   0.0000000000000000     
  -3.8008206853470221E-002   7.4856249667781538E-002   0.0000000000000000     
  -3.9565593475449266E-002   8.0944468111040890E-002   0.0000000000000000     
  -3.7069924922367811E-002   5.8204056828361321E-002   0.0000000000000000     
  -3.9017505814460778E-002   6.3749814854718659E-002   0.0000000000000000     
  -4.0892330723444996E-002   6.9470385410033322E-002   0.0000000000000000     
  -4.2694399649320473E-002   7.5365768494305360E-002   0.0000000000000000     
  -4.4423712592087203E-002   8.1435964107534717E-002   0.0000000000000000     
  -4.1344743622937059E-002   5.8825724601061308E-002   0.0000000000000000     
  -4.3484846811906064E-002   6.4347692858169242E-002   0.0000000000000000     
  -4.5545092619189022E-002   7.0045824939157064E-002   0.0000000000000000     
  -4.7525481044785912E-002   7.5920120844024733E-002   0.0000000000000000     
  -4.9426012088696743E-002   8.1970580572772234E-002   0.0000000000000000     
  -4.5764917967011022E-002   5.9522630088088967E-002   0.0000000000000000     
  -4.8097664040733096E-002   6.5006463007607401E-002   0.0000000000000000     
  -5.0343175065018259E-002   7.0672021883890948E-002   0.0000000000000000     
  -5.2501451039866531E-002   7.6519306716939628E-002   0.0000000000000000     
  -5.4572491965277900E-002   8.2548317506753427E-002   0.0000000000000000     
  -3.4851654738782947E-002   8.0496092583290768E-002   0.0000000000000000     
  -3.6185187808530875E-002   8.6771388526533322E-002   0.0000000000000000     
  -3.7475664848153727E-002   9.3203477465585424E-002   0.0000000000000000     
  -3.8723085857651510E-002   9.9792359400447117E-002   0.0000000000000000     
  -3.9927450837024231E-002  0.10653803433111837        0.0000000000000000     
  -3.9565593475449266E-002   8.0944468111040890E-002   0.0000000000000000     
  -4.1065868349071111E-002   8.7200348066055713E-002   0.0000000000000000     
  -4.2517850579683505E-002   9.3613878972583928E-002   0.0000000000000000     
  -4.3921540167286423E-002  0.10018506083062549        0.0000000000000000     
  -4.5276937111879904E-002  0.10691389364018045        0.0000000000000000     
  -4.4423712592087203E-002   8.1435964107534717E-002   0.0000000000000000     
  -4.6089976603977560E-002   8.7672569069200040E-002   0.0000000000000000     
  -4.7702898737223914E-002   9.4067180198779979E-002   0.0000000000000000     
  -4.9262478991826272E-002  0.10061979749627453        0.0000000000000000     
  -5.0768717367784627E-002  0.10733042096168373        0.0000000000000000     
  -4.9426012088696743E-002   8.1970580572772234E-002   0.0000000000000000     
  -5.1257512573250202E-002   8.8188051535966289E-002   0.0000000000000000     
  -5.3030809320774960E-002   9.4563381144173647E-002   0.0000000000000000     
  -5.4745902331271017E-002  0.10109656939739427        0.0000000000000000     
  -5.6402791604738385E-002  0.10778761629562815        0.0000000000000000     
  -5.4572491965277900E-002   8.2548317506753427E-002   0.0000000000000000     
  -5.6568476256889044E-002   8.8746795466354458E-002   0.0000000000000000     
  -5.8501582330336643E-002   9.5102481808764877E-002   0.0000000000000000     
  -6.0371810185620683E-002  0.10161537653398464        0.0000000000000000     
  -6.2179159822741178E-002  0.10828547964201377        0.0000000000000000     
  -3.9927450837024231E-002  0.10653803433111837        0.0000000000000000     
  -4.1082696936919599E-002  0.11342948117473139        0.0000000000000000     
  -4.2182761307985345E-002  0.12045567884841842        0.0000000000000000     
  -4.3227643950221488E-002  0.12761662735217938        0.0000000000000000     
  -4.4217344863627994E-002  0.13491232668601436        0.0000000000000000     
  -4.5276937111879904E-002  0.10691389364018045        0.0000000000000000     
  -4.6577523757478742E-002  0.11378853624066718        0.0000000000000000     
  -4.7816782448097769E-002  0.12079714747150405        0.0000000000000000     
  -4.8994713183736979E-002  0.12793972733269107        0.0000000000000000     
  -5.0111315964396386E-002  0.13521627582422824        0.0000000000000000     
  -5.0768717367784627E-002  0.10733042096168373        0.0000000000000000     
  -5.2214561898260362E-002  0.11418680648347805        0.0000000000000000     
  -5.3592960616414859E-002  0.12117670995012805        0.0000000000000000     
  -5.4903913522248139E-002  0.12830013136163376        0.0000000000000000     
  -5.6147420615760175E-002  0.13555707071799517        0.0000000000000000     
  -5.6402791604738385E-002  0.10778761629562815        0.0000000000000000     
  -5.7993811359264458E-002  0.11462429190316399        0.0000000000000000     
  -5.9511295812936640E-002  0.12159436628429039        0.0000000000000000     
  -6.0955244965754947E-002  0.12869783943900742        0.0000000000000000     
  -6.2325658817719384E-002  0.13593471136731505        0.0000000000000000     
  -6.2179159822741178E-002  0.10828547964201377        0.0000000000000000     
  -6.3915272140491003E-002  0.11510099249972498        0.0000000000000000     
  -6.5571788037663115E-002  0.12205011647399111        0.0000000000000000     
  -6.7148707514257444E-002  0.12913285156481208        0.0000000000000000     
  -6.8646030570274005E-002  0.13634919777218790        0.0000000000000000     
  -4.4217344863627994E-002  0.13491232668601436        0.0000000000000000     
  -4.5153866149582680E-002  0.14233080175397131        0.0000000000000000     
  -4.6039209909463329E-002  0.14986007746009836        0.0000000000000000     
  -4.6873376143269925E-002  0.15750015380439550        0.0000000000000000     
  -4.7656364851002483E-002  0.16525103078686273        0.0000000000000000     
  -5.0111315964396386E-002  0.13521627582422824        0.0000000000000000     
  -5.1168927735502578E-002  0.14261522066878088        0.0000000000000000     
  -5.2169885442482175E-002  0.15012498958901430        0.0000000000000000     
  -5.3114189085335176E-002  0.15774558258492846        0.0000000000000000     
  -5.4001838664061566E-002  0.16547699965652340        0.0000000000000000     
  -5.6147420615760175E-002  0.13555707071799517        0.0000000000000000     
  -5.7326370450887940E-002  0.14293605042808283        0.0000000000000000     
  -5.8443651581568397E-002  0.15042559290076740        0.0000000000000000     
  -5.9499264007801526E-002  0.15802569813604883        0.0000000000000000     
  -6.0493207729587349E-002  0.16573636613392717        0.0000000000000000     
  -6.2325658817719384E-002  0.13593471136731505        0.0000000000000000     
  -6.3626194295738778E-002  0.14329329103187718        0.0000000000000000     
  -6.4860508326721966E-002  0.15076188739535770        0.0000000000000000     
  -6.6028600910668978E-002  0.15834050045775672        0.0000000000000000     
  -6.7130472047579798E-002  0.16602913021907409        0.0000000000000000     
  -6.8646030570274005E-002  0.13634919777218790        0.0000000000000000     
  -7.0068399270055065E-002  0.14368694248016387        0.0000000000000000     
  -7.1420455677942918E-002  0.15113387307278522        0.0000000000000000     
  -7.2702199793937536E-002  0.15868998955005198        0.0000000000000000     
  -7.3913631618038905E-002  0.16635529191196408        0.0000000000000000     
  -4.7656364851002483E-002  0.16525103078686273        0.0000000000000000     
  -4.8385679604331253E-002  0.17310157226215281        0.0000000000000000     
  -4.9058823974926467E-002  0.18104064208491852        0.0000000000000000     
  -4.9675797962788135E-002  0.18906824025515989        0.0000000000000000     
  -5.0236601567916261E-002  0.19718436677287685        0.0000000000000000     
  -5.4001838664061566E-002  0.16547699965652340        0.0000000000000000     
  -5.4830448116168849E-002  0.17330807008358959        0.0000000000000000     
  -5.5597631379164451E-002  0.18122762314591753        0.0000000000000000     
  -5.6303388453048386E-002  0.18923565884350718        0.0000000000000000     
  -5.6947719337820654E-002  0.19733217717635856        0.0000000000000000     
  -6.0493207729587349E-002  0.16573636613392717        0.0000000000000000     
  -6.1423162355937283E-002  0.17354664627557642        0.0000000000000000     
  -6.2286807495862760E-002  0.18144558794217044        0.0000000000000000     
  -6.3084143149363794E-002  0.18943319113370941        0.0000000000000000     
  -6.3815169316440379E-002  0.19750945585019325        0.0000000000000000     
  -6.7130472047579798E-002  0.16602913021907409        0.0000000000000000     
  -6.8163822323636561E-002  0.17381730083811320        0.0000000000000000     
  -6.9126352325021401E-002  0.18169453647367742        0.0000000000000000     
  -7.0018062051734359E-002  0.18966083712576662        0.0000000000000000     
  -7.0838951503775408E-002  0.19771620279438096        0.0000000000000000     
  -7.3913631618038905E-002  0.16635529191196408        0.0000000000000000     
  -7.5052428019266662E-002  0.17412003377120006        0.0000000000000000     
  -7.6116265866640401E-002  0.18197446874043824        0.0000000000000000     
  -7.7105145160160093E-002  0.18991859681967879        0.0000000000000000     
  -7.8019065899825754E-002  0.19795241800892160        0.0000000000000000     
  -5.0236601567916261E-002  0.19718436677287685        0.0000000000000000     
  -5.0739024359330420E-002  0.20538059159129290        0.0000000000000000     
  -5.1180855906050232E-002  0.21364848466363143        0.0000000000000000     
  -5.1562096208075683E-002  0.22198804598989252        0.0000000000000000     
  -5.1882745265406760E-002  0.23039927557007606        0.0000000000000000     
  -5.6947719337820654E-002  0.19733217717635856        0.0000000000000000     
  -5.7527660639590590E-002  0.20551024525996323        0.0000000000000000     
  -5.8040248964467467E-002  0.21376293020981257        0.0000000000000000     
  -5.8485484312451347E-002  0.22209023202590664        0.0000000000000000     
  -5.8863366683542181E-002  0.23049215070824539        0.0000000000000000     
  -6.3815169316440379E-002  0.19750945585019325        0.0000000000000000     
  -6.4477187572716851E-002  0.20566815205496547        0.0000000000000000     
  -6.5067499493817640E-002  0.21390304971136939        0.0000000000000000     
  -6.5586105079742676E-002  0.22221414881940504        0.0000000000000000     
  -6.6033004330492001E-002  0.23060144937907248        0.0000000000000000     
  -7.0838951503775408E-002  0.19771620279438096        0.0000000000000000     
  -7.1587605158709280E-002  0.20585431197629964        0.0000000000000000     
  -7.2262607494100697E-002  0.21406884316830191        0.0000000000000000     
  -7.2863958509949686E-002  0.22235979637038783        0.0000000000000000     
  -7.3391658206256233E-002  0.23072717158255737        0.0000000000000000     
  -7.8019065899825754E-002  0.19795241800892160        0.0000000000000000     
  -7.8858913397567815E-002  0.20606872502396573        0.0000000000000000     
  -7.9625572965316693E-002  0.21426031058061015        0.0000000000000000     
  -8.0319044603072376E-002  0.22252717467885491        0.0000000000000000     
  -8.0939328310834877E-002  0.23086931731870003        0.0000000000000000     
  -5.1882745265406760E-002  0.23039927557007606        0.0000000000000000     
  -5.2150879688286515E-002  0.23887378701587417        0.0000000000000000     
  -5.2374576086957926E-002  0.24740319393897886        0.0000000000000000     
  -5.2553834461421020E-002  0.25598749633939016        0.0000000000000000     
  -5.2688654811675797E-002  0.26462669421710805        0.0000000000000000     
  -5.8863366683542181E-002  0.23049215070824539        0.0000000000000000     
  -5.9179955329201811E-002  0.23896786425266675        0.0000000000000000     
  -5.9441309500892110E-002  0.24751655065500863        0.0000000000000000     
  -5.9647429198613044E-002  0.25613820991527098        0.0000000000000000     
  -5.9798314422364628E-002  0.26483284203345386        0.0000000000000000     
  -6.6033004330492001E-002  0.23060144937907248        0.0000000000000000     
  -6.6410463277908241E-002  0.23907148759454225        0.0000000000000000     
  -6.6720747953834050E-002  0.24763079966998489        0.0000000000000000     
  -6.6963858358269429E-002  0.25627938560540042        0.0000000000000000     
  -6.7139794491214377E-002  0.26501724540078886        0.0000000000000000     
  -7.3391658206256233E-002  0.23072717158255737        0.0000000000000000     
  -7.3842403534405771E-002  0.23918465704150063        0.0000000000000000     
  -7.4212891445783760E-002  0.24774594098390765        0.0000000000000000     
  -7.4503121940390202E-002  0.25641102340977839        0.0000000000000000     
  -7.4713095018225067E-002  0.26517990431911292        0.0000000000000000     
  -8.0939328310834877E-002  0.23086931731870003        0.0000000000000000     
  -8.1475776098694414E-002  0.23930737259354184        0.0000000000000000     
  -8.1917739976741233E-002  0.24786197459677686        0.0000000000000000     
  -8.2265219944975307E-002  0.25653312332840494        0.0000000000000000     
  -8.2518216003396677E-002  0.26532081878842628        0.0000000000000000     
  -5.2688654811675797E-002  0.26462669421710805        0.0000000000000000     
  -5.2809874258723376E-002  0.27327156953977388        0.0000000000000000     
  -5.2948329923564894E-002  0.28187290427502898        0.0000000000000000     
  -5.3104021806200365E-002  0.29043069842287333        0.0000000000000000     
  -5.3276949906629761E-002  0.29894495198330695        0.0000000000000000     
  -5.9798314422364628E-002  0.26483284203345386        0.0000000000000000     
  -5.9930849766656941E-002  0.27355629647727209        0.0000000000000000     
  -6.0081919826000078E-002  0.28226442271444069        0.0000000000000000     
  -6.0251524600394041E-002  0.29095722074495967        0.0000000000000000     
  -6.0439664089838842E-002  0.29963469056882885        0.0000000000000000     
  -6.7139794491214377E-002  0.26501724540078886        0.0000000000000000     
  -6.7288815951240782E-002  0.27381451977931620        0.0000000000000000     
  -6.7451182336920545E-002  0.28264134946414859        0.0000000000000000     
  -6.7626893648253625E-002  0.29149773445528604        0.0000000000000000     
  -6.7815949885240076E-002  0.30038367475272848        0.0000000000000000     
  -7.4713095018225067E-002  0.26517990431911292        0.0000000000000000     
  -7.4883772812474908E-002  0.27404623944590611        0.0000000000000000     
  -7.5056117456326260E-002  0.28300368452415259        0.0000000000000000     
  -7.5230128949779110E-002  0.29205223955385251        0.0000000000000000     
  -7.5405807292833471E-002  0.30119190453500572        0.0000000000000000     
  -8.2518216003396677E-002  0.26532081878842628        0.0000000000000000     
  -8.2715720350359317E-002  0.27425145547704183        0.0000000000000000     
  -8.2896725184217243E-002  0.28335142789445278        0.0000000000000000     
  -8.3061230504970496E-002  0.29262073604065902        0.0000000000000000     
  -8.3209236312619034E-002  0.30205937991566068        0.0000000000000000     
  -4.5764917967011022E-002   5.9522630088088967E-002   0.0000000000000000     
  -4.8097664040733096E-002   6.5006463007607401E-002   0.0000000000000000     
  -5.0343175065018259E-002   7.0672021883890948E-002   0.0000000000000000     
  -5.2501451039866531E-002   7.6519306716939628E-002   0.0000000000000000     
  -5.4572491965277900E-002   8.2548317506753427E-002   0.0000000000000000     
  -5.0356153211351021E-002   6.0274016186567858E-002   0.0000000000000000     
  -5.2880154138971062E-002   6.5720404907096949E-002   0.0000000000000000     
  -5.5309971509087445E-002   7.1353194905118128E-002   0.0000000000000000     
  -5.7645605321700197E-002   7.7172386180631380E-002   0.0000000000000000     
  -5.9887055576809275E-002   8.3177978733636707E-002   0.0000000000000000     
  -5.5144154612718398E-002   6.1059125793621508E-002   0.0000000000000000     
  -5.7856513744649195E-002   6.6483798160701754E-002   0.0000000000000000     
  -6.0468875399551328E-002   7.2093562663721661E-002   0.0000000000000000     
  -6.2981239577424741E-002   7.7888419302681242E-002   0.0000000000000000     
  -6.5393606278269484E-002   8.3868368077580441E-002   0.0000000000000000     
  -6.0128922171113153E-002   6.1877958909249957E-002   0.0000000000000000     
  -6.3026742857767507E-002   6.7296642768421844E-002   0.0000000000000000     
  -6.5819886736409872E-002   7.2893125159701574E-002   0.0000000000000000     
  -6.8508353807040193E-002   7.8667406083089142E-002   0.0000000000000000     
  -7.1092144069658539E-002   8.4619485538584630E-002   0.0000000000000000     
  -6.5310455886535279E-002   6.2730515533453171E-002   0.0000000000000000     
  -6.8390841478325970E-002   6.8158938730257163E-002   0.0000000000000000     
  -7.1363005519663070E-002   7.3751882393057841E-002   0.0000000000000000     
  -7.4226948010546551E-002   7.9509346521855206E-002   0.0000000000000000     
  -7.6982668950976413E-002   8.5431331116649245E-002   0.0000000000000000     
  -5.4572491965277900E-002   8.2548317506753427E-002   0.0000000000000000     
  -5.6568476256889044E-002   8.8746795466354458E-002   0.0000000000000000     
  -5.8501582330336643E-002   9.5102481808764877E-002   0.0000000000000000     
  -6.0371810185620683E-002  0.10161537653398464        0.0000000000000000     
  -6.2179159822741178E-002  0.10828547964201377        0.0000000000000000     
  -5.9887055576809275E-002   8.3177978733636707E-002   0.0000000000000000     
  -6.2047585345463979E-002   8.9355182040920508E-002   0.0000000000000000     
  -6.4140457698713557E-002   9.5689205579269104E-002   0.0000000000000000     
  -6.6165672636557996E-002  0.10218004934868255        0.0000000000000000     
  -6.8123230158997336E-002  0.10882771334916080        0.0000000000000000     
  -6.5393606278269484E-002   8.3868368077580441E-002   0.0000000000000000     
  -6.7719557529544894E-002   9.0019592440220300E-002   0.0000000000000000     
  -6.9972675358710310E-002   9.6328275842401778E-002   0.0000000000000000     
  -7.2152959765765731E-002  0.10279441828412486        0.0000000000000000     
  -7.4260410750711173E-002  0.10941801976538956        0.0000000000000000     
  -7.1092144069658539E-002   8.4619485538584630E-002   0.0000000000000000     
  -7.3584392809131788E-002   9.0740026664253862E-002   0.0000000000000000     
  -7.5998235310326887E-002   9.7019692598162843E-002   0.0000000000000000     
  -7.8333671573243863E-002  0.10345848334031157        0.0000000000000000     
  -8.0590701597882675E-002  0.11005639889070001        0.0000000000000000     
  -7.6982668950976413E-002   8.5431331116649245E-002   0.0000000000000000     
  -7.9642091184224675E-002   9.1516484713021207E-002   0.0000000000000000     
  -8.2217137553563344E-002   9.7763455846552369E-002   0.0000000000000000     
  -8.4707808058992404E-002  0.10417224451724269        0.0000000000000000     
  -8.7114102700511870E-002  0.11074285072509218        0.0000000000000000     
  -6.2179159822741178E-002  0.10828547964201377        0.0000000000000000     
  -6.3915272140491003E-002  0.11510099249972498        0.0000000000000000     
  -6.5571788037663115E-002  0.12205011647399111        0.0000000000000000     
  -6.7148707514257444E-002  0.12913285156481208        0.0000000000000000     
  -6.8646030570274005E-002  0.13634919777218790        0.0000000000000000     
  -6.8123230158997336E-002  0.10882771334916080        0.0000000000000000     
  -7.0004140379434865E-002  0.11562068018283053        0.0000000000000000     
  -7.1799413411273938E-002  0.12254743245181836        0.0000000000000000     
  -7.3509049254514555E-002  0.12960797015612430        0.0000000000000000     
  -7.5133047909156675E-002  0.13680229329574833        0.0000000000000000     
  -7.4260410750711173E-002  0.10941801976538956        0.0000000000000000     
  -7.6285612213590800E-002  0.11618712686215002        0.0000000000000000     
  -7.8219148054448837E-002  0.12308978615036040        0.0000000000000000     
  -8.0061018273285253E-002  0.13012599763002067        0.0000000000000000     
  -8.1811222870100078E-002  0.13729576130113086        0.0000000000000000     
  -8.0590701597882675E-002  0.11005639889070001        0.0000000000000000     
  -8.2759687642958824E-002  0.11680033253768347        0.0000000000000000     
  -8.4830991967187783E-002  0.12367717756961723        0.0000000000000000     
  -8.6804614570569566E-002  0.13068693398650119        0.0000000000000000     
  -8.8680555453104187E-002  0.13782960178833556        0.0000000000000000     
  -8.7114102700511870E-002  0.11074285072509218        0.0000000000000000     
  -8.9426366667538920E-002  0.11746029720943088        0.0000000000000000     
  -9.1634945149490818E-002  0.12430960670958882        0.0000000000000000     
  -9.3739838146367493E-002  0.13129077922556595        0.0000000000000000     
  -9.5741045658168988E-002  0.13840381475736233        0.0000000000000000     
  -6.8646030570274005E-002  0.13634919777218790        0.0000000000000000     
  -7.0068399270055065E-002  0.14368694248016387        0.0000000000000000     
  -7.1420455677942918E-002  0.15113387307278522        0.0000000000000000     
  -7.2702199793937536E-002  0.15868998955005198        0.0000000000000000     
  -7.3913631618038905E-002  0.16635529191196408        0.0000000000000000     
  -7.5133047909156675E-002  0.13680229329574833        0.0000000000000000     
  -7.6677017952783061E-002  0.14411777503314888        0.0000000000000000     
  -7.8146567962976449E-002  0.15154178853078429        0.0000000000000000     
  -7.9541697939736783E-002  0.15907433378865460        0.0000000000000000     
  -8.0862407883064105E-002  0.16671541080675981        0.0000000000000000     
  -8.1811222870100078E-002  0.13729576130113086        0.0000000000000000     
  -8.3476082922869010E-002  0.14458655895103806        0.0000000000000000     
  -8.5061919509567777E-002  0.15198587236708924        0.0000000000000000     
  -8.6568732630196363E-002  0.15949370154928449        0.0000000000000000     
  -8.7996522284754797E-002  0.16711004649762373        0.0000000000000000     
  -8.8680555453104187E-002  0.13782960178833556        0.0000000000000000     
  -9.0465594180312844E-002  0.14509329423383141        0.0000000000000000     
  -9.2166510317716902E-002  0.15246612458170009        0.0000000000000000     
  -9.3783303865316262E-002  0.15994809283194161        0.0000000000000000     
  -9.5315974823110980E-002  0.16753919898455599        0.0000000000000000     
  -9.5741045658168988E-002  0.13840381475736233        0.0000000000000000     
  -9.7645551725114646E-002  0.14563798088152893        0.0000000000000000     
  -9.9460340387423810E-002  0.15298254517461682        0.0000000000000000     
 -0.10118541164509647       0.16043750763662604        0.0000000000000000     
 -0.10282076549813261       0.16800286826755650        0.0000000000000000     
  -7.3913631618038905E-002  0.16635529191196408        0.0000000000000000     
  -7.5052428019266662E-002  0.17412003377120006        0.0000000000000000     
  -7.6116265866640401E-002  0.18197446874043824        0.0000000000000000     
  -7.7105145160160093E-002  0.18991859681967879        0.0000000000000000     
  -7.8019065899825754E-002  0.19795241800892160        0.0000000000000000     
  -8.0862407883064105E-002  0.16671541080675981        0.0000000000000000     
  -8.2106593993034535E-002  0.17445587479789337        0.0000000000000000     
  -8.3272152469724109E-002  0.18228658097484901        0.0000000000000000     
  -8.4359083313132910E-002  0.19020752933762652        0.0000000000000000     
  -8.5367386523260869E-002  0.19821871988622608        0.0000000000000000     
  -8.7996522284754797E-002  0.16711004649762373        0.0000000000000000     
  -8.9343934795147031E-002  0.17482585364124981        0.0000000000000000     
  -9.0609616483277006E-002  0.18263206940930540        0.0000000000000000     
  -9.1793567349144720E-002  0.19052869380179055        0.0000000000000000     
  -9.2895787392750187E-002  0.19851572681870525        0.0000000000000000     
  -9.5315974823110980E-002  0.16753919898455599        0.0000000000000000     
  -9.6764450425604165E-002  0.17522997030126927        0.0000000000000000     
  -9.8128657907299036E-002  0.18301093404380755        0.0000000000000000     
  -9.9408597268195523E-002  0.19088209021217084        0.0000000000000000     
 -0.10060426850829372       0.19884343880635913        0.0000000000000000     
 -0.10282076549813261       0.16800286826755650        0.0000000000000000     
 -0.10436814088440596       0.17566822477795177        0.0000000000000000     
 -0.10582927674179024       0.18342317487835541        0.0000000000000000     
 -0.10720417307028539       0.19126771856876740        0.0000000000000000     
 -0.10849282986989145       0.19920185584918773        0.0000000000000000     
  -7.8019065899825754E-002  0.19795241800892160        0.0000000000000000     
  -7.8858913397567815E-002  0.20606872502396573        0.0000000000000000     
  -7.9625572965316693E-002  0.21426031058061015        0.0000000000000000     
  -8.0319044603072376E-002  0.22252717467885491        0.0000000000000000     
  -8.0939328310834877E-002  0.23086931731870003        0.0000000000000000     
  -8.5367386523260869E-002  0.19821871988622608        0.0000000000000000     
  -8.6300341297379540E-002  0.20631218379329710        0.0000000000000000     
  -8.7161226832760466E-002  0.21447995223148908        0.0000000000000000     
  -8.7950043129403604E-002  0.22272202520080209        0.0000000000000000     
  -8.8666790187308969E-002  0.23103840270123607        0.0000000000000000     
  -9.2895787392750187E-002  0.19851572681870525        0.0000000000000000     
  -9.3921117866231529E-002  0.20658548087962708        0.0000000000000000     
  -9.4874400021726868E-002  0.21473026840413367        0.0000000000000000     
  -9.5755633859236217E-002  0.22295008939222502        0.0000000000000000     
  -9.6564819378759534E-002  0.23124494384390112        0.0000000000000000     
 -0.10060426850829372       0.19884343880635913        0.0000000000000000     
 -0.10172124310412378       0.20688861628295574        0.0000000000000000     
 -0.10276509253221594       0.21501125909854393        0.0000000000000000     
 -0.10373581679257020       0.22321136725312379        0.0000000000000000     
 -0.10463341588518658       0.23148894074669521        0.0000000000000000     
 -0.10849282986989145       0.19920185584918773        0.0000000000000000     
 -0.10970071701105626       0.20722159000328300        0.0000000000000000     
 -0.11083330436422763       0.21532292431471989        0.0000000000000000     
 -0.11189059192940559       0.22350585878349832        0.0000000000000000     
 -0.11287257970659012       0.23177039340961830        0.0000000000000000     
  -8.0939328310834877E-002  0.23086931731870003        0.0000000000000000     
  -8.1475776098694414E-002  0.23930737259354184        0.0000000000000000     
  -8.1917739976741233E-002  0.24786197459677686        0.0000000000000000     
  -8.2265219944975307E-002  0.25653312332840494        0.0000000000000000     
  -8.2518216003396677E-002  0.26532081878842628        0.0000000000000000     
  -8.8666790187308969E-002  0.23103840270123607        0.0000000000000000     
  -8.9297068354158265E-002  0.23945460312167566        0.0000000000000000     
  -8.9826477977633226E-002  0.24799614485100555        0.0000000000000000     
  -9.0255019057733810E-002  0.25666302788922579        0.0000000000000000     
  -9.0582691594460057E-002  0.26545525223633620        0.0000000000000000     
  -9.6564819378759534E-002  0.23124494384390112        0.0000000000000000     
  -9.7292767684181436E-002  0.23964131749691181        0.0000000000000000     
  -9.7930289879386498E-002  0.24816569608900690        0.0000000000000000     
  -9.8477385964374733E-002  0.25681807962018643        0.0000000000000000     
  -9.8934055939146101E-002  0.26559846809045029        0.0000000000000000     
 -0.10463341588518658       0.23148894074669521        0.0000000000000000     
 -0.10546287408876394       0.23986751571925025        0.0000000000000000     
 -0.10622917568200108       0.24837062831078080        0.0000000000000000     
 -0.10693232066489804       0.25699827852128693        0.0000000000000000     
 -0.10757230903745479       0.26575046635076854        0.0000000000000000     
 -0.11287257970659012       0.23177039340961830        0.0000000000000000     
 -0.11380738756790575       0.24013319778869097        0.0000000000000000     
 -0.11472313538547693       0.24861094151632723        0.0000000000000000     
 -0.11561982315930375       0.25720362459252727        0.0000000000000000     
 -0.11649745088938614       0.26591124701729091        0.0000000000000000     
  -8.2518216003396677E-002  0.26532081878842628        0.0000000000000000     
  -8.2715720350359317E-002  0.27425145547704183        0.0000000000000000     
  -8.2896725184217243E-002  0.28335142789445278        0.0000000000000000     
  -8.3061230504970496E-002  0.29262073604065902        0.0000000000000000     
  -8.3209236312619034E-002  0.30205937991566068        0.0000000000000000     
  -9.0582691594460057E-002  0.26545525223633620        0.0000000000000000     
  -9.0839844396643846E-002  0.27443585903356149        0.0000000000000000     
  -9.1056826273117092E-002  0.28366788942212601        0.0000000000000000     
  -9.1233637223879782E-002  0.29315134340202975        0.0000000000000000     
  -9.1370277248931944E-002  0.30288622097327278        0.0000000000000000     
  -9.8934055939146101E-002  0.26559846809045029        0.0000000000000000     
  -9.9311330783078397E-002  0.27460514127630309        0.0000000000000000     
  -9.9620241475549390E-002  0.28393637895424922        0.0000000000000000     
  -9.9860788016559038E-002  0.29359218112428875        0.0000000000000000     
 -0.10003297040610740       0.30357254778642156        0.0000000000000000     
 -0.10757230903745479       0.26575046635076854        0.0000000000000000     
 -0.10813017950966296       0.27475930220526679        0.0000000000000000     
 -0.10858697079151411       0.28415689649082260        0.0000000000000000     
 -0.10894268288300826       0.29394324920743597        0.0000000000000000     
 -0.10919731578414540       0.30411836035510714        0.0000000000000000     
 -0.11649745088938614       0.26591124701729091        0.0000000000000000     
 -0.11729639057639751       0.27489834182045247        0.0000000000000000     
 -0.11795701422101128       0.28432944203184601        0.0000000000000000     
 -0.11847932182322742       0.29420454765147169        0.0000000000000000     
 -0.11886331338304595       0.30452365867932929        0.0000000000000000     
 </DataArray>
 <DataArray  type="Float64" Name="stress" NumberOfComponents="3" format="ascii">
   5858297800.7828226       -530619393.24267602       -107247852.43749073     
   5695311056.5680332       -368360315.72636414       -86087562.675302580     
   5520097632.8443451       -246856836.57302642       -62036486.455957919     
   5332657529.6117678       -166108955.78266001       -35094623.779460609     
   5132990746.8703051       -126116673.35524940       -5261974.6458119154     
   5590532417.0128727       -281613916.60469151        141057546.79485127     
   5415852076.1760969       -186274791.39464521        145196355.35360295     
   5233195100.5476170       -117524448.82362580        152892369.04743212     
   5042561490.1274214       -75362888.891655445        164145587.87634328     
   4843951244.9155216       -59790111.598694801        178956011.84031910     
   5306854393.6227932       -37382231.852732182        362494571.22948331     
   5122384509.5295296       -8391842.9393122196        354570284.08818012     
   4934188035.3617306        8176579.0590186119        350869620.75987279     
   4742264971.1194057        12323034.142259598        351392581.24456298     
   4546615316.8025532        4047522.3104043007        356139165.54224271     
   5007263730.6125994        202075661.01318598        557063220.86639237     
   4814908356.6283226        165288529.63963461        542034223.52840841     
   4623076437.2866945        130246247.07492924        531895268.68134981     
   4431767972.5877209        96948813.319068193        526646356.32520038     
   4240982962.5314031        65396228.372048616        526287486.45996225     
   4691760427.9822779        436759761.99306250        724763495.70558560     
   4493423617.4724722        334766326.34218717        707588173.67430830     
   4299860306.3225002        248684555.22408819        695969312.81186438     
   4111070494.5323615        178514448.63876534        689906913.11825538     
   3927054182.1020613        124256006.58623600        689400974.59347546     
   5132990746.8703051       -126116673.35524940       -5261974.6458119154     
   4987554829.3342457       -91536865.921383619       -5289561.8724983027     
   4840049942.1498299       -63853623.982053757       -2866666.4902263428     
   4690476085.3170519       -43066947.537263870        2006711.5010046039     
   4538833258.8359079       -29176836.587016344        9330572.1011951789     
   4843951244.9155216       -59790111.598694801        178956011.84031910     
   4700754036.4644318       -41075546.282380819        174526545.74011043     
   4556644150.9337025       -25403237.898201227        173029890.66188568     
   4411621588.3233328       -12773186.446152925        174466046.60565123     
   4265686348.6333179       -3185391.9262621403        178835013.57139939     
   4546615316.8025532        4047522.3104043007        356139165.54224271     
   4407034898.6165075        7310269.8631978035        348656828.56535304     
   4267698095.9195414        11385069.046247244        344589631.02347380     
   4128604908.7116494        16271919.859555721        343937572.91661346     
   3989755336.9928398        21970822.303125620        346700654.24476391     
   4240982962.5314031        65396228.372048616        526287486.45996225     
   4106397415.7904749        53620582.515332699        517101286.60323340     
   3973211777.1073408        46511296.851277113        511812554.59453881     
   3841426046.4820108        44068371.379884243        510421290.43389046     
   3711040223.9144731        46291806.101143599        512927494.12127799     
   3927054182.1020613        124256006.58623600        689400974.59347546     
   3798841587.9863253        97855391.674031019        679859919.85374761     
   3673185194.4971094        79975445.516902208        674698661.37507915     
   3550085001.6344094        70616168.114820004        673917199.15748084     
   3429541009.3982301        69777559.467811942        677515533.20094955     
   4538833258.8359079       -29176836.587016344        9330572.1011951789     
   4335378425.0116682       -33787245.440234184        2625743.8720081248     
   4132042944.8354445       -37999808.800051928        786471.91441016947     
   3928826818.3072224       -41814526.666543722        3812756.2283981107     
   3725730045.4270310       -45231399.039588928        11704596.813971307     
   4265686348.6333179       -3185391.9262621403        178835013.57139939     
   4074644767.9248686       -8363286.1023643017        171257485.46190259     
   3883702378.7638788       -13210541.786952257        168494015.47517201     
   3692859181.1503463       -17727158.980000734        170544603.61121789     
   3502115175.0842767       -21913137.681519032        177409249.87003252     
   3989755336.9928398        21970822.303125620        346700654.24476391     
   3810979871.8321290        16181301.533694744        338226903.80430853     
   3632283436.1183352        10655212.253973007        334515713.33781028     
   3453666029.8514371        5392554.4639050961        335567082.84526473     
   3275127653.0314479        393328.16355180740        341381012.32667279     
   3711040223.9144731        46291806.101143599        512927494.12127799     
   3544383736.7334666        39846517.468005180        503533998.89922404     
   3377786116.8988047        33597453.322692633        498851565.50230771     
   3211247364.4104924        27544613.665207386        498880193.93052208     
   3044767479.2685380        21687998.495573282        503619884.18387693     
   3429541009.3982301        69777559.467811942        677515533.20094955     
   3274856362.6288614        62632361.700520754        667178770.74665105     
   3120210421.1052909        55616181.419203401        661501571.96866345     
   2965603184.8275232        48729018.623912215        660483936.86699915     
   2811034653.7955494        41970873.314587712        664125865.44164956     
   3725730045.4270310       -45231399.039588928        11704596.813971307     
   3556314860.5738640       -38512202.495192528        6491085.6800475940     
   3386801152.2986321       -32121417.357676983        5208068.7985964427     
   3217188920.6013551       -26059043.626984239        7855546.1696421932     
   3047478165.4820237       -20325081.303129792        14433517.793170754     
   3502115175.0842767       -21913137.681519032        177409249.87003252     
   3342137613.7928009       -16888185.946746588        170787518.80997834     
   3182048331.5058861       -12235637.530114174        167885983.50097093     
   3021847328.2235279       -7955492.4316147566        168704643.94300008     
   2861534603.9457402       -4047750.6512248516        173243500.13606575     
   3275127653.0314479        393328.16355180740        341381012.32667279     
   3123986862.4403830        3543779.2302895784        333335664.17155343     
   2972721153.2804999        6277835.0676360130        328800213.26602525     
   2821330525.5517974        8595495.6755768061        327774659.61009747     
   2669814979.2542772        10496761.054132819        330259003.20376444     
   3044767479.2685380        21687998.495573282        503619884.18387693     
   2901862606.5166121        22783693.035921574        494135521.76474327     
   2758819617.6224861        23419000.435581446        487950758.09376615     
   2615638512.5861602        23593920.694586635        485065593.17092836     
   2472319291.4076338        23308453.812926412        485480026.99624377     
   2811034653.7955494        41970873.314587712        664125865.44164956     
   2675764846.0214925        40831555.470162153        653187091.58956873     
   2540343724.5318475        39187858.573775530        645337617.98418248     
   2404771289.3266206        37039782.625434637        640577444.62549746     
   2269047540.4058094        34387327.625165582        638906571.51351154     
   3047478165.4820237       -20325081.303129792        14433517.793170754     
   2883733442.6829128       -13429640.536332846        8820726.3854722660     
   2719672958.9631510       -7586736.1716966629        4496198.2746744435     
   2555296714.3227491       -2796368.2091995478        1459933.4608080315     
   2390604708.7616868        941463.35109746456       -288068.05614234321     
   2861534603.9457402       -4047750.6512248516        173243500.13606575     
   2700627354.3208885       -678049.45428204536        165561612.37046498     
   2539594672.0787344        2273543.0183370113        159587765.18886349     
   2378436557.2192655        4807026.7665705681        155321958.59128299     
   2217153009.7425137        6922401.7905050516        152764192.57771713     
   2669814979.2542772        10496761.054132819        330259003.20376444     
   2512944566.4810891        10700531.784432888        320730068.76748598     
   2356139049.3939552        11120621.468235135        313328952.20231307     
   2199398427.9928474        11757030.105473399        308055653.50825071     
   2042722702.2778029        12609757.696237922        304910172.68530035     
   2472319291.4076338        23308453.812926412        485480026.99624377     
   2320685079.1635280        20706103.179807901        474326095.57653254     
   2169306090.9088168        18954499.178012371        465719759.31503034     
   2018182326.6434970        18053641.807516813        459661018.21173882     
   1867313786.3675694        18003531.068320751        456149872.26662624     
   2269047540.4058094        34387327.625165582        638906571.51351154     
   2123848892.3681993        29338664.731862664        626349692.79761028     
   1979095796.6233404        25775176.147723079        616760186.52701044     
   1834788253.1712003        23696861.872654796        610138052.70170689     
   1690926262.0118110        23103721.906746149        606483291.32170475     
   2390604708.7616868        941463.35109746456       -288068.05614234321     
   2248246544.6651816        6432657.5565755367       -6403521.5167324878     
   2102942521.8447940        2104322.6824548244       -10738350.739911353     
   1954692640.3005323       -12043541.271241188       -13292555.725650758     
   1803496900.0324085       -36010934.304497838       -14066136.473963512     
   2217153009.7425137        6922401.7905050516        152764192.57771713     
   2078533619.0989566        12656611.206199408        143067067.29685882     
   1937942685.6937225        11819011.416293740        134409216.92462984     
   1795380209.5267596        4409602.4206293821        126790641.46105513     
   1650846190.5981226       -9571615.7806141376        120211340.90609308     
   2042722702.2778029        12609757.696237922        304910172.68530035     
   1905723944.1477923        17951540.040361524        292768077.54006761     
   1767727959.2182648        19969233.052775264        280923907.97466362     
   1628734747.4892049        18662836.733404696        269377663.98909992     
   1488744308.9606228        14032351.082298636        258129345.58337015     
   1867313786.3675694        18003531.068320751        456149872.26662624     
   1729817519.8116839        22317444.059070468        442699509.21288425     
   1592298342.4184415        26554987.591954529        428805722.41017550     
   1454756254.1878588        30716161.667036295        414468511.85850555     
   1317191255.1199210        34800966.284267545        399687877.55787122     
   1690926262.0118110        23103721.906746149        606483291.32170475     
   1550814346.0906091        25754323.262236118        592861362.31531203     
   1411653835.2942481        31576275.033831060        578054660.23117065     
   1273444729.6227093        40569577.221508861        562063185.06925893     
   1136187029.0759933        52734229.825275362        544886936.82960105     
   1803496900.0324085       -36010934.304497838       -14066136.473963512     
   1772421863.4688222       -16386656.805724263       -8545722.1921598930     
   1749274307.2251756        29662555.092848659       -41700717.123230100     
   1734054231.3014693        102136701.39122331       -113531121.26719335     
   1726761635.6977036        201035782.08939910       -224036934.62404323     
   1650846190.5981226       -9571615.7806141376        120211340.90609308     
   1528181158.4033434       -13789646.872640967        135629525.81259212     
   1409599201.5564873       -4397426.8048922420        124771348.35201435     
   1295100320.0575461        18605044.422557473        87636808.524340555     
   1184684513.9065447        55217766.809806108        24225906.329600200     
   1488744308.9606228        14032351.082298636        258129345.58337015     
   1309915129.2655098       -3400234.1612510085        278960161.98054850     
   1131324619.9462981       -20037251.485108316        285913662.85645157     
   952972781.00299692       -35878700.889269173        278989848.21104288     
   774859612.43559051       -50924582.373792112        258188718.04438058     
   1317191255.1199210        34800966.284267545        399687877.55787122     
   1117623776.0553217        14781581.328439295        421446186.31170005     
   914450562.39461160       -17256918.947774470        441726226.39005077     
   707671614.13778543       -61314534.544361323        460527997.79292679     
   497286931.28485578       -117391265.46130446        477851500.52030879     
   1136187029.0759933        52734229.825275362        544886936.82960105     
   951307098.77277136        40755799.596407712        563087598.80607712     
   758977028.90142536        3943570.8071211874        592209038.95286477     
   559196819.46195066       -57702456.542597562        632251257.26996672     
   351966470.45434666       -144182282.45273584        683214253.75739324     
   1726761635.6977036        201035782.08939910       -224036934.62404323     
   1456302383.1049366        184347893.01025659       -96502066.089537278     
   1153759404.4687736        60714250.453127146        60156162.771866165     
   819132699.78913975       -169865145.58224970        245937751.96020043     
   452422269.06611466       -507390295.09557539        460842701.47541171     
   1184684513.9065447        55217766.809806108        24225906.329600200     
   977584910.33907139        11738705.935790598        155640066.42513168     
   732718729.86129034       -157628944.63927269        312851635.85819036     
   450085972.47317851       -452885184.91541070        495860614.62875569     
   129686638.17474657       -874030014.89262700        704667002.73685849     
   774859612.43559051       -50924582.373792112        258188718.04438058     
   621616940.78086472       -124045630.17645764        386852177.02290267     
   424924841.34894884       -341998103.90310657        537987094.34956491     
   184783314.13979188       -704782003.55387330        711593470.02433920     
  -98807640.846552432       -1212397329.1286309        907671304.04725111     
   497286931.28485578       -117391265.46130446        477851500.52030879     
   388398474.43034261       -223005115.32636058        597134265.70378137     
   230377738.93172422       -492393227.33844376        735562538.24600399     
   23224724.789005220       -925555601.49753225        893136318.14695144     
  -233060567.99782524       -1522492237.8036673        1069855605.4066486     
   351966470.45434666       -144182282.45273584        683214253.75739324     
   277929511.28749931       -285139749.51397318        786486332.46777630     
   149077422.60965484       -608814314.94521773        905577967.54750121     
  -34589795.579187930       -1115205978.7464290        1040489158.9965886     
  -273072143.27902335       -1804314740.9176543        1191219906.8150177     
   4691760427.9822779        436759761.99306250        724763495.70558560     
   4493423617.4724722        334766326.34218717        707588173.67430830     
   4299860306.3225002        248684555.22408819        695969312.81186438     
   4111070494.5323615        178514448.63876534        689906913.11825538     
   3927054182.1020613        124256006.58623600        689400974.59347546     
   4241179833.7479839        231030755.70273805        796647567.55120075     
   4071353828.7073913        176939987.99899197        786745382.98459530     
   3903771797.8147917        130329134.12189412        782163664.23766959     
   3738433741.0701852        91198194.071446896        782902411.31042743     
   3575339658.4735789        59547167.847665548        788961624.20286560     
   3800020979.3032579        28128271.349283934        885141590.50360084     
   3658031507.3057208        21737889.864819050        879561430.65452385     
   3515756484.2443423        14395671.500878334        879065741.27597535     
   3373195910.1191206        6101616.2574634552        883654522.36795712     
   3230349784.9300580       -3144275.8654229641        893327773.93046582     
   3368283864.6480980       -171947691.06730127        990245564.56279707     
   3253456653.2674704       -130839968.06032491        986036316.68409920     
   3135814365.6111593       -99115832.638957977        986675543.92678189     
   3015357001.6791716       -76775284.803187728        992163246.29083979     
   2892084561.4715037       -63818324.553013086        1002499423.7762749     
   2945968489.7825003       -369197131.54701614        1111959489.7287788     
   2857629266.5926266       -280793585.77645206        1106170041.0733221     
   2763945441.9152417       -210205378.29761279        1104993072.1900871     
   2664917015.7503338       -157432509.11050439        1108428583.0790818     
   2560543988.0979085       -122474978.21512532        1116476573.7402971     
   3927054182.1020613        124256006.58623600        689400974.59347546     
   3798841587.9863253        97855391.674031019        679859919.85374761     
   3673185194.4971094        79975445.516902208        674698661.37507915     
   3550085001.6344094        70616168.114820004        673917199.15748084     
   3429541009.3982301        69777559.467811942        677515533.20094955     
   3575339658.4735789        59547167.847665548        788961624.20286560     
   3462638393.9716835        48544353.950683355        783892823.69338048     
   3351339551.0789757        42216278.751000881        782822680.23765361     
   3241443129.7954531        40562942.248609543        785751193.83568728     
   3132949130.1211271        43584344.443519831        792678364.48748410     
   3230349784.9300580       -3144275.8654229641        893327773.93046582     
   3132070880.8782682        924020.50369441509        891385152.13100576     
   3034040619.4183388        5821125.5123515129        893060048.17800272     
   2936259000.5502667        11547039.160529852        898352462.07145226     
   2838726024.2740569        18101761.448247433        907262393.81135535     
   2892084561.4715037       -63818324.553013086        1002499423.7762749     
   2807139048.7060890       -45005608.666915655        1002336905.1666290     
   2721288399.5152044       -29210014.199050307        1005410765.1961265     
   2634532613.8988495       -16431541.149412394        1011721003.8647753     
   2546871691.8570242       -6670189.5180205107        1021267621.1725730     
   2560543988.0979085       -122474978.21512532        1116476573.7402971     
   2487842897.4551358       -89244533.561164618        1116748082.8002448     
   2413082891.3695669       -62877140.383198738        1119874831.2920275     
   2336263969.8411956       -43372798.681240320        1125856819.2156599     
   2257386132.8700266       -30731508.455271006        1134694046.5711305     
   3429541009.3982301        69777559.467811942        677515533.20094955     
   3274856362.6288614        62632361.700520754        667178770.74665105     
   3120210421.1052909        55616181.419203401        661501571.96866345     
   2965603184.8275232        48729018.623912215        660483936.86699915     
   2811034653.7955494        41970873.314587712        664125865.44164956     
   3132949130.1211271        43584344.443519831        792678364.48748410     
   2991020944.6580458        38823630.656084538        783211475.48640227     
   2849172627.5336561        34329144.664281964        778347419.81849194     
   2707404178.7479577        30100886.468115330        778086197.48374701     
   2565715598.3009524        26138856.067590356        782427808.48216927     
   2838726024.2740569        18101761.448247433        907262393.81135535     
   2709392213.4225535        15676905.632261395        898713401.87187123     
   2580179434.0026259        13655487.921535850        894710512.92240465     
   2451087686.0142856        12037508.316099882        895253726.96295249     
   2322116969.4575233        10822966.815922141        900343043.99351966     
   2546871691.8570242       -6670189.5180205107        1021267621.1725730     
   2429970168.9223728       -6807813.3709814548        1013684549.9030589     
   2313230840.5121994       -6404788.8090211153        1010590851.2804080     
   2196653706.6264920       -5461115.8321686983        1011986525.3046260     
   2080238767.2652638       -3976794.4403914213        1017871571.9757102     
   2257386132.8700266       -30731508.455271006        1134694046.5711305     
   2152754811.1575160       -28630526.353620291        1128124919.5799565     
   2048326847.0623715       -25851685.527416110        1125988434.8924987     
   1944102240.5845952       -22394985.976650238        1128284592.5087628     
   1840080991.7241809       -18260427.701345205        1135013392.4287357     
   2811034653.7955494        41970873.314587712        664125865.44164956     
   2675764846.0214925        40831555.470162153        653187091.58956873     
   2540343724.5318475        39187858.573775530        645337617.98418248     
   2404771289.3266206        37039782.625434637        640577444.62549746     
   2269047540.4058094        34387327.625165582        638906571.51351154     
   2565715598.3009524        26138856.067590356        782427808.48216927     
   2439366321.7386785        26971073.022773623        772144537.88305199     
   2313064071.0291424        27960042.820413828        765178944.55407929     
   2186808846.1723318        29105765.460467696        761531028.49525654     
   2060600647.1682525        30408240.942963600        761200789.70657659     
   2322116969.4575233        10822966.815922141        900343043.99351966     
   2205340729.8883233        13822470.305155635        890946672.81040072     
   2088809855.7401648        17639858.531190753        885096355.92087626     
   1972524347.0130448        22275131.494014859        882792093.32494223     
   1856484203.7069590        27728289.193634152        884033885.02260041     
   2080238767.2652638       -3976794.4403914213        1017871571.9757102     
   1973688070.4704070        1385747.3172529936        1009593496.3716171     
   1867581078.6649067        8227305.7060815096        1005089852.0845631     
   1761917791.8487527        16547880.726053953        1004360639.1145442     
   1656698210.0219417        26347472.377190650        1007405857.4615675     
   1840080991.7241809       -18260427.701345205        1135013392.4287357     
   1744408343.4849379       -10339095.940915465        1128085008.5666957     
   1649377739.8033681       -277615.65492022038        1125159433.0451407     
   1554989180.6794529        11924013.156587362        1126236665.8640778     
   1461242666.1131940        26265790.493628144        1131316707.0234861     
   2269047540.4058094        34387327.625165582        638906571.51351154     
   2123848892.3681993        29338664.731862664        626349692.79761028     
   1979095796.6233404        25775176.147723079        616760186.52701044     
   1834788253.1712003        23696861.872654796        610138052.70170689     
   1690926262.0118110        23103721.906746149        606483291.32170475     
   2060600647.1682525        30408240.942963600        761200789.70657659     
   1924543022.5291429        29094592.743730426        750639755.49262226     
   1788661693.3617830        28368596.116995811        743280978.82588470     
   1652956659.6661723        28230251.062750638        739124459.70638108     
   1517427921.4423108        28679557.581009090        738170198.13409412     
   1856484203.7069590        27728289.193634152        884033885.02260041     
   1730238702.7575707        30350985.775825381        875154562.35276365     
   1603900240.4589443        32663811.193890154        869712382.33207858     
   1477468816.8110704        34666765.447804153        867707344.96054733     
   1350944431.8139665        36359848.537605524        869139450.23816788     
   1656698210.0219417        26347472.377190650        1007405857.4615675     
   1540935933.0534954        33107843.828178465        999894113.37803531     
   1424811437.9148076        38660821.378378689        996054397.04558051     
   1308324724.6059060        43006405.027852356        995886708.46420646     
   1191475793.1267741        46144594.776567400        999391047.63391399     
   1461242666.1131940        26265790.493628144        1131316707.0234861     
   1356634713.4169042        37365166.900766790        1124858408.5684364     
   1251395285.7293959        46359626.670508087        1122307022.9663913     
   1145524383.0506721        53249169.802868783        1123662550.2173564     
   1039022005.3807360        58033796.297855735        1128924990.3213339     
   1690926262.0118110        23103721.906746149        606483291.32170475     
   1550814346.0906091        25754323.262236118        592861362.31531203     
   1411653835.2942481        31576275.033831060        578054660.23117065     
   1273444729.6227093        40569577.221508861        562063185.06925893     
   1136187029.0759933        52734229.825275362        544886936.82960105     
   1517427921.4423108        28679557.581009090        738170198.13409412     
   1375482903.0458345        27738425.468532503        728555334.63487744     
   1233713970.7739346        27384247.104635954        719544026.95581257     
   1092121124.6265900        27617022.489252985        711136275.09689808     
   950704364.60380852        28436751.622419298        703332079.05813539     
   1350944431.8139665        36359848.537605524        869139450.23816788     
   1212275822.0790999        33359836.298247635        862627113.41247892     
   1073007979.4685388        28362381.139888704        858506661.30484700     
   933140903.98227620        21367483.062538505        856778093.91527760     
   792674595.62031364        12375142.066180170        857441411.24376976     
   1191475793.1267741        46144594.776567400        999391047.63391399     
   1061193103.1904066        42618555.751381755        995076698.64810693     
   929535861.37807059        34510677.139626861        994942563.27828240     
   796504067.68979156        21820958.941392869        998988641.52441955     
   662097722.12552488        4549401.1565445960        1007214933.3865373     
   1039022005.3807360        58033796.297855735        1128924990.3213339     
   922234746.37974715        55514583.827906072        1125904090.3417773     
   803297616.50253177        45829135.103853732        1128851732.8761034     
   682210615.74909282        28977450.125735492        1137767917.9243116     
   558973744.11942756        4959528.8935296834        1152652645.4863994     
   1136187029.0759933        52734229.825275362        544886936.82960105     
   951307098.77277136        40755799.596407712        563087598.80607712     
   758977028.90142536        3943570.8071211874        592209038.95286477     
   559196819.46195066       -57702456.542597562        632251257.26996672     
   351966470.45434666       -144182282.45273584        683214253.75739324     
   950704364.60380852        28436751.622419298        703332079.05813539     
   791522213.78858662        11150706.068669915        721354116.41443932     
   623740136.77240825       -34801760.154945642        749447732.58925426     
   447358133.55529112       -109420647.04836488        787612927.58257258     
   262376204.13720345       -212705954.61165863        835849701.39438403     
   792674595.62031364        12375142.066180170        857441411.24376976     
   656763940.43076575       -10946403.971165419        873943406.24162757     
   511103572.40743262       -66766992.787772506        899667780.70616722     
   355693491.55032957       -155086624.38363594        934614534.63739312     
   190533697.85943663       -275905298.75877523        978783668.03531528     
   662097722.12552488        4549401.1565445960        1007214933.3865373     
   547032278.69930661       -25535530.523095518        1020855468.2876374     
   421067335.80649298       -91952127.091402322        1042869183.3036076     
   284202893.44706887       -194700388.54840347        1073256078.4344391     
   136438951.62104085       -333780314.89408380        1112016153.6801589     
   558973744.11942756        4959528.8935296834        1152652645.4863994     
   462327228.59422183       -32616673.587099969        1162090302.5524516     
   353631426.96958381       -110357163.06583136        1179051940.3815553     
   232886339.24552214       -228261939.54263899        1203537558.9737213     
   100091965.42202419       -386331003.01757866        1235547158.3289320     
   351966470.45434666       -144182282.45273584        683214253.75739324     
   277929511.28749931       -285139749.51397318        786486332.46777630     
   149077422.60965484       -608814314.94521773        905577967.54750121     
  -34589795.579187930       -1115205978.7464290        1040489158.9965886     
  -273072143.27902335       -1804314740.9176543        1191219906.8150177     
   262376204.13720345       -212705954.61165863        835849701.39438403     
   223661770.87356588       -352267873.01625872        885150071.77419341     
   140696587.09375566       -639332293.14142334        945480009.86634815     
   13480652.797758460       -1073899214.9871998        1016839515.6708626     
  -157986032.01440549       -1655968638.5535657        1099228589.1877122     
   190533697.85943663       -275905298.75877523        978783668.03531528     
   173456108.62186104       -418177373.06986237        986437438.91183615     
   122692147.86292565       -672737352.45213628        1000330788.8437184     
   38241815.582642913       -1039585236.9055864        1020463717.8309431     
  -79894888.219009101       -1518721026.4302433        1046836225.8735222     
   136438951.62104085       -333780314.89408380        1112016153.6801589     
   127312524.53238139       -482868249.67481172        1090348433.8807023     
   95064104.917189896       -709029492.87732029        1070130304.4795803     
   39693692.775453389       -1012264044.5016296        1051361765.4768243     
  -38798711.892791331       -1392571904.5476677        1034042816.8724058     
   100091965.42202419       -386331003.01757866        1235547158.3289320     
   85231018.605133444       -546340502.83109832        1196883056.6807761     
   57812458.256547540       -748208714.41694629        1154878556.7739613     
   17836284.376227975       -991935637.77522314        1109533658.6085157     
  -34697503.035796821       -1277521272.9058728        1060848362.1843958     
   2945968489.7825003       -369197131.54701614        1111959489.7287788     
   2857629266.5926266       -280793585.77645206        1106170041.0733221     
   2763945441.9152417       -210205378.29761279        1104993072.1900871     
   2664917015.7503338       -157432509.11050439        1108428583.0790818     
   2560543988.0979085       -122474978.21512532        1116476573.7402971     
   2633526453.2068334       -194313763.86677098        1231264086.8080413     
   2542152482.9460564       -158851924.33375096        1217120810.3299813     
   2449220820.8496790       -128582390.91940451        1208247950.0799713     
   2354731466.9177003       -103505163.62372482        1204645506.0580146     
   2258684421.1501188       -83620242.446718931        1206313478.2641025     
   2307780250.1206036       -23421646.139694810        1328347621.6738384     
   2215251351.2341404       -40337567.310656548        1310268578.6337411     
   2124951670.1639931       -49822762.427227378        1298117888.2775278     
   2036881206.9101620       -51877231.489416361        1291895550.6051874     
   1951039961.4726441       -46500974.497224689        1291601565.6167278     
   1968729880.5238123        143479221.63421303        1403210094.3261642     
   1876925871.4568808        74749485.292837977        1385613345.9846089     
   1791137989.8581834        26073507.178904772        1374602886.7827518     
   1711366235.7277167       -2548712.7075866461        1370178716.7206028     
   1637610609.0654831       -11117174.366636276        1372340835.7981596     
   1616375344.4164562        306388839.45495141        1455851504.7650287     
   1527176043.6142774        186409233.47672915        1443155112.3825762     
   1447779779.9322505        99106417.899010956        1437702945.5956528     
   1378186553.3703697        44480392.721783400        1439495004.4042621     
   1318396363.9286387        22531157.945050538        1448531288.8084028     
   2560543988.0979085       -122474978.21512532        1116476573.7402971     
   2487842897.4551358       -89244533.561164618        1116748082.8002448     
   2413082891.3695669       -62877140.383198738        1119874831.2920275     
   2336263969.8411956       -43372798.681240320        1125856819.2156599     
   2257386132.8700266       -30731508.455271006        1134694046.5711305     
   2258684421.1501188       -83620242.446718931        1206313478.2641025     
   2191157945.0274615       -59761542.222167850        1202721788.0773685     
   2122167803.4793570       -40781726.749106050        1202418041.4195118     
   2051713996.5058012       -26680796.027543306        1205402238.2905343     
   1979796524.1067982       -17458750.057477713        1211674378.6904368     
   1951039961.4726441       -46500974.497224689        1291601565.6167278     
   1889924397.2902119       -31643129.476040602        1284841134.5368841     
   1827940417.6996799       -19680002.481857538        1281801351.0829589     
   1765088022.7010534       -10611593.514655828        1282482215.2549498     
   1701367212.2943263       -4437902.5744557381        1286883727.0528576     
   1637610609.0654831       -11117174.366636276        1372340835.7981596     
   1584142254.2433863       -4889295.3227843642        1363106122.1787858     
   1530400734.0305340        428032.41855239868        1358024760.2823694     
   1476386048.4269419        4834808.8574208617        1357096750.1089072     
   1422098197.4326000        8331033.9937890768        1360322091.6583998     
   1318396363.9286387        22531157.945050538        1448531288.8084028     
   1273811515.8869805        20499960.237587810        1437516751.0030761     
   1229548752.4719231        19542377.952122748        1431088269.0177414     
   1185608073.6834767        19658411.088694811        1429245842.8524010     
   1141989479.5216262        20848059.647259772        1431989472.5070536     
   2257386132.8700266       -30731508.455271006        1134694046.5711305     
   2152754811.1575160       -28630526.353620291        1128124919.5799565     
   2048326847.0623715       -25851685.527416110        1125988434.8924987     
   1944102240.5845952       -22394985.976650238        1128284592.5087628     
   1840080991.7241809       -18260427.701345205        1135013392.4287357     
   1979796524.1067982       -17458750.057477713        1211674378.6904368     
   1886593343.3626947       -16477734.221764326        1205162225.4432998     
   1793630541.6940489       -14695454.801187634        1203266761.3141320     
   1700908119.1008620       -12111911.795754313        1205987986.3029273     
   1608426075.5831280       -8727105.2054694891        1213325900.4096913     
   1701367212.2943263       -4437902.5744557381        1286883727.0528576     
   1620118020.5593431       -4419098.5924691558        1280471739.2508652     
   1539146229.3579154       -3475626.1653019786        1278860487.3810878     
   1458451838.6900311       -1607485.2929942608        1282049971.4435315     
   1378034848.5556979        1185324.0244895816        1290040191.4381938     
   1422098197.4326000        8331033.9937890768        1360322091.6583998     
   1353328842.7474630        7545380.5342733264        1354053461.0026536     
   1284873910.0539653        7807800.3802250028        1352769613.0933776     
   1216733399.3521085        9118293.5316415429        1356470547.9305725     
   1148907310.6418939        11476859.988538206        1365156265.5142338     
   1141989479.5216262        20848059.647259772        1431989472.5070536     
   1086225809.9270487        19415703.158445597        1425907390.6986630     
   1030813583.7822093        19154824.835426152        1424994138.4509943     
   975752801.08709371        20065424.678151965        1429249715.7640471     
   921043461.84171820        22147502.686678648        1438674122.6378205     
   1840080991.7241809       -18260427.701345205        1135013392.4287357     
   1744408343.4849379       -10339095.940915465        1128085008.5666957     
   1649377739.8033681       -277615.65492022038        1125159433.0451407     
   1554989180.6794529        11924013.156587362        1126236665.8640778     
   1461242666.1131940        26265790.493628144        1131316707.0234861     
   1608426075.5831280       -8727105.2054694891        1213325900.4096913     
   1523033656.9378741       -2175110.1016564965        1207583354.8933866     
   1438086771.9985611        5861997.3552965522        1206061870.7219548     
   1353585420.7651913        15384217.165396512        1208761447.8954074     
   1269529603.2377615        26391549.328620195        1215682086.4137304     
   1378034848.5556979        1185324.0244895816        1290040191.4381938     
   1303546239.5169744        6555056.4754317999        1285254221.6072826     
   1229306653.3324814        12754865.107133925        1284907566.1256421     
   1155316090.0022116        19784749.919583142        1289000224.9932678     
   1081574549.5261617        27644710.912768662        1297532198.2101705     
   1148907310.6418939        11476859.988538206        1365156265.5142338     
   1085946091.2222605        15851403.790385783        1361097608.7083812     
   1023037383.8051313        20400987.600592256        1361696519.2561927     
   960181188.39050782        25125611.419149339        1366952997.1576653     
   897377504.97838986        30025275.246055663        1376867042.4128039     
   921043461.84171820        22147502.686678648        1438674122.6378205     
   870233212.05371547        25713931.843183786        1435113516.1966856     
   819278963.41650724        28800364.835662574        1436428730.1136124     
   768180715.93009245        31406801.664120704        1442619764.3885951     
   716938469.59445620        33533242.328507334        1453686619.0216324     
   1461242666.1131940        26265790.493628144        1131316707.0234861     
   1356634713.4169042        37365166.900766790        1124858408.5684364     
   1251395285.7293959        46359626.670508087        1122307022.9663913     
   1145524383.0506721        53249169.802868783        1123662550.2173564     
   1039022005.3807360        58033796.297855735        1128924990.3213339     
   1269529603.2377615        26391549.328620195        1215682086.4137304     
   1174602360.3833549        34070131.317864835        1210096086.9286559     
   1079185195.3114274        40115639.248706579        1208839288.5653844     
   983278108.02196860        44528073.121108353        1211911691.3239155     
   886881098.51498997        47307432.935113847        1219313295.2042487     
   1081574549.5261617        27644710.912768662        1297532198.2101705     
   997534554.42448115        32264459.857363701        1292983642.5977130     
   913146189.87896931        35722977.322524697        1293186576.3758502     
   828409455.88962960        38020263.308260500        1298140999.5445871     
   743324352.45646048        39156317.814560235        1307846912.1039197     
   897377504.97838986        30025275.246055663        1376867042.4128039     
   825431295.54028153        31948152.519265741        1373521075.5756040     
   753278269.43203962        33181640.892024696        1375348886.3977952     
   680918426.65365529        33725740.364317030        1382350474.8793838     
   608351767.20513201        33580450.936141968        1394525841.0203643     
   716938469.59445620        33533242.328507334        1453686619.0216324     
   658292583.73075986        33121209.303571135        1451708385.8623326     
   599581433.97062516        32491629.957169294        1455326218.6312156     
   540805020.31404459        31644504.289283514        1464540117.3282979     
   481963342.76101881        30579832.299908221        1479350081.9535615     
   1039022005.3807360        58033796.297855735        1128924990.3213339     
   922234746.37974715        55514583.827906072        1125904090.3417773     
   803297616.50253177        45829135.103853732        1128851732.8761034     
   682210615.74909282        28977450.125735492        1137767917.9243116     
   558973744.11942756        4959528.8935296834        1152652645.4863994     
   886881098.51498997        47307432.935113847        1219313295.2042487     
   785416149.73437345        44529077.166052967        1216730282.3049009     
   681779144.84095383        34510534.354318082        1220024921.6686802     
   575970083.83472538        17251804.499888301        1229197213.2955725     
   467988966.71570712       -7247112.3971798718        1244247157.1855919     
   743324352.45646048        39156317.814560235        1307846912.1039197     
   656922027.46546185        36040912.817151815        1305675903.5087850     
   568325461.12508380        25611369.988469750        1309291656.9260035     
   477534653.43533176        7867689.3285469413        1318694172.3555813     
   384549604.39620298       -17190129.162634537        1333883449.7975180     
   608351767.20513201        33580450.936141968        1394525841.0203643     
   536752379.57301337        30050090.781179607        1392740953.9534237     
   462936565.35493600        19131642.006357253        1396651938.6480849     
   386904324.55090564        825104.61168898642        1406258795.1043365     
   308655657.16092300       -24869521.402816951        1421561523.3221929     
   481963342.76101881        30579832.299908221        1479350081.9535615     
   424907206.05702448        26556611.058148593        1477925433.6388202     
   365612457.53049743        15071350.407940894        1482105766.8349094     
   304079097.18144703       -3875949.6506762207        1491891081.5418365     
   240307125.00986612       -30285289.117725775        1507281377.7595985     
   558973744.11942756        4959528.8935296834        1152652645.4863994     
   462327228.59422183       -32616673.587099969        1162090302.5524516     
   353631426.96958381       -110357163.06583136        1179051940.3815553     
   232886339.24552214       -228261939.54263899        1203537558.9737213     
   100091965.42202419       -386331003.01757866        1235547158.3289320     
   467988966.71570712       -7247112.3971798718        1244247157.1855919     
   390397496.82296896       -41368308.513023615        1242762846.0206273     
   302622584.10680562       -109434314.04029271        1247614972.3411114     
   204664228.56721306       -211445128.97898847        1258803536.1470230     
   96522430.204172879       -347400753.32917625        1276328537.4383588     
   384549604.39620298       -17190129.162634537        1333883449.7975180     
   322620199.34273809       -48874213.151627317        1323653987.5568857     
   252373194.74183461       -108283628.96541107        1318573419.5240643     
   173808590.59349060       -195418376.60400164        1318641745.6990542     
   86926386.897709340       -310278456.06737739        1323858966.0818546     
   308655657.16092300       -24869521.402816951        1421561523.3221929     
   258995336.15352297       -55134387.502922952        1404763727.1612089     
   202883258.87467495       -106905107.84118645        1391927281.9304144     
   140319425.32438046       -180181682.41760463        1383052187.6298068     
   71303835.502647236       -274964111.23215485        1378138444.2593904     
   240307125.00986612       -30285289.117725775        1507281377.7595985     
   199522907.25531456       -60148831.566939890        1486092064.8336022     
   154152776.50532079       -105298750.66762517        1467676559.5601642     
   104196732.75986990       -165735046.41983563        1452034861.9392982     
   49654776.018982977       -241457718.82349959        1439166971.9709868     
   100091965.42202419       -386331003.01757866        1235547158.3289320     
   85231018.605133444       -546340502.83109832        1196883056.6807761     
   57812458.256547540       -748208714.41694629        1154878556.7739613     
   17836284.376227975       -991935637.77522314        1109533658.6085157     
  -34697503.035796821       -1277521272.9058728        1060848362.1843958     
   96522430.204172879       -347400753.32917625        1276328537.4383588     
   79640730.998651028       -488654851.33046860        1222001440.1005814     
   51397527.320933938       -667780630.90574503        1165132146.4581425     
   11792819.171029806       -884778092.05499232        1105720656.5110431     
  -39173393.451081514       -1139647234.7782357        1043766970.2592899     
   86926386.897709340       -310278456.06737739        1323858966.0818546     
   70304512.314966023       -432092979.15302289        1255264333.6238794     
   43517242.319546163       -587792153.61425114        1184925706.8152466     
   6564576.9114462435       -777375979.45108092        1112843085.6559467     
  -40553483.909325480       -1000844456.6634864        1039016470.1459823     
   71303835.502647236       -274964111.23215485        1378138444.2593904     
   57222362.554087520       -376654886.29873693        1296671737.2506685     
   34171603.252376229       -508243282.54249096        1214259237.8452764     
   2151557.5975029469       -669729299.96346235        1130900946.0432115     
  -38837774.410532832       -861112938.56162620        1046596861.8444854     
   49654776.018982977       -241457718.82349959        1439166971.9709868     
   40394281.716024280       -322340572.76757973        1346223650.9809549     
   23360610.119422913       -429134017.69046581        1253132739.5482376     
  -1446238.7708274722       -561838053.59217656        1159894237.6728530     
  -34026264.954705834       -720452680.47265565        1066508145.3547831     
   1616375344.4164562        306388839.45495141        1455851504.7650287     
   1527176043.6142774        186409233.47672915        1443155112.3825762     
   1447779779.9322505        99106417.899010956        1437702945.5956528     
   1378186553.3703697        44480392.721783400        1439495004.4042621     
   1318396363.9286387        22531157.945050538        1448531288.8084028     
   1176644968.7671640        178122355.34845805        1435140168.1255598     
   1122064788.0794573        115164209.23196760        1435102321.0344148     
   1072301624.2624227        68262786.017720342        1441291542.3138511     
   1027355477.3160607        37418085.705714047        1453707831.9638784     
   987226347.24037039        22630108.295949161        1472351189.9844854     
   750168190.47730470        53831950.449794471        1435274160.1549730     
   727300966.40422297        47023415.145083338        1442077834.7307446     
   704264738.95233464        39651535.244356275        1454091420.4521551     
   681059508.12164283        31716310.747616857        1471314917.3192019     
   657685273.91214728        23217741.654862940        1493748325.3318913     
   336945009.54687732       -66482375.241038561        1456253480.8532729     
   342884578.58857179       -18013148.783925906        1464081653.4715676     
   343669124.00198412        13272665.578914508        1476102580.0105634     
   339298645.78711867        27375067.847493663        1492316260.4702458     
   329773143.94396782        24294058.021789059        1512722694.8506222     
  -63024574.024119310       -182820621.72404408        1498078130.2204509     
  -31184375.367495514       -79945482.555063367        1501113777.2568867     
  -9485220.5886289068       -10873822.978609355        1507325020.9890749     
   2072890.3124813410        24394357.005324833        1516711861.4170034     
   3489957.3358321609        25859057.396728292        1529274298.5406816     
   1318396363.9286387        22531157.945050538        1448531288.8084028     
   1273811515.8869805        20499960.237587810        1437516751.0030761     
   1229548752.4719231        19542377.952122748        1431088269.0177414     
   1185608073.6834767        19658411.088694811        1429245842.8524010     
   1141989479.5216262        20848059.647259772        1431989472.5070536     
   987226347.24037039        22630108.295949161        1472351189.9844854     
   953622823.37588382        17992092.493461370        1462373932.4759805     
   920603785.76857972        15302364.214913726        1456859364.9980044     
   888169234.41845655        14560923.460305810        1455807487.5505583     
   856319169.32551503        15767770.229634583        1459218300.1336370     
   657685273.91214728        23217741.654862940        1493748325.3318913     
   634710600.54064417        15867165.652095258        1485114483.3558879     
   612582815.05690026        11339549.275190562        1480819965.6209457     
   591301917.46092033        9634892.5241653025        1480864772.1270669     
   570867907.75269723        10753195.398997366        1485248902.8742507     
   329773143.94396782        24294058.021789059        1512722694.8506222     
   317074847.38126147        14125179.713486269        1505738403.6427934     
   305485840.33689278        7653933.1329756677        1502970070.8865614     
   295006122.81086308        4880318.2802618146        1504417696.5819235     
   285635694.80317259        5804335.1553447843        1510081280.7288840     
   3489957.3358321609        25859057.396728292        1529274298.5406816     
   715563.89773354726        12766134.677630387        1524245693.3367009     
  -687138.39144696039        4245515.7882577702        1523309680.7948527     
  -718149.53170697077        297200.72862031864        1526466260.9151356     
   622530.47694405715        921189.49868771562        1533715433.6975484     
   1141989479.5216262        20848059.647259772        1431989472.5070536     
   1086225809.9270487        19415703.158445597        1425907390.6986630     
   1030813583.7822093        19154824.835426152        1424994138.4509943     
   975752801.08709371        20065424.678151965        1429249715.7640471     
   921043461.84171820        22147502.686678648        1438674122.6378205     
   856319169.32551503        15767770.229634583        1459218300.1336370     
   814314245.33559835        15107049.839253873        1453564323.8698149     
   772502125.53424942        15089010.077431172        1453147098.6415222     
   730882809.92146146        15713650.944147646        1457966624.4487634     
   689456298.49724114        16980972.439418733        1468022901.2915392     
   570867907.75269723        10753195.398997366        1485248902.8742507     
   542815790.72404778        10922329.514032155        1479837953.0169611     
   514797838.62279570        11205346.720391750        1479731675.6700189     
   486814051.44894242        11602247.018080711        1484930070.8334231     
   458864429.20248693        12113030.407094002        1495433138.5071683     
   285635694.80317259        5804335.1553447843        1510081280.7288840     
   271730446.09239554        6861542.1827765405        1504728278.1401069     
   257700723.04784697        7503834.7643019706        1504747869.5364854     
   243546525.66953129        7731212.8999377340        1510140054.9180226     
   229267853.95744634        7543676.5896742195        1520904834.2847180     
   622530.47694405715        921189.49868771562        1533715433.6975484     
   1058211.4406457115        2924687.8454983453        1528235299.2392509     
   1210778.8094038346        3984474.2091638711        1528195680.2409246     
   1080232.5832340280        4100548.5897356020        1533596576.7025650     
   666572.76212462434        3272910.9871767322        1544437988.6241741     
   921043461.84171820        22147502.686678648        1438674122.6378205     
   870233212.05371547        25713931.843183786        1435113516.1966856     
   819278963.41650724        28800364.835662574        1436428730.1136124     
   768180715.93009245        31406801.664120704        1442619764.3885951     
   716938469.59445620        33533242.328507334        1453686619.0216324     
   689456298.49724114        16980972.439418733        1468022901.2915392     
   651026837.10976565        19291434.808692545        1464700514.4709151     
   612499533.64116871        21275756.907566607        1466315829.1666157     
   573874388.09146214        22933938.736072630        1472868845.3786423     
   535151400.46063864        24265980.294185638        1484359563.1069927     
   458864429.20248693        12113030.407094002        1495433138.5071683     
   432992559.52485824        13220566.981904045        1492402820.8698397     
   407069004.53421092        14155819.179981142        1494372085.9070961     
   381093764.23055017        14918787.001349941        1501340933.6189456     
   355066838.61387008        15509470.445985422        1513309364.0053835     
   229267853.95744634        7543676.5896742195        1520904834.2847180     
   216130379.29900104        7501328.3628289104        1518220435.3934565     
   202987376.09563544        7440551.6529155746        1520597500.3350523     
   189838844.34734818        7361346.4599286318        1528036029.1095035     
   176684784.05414432        7263712.7838879898        1540536021.7168140     
   666572.76212462434        3272910.9871767322        1544437988.6241741     
   440296.43219787627        2133718.9514866574        1542153358.0417666     
   254648.32543723594        1129954.3263481918        1544992072.4504807     
   109628.44186669940        261617.11184305936        1552954131.8503146     
   5236.7814697277790       -471292.69208074780        1566039536.2412713     
   716938469.59445620        33533242.328507334        1453686619.0216324     
   658292583.73075986        33121209.303571135        1451708385.8623326     
   599581433.97062516        32491629.957169294        1455326218.6312156     
   540805020.31404459        31644504.289283514        1464540117.3282979     
   481963342.76101881        30579832.299908221        1479350081.9535615     
   535151400.46063864        24265980.294185638        1484359563.1069927     
   491069557.76000780        23802206.079019845        1482935301.7678680     
   446961496.09498978        23251035.315898329        1487130024.9006598     
   402827215.46559274        22612468.004841551        1496943732.5053649     
   358666715.87180018        21886504.145805299        1512376424.5819798     
   355066838.61387008        15509470.445985422        1513309364.0053835     
   325614520.62980038        15013599.506625280        1512484626.9071715     
   296175028.61340880        14560481.792857006        1517301792.8246026     
   266748362.56468490        14150117.304649502        1527760861.7576740     
   237334522.48363557        13782506.042021967        1543861833.7063799     
   176684784.05414432        7263712.7838879898        1540536021.7168140     
   161927472.34013602        6755389.5863803104        1540356361.2802482     
   147222031.52587056        6419969.3880151883        1545841522.4030497     
   132568461.61133139        6257452.1887370795        1556991505.0852184     
   117966762.59651957        6267837.9885515310        1573806309.3267493     
   5236.7814697277790       -471292.69208074780        1566039536.2412713     
   8412.8910307044280       -972423.68166032899        1566550504.8870931     
   102504.83238658594       -1170501.8985936963        1572749213.6360030     
   287512.60552177142       -1065527.3429279963        1584635662.4880033     
   563436.21045433241       -657500.01460368407        1602209851.4430926     
   481963342.76101881        30579832.299908221        1479350081.9535615     
   424907206.05702448        26556611.058148593        1477925433.6388202     
   365612457.53049743        15071350.407940894        1482105766.8349094     
   304079097.18144703       -3875949.6506762207        1491891081.5418365     
   240307125.00986612       -30285289.117725775        1507281377.7595985     
   358666715.87180018        21886504.145805299        1512376424.5819798     
   316395560.05938756        19125763.414709300        1509284036.5703804     
   272435295.73455781        10734660.975554883        1511668387.6159232     
   226785922.89731944       -3286803.1716304272        1519529477.7186179     
   179447441.54765835       -22938629.026885830        1532867306.8784566     
   237334522.48363557        13782506.042021967        1543861833.7063799     
   209481940.55227137        12174323.718441240        1539742793.1930439     
   180489753.41860422        6767457.3871863410        1540972249.2831745     
   150357961.08263066       -2438092.9517592266        1547550201.9767637     
   119086563.54435423       -15442327.298378132        1559476651.2738166     
   117966762.59651957        6267837.9885515310        1573806309.3267493     
   104166347.53566949        5702291.9693333097        1569301703.5068169     
   89775830.582629174        3169739.6428138427        1570017351.8366566     
   74795211.737388149       -1329818.9910410307        1575953254.3162732     
   59224490.999954700       -7796383.9322040565        1587109410.9456565     
   563436.21045433241       -657500.01460368407        1602209851.4430926     
   448781.00957440538       -290331.83264591271        1597960767.5116909     
   293527.22662426735       -58492.257590926631        1598803695.2763715     
   97674.861579990480        38018.710484984498        1604738634.7371411     
  -138776.08553550401       -798.92834385687456        1615765585.8939998     
   240307125.00986612       -30285289.117725775        1507281377.7595985     
   199522907.25531456       -60148831.566939890        1486092064.8336022     
   154152776.50532079       -105298750.66762517        1467676559.5601642     
   104196732.75986990       -165735046.41983563        1452034861.9392982     
   49654776.018982977       -241457718.82349959        1439166971.9709868     
   179447441.54765835       -22938629.026885830        1532867306.8784566     
   148247364.36810979       -45525402.243804917        1507244596.8233352     
   113609053.75855330       -79572953.560754657        1484541240.5043566     
   75532509.718963087       -125081282.97781186        1464757237.9215109     
   34017732.249363929       -182050390.49490172        1447892589.0748062     
   119086563.54435423       -15442327.298378132        1559476651.2738166     
   97886472.892871946       -30627577.497084871        1530759503.5825713     
   74395828.376804501       -53448007.244406000        1505107255.7110438     
   48614629.996142589       -83903616.540375739        1482519907.6592243     
   20542877.750901923       -121994405.38494335        1462997459.4271131     
   59224490.999954700       -7796383.9322040565        1587109410.9456565     
   48440232.829605147       -15455357.326761026        1556636785.1113064     
   36513100.360088140       -26923911.718543865        1529374605.1802311     
   23443093.591421664       -42202047.107489631        1505322871.1524394     
   9230212.5235907659       -61289763.493653081        1484481583.0279350     
  -138776.08553550401       -798.92834385687456        1615765585.8939998     
  -91355.821699076841       -8741.7328650532836        1584876441.4095328     
  -39130.291595567149       -666.98316194735708        1557343288.9119158     
   17900.504783100117        23425.320792030754        1533166128.4011571     
   79736.567437771344        63535.178997967640        1512344959.8772533     
   49654776.018982977       -241457718.82349959        1439166971.9709868     
   40394281.716024280       -322340572.76757973        1346223650.9809549     
   23360610.119422913       -429134017.69046581        1253132739.5482376     
  -1446238.7708274722       -561838053.59217656        1159894237.6728530     
  -34026264.954705834       -720452680.47265565        1066508145.3547831     
   34017732.249363929       -182050390.49490172        1447892589.0748062     
   29847517.031344667       -241872201.18932605        1347446405.3098104     
   19847795.560165927       -321125699.39428198        1246203170.5336854     
   4018567.8358449042       -419810885.10971349        1144162884.7464292     
  -17640166.141641438       -537927758.33569336        1041325547.9480243     
   20542877.750901923       -121994405.38494335        1462997459.4271131     
   19607339.993654542       -161311853.31696224        1357316029.1010687     
   14785967.023737654       -213582085.29121619        1250188087.1954293     
   6078758.8411610425       -278805101.30767071        1141613633.7101912     
  -6514284.5540862232       -356980901.36635727        1031592668.6453587     
   9230212.5235907659       -61289763.493653081        1484481583.0279350     
   9673750.6029476114       -80659529.150516763        1375832522.3547328     
   8175124.5101326033       -106503175.38128680        1265087489.5334888     
   4734334.2451258153       -138820702.18603325        1152246484.5641770     
  -648620.19205489755       -177612109.56468499        1037309507.4468234     
   79736.567437771344        63535.178997967640        1512344959.8772533     
   46748.859234548589        84771.310053491397        1402995885.0707986     
   15268.019327172853        111030.33542919913        1290901377.5478363     
  -14705.952254251722        142312.25522405014        1176061437.3083677     
  -43173.055545959913        178617.06931726189        1058476064.3523632     
  -63024574.024119310       -182820621.72404408        1498078130.2204509     
  -31184375.367495514       -79945482.555063367        1501113777.2568867     
  -9485220.5886289068       -10873822.978609355        1507325020.9890749     
   2072890.3124813410        24394357.005324833        1516711861.4170034     
   3489957.3358321609        25859057.396728292        1529274298.5406816     
  -404752436.79525244       -110024244.59539911        1514111721.6378527     
  -376538807.55488449       -50809432.722993031        1504844099.4856615     
  -354104159.33117789       -10857890.906130359        1499686672.0013511     
  -337448492.12413144        9830380.8552004695        1498639439.1849253     
  -326571805.93375105        11255382.560980603        1501702401.0363832     
  -756434262.38435090       -40214056.312145412        1511226793.1279383     
  -729176922.63984394       -23858487.760189652        1494744975.1250603     
  -703336501.05090761       -12225979.726800591        1483307949.7622008     
  -678912997.61753726       -5316532.2119667828        1476915717.0393622     
  -655906412.33973491       -3130145.2156939209        1475568276.9565420     
  -1118070050.7914112        26609943.125721514        1489423344.6907079     
  -1089098720.6223781        907352.33333754539        1470816404.1750855     
  -1057182245.7478175       -14978089.440625727        1458188854.2716217     
  -1022320626.1677313       -21046382.196169734        1451540694.9803131     
  -984513861.88211870       -17297525.933288455        1450871926.3011603     
  -1489659802.0164361        90447753.718197227        1448701376.3261614     
  -1456304201.5024836        23488087.557595015        1433058386.6357381     
  -1415641393.4219112       -19114220.047610104        1424329385.5296130     
  -1367671377.7747157       -37359169.097406626        1422514373.0077782     
  -1312394154.5609002       -31246759.591798902        1427613349.0702367     
   3489957.3358321609        25859057.396728292        1529274298.5406816     
   715563.89773354726        12766134.677630387        1524245693.3367009     
  -687138.39144696039        4245515.7882577702        1523309680.7948527     
  -718149.53170697077        297200.72862031864        1526466260.9151356     
   622530.47694405715        921189.49868771562        1533715433.6975484     
  -326571805.93375105        11255382.560980603        1501702401.0363832     
  -316885616.18348622        4520132.9044676572        1498064694.5945060     
  -306565348.11781788       -101522.36736938357        1498452304.1594131     
  -295611001.73675650       -2609583.2545609623        1502865229.7311032     
  -284022577.04029143       -3004049.7570736408        1511303471.3095782     
  -655906412.33973491       -3130145.2156939209        1475568276.9565420     
  -633951858.41638219       -3565387.5141862929        1472460920.9709971     
  -612100839.01115155       -4345744.8730853796        1473311604.3368862     
  -590353354.12404394       -5471217.2923936248        1478120327.0542097     
  -568709403.75505495       -6941804.7721001208        1486887089.1229641     
  -984513861.88211870       -17297525.933288455        1450871926.3011603     
  -950483162.80096483       -11490426.578358650        1447434372.4661725     
  -917293611.07144988       -8487151.7288940549        1447887581.3272710     
  -884945206.69357777       -8287701.3849068284        1452231552.8844538     
  -853437949.66734564       -10892075.546381354        1460466287.1377225     
  -1312394154.5609002       -31246759.591798902        1427613349.0702367     
  -1266479529.3372228       -19254984.288020372        1422985049.0800335     
  -1222143664.2987089       -12525742.934785962        1422180235.1305671     
  -1179386559.4453559       -11059035.532090425        1425198907.2218368     
  -1138208214.7771621       -14854862.079923689        1432041065.3538435     
   622530.47694405715        921189.49868771562        1533715433.6975484     
   1058211.4406457115        2924687.8454983453        1528235299.2392509     
   1210778.8094038346        3984474.2091638711        1528195680.2409246     
   1080232.5832340280        4100548.5897356020        1533596576.7025650     
   666572.76212462434        3272910.9871767322        1544437988.6241741     
  -284022577.04029143       -3004049.7570736408        1511303471.3095782     
  -269788032.65737218       -1904043.8105329275        1505514170.9356680     
  -255725608.42954609       -1377771.7143035680        1505107363.6704850     
  -241835304.35681817       -1425233.4684004039        1510083049.5140183     
  -228117120.43918270       -2046429.0728050917        1520441228.4662807     
  -568709403.75505495       -6941804.7721001208        1486887089.1229641     
  -540841774.09933436       -6795024.6697374880        1480918115.1799290     
  -513035271.15887010       -6852000.2848965824        1480273611.9943707     
  -485289894.93365848       -7112731.6175628603        1484953579.5662858     
  -457605645.42369926       -7577218.6677396595        1494958017.8956742     
  -853437949.66734564       -10892075.546381354        1460466287.1377225     
  -812103012.88524818       -11748254.732135862        1454447131.9720414     
  -770718209.37856340       -12438211.502600312        1453694425.2125869     
  -729283539.14728880       -12961945.857763976        1458208166.8593590     
  -687799002.19143105       -13319457.797650486        1467988356.9123590     
  -1138208214.7771621       -14854862.079923689        1432041065.3538435     
  -1083571749.0151079       -16763733.997712970        1426101221.3119984     
  -1028774423.0886216       -18136405.367399454        1425369803.3251293     
  -973816236.99771190       -18972876.189006031        1429846811.3932400     
  -918697190.74237204       -19273146.462510765        1439532245.5163336     
   666572.76212462434        3272910.9871767322        1544437988.6241741     
   440296.43219787627        2133718.9514866574        1542153358.0417666     
   254648.32543723594        1129954.3263481918        1544992072.4504807     
   109628.44186669940        261617.11184305936        1552954131.8503146     
   5236.7814697277790       -471292.69208074780        1566039536.2412713     
  -228117120.43918270       -2046429.0728050917        1520441228.4662807     
  -215136212.09088516       -3179040.9742384106        1517877963.8399389     
  -202174546.41798151       -4375795.1269859821        1520349208.5593593     
  -189232123.42046446       -5636691.5310210437        1527854962.6245408     
  -176308943.09833673       -6961730.1863548309        1540395226.0354831     
  -457605645.42369926       -7577218.6677396595        1494958017.8956742     
  -431671368.52678514       -8779395.2738002092        1492046269.8437431     
  -405816205.20382851       -10245283.793051109        1494080195.4922121     
  -380040155.45482975       -11974884.225495189        1501059794.8410800     
  -354343219.27978331       -13968196.571114302        1512985067.8903430     
  -687799002.19143105       -13319457.797650486        1467988356.9123590     
  -649165172.87550628       -14667343.947212547        1464658276.0531759     
  -610670328.03210366       -16478511.671850085        1466185033.2490280     
  -572314467.66122842       -18752960.971579462        1472568628.4999151     
  -534097591.76287323       -21490691.846373439        1483809061.8058369     
  -918697190.74237204       -19273146.462510765        1439532245.5163336     
  -867617625.13704348       -20842886.994459748        1435713982.4682372     
  -816736914.90280485       -23075478.763375282        1436663721.8298130     
  -766055060.03966117       -25970921.769273490        1442381463.6010625     
  -715572060.54759932       -29529216.012110084        1452867207.7819843     
   5236.7814697277790       -471292.69208074780        1566039536.2412713     
   8412.8910307044280       -972423.68166032899        1566550504.8870931     
   102504.83238658594       -1170501.8985936963        1572749213.6360030     
   287512.60552177142       -1065527.3429279963        1584635662.4880033     
   563436.21045433241       -657500.01460368407        1602209851.4430926     
  -176308943.09833673       -6961730.1863548309        1540395226.0354831     
  -161620530.98373273       -7604505.3792768419        1540403919.6905673     
  -146812198.88076589       -7847547.2776577622        1546053895.7548971     
  -131883946.78944156       -7690855.8815119192        1557345154.2284863     
  -116835774.70974979       -7134431.1908098534        1574277695.1113245     
  -354343219.27978331       -13968196.571114302        1512985067.8903430     
  -325102307.42824268       -14792436.847812310        1512525324.7373505     
  -295712471.43177193       -15120263.308071256        1517660406.2997737     
  -266173711.29037100       -14951675.951898992        1528390312.5776138     
  -236486027.00403100       -14286674.779265791        1544715043.5708697     
  -534097591.76287323       -21490691.846373439        1483809061.8058369     
  -490436916.44250077       -22536218.087268084        1482914720.0274401     
  -446598312.82063776       -22988649.989859313        1487568745.2706237     
  -402581780.89725661       -22847987.554059565        1497771137.5353820     
  -358387320.67237931       -22114230.779935196        1513521896.8217187     
  -715572060.54759932       -29529216.012110084        1452867207.7819843     
  -657624358.02651167       -30835849.097666323        1451572105.5608490     
  -599469723.04734910       -31452707.322972715        1455778912.6674521     
  -541108155.61011231       -31379790.688030779        1465487629.1017976     
  -482539655.71479344       -30617099.192817718        1480698254.8638837     
   563436.21045433241       -657500.01460368407        1602209851.4430926     
   448781.00957440538       -290331.83264591271        1597960767.5116909     
   293527.22662426735       -58492.257590926631        1598803695.2763715     
   97674.861579990480        38018.710484984498        1604738634.7371411     
  -138776.08553550401       -798.92834385687456        1615765585.8939998     
  -116835774.70974979       -7134431.1908098534        1574277695.1113245     
  -103290251.49488422       -6044882.5149616338        1569604092.5979290     
  -89215910.700482234       -3192608.5739904754        1570179604.7481155     
  -74612752.326555744        1422390.6320617162        1576004231.5618994     
  -59480776.373106509        7800115.1031894349        1587077973.0392675     
  -236486027.00403100       -14286674.779265791        1544715043.5708697     
  -208831459.75197512       -12340085.923068687        1540281241.3306787     
  -180078658.75877994       -6732717.9297424033        1541253656.7215865     
  -150227624.02445564        2535429.2006821409        1547632289.7435851     
  -119278355.54899715        15464355.468220167        1559417140.3966730     
  -358387320.67237931       -22114230.779935196        1513521896.8217187     
  -316174843.76169342       -19175942.056953162        1509992213.7099526     
  -272294716.94827080       -10678820.324851438        1512025851.1967857     
  -226746940.23210245        3377134.4164020121        1519622809.2822123     
  -179531513.61320093        22991922.166770287        1532783087.9662316     
  -482539655.71479344       -30617099.192817718        1480698254.8638837     
  -425320403.52405089       -26552450.916655988        1478737009.7357464     
  -365864085.26895887       -15030915.759332940        1482496188.1737089     
  -304170700.94951463        3947506.2791673094        1491975790.1777706     
  -240240250.56572881        30382815.198803186        1507175815.7479331     
  -138776.08553550401       -798.92834385687456        1615765585.8939998     
  -91355.821699076841       -8741.7328650532836        1584876441.4095328     
  -39130.291595567149       -666.98316194735708        1557343288.9119158     
   17900.504783100117        23425.320792030754        1533166128.4011571     
   79736.567437771344        63535.178997967640        1512344959.8772533     
  -59480776.373106509        7800115.1031894349        1587077973.0392675     
  -48608951.858036086        15449236.229552962        1556627989.7840712     
  -36584994.096050858        26938801.512297787        1529381464.5973802     
  -23408903.087166563        42268810.951374225        1505338397.4791970     
  -9080678.8313707560        61439264.546820961        1484498788.4295225     
  -119278355.54899715        15464355.468220167        1559417140.3966730     
  -98017937.977955937        30639797.166921109        1530744867.6814866     
  -74458059.179372102        53480109.624096073        1505123519.1164627     
  -48598719.153253116        83985292.839721590        1482553094.7015994     
  -20439917.899592631        122155346.81381997        1463033594.4368975     
  -179531513.61320093        22991922.166770287        1532783087.9662316     
  -148318314.18146986        45562941.079205193        1507227075.1017935     
  -113658325.54155584        79623257.352243096        1484569452.4691710     
  -75551547.693474919        125172870.98583856        1464810220.0683627     
  -33997980.637222521        182211781.98000988        1447949377.8993680     
  -240240250.56572881        30382815.198803186        1507175815.7479331     
  -199510080.46857759        60218667.966397837        1486074612.0449800     
  -154185793.18260789        105368244.69672130        1467719264.6554985     
  -104267388.70784974        165831545.38967431        1452109773.5794828     
  -49754867.044272646        241608570.04535377        1439246138.8169401     
   79736.567437771344        63535.178997967640        1512344959.8772533     
   46748.859234548589        84771.310053491397        1402995885.0707986     
   15268.019327172853        111030.33542919913        1290901377.5478363     
  -14705.952254251722        142312.25522405014        1176061437.3083677     
  -43173.055545959913        178617.06931726189        1058476064.3523632     
  -9080678.8313707560        61439264.546820961        1484498788.4295225     
  -9583049.4968516044        80854400.342191130        1375841400.8035624     
  -8142700.2160837576        106745269.29172182        1265092866.7736802     
  -4759630.9890564010        139111871.39545214        1152253186.3398557     
   566158.18423084170        177954206.65338132        1037322359.5021267     
  -20439917.899592631        122155346.81381997        1463033594.4368975     
  -19542282.057823896        161525199.11284956        1357332642.5823781     
  -14760713.191851124        213841494.82589418        1250194830.6365156     
  -6095211.3016678244        279104233.95297408        1141620158.5993106     
   6454223.6127217412        357313416.49407297        1031608626.4707711     
  -33997980.637222521        182211781.98000988        1447949377.8993680     
  -29830948.823675886        242097167.62205747        1347469610.4072251     
  -19838770.907977909        321399706.93793881        1246207269.1363342     
  -4021446.8901025653        420119399.92774403        1144162354.0866804     
   17621023.229914993        538256246.59136188        1041334865.2582797     
  -49754867.044272646        241608570.04535377        1439246138.8169401     
  -40449049.794413477        322570305.86978632        1346252304.2781281     
  -23376873.364442706        429419905.62792355        1253130182.2731369     
   1461662.2456315160        562157369.31974173        1159879772.8019857     
   34066557.035822809        720782696.94527864        1066501075.8646616     
  -1489659802.0164361        90447753.718197227        1448701376.3261614     
  -1456304201.5024836        23488087.557595015        1433058386.6357381     
  -1415641393.4219112       -19114220.047610104        1424329385.5296130     
  -1367671377.7747157       -37359169.097406626        1422514373.0077782     
  -1312394154.5609002       -31246759.591798902        1427613349.0702367     
  -1896945526.8669610        42040886.385041356        1354720258.6349392     
  -1836360198.8938377        8287317.8093303442        1347345287.5163457     
  -1771746459.9685476       -12038214.259166360        1346339326.4163105     
  -1703104310.0910957       -18935709.820452690        1351702375.3348286     
  -1630433749.2614770       -12405168.874519229        1363434434.2719038     
  -2298722498.2353687       -4713354.9034759998        1272281456.6664300     
  -2212464524.4194665       -5727950.3792127371        1269349241.4028018     
  -2125456936.2658553       -4243831.3959234953        1272241057.5919907     
  -2037699733.7745399       -260997.95361471176        1280956905.2339983     
  -1949192916.9455137        6220549.9477207661        1295496784.3288250     
  -2694990716.1216655       -49814970.147362709        1201384970.4206433     
  -2584617178.0793734       -18557717.008039594        1199070248.2951088     
  -2476772822.3138337        4268928.5421178341        1202034579.0566585     
  -2371457648.8250437        18664966.503100514        1210277962.7052855     
  -2268671657.6130018        24630396.874926090        1223800399.2409976     
  -3085750180.5258427       -93263959.346611619        1142030799.8975723     
  -2952818159.8735600       -30201982.077150345        1136508308.1932693     
  -2825694118.1124811        13500065.554957509        1135719890.8103108     
  -2704378055.2426133        37842183.549698114        1139665547.7486937     
  -2588869971.2639484        42824371.907097459        1148345279.0084229     
  -1312394154.5609002       -31246759.591798902        1427613349.0702367     
  -1266479529.3372228       -19254984.288020372        1422985049.0800335     
  -1222143664.2987089       -12525742.934785962        1422180235.1305671     
  -1179386559.4453559       -11059035.532090425        1425198907.2218368     
  -1138208214.7771621       -14854862.079923689        1432041065.3538435     
  -1630433749.2614770       -12405168.874519229        1363434434.2719038     
  -1576491272.2920468       -6912898.1012639999        1357059124.0552232     
  -1523557323.8668375       -4782389.1420793533        1354535484.0323522     
  -1471631903.9858418       -6013641.9969422817        1355863514.2032917     
  -1420715012.6490681       -10606656.665878832        1361043214.5680389     
  -1949192916.9455137        6220549.9477207661        1295496784.3288250     
  -1887142062.0786912        5237474.0359429121        1288039734.1334319     
  -1825529504.1151435        2793408.4465771914        1284462538.2849219     
  -1764355243.0548716       -1111646.8203705549        1284765196.7832944     
  -1703619278.8978767       -6477691.7649098635        1288947709.6285534     
  -2268671657.6130018        24630396.874926090        1223800399.2409976     
  -2198431898.6971469        17196132.123617887        1215926879.3146582     
  -2128060205.0436273        10201649.831185818        1211961397.8882759     
  -2057556576.6524410        3646949.9976426363        1211903954.9618509     
  -1986921013.5235906       -2467967.3770114183        1215754550.5353847     
  -2588869971.2639484        42824371.907097459        1148345279.0084229     
  -2510360782.1474266        28963076.161729336        1140720559.5989039     
  -2431149426.6522946        17442335.011724234        1137032062.8424146     
  -2351235904.7785501        8262148.4570933580        1137279788.7389569     
  -2270620216.5261989        1422516.4978218079        1141463737.2885287     
  -1138208214.7771621       -14854862.079923689        1432041065.3538435     
  -1083571749.0151079       -16763733.997712970        1426101221.3119984     
  -1028774423.0886216       -18136405.367399454        1425369803.3251293     
  -973816236.99771190       -18972876.189006031        1429846811.3932400     
  -918697190.74237204       -19273146.462510765        1439532245.5163336     
  -1420715012.6490681       -10606656.665878832        1361043214.5680389     
  -1352468715.2032485       -11574982.331707597        1354958564.3290517     
  -1284251778.9909661       -12641178.775994956        1353917540.1952190     
  -1216064204.0122287       -13805245.998766243        1357920142.1665409     
  -1147905990.2670305       -15067183.999998927        1366966370.2430232     
  -1703619278.8978767       -6477691.7649098635        1288947709.6285534     
  -1622234006.7677829       -6646728.2786195874        1282496328.2281234     
  -1541068317.2691972       -7547706.8973569870        1280923772.9830279     
  -1460122210.4021230       -9180627.6211365461        1284230043.8932664     
  -1379395686.1665590       -11545490.449941397        1292415140.9588380     
  -1986921013.5235906       -2467967.3770114183        1215754550.5353847     
  -1892867623.7087121       -1978971.8384436369        1208714513.0092154     
  -1799224037.9233162       -2855989.7314800024        1206388501.6885593     
  -1705990256.1673989       -5099021.0561130047        1208776516.5734158     
  -1613166278.4409606       -8708065.8123424053        1215878557.6637833     
  -2270620216.5261989        1422516.4978218079        1141463737.2885287     
  -2164369566.0260382        2428286.9888015985        1133613118.6723249     
  -2058718940.9533226        1433972.7216230631        1130311726.3118114     
  -1953668341.3080573       -1560426.3037201166        1131559560.2069852     
  -1849217767.0902379       -6554910.0872161388        1137356620.3578515     
  -918697190.74237204       -19273146.462510765        1439532245.5163336     
  -867617625.13704348       -20842886.994459748        1435713982.4682372     
  -816736914.90280485       -23075478.763375282        1436663721.8298130     
  -766055060.03966117       -25970921.769273490        1442381463.6010625     
  -715572060.54759932       -29529216.012110084        1452867207.7819843     
  -1147905990.2670305       -15067183.999998927        1366966370.2430232     
  -1085064903.1951137       -18155194.118119121        1362092945.7151735     
  -1022346719.1412431       -21652880.963058472        1361849212.8872147     
  -959751438.10542202       -25560244.534825981        1366235171.7591548     
  -897279060.08764160       -29877284.833398461        1375250822.3309906     
  -1379395686.1665590       -11545490.449941397        1292415140.9588380     
  -1305188251.0845630       -16270322.191197276        1286575166.0297847     
  -1231027766.6675661       -21151656.149114668        1285226572.0908487     
  -1156914232.9155729       -26189492.323709011        1288369359.1420319     
  -1082847649.8285744       -31383830.714957237        1296003527.1833386     
  -1613166278.4409606       -8708065.8123424053        1215878557.6637833     
  -1527987668.8053885       -15188271.213682294        1209160643.4120784     
  -1442780057.4817693       -21571804.321537793        1206795799.4407141     
  -1357543444.4700987       -27858665.135887742        1208784025.7496960     
  -1272277829.7703910       -34048853.656776369        1215125322.3390183     
  -1849217767.0902379       -6554910.0872161388        1137356620.3578515     
  -1753463156.3575938       -14909041.185594797        1129849377.8620491     
  -1657603591.5838449       -22913325.480293512        1126556894.9368124     
  -1561639072.7690237       -30567762.971412241        1127479171.5821426     
  -1465569599.9130995       -37872353.658862889        1132616207.7980428     
  -715572060.54759932       -29529216.012110084        1452867207.7819843     
  -657624358.02651167       -30835849.097666323        1451572105.5608490     
  -599469723.04734910       -31452707.322972715        1455778912.6674521     
  -541108155.61011231       -31379790.688030779        1465487629.1017976     
  -482539655.71479344       -30617099.192817718        1480698254.8638837     
  -897279060.08764160       -29877284.833398461        1375250822.3309906     
  -825577606.73028791       -31414542.928730488        1372615426.6782246     
  -753745958.31002355       -32517817.481018007        1375111151.1894085     
  -681784114.82684767       -33187108.490273505        1382737995.8645396     
  -609692076.28076553       -33422415.956503302        1395495960.7036188     
  -1082847649.8285744       -31383830.714957237        1296003527.1833386     
  -998451843.24578536       -33469533.103309393        1291938311.1379120     
  -914002578.99524796       -35377043.265835732        1292633426.0926476     
  -829499857.07696569       -37106361.202544600        1298088872.0475440     
  -744943677.49093938       -38657486.913439393        1308304649.0025961     
  -1272277829.7703910       -34048853.656776369        1215125322.3390183     
  -1176247067.5729914       -37000819.621381700        1209540758.9399123     
  -1080239585.1030195       -40030384.677417159        1208345737.3771763     
  -984255382.36046004       -43137548.824828386        1211540257.6508069     
  -888294459.34532666       -46322312.063654512        1219124319.7608075     
  -1465569599.9130995       -37872353.658862889        1132616207.7980428     
  -1358963279.7119305       -42008402.483017206        1125422770.0842283     
  -1252456976.6333370       -46477841.715754092        1122248085.0429919     
  -1146050690.6773384       -51280671.357133687        1123092152.6743350     
  -1039744421.8439119       -56416891.407102346        1127954972.9782562     
  -482539655.71479344       -30617099.192817718        1480698254.8638837     
  -425320403.52405089       -26552450.916655988        1478737009.7357464     
  -365864085.26895887       -15030915.759332940        1482496188.1737089     
  -304170700.94951463        3947506.2791673094        1491975790.1777706     
  -240240250.56572881        30382815.198803186        1507175815.7479331     
  -609692076.28076553       -33422415.956503302        1395495960.7036188     
  -537768110.55076385       -30094669.917722195        1393339071.3143551     
  -463591828.66400790       -19259203.356427044        1396943130.8285823     
  -387163230.62048906       -916016.27259396017        1406308139.2463098     
  -308482316.42022133        24934891.333745733        1421434096.5675266     
  -744943677.49093938       -38657486.913439393        1308304649.0025961     
  -658199211.54340518       -36031907.108563542        1305969907.1266797     
  -569187179.34671140       -25847773.139817417        1309436639.4916501     
  -477907580.90084428       -8105085.0071627796        1318704846.0975144     
  -384360416.20581764        17196157.289357156        1333774526.9442735     
  -888294459.34532666       -46322312.063654512        1219124319.7608075     
  -786613706.50198364       -44364162.489194393        1216629517.1727135     
  -682650137.31706762       -34796625.109490335        1219976714.1629045     
  -576403751.79058468       -17619699.924563795        1229165910.7313871     
  -467874549.92252064        7166613.0656332374        1244197106.8781495     
  -1039744421.8439119       -56416891.407102346        1127954972.9782562     
  -923011595.42648935       -55091436.059596688        1125317901.4524615     
  -803980702.57508552       -46105759.265481770        1128563354.8423481     
  -682651743.28969848       -29459861.024758548        1137691333.1479249     
  -559024717.57032740       -5153741.3374218643        1152701836.3691795     
  -240240250.56572881        30382815.198803186        1507175815.7479331     
  -199510080.46857759        60218667.966397837        1486074612.0449800     
  -154185793.18260789        105368244.69672130        1467719264.6554985     
  -104267388.70784974        165831545.38967431        1452109773.5794828     
  -49754867.044272646        241608570.04535377        1439246138.8169401     
  -308482316.42022133        24934891.333745733        1421434096.5675266     
  -258908425.24466991        55247249.947388113        1404701370.3692930     
  -202887801.05131921        107048718.62036343        1391915687.3380373     
  -140420443.84017885        180339297.35263550        1383077047.4737654     
  -71506353.611254618        275118986.14418924        1378185450.7764728     
  -384360416.20581764        17196157.289357156        1333774526.9442735     
  -322510841.51325971        49014610.480642512        1323571663.3845694     
  -252361917.97392428        108497559.82785824        1318517029.8453538     
  -173913645.58781841        195645005.33097044        1318610626.3266342     
  -87166024.354933441        310456946.99001229        1323852452.8284009     
  -467874549.92252064        7166613.0656332374        1244197106.8781495     
  -390317329.27435917        41520749.566127315        1242685491.0907938     
  -302608143.95043713        109714768.31915700        1247523292.1774409     
  -204746993.95075437        211748669.32471976        1258710510.1380906     
  -96733879.275311738        347622452.58282053        1276247144.9727380     
  -559024717.57032740       -5153741.3374218643        1152701836.3691795     
  -462327888.52795911        32765667.203861982        1162042853.4879870     
  -353626478.98084569        110700344.09430203        1178934474.3343046     
  -232920488.92898959        228650289.33388299        1203376698.9081328     
  -100209918.37238577        386615502.92262006        1235369527.2094724     
  -49754867.044272646        241608570.04535377        1439246138.8169401     
  -40449049.794413477        322570305.86978632        1346252304.2781281     
  -23376873.364442706        429419905.62792355        1253130182.2731369     
   1461662.2456315160        562157369.31974173        1159879772.8019857     
   34066557.035822809        720782696.94527864        1066501075.8646616     
  -71506353.611254618        275118986.14418924        1378185450.7764728     
  -57350846.421343237        376853314.18783867        1296683408.2615683     
  -34225227.745641828        508488013.85078961        1214246508.8084407     
  -2129497.5841276944        670023085.13310492        1130874752.4170840     
   38936344.063176036        861458528.03473902        1046568139.0875157     
  -87166024.354933441        310456946.99001229        1323852452.8284009     
  -70465311.430843055        432272521.99110669        1255246580.0273800     
  -43590734.715260684        588000976.29716885        1184899280.8160753     
  -6542294.2081916630        777642309.90818644        1112810555.1945033     
   40680010.090358973        1001196522.8241482        1038980403.1626388     
  -96733879.275311738        347622452.58282053        1276247144.9727380     
  -79792444.822906047        488827929.27961248        1221941819.5755627     
  -51473394.273325175        667958792.96698821        1165088498.2960579     
  -11776727.626565516        885015043.64495015        1105687181.1342134     
   39297555.117370129        1139996681.3135128        1043737868.0900494     
  -100209918.37238577        386615502.92262006        1235369527.2094724     
  -85332246.597527713        546519536.05337048        1196769126.9061182     
  -57873206.419817597        748361463.86028910        1154814161.2483726     
  -17832797.839229226        992141286.34347284        1109504630.2362392     
   34788979.144206464        1277859003.5028112        1060840533.8697224     
  -3085750180.5258427       -93263959.346611619        1142030799.8975723     
  -2952818159.8735600       -30201982.077150345        1136508308.1932693     
  -2825694118.1124811        13500065.554957509        1135719890.8103108     
  -2704378055.2426133        37842183.549698114        1139665547.7486937     
  -2588869971.2639484        42824371.907097459        1148345279.0084229     
  -3450727911.2099476       -58300867.042712450        1040921321.3210700     
  -3313058786.9552784       -21361249.905571461        1030088575.6746006     
  -3178532319.9802270        5102842.9661706686        1024193918.5083904     
  -3047148510.2847924        21091411.572528005        1023237349.8224376     
  -2918907357.8689785        26604455.913482308        1027218869.6167434     
  -3816251517.8616061       -23501537.529076099        927663421.33792233     
  -3673262392.4076524       -12509411.245194197        914629963.62947202     
  -3530750602.6217313       -3108403.8547418118        906738608.56019890     
  -3388716148.5038323        4701484.6422851086        903989356.13009727     
  -3247159030.0539608        10920254.245886207        906382206.33916795     
  -4182321000.4808164        11134029.194292545        802257099.94812238     
  -4033428976.2306790       -3646466.0960104465        790132472.05788231     
  -3882348966.0369821       -11133674.907783270        783353960.96573341     
  -3729080969.8997192       -11327597.241008282        781921566.67167079     
  -3573624987.8188972       -4228233.0957000256        785835289.17569530     
  -4548936359.0675802        45605833.127396345        664702357.15167654     
  -4393558538.4243565        5227585.5419783592        656596100.95983529     
  -4233327410.2259836       -18972970.192940950        654039975.72499573     
  -4068242974.4724584       -26995834.077351093        657033981.44715893     
  -3898305231.1637850       -18841006.111264944        665578118.12632704     
  -2588869971.2639484        42824371.907097459        1148345279.0084229     
  -2510360782.1474266        28963076.161729336        1140720559.5989039     
  -2431149426.6522946        17442335.011724234        1137032062.8424146     
  -2351235904.7785501        8262148.4570933580        1137279788.7389569     
  -2270620216.5261989        1422516.4978218079        1141463737.2885287     
  -2918907357.8689785        26604455.913482308        1027218869.6167434     
  -2829260245.9086237        16355247.187465191        1020783532.0971098     
  -2739229184.9743657        7385868.3744647503        1018146046.3383099     
  -2648814175.0662007       -303680.52551698685        1019306412.3403484     
  -2558015216.1841421       -6713399.5125142336        1024264630.1032219     
  -3247159030.0539608        10920254.245886207        906382206.33916795     
  -3146769340.6560445        4164528.9173371792        900764997.07059538     
  -3046313919.6889253       -2372091.1805477142        898807268.67066395     
  -2945792767.1526127       -8689606.0477755070        900509021.13937640     
  -2845205883.0470991       -14788015.684344292        905870254.47672999     
  -3573624987.8188972       -4228233.0957000256        785835289.17569530     
  -3462888066.3896832       -7609078.6486527920        780664954.51935935     
  -3352403630.7959814       -11831543.653314114        779015729.83947396     
  -3242171681.0377812       -16895628.109659553        780887615.13603663     
  -3132192217.1150908       -22801332.017691612        786280610.40904677     
  -3898305231.1637850       -18841006.111264944        665578118.12632704     
  -3777616423.1095462       -18965575.510520220        660483404.44340730     
  -3657498318.2955194       -20992489.043818235        658771429.84474218     
  -3537950916.7217016       -24921746.711153269        660442194.33033276     
  -3418974218.3881021       -30753348.512538195        665495697.90017664     
  -2270620216.5261989        1422516.4978218079        1141463737.2885287     
  -2164369566.0260382        2428286.9888015985        1133613118.6723249     
  -2058718940.9533226        1433972.7216230631        1130311726.3118114     
  -1953668341.3080573       -1560426.3037201166        1131559560.2069852     
  -1849217767.0902379       -6554910.0872161388        1137356620.3578515     
  -2558015216.1841421       -6713399.5125142336        1024264630.1032219     
  -2439716300.9341941       -4882593.8834913969        1015897428.9167370     
  -2321807573.5335493       -4352414.4188075066        1012058504.7117715     
  -2204289033.9822102       -5122861.1184755564        1012747857.4883244     
  -2087160682.2801652       -7193933.9824658632        1017965487.2463951     
  -2845205883.0470991       -14788015.684344292        905870254.47672999     
  -2714918558.1164298       -12150131.438005805        897231281.22779894     
  -2584811583.4569201       -10113414.762187958        893099635.68621838     
  -2454884959.0685654       -8677865.6568851471        893475317.85198534     
  -2325138684.9513597       -7843484.1220904589        898358327.72510099     
  -3132192217.1150908       -22801332.017691612        786280610.40904677     
  -2989976337.5727577       -19374325.674762487        777614675.60551071     
  -2847730970.7234321       -15849028.308510661        773435119.23515320     
  -2705456116.5671163       -12225439.918959975        773741941.29797697     
  -2563151775.1037993       -8503560.5060946941        778535141.79397571     
  -3418974218.3881021       -30753348.512538195        665495697.90017664     
  -3264889639.3031611       -26555176.593713403        657047612.04987442     
  -3110565735.3330860       -21559255.057775259        653064955.35857642     
  -2956002506.4778690       -15765583.904695153        653547727.82628727     
  -2801199952.7375088       -9174163.1344729662        658495929.45300770     
  -1849217767.0902379       -6554910.0872161388        1137356620.3578515     
  -1753463156.3575938       -14909041.185594797        1129849377.8620491     
  -1657603591.5838449       -22913325.480293512        1126556894.9368124     
  -1561639072.7690237       -30567762.971412241        1127479171.5821426     
  -1465569599.9130995       -37872353.658862889        1132616207.7980428     
  -2087160682.2801652       -7193933.9824658632        1017965487.2463951     
  -1980126462.4376287       -12999211.584223390        1010292724.9775167     
  -1873167526.2929831       -19055434.845629573        1006493628.5695409     
  -1766283873.8462307       -25362603.766667843        1006568198.0224690     
  -1659475505.0973656       -31920718.347344339        1010516433.3362888     
  -2325138684.9513597       -7843484.1220904589        898358327.72510099     
  -2207799409.4551206       -11392274.264112592        890309768.32100046     
  -2090715655.3957529       -15792802.529034853        885793781.06813896     
  -1973887422.7732654       -21045068.916885018        884810365.96650958     
  -1857314711.5876501       -27149073.427647829        887359523.01611710     
  -2563151775.1037993       -8503560.5060946941        778535141.79397571     
  -2436481997.4100509       -10088229.225221515        769900507.89250624     
  -2310247978.8921542       -13125428.530526400        764457352.43260777     
  -2184449719.5501199       -17615158.422038078        762205675.41428399     
  -2059087219.3839428       -23557418.899752378        763145476.83752048     
  -2801199952.7375088       -9174163.1344729662        658495929.45300770     
  -2666174226.3024378       -9087076.4675772190        649064943.69202673     
  -2531764496.7821941       -11053312.850112677        642484342.66294968     
  -2397970764.1768017       -15072872.282148600        638754126.36577165     
  -2264793028.4862461       -21145754.763653278        637874294.80050004     
  -1465569599.9130995       -37872353.658862889        1132616207.7980428     
  -1358963279.7119305       -42008402.483017206        1125422770.0842283     
  -1252456976.6333370       -46477841.715754092        1122248085.0429919     
  -1146050690.6773384       -51280671.357133687        1123092152.6743350     
  -1039744421.8439119       -56416891.407102346        1127954972.9782562     
  -1659475505.0973656       -31920718.347344339        1010516433.3362888     
  -1542615044.6513996       -35513460.508804619        1001775041.6448320     
  -1425712435.7316508       -38965707.757637978        996777319.00848031     
  -1308767678.3381188       -42277460.093863785        995523265.42722929     
  -1191780772.4707956       -45448717.517464280        998012880.90108144     
  -1857314711.5876501       -27149073.427647829        887359523.01611710     
  -1730986064.0896761       -30434294.884239197        877236037.20944774     
  -1604473102.5215523       -33105136.106992364        870581136.84040272     
  -1477775826.8832757       -35161597.095907032        867394821.90898871     
  -1350894237.1748517       -36603677.850981236        867677092.41519940     
  -2059087219.3839428       -23557418.899752378        763145476.83752048     
  -1924076338.0267491       -26770905.609316945        751805756.77806199     
  -1788738977.0030437       -28896126.763823271        743659538.53876221     
  -1653075136.3128202       -29933082.363279641        738706822.11960983     
  -1517084815.9560721       -29881772.407655776        736947607.52060723     
  -2264793028.4862461       -21145754.763653278        637874294.80050004     
  -2121885866.4626288       -24523292.684026718        625484200.35069168     
  -1978510059.1761243       -26338679.728134394        616012524.10355449     
  -1834665606.6267354       -26591915.895946145        609459266.05909503     
  -1690352508.8144536       -25283001.187458754        605824426.21731198     
  -1039744421.8439119       -56416891.407102346        1127954972.9782562     
  -923011595.42648935       -55091436.059596688        1125317901.4524615     
  -803980702.57508552       -46105759.265481770        1128563354.8423481     
  -682651743.28969848       -29459861.024758548        1137691333.1479249     
  -559024717.57032740       -5153741.3374218643        1152701836.3691795     
  -1191780772.4707956       -45448717.517464280        998012880.90108144     
  -1061550580.2673013       -42407128.954534829        994187010.48647261     
  -929885705.71187627       -34583265.885155201        994465173.48037148     
  -796786148.80450535       -21977128.309308618        998847369.88277280     
  -662251909.54519057       -4588716.2269688547        1007333599.6936742     
  -1350894237.1748517       -36603677.850981236        867677092.41519940     
  -1212248083.4915187       -33370377.364504576        861655141.68273163     
  -1073030631.5382898       -28232749.311708689        857958732.85158849     
  -933241881.31516719       -21190793.692588568        856587865.92176497     
  -792881832.82214224       -12244510.507139087        857542540.89326286     
  -1517084815.9560721       -29881772.407655776        736947607.52060723     
  -1375104105.0991294       -27981181.289487243        727722295.04122841     
  -1233415480.0543418       -27054209.545153797        719044032.95599532     
  -1092018940.8216989       -27100857.174642801        710912821.26490343     
  -950914487.40119767       -28121124.177938819        703328659.96794951     
  -1690352508.8144536       -25283001.187458754        605824426.21731198     
  -1550118645.0901432       -26239540.729494214        592388470.56197405     
  -1411040251.2600262       -31047646.585500360        577721073.79359889     
  -1273117327.3240948       -39707318.755464196        561822235.91218305     
  -1136349873.2823462       -52218557.239366412        544691956.91772342     
  -559024717.57032740       -5153741.3374218643        1152701836.3691795     
  -462327888.52795911        32765667.203861982        1162042853.4879870     
  -353626478.98084569        110700344.09430203        1178934474.3343046     
  -232920488.92898959        228650289.33388299        1203376698.9081328     
  -100209918.37238577        386615502.92262006        1235369527.2094724     
  -662251909.54519057       -4588716.2269688547        1007333599.6936742     
  -547128942.85662389        25653872.664387047        1020855270.3291757     
  -421125784.73081219        92163766.346552283        1042771863.0380731     
  -284242435.16775894        194940964.81951389        1073083377.8203638     
  -136478894.16746309        333985468.08329821        1111789814.6760478     
  -792881832.82214224       -12244510.507139087        857542540.89326286     
  -656920390.35629272        11044960.173600823        873933077.80004418     
  -511203145.52069819        66853772.086819232        899562855.12609982     
  -355730098.31536663        155181925.23249972        934431872.87143099     
  -190501248.74028981        276029419.61065829        978540131.03603411     
  -950914487.40119767       -28121124.177938819        703328659.96794951     
  -791702231.02697146       -11061070.268476665        721276275.90059006     
  -623858561.35050201        34770361.315124571        749307450.59838653     
  -447383478.37179989        109373170.57283464        787422184.06133819     
  -262276982.09085101        212747357.50469464        835620476.28944695     
  -1136349873.2823462       -52218557.239366412        544691956.91772342     
  -951474464.86865902       -40664218.661873460        562884864.63080907     
  -759092032.22023070       -4086465.9685659111        592005649.45492756     
  -559202575.33706856        57514700.840512753        632054311.39008665     
  -351806094.21916378        144139281.76540554        683030850.43627846     
  -100209918.37238577        386615502.92262006        1235369527.2094724     
  -85332246.597527713        546519536.05337048        1196769126.9061182     
  -57873206.419817597        748361463.86028910        1154814161.2483726     
  -17832797.839229226        992141286.34347284        1109504630.2362392     
   34788979.144206464        1277859003.5028112        1060840533.8697224     
  -136478894.16746309        333985468.08329821        1111789814.6760478     
  -127353317.03500891        483026234.85010159        1090205164.9733338     
  -95094094.418870449        709179153.22916627        1070057300.0609972     
  -39701226.319068432        1012444223.2204552        1051346219.9390384     
   38825287.264413059        1392821444.8239925        1034071924.6074440     
  -190501248.74028981        276029419.61065829        978540131.03603411     
  -173438194.40805143        418313791.56619418        986282221.86158490     
  -122689217.51133710        672884572.06999433        1000252447.6222706     
  -38254318.050127685        1039741761.1220955        1020450808.3180845     
   79866503.975560069        1518885358.7224560        1046877303.9490479     
  -262276982.09085101        212747357.50469464        835620476.28944695     
  -223586878.71666780        352382206.20159960        885000297.57086563     
  -140658575.69718650        639477720.38282657        945399603.93218017     
  -13492073.032418311        1074033900.0483546        1016818395.3733990     
   157912629.27764523        1656050745.1981940        1099256671.8944967     
  -351806094.21916378        144139281.76540554        683030850.43627846     
  -277799369.96086252        285231478.75632489        786359392.10118115     
  -149002168.97644606        608958598.16762257        905498768.99074745     
   34585508.734073997        1115320639.9992685        1040448981.1049684     
   272963663.17068976        1804317604.2512336        1191210028.4438505     
  -4548936359.0675802        45605833.127396345        664702357.15167654     
  -4393558538.4243565        5227585.5419783592        656596100.95983529     
  -4233327410.2259836       -18972970.192940950        654039975.72499573     
  -4068242974.4724584       -26995834.077351093        657033981.44715893     
  -3898305231.1637850       -18841006.111264944        665578118.12632704     
  -4938447508.8358402       -6498375.3395059109        490020745.05553347     
  -4758453892.0173588       -9294420.6346223354        487506097.71107846     
  -4577394934.9766207       -8539331.8555066586        489703731.32358426     
  -4395270637.7136030       -4233109.0021479130        496613645.89305818     
  -4212081000.2283134        3624247.9254393578        508235841.41950440     
  -5320650117.7167368       -56410021.540204525        329163189.58475208     
  -5118434561.8659801       -22342021.687908411        327820855.86598498     
  -4918941633.1258144        2650554.4623613358        330352953.10414511     
  -4722171331.4962711        18567706.910592794        336759481.29923671     
  -4528123656.9773302        25409435.656791925        347040440.45126247     
  -5695544185.7103004       -104129105.47469568        182129690.73932961     
  -5473500547.9701977       -33915217.617862225        177540375.42455474     
  -5257967504.6735926        14596688.760653734        175987641.06667620     
  -5048945055.8204679        41406613.660884142        177471487.66569251     
  -4846433201.4108419        46514557.082796812        181991915.22159997     
  -6063129712.8165102       -149655627.14298701        48920248.519263446     
  -5823651850.3300343       -44014008.424518585        36664656.386787586     
  -5594472549.6199303        27299071.039379835        26607795.211171344     
  -5375591810.6862049        64283611.248705626        18749664.992415842     
  -5167009633.5288429        66939612.203458309        13090265.730525408     
  -3898305231.1637850       -18841006.111264944        665578118.12632704     
  -3777616423.1095462       -18965575.510520220        660483404.44340730     
  -3657498318.2955194       -20992489.043818235        658771429.84474218     
  -3537950916.7217016       -24921746.711153269        660442194.33033276     
  -3418974218.3881021       -30753348.512538195        665495697.90017664     
  -4212081000.2283134        3624247.9254393578        508235841.41950440     
  -4084286273.1370864       -3400787.0299386978        502207596.17595726     
  -3956412217.3218026       -10161392.905121803        499855118.54340023     
  -3828458832.7824678       -16657569.700131893        501178408.52184069     
  -3700426119.5190759       -22889317.414957762        506177466.11127323     
  -4528123656.9773302        25409435.656791925        347040440.45126247     
  -4392385786.4870081        11735102.453933477        340837034.27206290     
  -4255918555.3083572        491971.54549074173        338602424.23060215     
  -4118721963.4413857       -8319957.0685529709        340336610.32686639     
  -3980796010.8860950       -14700683.388185740        346039592.56086725     
  -4846433201.4108419        46514557.082796812        181991915.22159997     
  -4701914963.1593122        26442092.941081762        176371718.73173174     
  -4556017332.2551813        10967604.308016777        175013346.90633824     
  -4408740308.6984615        91091.183580636978        177916799.74541289     
  -4260083892.4891553       -6187446.4322152138        185082077.24896231     
  -5167009633.5288429        66939612.203458309        13090265.730525408     
  -5012873803.1539860        40720184.431535244        8811649.5549645387     
  -4856708548.1622705        21265505.382473707        9087886.5706182383     
  -4698513868.5536976        8575575.0562756062        13918976.777482266     
  -4538289764.3282681        2650393.4529192448        23304920.175554615     
  -3418974218.3881021       -30753348.512538195        665495697.90017664     
  -3264889639.3031611       -26555176.593713403        657047612.04987442     
  -3110565735.3330860       -21559255.057775259        653064955.35857642     
  -2956002506.4778690       -15765583.904695153        653547727.82628727     
  -2801199952.7375088       -9174163.1344729662        658495929.45300770     
  -3700426119.5190759       -22889317.414957762        506177466.11127323     
  -3534427720.6671739       -17639328.272123575        498232257.06748712     
  -3368447970.6397004       -12451501.877380610        494743368.55681366     
  -3202486869.4366531       -7325838.2307320833        495710800.57925749     
  -3036544417.0580339       -2262337.3321652412        501134553.13480598     
  -3980796010.8860950       -14700683.388185740        346039592.56086725     
  -3802909816.9126487       -8406684.4149694443        338296290.99577641     
  -3625300245.4731941       -3034760.5550601482        335000201.33789551     
  -3447967296.5677333        1415088.1915485859        336151323.58723962     
  -3270910970.1962624        4942861.8248379230        341749657.74380380     
  -4260083892.4891553       -6187446.4322152138        185082077.24896231     
  -4070335928.0395803        1142754.9777562618        177239713.83473057     
  -3881122559.8335567        6690968.9092152119        173835453.70182216     
  -3692443787.8711014        10457195.362123251        174869296.85024485     
  -3504299612.1521964        12441434.336522818        180341243.27998483     
  -4538289764.3282681        2650393.4529192448        23304920.175554615     
  -4336706054.0479784        11008989.906028271        15062525.584364792     
  -4135914913.7208004        16725686.515412569        11249125.648598505     
  -3935916343.3467555        19800483.281027079        11864720.368265517     
  -3736710342.9258304        20233380.202911139        16909309.743358307     
  -2801199952.7375088       -9174163.1344729662        658495929.45300770     
  -2666174226.3024378       -9087076.4675772190        649064943.69202673     
  -2531764496.7821941       -11053312.850112677        642484342.66294968     
  -2397970764.1768017       -15072872.282148600        638754126.36577165     
  -2264793028.4862461       -21145754.763653278        637874294.80050004     
  -3036544417.0580339       -2262337.3321652412        501134553.13480598     
  -2894384294.5661759       -4683476.3306611776        491745814.97428340     
  -2752436253.5340862       -7811553.5283830166        485573510.35601431     
  -2610700293.9617577       -11646568.925311565        482617639.27999520     
  -2469176415.8491988       -16188522.521466613        482878201.74623150     
  -3270910970.1962624        4942861.8248379230        341749657.74380380     
  -3120570597.9037642        327253.28409850597        332874401.88132340     
  -2970038391.6159563       -3648908.6056233644        327581628.37144083     
  -2819314351.3328342       -6985623.8442842960        325871337.21416676     
  -2668398477.0544119       -9682892.4319546223        327743528.40950012     
  -3504299612.1521964        12441434.336522818        180341243.27998483     
  -3344733136.3152018        5945112.3766908646        172450704.41313475     
  -3184570911.0278072        1434621.9181671143        168508696.70923707     
  -3023812936.2900505       -1090037.0391418934        168515220.16830057     
  -2862459212.1019025       -1628864.4951376915        172470274.79030812     
  -3736710342.9258304        20233380.202911139        16909309.743358307     
  -3566871909.8004665        12170100.947161674        10474722.569728896     
  -3396033811.7696676        7439038.0428965092        8354715.3694014838     
  -3224196048.8333917        6040191.4902166128        10549288.142378628     
  -3051358620.9916639        7973561.2890180349        17058440.888660334     
  -2264793028.4862461       -21145754.763653278        637874294.80050004     
  -2121885866.4626288       -24523292.684026718        625484200.35069168     
  -1978510059.1761243       -26338679.728134394        616012524.10355449     
  -1834665606.6267354       -26591915.895946145        609459266.05909503     
  -1690352508.8144536       -25283001.187458754        605824426.21731198     
  -2469176415.8491988       -16188522.521466613        482878201.74623150     
  -2318767780.9002876       -18043259.022292256        472491098.66172504     
  -2168132697.4293432       -19143167.116339445        464604525.45102787     
  -2017271165.4363604       -19488246.803597808        459218482.11413968     
  -1866183184.9213510       -19078498.084089518        456332968.65104473     
  -2668398477.0544119       -9682892.4319546223        327743528.40950012     
  -2511682335.8341188       -10373017.509387493        319076853.82597387     
  -2354981942.8326535       -11115636.649565339        312492820.78738600     
  -2198297298.0500031       -11910749.852468252        307991429.29373032     
  -2041628401.4861743       -12758357.118104935        305572679.34501135     
  -2862459212.1019025       -1628864.4951376915        172470274.79030812     
  -2700629531.2641468       -1512568.1453462839        165241465.84343526     
  -2539057795.3860674       -2256088.3278322220        159677410.11262539     
  -2377744004.4676590       -3859425.0425425768        155778107.59787509     
  -2216688158.5089207       -6322578.2894871235        153543558.29919496     
  -3051358620.9916639        7973561.2890180349        17058440.888660334     
  -2885609367.1903582        8538089.0698132515        10984934.714102052     
  -2720360255.0895739        7435477.8488931656        6158293.4267383739     
  -2555611284.6893106        4665727.6262127161        2578517.0265723388     
  -2391362455.9895916        228838.40174007416        245605.51360122481     
  -1690352508.8144536       -25283001.187458754        605824426.21731198     
  -1550118645.0901432       -26239540.729494214        592388470.56197405     
  -1411040251.2600262       -31047646.585500360        577721073.79359889     
  -1273117327.3240948       -39707318.755464196        561822235.91218305     
  -1136349873.2823462       -52218557.239366412        544691956.91772342     
  -1866183184.9213510       -19078498.084089518        456332968.65104473     
  -1728858253.5045371       -22571854.616433740        442717985.20589226     
  -1591610885.2399025       -26323754.989394665        428682221.94270343     
  -1454441080.1274433       -30334199.202933788        414225678.86147219     
  -1317348838.1671762       -34603187.257095098        399348355.96221161     
  -2041628401.4861743       -12758357.118104935        305572679.34501135     
  -1904896227.2482653       -18093678.102171779        293036225.97571009     
  -1767163709.4205275       -20094520.453474402        280889654.08337355     
  -1628430848.0029690       -18760884.172043264        269132963.66800427     
  -1488697642.9956021       -14092769.257906020        257766154.72959843     
  -2216688158.5089207       -6322578.2894871235        153543558.29919496     
  -2078232566.3213346       -12805011.186693192        143343192.87141675     
  -1937698723.8019230       -12359942.977815151        134343370.21561429     
  -1795086630.9506752       -4987373.6628136635        126544090.33177683     
  -1650396287.7676163        9312696.7582216263        119945353.21990897     
  -2391362455.9895916        228838.40174007416        245605.51360122481     
  -2248867270.7237525       -6705853.8700724840       -6361114.1069896957     
  -2103215928.3840756       -3120022.5623794794       -10956629.660584997     
  -1954408428.9705648        10986332.324726820       -13540941.147229353     
  -1802444772.4832385        35613210.791240335       -14114048.566884816     
  -1136349873.2823462       -52218557.239366412        544691956.91772342     
  -951474464.86865902       -40664218.661873460        562884864.63080907     
  -759092032.22023070       -4086465.9685659111        592005649.45492756     
  -559202575.33706856        57514700.840512753        632054311.39008665     
  -351806094.21916378        144139281.76540554        683030850.43627846     
  -1317348838.1671762       -34603187.257095098        399348355.96221161     
  -1117718842.3524644       -14728545.470589697        421200208.35046101     
  -914462511.72557378        17233879.023175836        441553796.27254862     
  -707579846.28649938        61284086.224223435        460409119.72845298     
  -497070846.03525180        117422076.13251197        477766178.71818978     
  -1488697642.9956021       -14092769.257906020        257766154.72959843     
  -1309816321.4290333        3451197.2428599596        278749480.80004203     
  -1131189354.4728572        20147315.042321324        285808400.82710326     
  -952816742.12703872        35995584.140587986        278942914.81078613     
  -774698484.39161158        50996004.537550151        258153022.75107992     
  -1650396287.7676163        9312696.7582216263        119945353.21990897     
  -1527766902.0983808        13875009.478441894        135532681.97955254     
  -1409272560.4620595        4653842.0889314413        124769463.11861235     
  -1294913262.8586912       -18350805.410407901        87655696.637077436     
  -1184689009.2882433       -55138933.019493222        24191382.534951162     
  -1802444772.4832385        35613210.791240335       -14114048.566884816     
  -1771570584.3604679        16542891.236281872       -8450188.1110165250     
  -1748712129.6932204       -29246539.837109208       -41563016.852938719     
  -1733869408.4814301       -101755082.42867899       -113452534.79267253     
  -1727042420.7251596       -200982736.53864861       -224118741.93020323     
  -351806094.21916378        144139281.76540554        683030850.43627846     
  -277799369.96086252        285231478.75632489        786359392.10118115     
  -149002168.97644606        608958598.16762257        905498768.99074745     
   34585508.734073997        1115320639.9992685        1040448981.1049684     
   272963663.17068976        1804317604.2512336        1191210028.4438505     
  -497070846.03525180        117422076.13251197        477766178.71818978     
  -388250309.14670742        223063274.54683805        597056031.90301108     
  -230302427.39022759        492462289.18757969        735495905.40410995     
  -23227200.765801728        925619120.05482471        893085799.22150934     
   232975370.72653481        1522533767.1484413        1069825713.3551812     
  -774698484.39161158        50996004.537550151        258153022.75107992     
  -621523606.03957701        124048363.02523386        386797200.28793818     
  -424884514.67778945        341981431.54544258        537930583.23272252     
  -184781210.30623633        704795210.09820676        711553171.58542359     
   98786307.075076282        1212489698.6834581        907664965.34605646     
  -1184689009.2882433       -55138933.019493222        24191382.534951162     
  -977619260.63948643       -11813255.808477283        155582897.25597501     
  -732748430.83915794        157516025.24111027        312802802.47656476     
  -450076519.88721228        452848910.12940967        495851098.19670862     
  -129603527.78370529        874185398.85627103        704727784.41641903     
  -1727042420.7251596       -200982736.53864861       -224118741.93020323     
  -1456537272.9464407       -184521581.95432860       -96586877.192865998     
  -1153894175.8743043       -60933929.725305438        60112563.135653906     
  -819113129.50873566        169780220.14852422        245979579.05537999     
  -452194133.84978771        507620867.66690725        461014170.56628138     
 </DataArray>
 <DataArray  type="Float64" Name="VM" NumberOfComponents="1" format="ascii">
   6143634331.0117121     
   5890026921.6335077     
   5648595895.4478407     
   5417963232.1529560     
   5197204845.4187803     
   5741726441.4182129     
   5517085704.3794346     
   5299556543.3141708     
   5088610740.6742954     
   4883967103.5539465     
   5362526455.9007511     
   5163239292.5226555     
   4967420066.6447859     
   4775062309.4140892     
   4586265366.3071251     
   5003262616.3911829     
   4826615476.3530865     
   4651494298.0199633     
   4477988492.9845734     
   4306251783.1683140     
   4661550086.5639973     
   4505632081.3802347     
   4351373767.8138800     
   4198427941.8665619     
   4046610327.8340955     
   5197204845.4187803     
   5033955825.1459455     
   4872293105.9400463     
   4712158447.7886181     
   4553520463.8086548     
   4883967103.5539465     
   4731092928.4183226     
   4579216394.4615068     
   4428344370.3244915     
   4278507209.3816228     
   4586265366.3071251     
   4444601014.2170925     
   4303604844.9699192     
   4163333051.9667568     
   4023875767.4056926     
   4306251783.1683140     
   4177004752.6458464     
   4048411066.9722009     
   3920561233.2275019     
   3793607196.7219930     
   4046610327.8340955     
   3931369289.2762914     
   3817142356.9925146     
   3704036978.3105946     
   3592269106.6239219     
   4553520463.8086548     
   4352372783.2672949     
   4151173518.5251865     
   3949905602.4141779     
   3748605237.4203148     
   4278507209.3816228     
   4089604470.8836813     
   3901255592.4402218     
   3713521707.3863511     
   3526535884.2616539     
   4023875767.4056926     
   3847772747.8315482     
   3672954673.0498972     
   3499575666.3480167     
   3327881621.2637000     
   3793607196.7219930     
   3630929899.3285847     
   3470395003.7711611     
   3312259065.4759579     
   3156888249.9728160     
   3592269106.6239219     
   3443672103.5497179     
   3298185111.8326373     
   3156165858.5804067     
   3018092989.8123989     
   3748605237.4203148     
   3575744187.9847240     
   3402987519.2140636     
   3230325930.9007716     
   3057793567.0692768     
   3526535884.2616539     
   3363646356.4974194     
   3201417310.3831744     
   3039909311.0098672     
   2879239375.8489490     
   3327881621.2637000     
   3175149405.9868426     
   3023702524.0594463     
   2873680177.9377055     
   2725290961.1890249     
   3156888249.9728160     
   3014584594.6859064     
   2874250017.1881595     
   2736105667.3712025     
   2600452382.2803855     
   3018092989.8123989     
   2886535850.5046873     
   2757664450.2148371     
   2631775651.7862248     
   2509250399.8451996     
   3057793567.0692768     
   2890512038.1815600     
   2723485386.5756001     
   2556697295.8521962     
   2390134168.2290859     
   2879239375.8489490     
   2716146473.9651365     
   2553463756.1763759     
   2391218327.2324004     
   2229456897.9673362     
   2725290961.1890249     
   2568407752.5610957     
   2412434093.3320131     
   2257504847.4494252     
   2103812597.7127571     
   2600452382.2803855     
   2452123848.7276196     
   2305605074.8611617     
   2161206850.7483377     
   2019352564.5683377     
   2509250399.8451996     
   2371966651.8040533     
   2237778445.7360682     
   2107210497.6723518     
   1980950444.4488430     
   2390134168.2290859     
   2245064524.6453452     
   2101973440.6595430     
   1960877319.6022813     
   1821932225.0806520     
   2229456897.9673362     
   2086997738.5878148     
   1946035582.4396420     
   1806576936.8400278     
   1668693598.5187943     
   2103812597.7127571     
   1963424246.3304551     
   1823928579.3841882     
   1685354961.4392576     
   1547759095.8150840     
   2019352564.5683377     
   1882049462.8988802     
   1745124281.7129247     
   1608703563.5452206     
   1472961499.7546604     
   1980950444.4488430     
   1849378823.2802145     
   1718030969.6670432     
   1587258431.3005350     
   1457563459.3055096     
   1821932225.0806520     
   1780733259.5081565     
   1736136334.7986119     
   1696741981.0140674     
   1680939588.5963483     
   1668693598.5187943     
   1552992913.8950078     
   1428247710.9426813     
   1294826713.6299670     
   1158823303.8914258     
   1547759095.8150840     
   1397783796.4286673     
   1244269018.6968613     
   1084961674.0188434     
   917847687.04376078     
   1472961499.7546604     
   1328770791.7772706     
   1199026442.0748882     
   1088212870.4841583     
   1002236655.2081127     
   1457563459.3055096     
   1348731953.2403641     
   1274834593.1722758     
   1243994631.6281009     
   1263234501.4153657     
   1680939588.5963483     
   1383572349.7749860     
   1129448377.7140777     
   1010163737.4040401     
   1152741721.3855143     
   1158823303.8914258     
   1008467135.3992746     
   985317075.64648151     
   1161530408.3941851     
   1543944254.0415652     
   917847687.04376078     
   963258856.78837001     
   1145049193.2539325     
   1476546748.2692528     
   1957416077.9661922     
   1002236655.2081127     
   1164863724.5692067     
   1425523824.5347915     
   1808802305.8935885     
   2334789066.7195539     
   1263234501.4153657     
   1446886483.0055945     
   1715766237.8239169     
   2110487894.3326702     
   2663536480.9689689     
   4661550086.5639973     
   4505632081.3802347     
   4351373767.8138800     
   4198427941.8665619     
   4046610327.8340955     
   4354891577.3948822     
   4212333005.9760251     
   4072221104.9202027     
   3934726686.5742526     
   3800142039.6205688     
   4084665167.0942273     
   3952598397.1502070     
   3824710309.1469650     
   3701410795.2866502     
   3583215073.8353262     
   3859511584.2689819     
   3734244811.2023129     
   3615874779.7250142     
   3504702684.4499311     
   3401148212.6547513     
   3689450054.0301642     
   3566248801.0500126     
   3453636630.1227031     
   3351410753.6202493     
   3259531871.8440108     
   4046610327.8340955     
   3931369289.2762914     
   3817142356.9925146     
   3704036978.3105946     
   3592269106.6239219     
   3800142039.6205688     
   3696970859.3686595     
   3595860392.4823890     
   3497046076.5263853     
   3400843907.2641559     
   3583215073.8353262     
   3491515033.2291789     
   3403005081.3189406     
   3317974772.8231049     
   3236770354.3845854     
   3401148212.6547513     
   3320004511.9636116     
   3243193653.0789928     
   3170971410.9842496     
   3103635076.0422997     
   3259531871.8440108     
   3187590326.4785175     
   3121058993.4194226     
   3060065616.1914167     
   3004779725.2855053     
   3592269106.6239219     
   3443672103.5497179     
   3298185111.8326373     
   3156165858.5804067     
   3018092989.8123989     
   3400843907.2641559     
   3266780053.6983161     
   3136658669.6946502     
   3010930516.7679353     
   2890172092.9532218     
   3236770354.3845854     
   3117953556.6757073     
   3003963961.2861013     
   2895325277.8671703     
   2792680603.3187385     
   3103635076.0422997     
   3000668800.7374449     
   2903407533.2084260     
   2812412432.9748435     
   2728345549.3761382     
   3004779725.2855053     
   2918013877.6035142     
   2837748006.7975874     
   2764534601.8337336     
   2698999512.4520202     
   3018092989.8123989     
   2886535850.5046873     
   2757664450.2148371     
   2631775651.7862248     
   2509250399.8451996     
   2890172092.9532218     
   2770210231.2582483     
   2653840658.7010412     
   2541479854.7264085     
   2433643436.0873194     
   2792680603.3187385     
   2685999527.2177238     
   2583946235.0222535     
   2487041592.3238101     
   2395907564.0257335     
   2728345549.3761382     
   2636389305.5866537     
   2550133025.1128850     
   2470160523.5953412     
   2397142678.9009256     
   2698999512.4520202     
   2622752434.1056151     
   2553205073.6323853     
   2490947391.1106682     
   2436631240.4758263     
   2509250399.8451996     
   2371966651.8040533     
   2237778445.7360682     
   2107210497.6723518     
   1980950444.4488430     
   2433643436.0873194     
   2310648972.2613277     
   2192435506.4242287     
   2079738970.4288237     
   1973468159.5069432     
   2395907564.0257335     
   2289065142.0661144     
   2188691914.1859603     
   2095625189.2555430     
   2010836371.6106477     
   2397142678.9009256     
   2307363717.9217706     
   2225504661.3846760     
   2152363306.0339046     
   2088806147.0243428     
   2436631240.4758263     
   2363700982.9579620     
   2299748751.3348475     
   2245421106.1947479     
   2201374833.8447418     
   1980950444.4488430     
   1849378823.2802145     
   1718030969.6670432     
   1587258431.3005350     
   1457563459.3055096     
   1973468159.5069432     
   1856595683.9614561     
   1744203701.0118752     
   1637215478.3054953     
   1536763005.1942608     
   2010836371.6106477     
   1913807940.9610460     
   1825600873.6582150     
   1747419740.7022083     
   1680563601.6221032     
   2088806147.0243428     
   2013269364.6651366     
   1950097716.8057659     
   1900381361.5225260     
   1865161577.0925717     
   2201374833.8447418     
   2146015232.9971545     
   2105585818.6642175     
   2080872364.6434681     
   2072565646.8607788     
   1457563459.3055096     
   1348731953.2403641     
   1274834593.1722758     
   1243994631.6281009     
   1263234501.4153657     
   1536763005.1942608     
   1476096543.3934207     
   1448097333.4065754     
   1456727416.2244966     
   1505266835.6661334     
   1680563601.6221032     
   1652264849.3977444     
   1651670635.6015942     
   1681144255.8508053     
   1743286691.0444422     
   1865161577.0925717     
   1854805326.2017043     
   1867404437.3378062     
   1905163974.4165652     
   1971117779.4599125     
   2072565646.8607788     
   2069118533.0619252     
   2084886108.3964033     
   2122500086.0121036     
   2185787962.3134079     
   1263234501.4153657     
   1446886483.0055945     
   1715766237.8239169     
   2110487894.3326702     
   2663536480.9689689     
   1505266835.6661334     
   1613498697.5811162     
   1788935585.6228399     
   2066350869.5999014     
   2475981073.7770305     
   1743286691.0444422     
   1787923717.4647825     
   1884715777.1339386     
   2060581016.7016814     
   2340759909.5263309     
   1971117779.4599125     
   1969117701.6947863     
   2003671596.2478795     
   2093446743.7092040     
   2257092265.4250927     
   2185787962.3134079     
   2156363740.9389668     
   2146543218.3903174     
   2166827567.5287957     
   2228258392.5225010     
   3689450054.0301642     
   3566248801.0500126     
   3453636630.1227031     
   3351410753.6202493     
   3259531871.8440108     
   3468859122.2941413     
   3366860287.4330959     
   3272572696.8533368     
   3186332194.1944032     
   3108552078.0140080     
   3267104602.0537415     
   3185707890.4752569     
   3111125684.7030253     
   3043719171.8551445     
   2983981961.1208477     
   3085612986.9280462     
   3024551537.5644526     
   2971658319.2398262     
   2926655397.6954665     
   2889646312.2626147     
   2927424605.4954872     
   2886247631.4461436     
   2857161770.8273005     
   2838399549.9584389     
   2829081178.1848083     
   3259531871.8440108     
   3187590326.4785175     
   3121058993.4194226     
   3060065616.1914167     
   3004779725.2855053     
   3108552078.0140080     
   3045539469.2206836     
   2988182129.9632468     
   2936659193.5751734     
   2891181118.0592856     
   2983981961.1208477     
   2930028815.6455517     
   2882147021.9315805     
   2840538791.8051491     
   2805428624.7989492     
   2889646312.2626147     
   2844547561.0659471     
   2806094310.1445055     
   2774479385.8471851     
   2749911584.0340738     
   2829081178.1848083     
   2792179465.7925348     
   2762640880.3842936     
   2740616139.5824919     
   2726269960.2674365     
   3004779725.2855053     
   2918013877.6035142     
   2837748006.7975874     
   2764534601.8337336     
   2698999512.4520202     
   2891181118.0592856     
   2819191499.6233110     
   2754494035.1533160     
   2697602166.0843139     
   2649080355.2125044     
   2805428624.7989492     
   2747869177.2532020     
   2698293003.1382232     
   2657138531.8615994     
   2624873162.1912832     
   2749911584.0340738     
   2705868960.9869971     
   2670372027.6034765     
   2643759788.3128538     
   2626383210.0887046     
   2726269960.2674365     
   2694217753.3264518     
   2671146454.6235847     
   2657288374.6023774     
   2652878144.8408165     
   2698999512.4520202     
   2622752434.1056151     
   2553205073.6323853     
   2490947391.1106682     
   2436631240.4758263     
   2649080355.2125044     
   2587995690.5312991     
   2534453308.7007375     
   2488959426.5747910     
   2452049322.4865446     
   2624873162.1912832     
   2578054729.9434700     
   2539417306.0829549     
   2509353264.1552682     
   2488259901.3463731     
   2626383210.0887046     
   2592311036.7684464     
   2566866367.3123436     
   2550320678.0269198     
   2542937760.6335535     
   2652878144.8408165     
   2629494693.9024200     
   2615040045.1905761     
   2609677614.9448109     
   2613560470.9012566     
   2436631240.4758263     
   2363700982.9579620     
   2299748751.3348475     
   2245421106.1947479     
   2201374833.8447418     
   2452049322.4865446     
   2394541760.1290159     
   2346664659.2668138     
   2308944553.3016887     
   2281888416.1172686     
   2488259901.3463731     
   2445271226.0869803     
   2412361158.3927779     
   2389920832.4723363     
   2378308033.4756465     
   2542937760.6335535     
   2513099070.5369530     
   2493649502.5182915     
   2484854393.6115823     
   2486945467.1336880     
   2613560470.9012566     
   2595190630.1081185     
   2587468923.8334980     
   2590558087.2961617     
   2604595060.0123158     
   2201374833.8447418     
   2146015232.9971545     
   2105585818.6642175     
   2080872364.6434681     
   2072565646.8607788     
   2281888416.1172686     
   2241692496.8137655     
   2215370769.2391806     
   2203379224.3887081     
   2206107596.3654723     
   2378308033.4756465     
   2350220866.8669682     
   2334915010.6727872     
   2332639516.1027007     
   2343612495.5039172     
   2486945467.1336880     
   2468209626.7653899     
   2461245509.8621964     
   2466184866.7600417     
   2483158154.4546151     
   2604595060.0123158     
   2592828196.0308328     
   2591968721.5511575     
   2602090450.6091037     
   2623286857.9413967     
   2072565646.8607788     
   2069118533.0619252     
   2084886108.3964033     
   2122500086.0121036     
   2185787962.3134079     
   2206107596.3654723     
   2191723089.4695663     
   2192328203.0834060     
   2209893837.0608397     
   2247349424.1774936     
   2343612495.5039172     
   2319142066.8968444     
   2306220511.3849177     
   2306254825.7278504     
   2321337542.9658508     
   2483158154.4546151     
   2450404317.9653215     
   2426244886.6571336     
   2411625599.2702937     
   2407922799.8041353     
   2623286857.9413967     
   2584731556.2133188     
   2552118032.2668266     
   2526026491.5340056     
   2507261788.3546977     
   2185787962.3134079     
   2156363740.9389668     
   2146543218.3903174     
   2166827567.5287957     
   2228258392.5225010     
   2247349424.1774936     
   2182637303.3906670     
   2134360256.8871605     
   2112169472.7261360     
   2126977900.5860684     
   2321337542.9658508     
   2224655208.1308823     
   2141289156.5192151     
   2079595838.4697056     
   2049734655.4190919     
   2407922799.8041353     
   2282710925.0109925     
   2167976685.8992987     
   2070457383.0140874     
   1998918489.9084129     
   2507261788.3546977     
   2357012985.5675039     
   2214893122.5916014     
   2085884816.0564530     
   1976869851.5679297     
   2927424605.4954872     
   2886247631.4461436     
   2857161770.8273005     
   2838399549.9584389     
   2829081178.1848083     
   2717630602.0606670     
   2705850419.9649892     
   2704303277.1609716     
   2712603379.9190221     
   2730611840.4640703     
   2589459966.9545240     
   2595331032.1211271     
   2610130545.7311149     
   2633922937.5118704     
   2666771680.2463679     
   2549975559.0452914     
   2560210148.1692715     
   2578829134.5555854     
   2605303841.3427596     
   2639378497.7485209     
   2599728358.4224548     
   2600941831.7837105     
   2610783642.0364933     
   2627126458.0127711     
   2648892271.1533356     
   2829081178.1848083     
   2792179465.7925348     
   2762640880.3842936     
   2740616139.5824919     
   2726269960.2674365     
   2730611840.4640703     
   2703363662.1382298     
   2683463379.0014191     
   2671001753.5827503     
   2666080088.9624267     
   2666771680.2463679     
   2647590100.6698251     
   2635701650.3028536     
   2631143302.5024872     
   2633962804.5250840     
   2639378497.7485209     
   2626404702.4318523     
   2620648605.8008614     
   2622104216.7684817     
   2630779340.4941201     
   2648892271.1533356     
   2640100216.3190041     
   2638453820.8258100     
   2643917274.5451574     
   2656473180.2432952     
   2726269960.2674365     
   2694217753.3264518     
   2671146454.6235847     
   2657288374.6023774     
   2652878144.8408165     
   2666080088.9624267     
   2643781715.2903466     
   2630634978.6114092     
   2626775932.0749202     
   2632338203.7095509     
   2633962804.5250840     
   2618893004.4157906     
   2613080821.9641342     
   2616586773.2111015     
   2629468742.2263651     
   2630779340.4941201     
   2620046106.3271317     
   2618650545.4479671     
   2626606313.8927078     
   2643926186.2283440     
   2656473180.2432952     
   2646982426.8768682     
   2646914926.6691928     
   2656269740.0822182     
   2675046742.9091244     
   2652878144.8408165     
   2629494693.9024200     
   2615040045.1905761     
   2609677614.9448109     
   2613560470.9012566     
   2632338203.7095509     
   2616809441.2053394     
   2610138555.3170605     
   2612417364.4070840     
   2623730135.4442272     
   2629468742.2263651     
   2619872415.2294345     
   2619081319.8261228     
   2627135962.8927326     
   2644072956.3452039     
   2643926186.2283440     
   2638205302.3177938     
   2641287408.1935859     
   2653182584.2769027     
   2673899883.9777489     
   2675046742.9091244     
   2671088681.8499985     
   2676004963.6923447     
   2689795467.8142581     
   2712460084.8352790     
   2613560470.9012566     
   2595190630.1081185     
   2587468923.8334980     
   2590558087.2961617     
   2604595060.0123158     
   2623730135.4442272     
   2612913822.6217823     
   2612391625.5009112     
   2622249756.7106605     
   2642559028.7575817     
   2644072956.3452039     
   2638975334.8791308     
   2643904952.0772924     
   2658898295.5888357     
   2683984845.9465828     
   2673899883.9777489     
   2672688799.2499447     
   2681351975.9244671     
   2699898452.2819047     
   2728335562.9659300     
   2712460084.8352790     
   2713345242.8589888     
   2724081821.0072246     
   2744669756.6102443     
   2775109068.9214072     
   2604595060.0123158     
   2592828196.0308328     
   2591968721.5511575     
   2602090450.6091037     
   2623286857.9413967     
   2642559028.7575817     
   2632154164.8928685     
   2631888231.8827152     
   2641798167.8314462     
   2661933580.0807571     
   2683984845.9465828     
   2674678336.5832696     
   2674918187.9145484     
   2684718780.4979296     
   2704100835.0993266     
   2728335562.9659300     
   2720002328.5015383     
   2720780887.2089653     
   2730674190.6680398     
   2749687056.3290386     
   2775109068.9214072     
   2767749312.9819465     
   2769209250.8217559     
   2779488849.5416560     
   2798588091.3108149     
   2623286857.9413967     
   2584731556.2133188     
   2552118032.2668266     
   2526026491.5340056     
   2507261788.3546977     
   2661933580.0807571     
   2616516326.7492537     
   2576793970.0852585     
   2543096437.1663857     
   2515883809.0658560     
   2704100835.0993266     
   2653901243.2715483     
   2609293255.1007743     
   2570423695.0762434     
   2537497873.8509698     
   2749687056.3290386     
   2696792210.6864386     
   2649528491.6228704     
   2607932280.0259132     
   2572054443.5377488     
   2798588091.3108149     
   2745086521.6288772     
   2697397701.5009251     
   2655521630.9191737     
   2619458310.0952296     
   2507261788.3546977     
   2357012985.5675039     
   2214893122.5916014     
   2085884816.0564530     
   1976869851.5679297     
   2515883809.0658560     
   2348073202.8990288     
   2183794018.1654925     
   2026146709.1891208     
   1879698115.1365998     
   2537497873.8509698     
   2357220665.6822038     
   2176672853.1739092     
   1997325484.4460690     
   1821456183.0250740     
   2572054443.5377488     
   2384559751.8135757     
   2193996240.7144079     
   2000741539.6427326     
   1805398660.1552212     
   2619458310.0952296     
   2430060156.8655558     
   2235906775.9033108     
   2036998167.7785947     
   1833334333.3663993     
   2599728358.4224548     
   2600941831.7837105     
   2610783642.0364933     
   2627126458.0127711     
   2648892271.1533356     
   2647451643.5975494     
   2630379942.1583309     
   2620847795.5910773     
   2618214252.9714265     
   2622171203.8904238     
   2719339981.3949947     
   2686570076.3705664     
   2662111972.0949149     
   2645974634.5612454     
   2638195435.7326183     
   2817035002.8249488     
   2770744976.9306693     
   2735135879.2246122     
   2710161882.5852389     
   2695853322.0801139     
   2942483736.2508802     
   2883842651.1665573     
   2839628430.3627968     
   2809175513.0409718     
   2792236797.9102297     
   2648892271.1533356     
   2640100216.3190041     
   2638453820.8258100     
   2643917274.5451574     
   2656473180.2432952     
   2622171203.8904238     
   2614280546.9225593     
   2613432440.9204574     
   2619624581.6827912     
   2632857606.8232656     
   2638195435.7326183     
   2627559871.4581919     
   2623731605.7392192     
   2626753922.4710402     
   2636670315.4398508     
   2695853322.0801139     
   2679146805.1349063     
   2668866751.0921307     
   2665106375.5146208     
   2667970125.0609460     
   2792236797.9102297     
   2766697392.0050588     
   2747048167.8778887     
   2733424199.8707833     
   2725996243.5124869     
   2656473180.2432952     
   2646982426.8768682     
   2646914926.6691928     
   2656269740.0822182     
   2675046742.9091244     
   2632857606.8232656     
   2621448888.7595282     
   2619368183.7567229     
   2626631706.8144240     
   2643255449.3772073     
   2636670315.4398508     
   2620732026.6249976     
   2614070909.6421618     
   2616747319.9941530     
   2628819390.6655321     
   2667970125.0609460     
   2645062931.4002204     
   2631398365.3104272     
   2627105390.4341612     
   2632309482.8836784     
   2725996243.5124869     
   2693981835.4539809     
   2671157932.7186146     
   2657741080.4534955     
   2653945940.4035549     
   2675046742.9091244     
   2671088681.8499985     
   2676004963.6923447     
   2689795467.8142581     
   2712460084.8352790     
   2643255449.3772073     
   2637701709.5482359     
   2640907830.3319306     
   2652884521.8304286     
   2673641384.1409378     
   2628819390.6655321     
   2619395664.7819295     
   2618675418.5545874     
   2626702210.7221766     
   2643515866.9472566     
   2632309482.8836784     
   2616826440.6752348     
   2610023468.8462067     
   2611998857.0997496     
   2622844249.3396029     
   2653945940.4035549     
   2630386859.6911731     
   2615483324.2472944     
   2609408466.9469628     
   2612327398.4765282     
   2712460084.8352790     
   2713345242.8589888     
   2724081821.0072246     
   2744669756.6102443     
   2775109068.9214072     
   2673641384.1409378     
   2672729445.2926679     
   2681662028.6314068     
   2700446261.7230420     
   2729087526.1779761     
   2643515866.9472566     
   2638995991.8588047     
   2644443715.4610128     
   2659891557.3498516     
   2685364937.6926808     
   2622844249.3396029     
   2612870424.9255247     
   2613100486.8663502     
   2623614125.3294744     
   2644475495.7042432     
   2612327398.4765282     
   2595058183.0316195     
   2588315089.7064495     
   2592250921.4618855     
   2606992506.2162528     
   2775109068.9214072     
   2767749312.9819465     
   2769209250.8217559     
   2779488849.5416560     
   2798588091.3108149     
   2729087526.1779761     
   2720487467.6652660     
   2721043331.7922425     
   2730758727.5678229     
   2749638565.1526999     
   2685364937.6926808     
   2675553169.9690590     
   2675378428.7628317     
   2684856191.9955568     
   2704007486.7816482     
   2644475495.7042432     
   2633344025.0927548     
   2632492580.7655883     
   2641959837.3763080     
   2661796376.8324833     
   2606992506.2162528     
   2594281906.6269126     
   2592675843.3946085     
   2602251215.6407247     
   2623103979.5086060     
   2798588091.3108149     
   2745086521.6288772     
   2697397701.5009251     
   2655521630.9191737     
   2619458310.0952296     
   2749638565.1526999     
   2696780409.3063521     
   2649541981.0745201     
   2607959962.9591460     
   2572085751.0454893     
   2704007486.7816482     
   2653881895.0499439     
   2609324926.7314429     
   2570483996.9165926     
   2537565459.1776862     
   2661796376.8324833     
   2616492402.1084332     
   2576848327.2779083     
   2543194886.4709735     
   2515993646.9897676     
   2623103979.5086060     
   2584704634.8017845     
   2552199351.8761954     
   2526169233.3595982     
   2507420944.8139596     
   2619458310.0952296     
   2430060156.8655558     
   2235906775.9033108     
   2036998167.7785947     
   1833334333.3663993     
   2572085751.0454893     
   2384580210.6677389     
   2194016849.4100595     
   2000774626.0674605     
   1805458474.3325965     
   2537565459.1776862     
   2357262091.8336525     
   2176709411.0578346     
   1997380105.0008903     
   1821553575.5354450     
   2515993646.9897676     
   2348136700.7073994     
   2183841843.3008113     
   2026210366.0806229     
   1879808651.5485811     
   2507420944.8139596     
   2357100165.5731635     
   2214947446.2125602     
   2085944539.5790689     
   1976969214.7652440     
   2942483736.2508802     
   2883842651.1665573     
   2839628430.3627968     
   2809175513.0409718     
   2792236797.9102297     
   3030795271.3553562     
   2972124481.1878319     
   2925028293.7231536     
   2889631688.9190011     
   2866200038.8358059     
   3182673869.4972930     
   3117066198.2332301     
   3060123697.3392277     
   3012347957.4717383     
   2974298661.7400737     
   3385436921.6719370     
   3308464014.1549220     
   3237229740.2317004     
   3172182400.1394334     
   3113907237.1154413     
   3627046471.5911736     
   3536356838.2780409     
   3448543977.9542890     
   3363620809.4052286     
   3281926115.0843658     
   2792236797.9102297     
   2766697392.0050588     
   2747048167.8778887     
   2733424199.8707833     
   2725996243.5124869     
   2866200038.8358059     
   2828303872.4286432     
   2796115641.1814346     
   2769834717.9462371     
   2749689165.6581740     
   2974298661.7400737     
   2923757089.9910154     
   2878749252.6849113     
   2839516534.9324479     
   2806329218.3597679     
   3113907237.1154413     
   3050678215.2635465     
   2992825642.2476487     
   2940610440.1091447     
   2894328061.9247360     
   3281926115.0843658     
   3206117289.2029781     
   3135557753.9443765     
   3070508224.5032730     
   3011273248.4122143     
   2725996243.5124869     
   2693981835.4539809     
   2671157932.7186146     
   2657741080.4534955     
   2653945940.4035549     
   2749689165.6581740     
   2705806522.5515990     
   2670675212.7234626     
   2644627763.0538282     
   2628005069.2266035     
   2806329218.3597679     
   2748689742.1897583     
   2699187679.8366580     
   2658265737.6290183     
   2626394990.7396402     
   2894328061.9247360     
   2821733181.4631758     
   2756482610.3134751     
   2699102049.7517691     
   2650172770.8113713     
   3011273248.4122143     
   2923182056.2276931     
   2841494620.2367716     
   2766777002.6112657     
   2699679259.9101467     
   2653945940.4035549     
   2630386859.6911731     
   2615483324.2472944     
   2609408466.9469628     
   2612327398.4765282     
   2628005069.2266035     
   2593045982.9266696     
   2566597893.2245898     
   2548929246.0268059     
   2540302850.9871993     
   2626394990.7396402     
   2578443762.1018186     
   2538751760.9366617     
   2507693013.9346843     
   2485645891.4439659     
   2650172770.8113713     
   2588045187.6288676     
   2533776740.8698478     
   2487841920.8910575     
   2450738510.3051066     
   2699679259.9101467     
   2622668815.4936428     
   2552956088.3990898     
   2491092735.2797079     
   2437679720.4846201     
   2612327398.4765282     
   2595058183.0316195     
   2588315089.7064495     
   2592250921.4618855     
   2606992506.2162528     
   2540302850.9871993     
   2511742312.3679380     
   2493485961.2597432     
   2485799190.5294604     
   2488913624.9796672     
   2485645891.4439659     
   2443751700.8209171     
   2411850132.9008908     
   2390349625.6445913     
   2379626230.5811291     
   2450738510.3051066     
   2393819262.5300860     
   2346396353.9645844     
   2309036710.1753116     
   2282292109.0528870     
   2437679720.4846201     
   2364569148.7759404     
   2300199874.8196435     
   2245283856.0470738     
   2200554349.1248746     
   2606992506.2162528     
   2594281906.6269126     
   2592675843.3946085     
   2602251215.6407247     
   2623103979.5086060     
   2488913624.9796672     
   2469432643.1504345     
   2461850975.0841599     
   2466302760.3970609     
   2482921612.5448570     
   2379626230.5811291     
   2351059446.8278303     
   2335337849.2099729     
   2332709857.6719542     
   2343395319.9835000     
   2282292109.0528870     
   2241962084.8815451     
   2215512952.6789069     
   2203393334.3990383     
   2205989653.8656883     
   2200554349.1248746     
   2145496813.1682863     
   2105328551.1061220     
   2080815986.3625970     
   2072635688.6378779     
   2623103979.5086060     
   2584704634.8017845     
   2552199351.8761954     
   2526169233.3595982     
   2507420944.8139596     
   2482921612.5448570     
   2450295416.7864146     
   2426237747.8460574     
   2411694392.9818807     
   2408041067.1016450     
   2343395319.9835000     
   2318997469.2850580     
   2306144051.0953274     
   2306241577.0979657     
   2321378616.2791314     
   2205989653.8656883     
   2191592924.6918154     
   2192202703.9380250     
   2209789623.2461238     
   2247275240.4754686     
   2072635688.6378779     
   2069057738.9768796     
   2084733150.8000567     
   2122295145.4936459     
   2185559399.5823932     
   2507420944.8139596     
   2357100165.5731635     
   2214947446.2125602     
   2085944539.5790689     
   1976969214.7652440     
   2408041067.1016450     
   2282779879.9550242     
   2168021747.3504720     
   2070506073.1317716     
   1998999599.3067093     
   2321378616.2791314     
   2224683582.2831073     
   2141316326.9084933     
   2079639373.4996219     
   2049819867.7818491     
   2247275240.4754686     
   2182601609.4451275     
   2134360370.7701161     
   2112213371.6742377     
   2127088117.7520533     
   2185559399.5823932     
   2156239774.4140472     
   2146506815.0710344     
   2166877146.7898989     
   2228413429.0081792     
   3627046471.5911736     
   3536356838.2780409     
   3448543977.9542890     
   3363620809.4052286     
   3281926115.0843658     
   3867853832.6430697     
   3753570456.6885500     
   3642284015.2280402     
   3534242716.1898375     
   3429857099.2541628     
   4129929595.2164807     
   3994584665.5283833     
   3862869295.4934392     
   3735095916.3062019     
   3611676471.1839242     
   4412408454.0123577     
   4257555966.8900018     
   4107366909.1062541     
   3962087287.8446527     
   3822082497.4371176     
   4714641830.9528065     
   4540892751.5074005     
   4373146122.7057648     
   4211482520.4915376     
   4056189512.3541789     
   3281926115.0843658     
   3206117289.2029781     
   3135557753.9443765     
   3070508224.5032730     
   3011273248.4122143     
   3429857099.2541628     
   3343239647.7176065     
   3260908888.6532354     
   3183138218.7531967     
   3110252085.4906206     
   3611676471.1839242     
   3514173043.3136187     
   3419995834.5545769     
   3329402686.5305982     
   3242706124.0493598     
   3822082497.4371176     
   3713975711.3391929     
   3608279714.9486613     
   3505216191.1928668     
   3405061148.6327419     
   4056189512.3541789     
   3937996425.3811355     
   3821373317.2637377     
   3706493968.9851961     
   3593583050.4560099     
   3011273248.4122143     
   2923182056.2276931     
   2841494620.2367716     
   2766777002.6112657     
   2699679259.9101467     
   3110252085.4906206     
   3006072201.9135823     
   2907488802.0672684     
   2815066391.9339042     
   2729475731.6850429     
   3242706124.0493598     
   3122981860.5965981     
   3008004788.7751412     
   2898297213.2905288     
   2794501259.8176723     
   3405061148.6327419     
   3270544119.8014097     
   3139951393.8187981     
   3013734667.1556616     
   2892468550.8364024     
   3593583050.4560099     
   3445089912.7314076     
   3299773329.0329785     
   3158000975.9405780     
   3020257827.1508026     
   2699679259.9101467     
   2622668815.4936428     
   2552956088.3990898     
   2491092735.2797079     
   2437679720.4846201     
   2729475731.6850429     
   2637689116.3149443     
   2551962762.7488503     
   2472881525.3581915     
   2401111538.4761949     
   2794501259.8176723     
   2688365788.0976710     
   2586931574.7764874     
   2490743263.9730515     
   2400448167.7067981     
   2892468550.8364024     
   2773122226.5415187     
   2657118766.1035151     
   2544901553.7099295     
   2437018958.7465382     
   3020257827.1508026     
   2889324446.0042276     
   2760494095.1842556     
   2634078049.7374496     
   2510476985.5060072     
   2437679720.4846201     
   2364569148.7759404     
   2300199874.8196435     
   2245283856.0470738     
   2200554349.1248746     
   2401111538.4761949     
   2310151182.4080153     
   2226952054.4306703     
   2152330960.1969070     
   2087182603.2280276     
   2400448167.7067981     
   2291983170.7496376     
   2189988158.3651996     
   2095284731.3507352     
   2008830003.2363195     
   2437018958.7465382     
   2312339260.9401064     
   2192674853.5850062     
   2078734006.2272599     
   1971390728.5528719     
   2510476985.5060072     
   2371635901.3764315     
   2236403077.9536805     
   2105288468.4948363     
   1978955117.2074087     
   2200554349.1248746     
   2145496813.1682863     
   2105328551.1061220     
   2080815986.3625970     
   2072635688.6378779     
   2087182603.2280276     
   2012186403.4335742     
   1949514782.4931090     
   1900244272.3590252     
   1865401486.3145783     
   2008830003.2363195     
   1912473417.2201362     
   1824877196.2403562     
   1747238289.0547507     
   1680845235.9598932     
   1971390728.5528719     
   1855251041.0212290     
   1743487757.2919853     
   1637020553.4880145     
   1536978200.0368900     
   1978955117.2074087     
   1848148864.7278037     
   1717403268.1088929     
   1587068051.1756659     
   1457651276.9244919     
   2072635688.6378779     
   2069057738.9768796     
   2084733150.8000567     
   2122295145.4936459     
   2185559399.5823932     
   1865401486.3145783     
   1854853262.7681618     
   1867290309.4726446     
   1904922582.0311430     
   1970782718.8323443     
   1680845235.9598932     
   1652331420.5627713     
   1651548949.4353654     
   1680867927.4113359     
   1742896806.9083009     
   1536978200.0368900     
   1476101654.4975965     
   1447924458.2334929     
   1456415910.5517957     
   1504870137.0937812     
   1457651276.9244919     
   1348623143.3492479     
   1274577371.4401672     
   1243646166.5387504     
   1262872189.1633177     
   2185559399.5823932     
   2156239774.4140472     
   2146506815.0710344     
   2166877146.7898989     
   2228413429.0081792     
   1970782718.8323443     
   1968931209.9055109     
   2003617873.6891782     
   2093514125.1698141     
   2257276350.6432838     
   1742896806.9083009     
   1787701509.6709828     
   1884647672.6351564     
   2060645649.1308296     
   2340927080.5449657     
   1504870137.0937812     
   1613266540.0618832     
   1788856016.6954966     
   2066393173.0955119     
   2476090635.2310929     
   1262872189.1633177     
   1446668549.5139863     
   1715678418.1533175     
   2110489185.5998423     
   2663550643.6406069     
   4714641830.9528065     
   4540892751.5074005     
   4373146122.7057648     
   4211482520.4915376     
   4056189512.3541789     
   5007651658.4778986     
   4828222172.0405188     
   4651124450.0627375     
   4476571408.8035469     
   4304859594.1092443     
   5323289114.2670259     
   5138765892.1836538     
   4953426183.8758717     
   4767299820.8361940     
   4580493178.7889309     
   5653008773.5189447     
   5465279982.1343002     
   5274097004.0500965     
   5079085428.3495789     
   4880048283.0778446     
   5990303566.0723152     
   5802117607.9317818     
   5608361273.6331882     
   5408117676.4003229     
   5200851963.9528732     
   4056189512.3541789     
   3937996425.3811355     
   3821373317.2637377     
   3706493968.9851961     
   3593583050.4560099     
   4304859594.1092443     
   4174224903.7964778     
   4045078941.9795351     
   3917542735.0052872     
   3791783754.4415617     
   4580493178.7889309     
   4437707218.7086039     
   4296381219.9766026     
   4156580237.2735801     
   4018415454.8091235     
   4880048283.0778446     
   4725077028.6866875     
   4571572139.8946114     
   4419542496.4704180     
   4269046748.4690022     
   5200851963.9528732     
   5033380571.8490753     
   4867401593.6976738     
   4702869314.1055183     
   4539794997.6826239     
   3593583050.4560099     
   3445089912.7314076     
   3299773329.0329785     
   3158000975.9405780     
   3020257827.1508026     
   3791783754.4415617     
   3629717850.4191189     
   3469721535.9115300     
   3312054122.3704672     
   3157078546.4061384     
   4018415454.8091235     
   3843638514.0552139     
   3669943400.9400892     
   3497478062.1942105     
   3326473982.0873876     
   4269046748.4690022     
   4082466046.1664996     
   3896123953.2111630     
   3710067505.9247713     
   3524406044.5161238     
   4539794997.6826239     
   4342299389.6414490     
   4144348871.2839360     
   3945907358.4515977     
   3746982470.1948996     
   3020257827.1508026     
   2889324446.0042276     
   2760494095.1842556     
   2634078049.7374496     
   2510476985.5060072     
   3157078546.4061384     
   3014857946.7166619     
   2874336523.2497964     
   2735734878.1955042     
   2599352995.6500516     
   3326473982.0873876     
   3173546641.0399804     
   3021958492.9809947     
   2871839815.5655928     
   2723390136.6818838     
   3524406044.5161238     
   3361008427.2803144     
   3198632230.0841937     
   3037324798.5753722     
   2877194957.4239750     
   3746982470.1948996     
   3573018567.3919039     
   3399790231.5433006     
   3227272109.5693154     
   3055496060.8345881     
   2510476985.5060072     
   2371635901.3764315     
   2236403077.9536805     
   2105288468.4948363     
   1978955117.2074087     
   2599352995.6500516     
   2450492801.0907831     
   2303743263.2914886     
   2159419947.8721795     
   2017949214.2489328     
   2723390136.6818838     
   2566716218.5812836     
   2410983549.0903172     
   2256334564.9333005     
   2102970629.4356527     
   2877194957.4239750     
   2715001195.7454624     
   2552955515.7680020     
   2391088701.3258805     
   2229452411.5867286     
   3055496060.8345881     
   2889950503.9276156     
   2724106487.6310124     
   2557951238.7589869     
   2391476921.2376275     
   1978955117.2074087     
   1848148864.7278037     
   1717403268.1088929     
   1587068051.1756659     
   1457651276.9244919     
   2017949214.2489328     
   1881072687.4460094     
   1744513203.5437791     
   1608399344.9497526     
   1472908076.4555223     
   2102970629.4356527     
   1962677030.9504135     
   1823309642.2864704     
   1684899359.4215620     
   1547504306.1654925     
   2229452411.5867286     
   2086682675.8272264     
   1945513734.2209404     
   1805948044.4137690     
   1668060231.6565368     
   2391476921.2376275     
   2245548882.9762783     
   2101743333.0451467     
   1960065013.8425300     
   1820676776.1900723     
   1457651276.9244919     
   1348623143.3492479     
   1274577371.4401672     
   1243646166.5387504     
   1262872189.1633177     
   1472908076.4555223     
   1328637954.5805187     
   1198835974.2867398     
   1087988067.4864480     
   1002006000.6051948     
   1547504306.1654925     
   1397588981.1601770     
   1244124199.6775310     
   1084841034.6849961     
   917711180.64959872     
   1668060231.6565368     
   1552600826.6571567     
   1428051678.5658889     
   1294768308.4379499     
   1158862171.1392906     
   1820676776.1900723     
   1779959864.4782841     
   1735767307.7845676     
   1696714952.7365716     
   1681264852.1242094     
   1262872189.1633177     
   1446668549.5139863     
   1715678418.1533175     
   2110489185.5998423     
   2663550643.6406069     
   1002006000.6051948     
   1164700660.2563024     
   1425424938.5816095     
   1808761049.3688841     
   2334792260.0298042     
   917711180.64959872     
   963127612.31115758     
   1144940479.6919110     
   1476494850.5766702     
   1957467673.3293700     
   1158862171.1392906     
   1008438505.3797549     
   985234977.62920964     
   1161491543.4102764     
   1544091463.6127234     
   1681264852.1242094     
   1383753429.7869945     
   1129475084.7298307     
   1010128065.8800654     
   1152954402.8046069     
 </DataArray>
 <DataArray  type="Float64" Name="strain" NumberOfComponents="3" format="ascii">
  0.10029139364592710       -3.8135145557958716E-002  -4.6474069389579320E-003
   9.6763652521432375E-002  -3.4615893878279569E-002  -3.7304610492631118E-003
   9.3235911396937543E-002  -3.1714768773772162E-002  -2.6882477464248433E-003
   8.9708170272442767E-002  -2.9431770244436509E-002  -1.5207670304432930E-003
   8.6180429147947990E-002  -2.7766898290272346E-002  -2.2801890131851632E-004
   9.4583609866571328E-002  -3.2646227361809221E-002   6.1124936944435548E-003
   9.1195575226574843E-002  -3.0183840237457904E-002   6.2918420653227947E-003
   8.7807540586578414E-002  -2.8124716316465181E-002   6.6253359920553923E-003
   8.4419505946581958E-002  -2.6468855598831359E-002   7.1129754746415419E-003
   8.1031471306585501E-002  -2.5216258084555854E-002   7.7547605130804942E-003
   8.8634484386310219E-002  -2.7157309165659504E-002   1.5708098086610944E-002
   8.5415034373522047E-002  -2.5751786596636184E-002   1.5364712310487805E-002
   8.2195584360733737E-002  -2.4534663859158340E-002   1.5204350232927821E-002
   7.8976134347945467E-002  -2.3505940953226036E-002   1.5227011853931063E-002
   7.5756684335157198E-002  -2.2665617878839361E-002   1.5432697173497184E-002
   8.2444017205144063E-002  -2.1668390969509899E-002   2.4139406237543667E-002
   7.9422029962273863E-002  -2.1319732955814366E-002   2.3488149686231030E-002
   7.6400042719403594E-002  -2.0944611401851318E-002   2.3048794976191826E-002
   7.3378055476533338E-002  -2.0543026307620799E-002   2.2821342107425351E-002
   7.0356068233663138E-002  -2.0114977673122869E-002   2.2805791079931699E-002
   7.6012208323072650E-002  -1.6179472773360348E-002   3.1406418147242043E-002
   7.3216561992830276E-002  -1.6887679314992576E-002   3.0662154192553359E-002
   7.0420915662587902E-002  -1.7354558944544365E-002   3.0158670221847456E-002
   6.7625269332345528E-002  -1.7580111662015719E-002   2.9895966235124402E-002
   6.4829623002103182E-002  -1.7564337467406377E-002   2.9874042232383935E-002
   8.6180429147947990E-002  -2.7766898290272346E-002  -2.2801890131851632E-004
   8.3583598151844352E-002  -2.6463388578694291E-002  -2.2921434780825978E-004
   8.0986767155740769E-002  -2.5264476777116712E-002  -1.2422221457647487E-004
   7.8389936159637186E-002  -2.4170162885539657E-002   8.6957498376866171E-005
   7.5793105163533547E-002  -2.3180446903963148E-002   4.0432479105179109E-004
   8.1031471306585501E-002  -2.5216258084555854E-002   7.7547605130804942E-003
   7.8551278339152431E-002  -2.4188362620361836E-002   7.5628169820714519E-003
   7.6071085371719388E-002  -2.3206608052971867E-002   7.4979619286817123E-003
   7.3590892404286304E-002  -2.2270994382385875E-002   7.5601953529115529E-003
   7.1110699436853275E-002  -2.1381521608604293E-002   7.7495172547606406E-003
   7.5756684335157198E-002  -2.2665617878839361E-002   1.5432697173497184E-002
   7.3414030294292471E-002  -2.1913336662029242E-002   1.5108462571165299E-002
   7.1071376253427798E-002  -2.1148739328826924E-002   1.4932217344350532E-002
   6.8728722212563043E-002  -2.0371825879232319E-002   1.4903961493053251E-002
   6.6386068171698370E-002  -1.9582596313245437E-002   1.5023695017273103E-002
   7.0356068233663138E-002  -2.0114977673122869E-002   2.2805791079931699E-002
   6.8171854017264583E-002  -1.9638310703696829E-002   2.2407722419473447E-002
   6.5987639800865958E-002  -1.9090870604682085E-002   2.2178544032430015E-002
   6.3803425584467430E-002  -1.8472657376078651E-002   2.2118255918801920E-002
   6.1619211368068832E-002  -1.7783671017886638E-002   2.2226858078588714E-002
   6.4829623002103182E-002  -1.7564337467406377E-002   2.9874042232383935E-002
   6.2824749508068600E-002  -1.7363284745364443E-002   2.9460596526995730E-002
   6.0819876014033977E-002  -1.7033001880537177E-002   2.9236941992920096E-002
   5.8815002519999389E-002  -1.6573488872925046E-002   2.9203078630157503E-002
   5.6810129025964773E-002  -1.5984745722527616E-002   2.9359006438707813E-002
   7.5793105163533547E-002  -2.3180446903963148E-002   4.0432479105179109E-004
   7.2425243310728971E-002  -2.2240012882395577E-002   1.1378223445368540E-004
   6.9057381457924338E-002  -2.1293544870844755E-002   3.4080449624440678E-005
   6.5689519605119762E-002  -2.0341042869311841E-002   1.6521943656391813E-004
   6.2321657752315129E-002  -1.9382506877794969E-002   5.0719919527209001E-004
   7.1110699436853275E-002  -2.1381521608604293E-002   7.7495172547606406E-003
   6.7952562562592966E-002  -2.0512611941330416E-002   7.4211577033491127E-003
   6.4794425688332741E-002  -1.9638687590268600E-002   7.3014073372574539E-003
   6.1636288814072446E-002  -1.8759748555418412E-002   7.3902661564861083E-003
   5.8478151939812206E-002  -1.7875794836780035E-002   7.6877341610347427E-003
   6.6386068171698370E-002  -1.9582596313245437E-002   1.5023695017273103E-002
   6.3435424689533670E-002  -1.8785211000265728E-002   1.4656499164853370E-002
   6.0484781207369054E-002  -1.7983830309692125E-002   1.4495680911305112E-002
   5.7534137725204423E-002  -1.7178454241525431E-002   1.4541240256628139E-002
   5.4583494243039710E-002  -1.6369082795764711E-002   1.4793177200822488E-002
   6.1619211368068832E-002  -1.7783671017886638E-002   2.2226858078588714E-002
   5.8873829691551083E-002  -1.7057810059200582E-002   2.1819806618966375E-002
   5.6128448015033278E-002  -1.6328973029115811E-002   2.1616901171766668E-002
   5.3383066338515500E-002  -1.5597159927632337E-002   2.1618141736989289E-002
   5.0637684661997771E-002  -1.4862370754749804E-002   2.1823528314634667E-002
   5.6810129025964773E-002  -1.5984745722527616E-002   2.9359006438707813E-002
   5.4267777568645093E-002  -1.5330409118135629E-002   2.8911080065688211E-002
   5.1725426111325495E-002  -1.4674115748539732E-002   2.8665068118642084E-002
   4.9183074654005829E-002  -1.4015865613739079E-002   2.8620970597569961E-002
   4.6640723196686218E-002  -1.3355658713734619E-002   2.8778787502471481E-002
   6.2321657752315129E-002  -1.9382506877794969E-002   5.0719919527209001E-004
   5.9464475355373692E-002  -1.8423444344455864E-002   2.8128037946872908E-004
   5.6607292958432254E-002  -1.7469362717454445E-002   2.2568298127251252E-004
   5.3750110561490844E-002  -1.6520261996789846E-002   3.4040700068449503E-004
   5.0892928164549378E-002  -1.5576142182462283E-002   6.2545243770406600E-004
   5.8478151939812206E-002  -1.7875794836780035E-002   7.6877341610347427E-003
   5.5786734492947077E-002  -1.6992157834743116E-002   7.4007924817657278E-003
   5.3095317046082002E-002  -1.6114168949697999E-002   7.2750592850420737E-003
   5.0403899599216873E-002  -1.5241828181644552E-002   7.3105345708633362E-003
   4.7712482152351798E-002  -1.4375135530582450E-002   7.5072183392295155E-003
   5.4583494243039710E-002  -1.6369082795764711E-002   1.4793177200822488E-002
   5.2048728811188272E-002  -1.5560871325030423E-002   1.4444545447433982E-002
   4.9513963379336820E-002  -1.4758975181941900E-002   1.4248009241527762E-002
   4.6979197947485403E-002  -1.3963394366499373E-002   1.4203568583104224E-002
   4.4444432515633958E-002  -1.3174128878702507E-002   1.4311223472163126E-002
   5.0637684661997771E-002  -1.4862370754749804E-002   2.1823528314634667E-002
   4.8250458310097263E-002  -1.4129584815317703E-002   2.1412539276472208E-002
   4.5863231958196859E-002  -1.3403781414186071E-002   2.1144532850729866E-002
   4.3476005606296407E-002  -1.2684960551354358E-002   2.1019509037406896E-002
   4.1088779254395934E-002  -1.1973122226822730E-002   2.1037467836503898E-002
   4.6640723196686218E-002  -1.3355658713734619E-002   2.8778787502471481E-002
   4.4391922989674065E-002  -1.2698298305604760E-002   2.8304773968881314E-002
   4.2143122782661913E-002  -1.2048587646429645E-002   2.7964630112647909E-002
   3.9894322575649843E-002  -1.1406526736209194E-002   2.7758355933771559E-002
   3.7645522368637663E-002  -1.0772115574942953E-002   2.7685951432252165E-002
   5.0892928164549378E-002  -1.5576142182462283E-002   6.2545243770406600E-004
   4.8129372247396884E-002  -1.4642494555686780E-002   3.8223147670379820E-004
   4.5365816330244335E-002  -1.3724810397677367E-002   1.9483525856922590E-004
   4.2602260413091814E-002  -1.2823089708433738E-002   6.3263783301681364E-005
   3.9838704495939292E-002  -1.1937332487956809E-002  -1.2482949099501539E-005
   4.7712482152351798E-002  -1.4375135530582450E-002   7.5072183392295155E-003
   4.5013846152619552E-002  -1.3514437595842477E-002   7.1743365360534828E-003
   4.2315210152887223E-002  -1.2660080976754723E-002   6.9154698248507507E-003
   3.9616574153154907E-002  -1.1812065673320153E-002   6.7306182056222630E-003
   3.6917938153422702E-002  -1.0970391685537484E-002   6.6197816783677421E-003
   4.4444432515633958E-002  -1.3174128878702507E-002   1.4311223472163126E-002
   4.1828906782429315E-002  -1.2386380635998229E-002   1.3898302979924393E-002
   3.9213381049224741E-002  -1.1595351555832523E-002   1.3577587928766899E-002
   3.6597855316020091E-002  -1.0801041638206346E-002   1.3349078318690866E-002
   3.3982329582815524E-002  -1.0003450883118381E-002   1.3212774149696349E-002
   4.1088779254395934E-002  -1.1973122226822730E-002   2.1037467836503898E-002
   3.8574554136826429E-002  -1.1258323676154175E-002   2.0554130808316411E-002
   3.6060329019256890E-002  -1.0530622134910544E-002   2.0181189570317982E-002
   3.3546103901687371E-002  -9.7900176030922062E-003   1.9918644122508683E-002
   3.1031878784117888E-002  -9.0365100806991672E-003   1.9766494464887138E-002
   3.7645522368637663E-002  -1.0772115574942953E-002   2.7685951432252165E-002
   3.5250788215810680E-002  -1.0130266716309955E-002   2.7141820021229779E-002
   3.2856054062983725E-002  -9.4658927139879834E-003   2.6726274749503787E-002
   3.0461319910156728E-002  -8.7789935679784201E-003   2.6439315617073966E-002
   2.8066585757329787E-002  -8.0695692782799533E-003   2.6280942623940540E-002
   3.9838704495939292E-002  -1.1937332487956809E-002  -1.2482949099501539E-005
   3.7438612456636822E-002  -1.1134021764049651E-002  -2.7748593239174113E-004
   3.5038520417334296E-002  -1.0479640564516390E-002  -4.6532853206282532E-004
   3.2638428378031742E-002  -9.9741888893566805E-003  -5.7601074811153286E-004
   3.0238336338729299E-002  -9.6176667385703407E-003  -6.0953258053841886E-004
   3.6917938153422702E-002  -1.0970391685537484E-002   6.6197816783677421E-003
   3.4578943928951611E-002  -1.0181724575391460E-002   6.1995729161972157E-003
   3.2239949704480575E-002  -9.4927299048637170E-003   5.8243994000672927E-003
   2.9900955480009511E-002  -8.9034076739566426E-003   5.4942611299790556E-003
   2.7561961255538447E-002  -8.4137578826675163E-003   5.2091581059307002E-003
   3.3982329582815524E-002  -1.0003450883118381E-002   1.3212774149696349E-002
   3.1672308035594732E-002  -9.2294273867329357E-003   1.2686616693402930E-002
   2.9362286488373870E-002  -8.5058192452117376E-003   1.2173369345568757E-002
   2.7052264941153058E-002  -7.8326264585559455E-003   1.1673032106194331E-002
   2.4742243393932217E-002  -7.2098490267648030E-003   1.1185604975279373E-002
   3.1031878784117888E-002  -9.0365100806991672E-003   1.9766494464887138E-002
   2.8718704776566045E-002  -8.2771301980739120E-003   1.9183645399224986E-002
   2.6405530769014255E-002  -7.5189085855596333E-003   1.8581581304440938E-002
   2.4092356761462465E-002  -6.7618452431553559E-003   1.7960302180535240E-002
   2.1779182753910678E-002  -6.0059401708618121E-003   1.7319808027507752E-002
   2.8066585757329787E-002  -8.0695692782799533E-003   2.6280942623940540E-002
   2.5718134151865635E-002  -7.3248330094157765E-003   2.5690659033663521E-002
   2.3369682546401649E-002  -6.5319979259073901E-003   2.5049035276684062E-002
   2.1021230940937607E-002  -5.6910640277550648E-003   2.4356071353001219E-002
   1.8672779335473511E-002  -4.8020313149587102E-003   2.3611767262616046E-002
   3.0238336338729299E-002  -9.6176667385703407E-003  -6.0953258053841886E-004
   2.9622297675175657E-002  -9.1352202641061808E-003  -3.7031462832692874E-004
   2.9006259011622015E-002  -8.2519956179117337E-003  -1.8070310753399710E-003
   2.8390220348068373E-002  -6.9679927999869579E-003  -4.9196819215783782E-003
   2.7774181684514732E-002  -5.2832118103318670E-003  -9.7082671670418730E-003
   2.7561961255538447E-002  -8.4137578826675163E-003   5.2091581059307002E-003
   2.5538634207752264E-002  -7.8707332398940677E-003   5.8772794518789917E-003
   2.3515307159965915E-002  -7.1212864545306398E-003   5.4067584285872883E-003
   2.1491980112179648E-002  -6.1654175265784400E-003   3.7975950360547572E-003
   1.9468653064393382E-002  -5.0031264560359556E-003   1.0497892742826753E-003
   2.4742243393932217E-002  -7.2098490267648030E-003   1.1185604975279373E-002
   2.1848919991898086E-002  -6.6062462156817325E-003   1.2088273685823769E-002
   1.8955596589863843E-002  -5.9905772911499622E-003   1.2389592057112903E-002
   1.6062273187829629E-002  -5.3628422531694711E-003   1.2089560089145190E-002
   1.3168949785795470E-002  -4.7230411017411544E-003   1.1188177781923159E-002
   2.1779182753910678E-002  -6.0059401708618121E-003   1.7319808027507752E-002
   1.8553155027613163E-002  -5.3417591914692863E-003   1.8262668073507002E-002
   1.5327127301315732E-002  -4.8598681277692984E-003   1.9141469810235533E-002
   1.2101099575018232E-002  -4.5602669797616159E-003   1.9956213237693494E-002
   8.8750718487207864E-003  -4.4429557474460202E-003   2.0706898355880049E-002
   1.8672779335473511E-002  -4.8020313149587102E-003   2.3611767262616046E-002
   1.5651339314897483E-002  -4.0772721672570622E-003   2.4400462614930007E-002
   1.2629899294321484E-002  -3.7291589643884404E-003   2.5662391687957475E-002
   9.6084592737454982E-003  -3.7576917063530460E-003   2.7397554481698561E-002
   6.5870192531694571E-003  -4.1628703931506639E-003   2.9605950996153707E-002
   2.7774181684514732E-002  -5.2832118103318670E-003  -9.7082671670418730E-003
   2.3349966920030996E-002  -4.2090470320204076E-003  -4.1817561972132822E-003
   1.8925752155547260E-002  -4.7568928481250827E-003   2.6067670534475340E-003
   1.4501537391063579E-002  -6.9267492586498614E-003   1.0657302584942019E-002
   1.0077322626579788E-002  -1.0718616263590164E-002   1.9969850397267841E-002
   1.9468653064393382E-002  -5.0031264560359556E-003   1.0497892742826753E-003
   1.6234388309305570E-002  -4.6922794527655132E-003   6.7444028784223731E-003
   1.3000123554217868E-002  -6.2907427266276628E-003   1.3556904220521582E-002
   9.7658587991300283E-003  -9.7985162776227375E-003   2.1487293300579413E-002
   6.5315940440422438E-003  -1.5215600105750848E-002   3.0535570118597199E-002
   1.3168949785795470E-002  -4.7230411017411544E-003   1.1188177781923159E-002
   1.0980510497230034E-002  -5.1755118735119510E-003   1.6763594337659116E-002
   8.7920712086646813E-003  -7.8245926051298542E-003   2.3312774088481147E-002
   6.6036319200992316E-003  -1.2670283296596849E-002   3.0835717034388033E-002
   4.4151926315339485E-003  -1.9712583947911089E-002   3.9332423175380882E-002
   8.8750718487207864E-003  -4.4429557474460202E-003   2.0706898355880049E-002
   7.5883334838041799E-003  -5.6587442942577226E-003   2.5875818180497195E-002
   6.3015951188876221E-003  -9.3584424836326841E-003   3.1874376657326842E-002
   5.0148567539710816E-003  -1.5542050315570564E-002   3.8702573786367898E-002
   3.7281183890545827E-003  -2.4209567790071995E-002   4.6360409567621441E-002
   6.5870192531694571E-003  -4.1628703931506639E-003   2.9605950996153707E-002
   6.0578572690281884E-003  -6.1419767150037163E-003   3.4081074406936973E-002
   5.5286952848870030E-003  -1.0892292362135236E-002   3.9241711927058387E-002
   4.9995333007456788E-003  -1.8413817334544544E-002   4.5087863556518837E-002
   4.4703713166045489E-003  -2.8706551632232458E-002   5.1619529295317435E-002
   7.6012208323072650E-002  -1.6179472773360348E-002   3.1406418147242043E-002
   7.3216561992830276E-002  -1.6887679314992576E-002   3.0662154192553359E-002
   7.0420915662587902E-002  -1.7354558944544365E-002   3.0158670221847456E-002
   6.7625269332345528E-002  -1.7580111662015719E-002   2.9895966235124402E-002
   6.4829623002103182E-002  -1.7564337467406377E-002   2.9874042232383935E-002
   6.9531176783952708E-002  -1.7355386573694287E-002   3.4521394593885368E-002
   6.6971197205128230E-002  -1.7407769343553758E-002   3.4092299929332465E-002
   6.4411217626303724E-002  -1.7346706753709057E-002   3.3893758783632350E-002
   6.1851238047479190E-002  -1.7172198804160148E-002   3.3925771156785189E-002
   5.9291258468654656E-002  -1.6884245494906802E-002   3.4188337048790846E-002
   6.3193041631641217E-002  -1.8531300374028226E-002   3.8356135588489368E-002
   6.0858502339104587E-002  -1.7927859372114954E-002   3.8114328661696034E-002
   5.8523963046567984E-002  -1.7338854562873741E-002   3.8092848788625601E-002
   5.6189423754031360E-002  -1.6764285946304545E-002   3.8291695969278144E-002
   5.3854884461494744E-002  -1.6204153522407339E-002   3.8710870203653519E-002
   5.6997802866138141E-002  -1.9707214174362178E-002   4.2910641131054542E-002
   5.4878477394759463E-002  -1.8447949400676102E-002   4.2728240389644297E-002
   5.2759151923380779E-002  -1.7331002372038429E-002   4.2755940236827217E-002
   5.0639826452002136E-002  -1.6356373088448988E-002   4.2993740672603059E-002
   4.8520500980623459E-002  -1.5524061549907736E-002   4.3441641696971914E-002
   5.0945460487443417E-002  -2.0883127974696103E-002   4.8184911221580418E-002
   4.9031122372092700E-002  -1.8968039429237332E-002   4.7934035113177287E-002
   4.7116784256742095E-002  -1.7323150181203090E-002   4.7883033128237107E-002
   4.5202446141391420E-002  -1.5948460230593410E-002   4.8031905266760211E-002
   4.3288108026040772E-002  -1.4843969577408300E-002   4.8380651528746210E-002
   6.4829623002103182E-002  -1.7564337467406377E-002   2.9874042232383935E-002
   6.2824749508068600E-002  -1.7363284745364443E-002   2.9460596526995730E-002
   6.0819876014033977E-002  -1.7033001880537177E-002   2.9236941992920096E-002
   5.8815002519999389E-002  -1.6573488872925046E-002   2.9203078630157503E-002
   5.6810129025964773E-002  -1.5984745722527616E-002   2.9359006438707813E-002
   5.9291258468654656E-002  -1.6884245494906802E-002   3.4188337048790846E-002
   5.7467918129774642E-002  -1.6504119404013695E-002   3.3968689026713156E-002
   5.5644577790894587E-002  -1.6053093109544864E-002   3.3922316143631656E-002
   5.3821237452014503E-002  -1.5531166611500440E-002   3.4049218399546451E-002
   5.1997897113134517E-002  -1.4938339909880305E-002   3.4349395794457643E-002
   5.3854884461494744E-002  -1.6204153522407339E-002   3.8710870203653519E-002
   5.2196561245452661E-002  -1.5644954062663100E-002   3.8626689925676916E-002
   5.0538238029410557E-002  -1.5073184338552502E-002   3.8699268754380116E-002
   4.8879914813368459E-002  -1.4488844350075835E-002   3.8928606689762932E-002
   4.7221591597326376E-002  -1.3891934097232828E-002   3.9314703731825398E-002
   4.8520500980623459E-002  -1.5524061549907736E-002   4.3441641696971914E-002
   4.7010678855102732E-002  -1.4785788721312372E-002   4.3434599223887253E-002
   4.5500856729581991E-002  -1.4093275567560192E-002   4.3567799825165482E-002
   4.3991034604061216E-002  -1.3446522088651120E-002   4.3841243500806933E-002
   4.2481212478540503E-002  -1.2845528284585461E-002   4.4254930250811494E-002
   4.3288108026040772E-002  -1.4843969577408300E-002   4.8380651528746210E-002
   4.1910270958724752E-002  -1.3926623379961756E-002   4.8392416921343939E-002
   4.0532433891408773E-002  -1.3113366796567813E-002   4.8527909355987858E-002
   3.9154596824092794E-002  -1.2404199827226649E-002   4.8787128832678592E-002
   3.7776759756776801E-002  -1.1799122471937984E-002   4.9170075351415654E-002
   5.6810129025964773E-002  -1.5984745722527616E-002   2.9359006438707813E-002
   5.4267777568645093E-002  -1.5330409118135629E-002   2.8911080065688211E-002
   5.1725426111325495E-002  -1.4674115748539732E-002   2.8665068118642084E-002
   4.9183074654005829E-002  -1.4015865613739079E-002   2.8620970597569961E-002
   4.6640723196686218E-002  -1.3355658713734619E-002   2.8778787502471481E-002
   5.1997897113134517E-002  -1.4938339909880305E-002   3.4349395794457643E-002
   4.9656230924353673E-002  -1.4308044212355486E-002   3.3939163937744099E-002
   4.7314564735572856E-002  -1.3673710726596913E-002   3.3728388192134653E-002
   4.4972898546792053E-002  -1.3035339452604534E-002   3.3717068557629036E-002
   4.2631232358011251E-002  -1.2392930390378254E-002   3.3905205034227337E-002
   4.7221591597326376E-002  -1.3891934097232828E-002   3.9314703731825398E-002
   4.5078152362214588E-002  -1.3285679306575079E-002   3.8944247414447755E-002
   4.2934713127102751E-002  -1.2673305704654199E-002   3.8770788893304202E-002
   4.0791273891990928E-002  -1.2054813291469764E-002   3.8794328168394607E-002
   3.8647834656879113E-002  -1.1430202067022249E-002   3.9014865239719185E-002
   4.2481212478540503E-002  -1.2845528284585461E-002   4.4254930250811494E-002
   4.0533541882227783E-002  -1.2263314400794888E-002   4.3926330495799221E-002
   3.8585871285915098E-002  -1.1672900682711349E-002   4.3792270222151014E-002
   3.6638200689602378E-002  -1.1074287130335272E-002   4.3852749429867124E-002
   3.4690530093289686E-002  -1.0467473743666175E-002   4.4107768118947441E-002
   3.7776759756776801E-002  -1.1799122471937984E-002   4.9170075351415654E-002
   3.6022399484393369E-002  -1.1240949495014585E-002   4.8885413181798121E-002
   3.4268039212009938E-002  -1.0672495660768791E-002   4.8792832178674944E-002
   3.2513678939626506E-002  -1.0093760969200481E-002   4.8892332342046388E-002
   3.0759318667243074E-002  -9.5047454203099901E-003   4.9183913671911883E-002
   4.6640723196686218E-002  -1.3355658713734619E-002   2.8778787502471481E-002
   4.4391922989674065E-002  -1.2698298305604760E-002   2.8304773968881314E-002
   4.2143122782661913E-002  -1.2048587646429645E-002   2.7964630112647909E-002
   3.9894322575649843E-002  -1.1406526736209194E-002   2.7758355933771559E-002
   3.7645522368637663E-002  -1.0772115574942953E-002   2.7685951432252165E-002
   4.2631232358011251E-002  -1.2392930390378254E-002   3.3905205034227337E-002
   4.0521249997197445E-002  -1.1747313724980502E-002   3.3459596641598921E-002
   3.8411267636383639E-002  -1.1099319641472150E-002   3.3157754264010103E-002
   3.6301285275569861E-002  -1.0448948139853864E-002   3.2999677901461119E-002
   3.4191302914756055E-002  -9.7961992201252013E-003   3.2985367553951650E-002
   3.8647834656879113E-002  -1.1430202067022249E-002   3.9014865239719185E-002
   3.6686566479946274E-002  -1.0796329144355687E-002   3.8607689155117364E-002
   3.4725298303013463E-002  -1.0150051636514314E-002   3.8354175423237970E-002
   3.2764030126080673E-002  -9.4913695434983101E-003   3.8254324044080829E-002
   3.0802761949147814E-002  -8.8202828653075604E-003   3.8308135017646017E-002
   3.4690530093289686E-002  -1.0467473743666175E-002   4.4107768118947441E-002
   3.2887872437920518E-002  -9.8453445637311510E-003   4.3749051509436740E-002
   3.1085214782551374E-002  -9.2007836315565091E-003   4.3553893590331072E-002
   2.9282557127182279E-002  -8.5337909471428670E-003   4.3522294361630250E-002
   2.7479899471813073E-002  -7.8443665104898641E-003   4.3654253823334592E-002
   3.0759318667243074E-002  -9.5047454203099901E-003   4.9183913671911883E-002
   2.9125167871120211E-002  -8.8943599831066145E-003   4.8883683704556813E-002
   2.7491017074997404E-002  -8.2515156265988432E-003   4.8756908765289431E-002
   2.5856866278874610E-002  -7.5762123507874743E-003   4.8803588854110042E-002
   2.4222715482751761E-002  -6.8684501556721678E-003   4.9023723971017730E-002
   3.7645522368637663E-002  -1.0772115574942953E-002   2.7685951432252165E-002
   3.5250788215810680E-002  -1.0130266716309955E-002   2.7141820021229779E-002
   3.2856054062983725E-002  -9.4658927139879834E-003   2.6726274749503787E-002
   3.0461319910156728E-002  -8.7789935679784201E-003   2.6439315617073966E-002
   2.8066585757329787E-002  -8.0695692782799533E-003   2.6280942623940540E-002
   3.4191302914756055E-002  -9.7961992201252013E-003   3.2985367553951650E-002
   3.1930244078433728E-002  -9.1378052335835402E-003   3.2527722738013631E-002
   2.9669185242111401E-002  -8.4704985315256498E-003   3.2208842415788336E-002
   2.7408126405789116E-002  -7.7942791139516826E-003   3.2028726587276513E-002
   2.5147067569466802E-002  -7.1091469808614027E-003   3.1987375252477412E-002
   3.0802761949147814E-002  -8.8202828653075604E-003   3.8308135017646017E-002
   2.8685556783747054E-002  -8.1453437508574311E-003   3.7923364368619761E-002
   2.6568351618346288E-002  -7.4751043490632191E-003   3.7687536567723404E-002
   2.4451146452945483E-002  -6.8095646599252817E-003   3.7600651614957049E-002
   2.2333941287544748E-002  -6.1487246834430742E-003   3.7662709510320608E-002
   2.7479899471813073E-002  -7.8443665104898641E-003   4.3654253823334592E-002
   2.5516726331750696E-002  -7.1528822681311693E-003   4.3328744913048195E-002
   2.3553553191688233E-002  -6.4797101666010590E-003   4.3162357205308491E-002
   2.1590380051625838E-002  -5.8248502058986570E-003   4.3155090700115611E-002
   1.9627206911563395E-002  -5.1883023860244126E-003   4.3306945397469605E-002
   2.4222715482751761E-002  -6.8684501556721678E-003   4.9023723971017730E-002
   2.2423752722444568E-002  -6.1604207854050741E-003   4.8743864371298906E-002
   2.0624789962137388E-002  -5.4843159841385103E-003   4.8633304328543625E-002
   1.8825827201830188E-002  -4.8401357518722127E-003   4.8692043842752109E-002
   1.7026864441522988E-002  -4.2278800886060841E-003   4.8920082913924468E-002
   2.8066585757329787E-002  -8.0695692782799533E-003   2.6280942623940540E-002
   2.5718134151865635E-002  -7.3248330094157765E-003   2.5690659033663521E-002
   2.3369682546401649E-002  -6.5319979259073901E-003   2.5049035276684062E-002
   2.1021230940937607E-002  -5.6910640277550648E-003   2.4356071353001219E-002
   1.8672779335473511E-002  -4.8020313149587102E-003   2.3611767262616046E-002
   2.5147067569466802E-002  -7.1091469808614027E-003   3.1987375252477412E-002
   2.2786022923421245E-002  -6.4151074240869632E-003   3.1570731167511357E-002
   2.0424978277375730E-002  -5.7121657354590738E-003   3.1180241168085210E-002
   1.8063933631330235E-002  -5.0003219149787337E-003   3.0815905254198916E-002
   1.5702888985284713E-002  -4.2795759626453878E-003   3.0477723425852532E-002
   2.2333941287544748E-002  -6.1487246834430742E-003   3.7662709510320608E-002
   2.0037797853160427E-002  -5.5053818387580389E-003   3.7380508247874089E-002
   1.7741654418776204E-002  -4.8923335450112154E-003   3.7201955323210037E-002
   1.5445510984391911E-002  -4.3095798022024061E-003   3.7127050736328694E-002
   1.3149367550007660E-002  -3.7571206103318988E-003   3.7155794487230026E-002
   1.9627206911563395E-002  -5.1883023860244126E-003   4.3306945397469605E-002
   1.7473458941083202E-002  -4.5956562534290035E-003   4.3119990274751302E-002
   1.5319710970603043E-002  -4.0725013545632391E-003   4.3114177742058904E-002
   1.3165963000122896E-002  -3.6188376894257437E-003   4.3289507799391516E-002
   1.1012215029642693E-002  -3.2346652580185487E-003   4.3645980446749950E-002
   1.7026864441522988E-002  -4.2278800886060841E-003   4.8920082913924468E-002
   1.5093006187189589E-002  -3.6859306681003012E-003   4.8789177248143689E-002
   1.3159147932856260E-002  -3.2526691641150962E-003   4.8916908424631145E-002
   1.1225289678522869E-002  -2.9280955766498723E-003   4.9303276443386834E-002
   9.2914314241894780E-003  -2.7122099057049764E-003   4.9948281304410647E-002
   1.8672779335473511E-002  -4.8020313149587102E-003   2.3611767262616046E-002
   1.5651339314897483E-002  -4.0772721672570622E-003   2.4400462614930007E-002
   1.2629899294321484E-002  -3.7291589643884404E-003   2.5662391687957475E-002
   9.6084592737454982E-003  -3.7576917063530460E-003   2.7397554481698561E-002
   6.5870192531694571E-003  -4.1628703931506639E-003   2.9605950996153707E-002
   1.5702888985284713E-002  -4.2795759626453878E-003   3.0477723425852532E-002
   1.3136283366133095E-002  -3.7717659677984350E-003   3.1258678377959037E-002
   1.0569677746981532E-002  -3.6987300197778017E-003   3.2476068412201020E-002
   8.0030721278300104E-003  -4.0604681185825373E-003   3.4129893528578148E-002
   5.4364665086783504E-003  -4.8569802642136617E-003   3.6220153727089976E-002
   1.3149367550007660E-002  -3.7571206103318988E-003   3.7155794487230026E-002
   1.1000797693701922E-002  -3.4662597683399188E-003   3.7870880937137197E-002
   8.8522278373960733E-003  -3.6683010751667050E-003   3.8985603830600582E-002
   6.7036579810903392E-003  -4.3632445308122471E-003   4.0499963167620369E-002
   4.5550881247844871E-003  -5.5510901352767705E-003   4.2413958948196995E-002
   1.1012215029642693E-002  -3.2346652580185487E-003   4.3645980446749950E-002
   9.2448822976039201E-003  -3.1607535688814581E-003   4.4237070292464285E-002
   7.4775495655652283E-003  -3.6378721305558373E-003   4.5190997943156327E-002
   5.7102168335264993E-003  -4.6660209430420697E-003   4.6507763398825695E-002
   3.9428841014877668E-003  -6.2452000063399349E-003   4.8187366659473554E-002
   9.2914314241894780E-003  -2.7122099057049764E-003   4.9948281304410647E-002
   7.8685371778391966E-003  -2.8552473694227753E-003   5.0357246443939574E-002
   6.4456429314888875E-003  -3.6074431859451084E-003   5.1092250749867396E-002
   5.0227486851385644E-003  -4.9687973552715939E-003   5.2153294222194585E-002
   3.5998544387882969E-003  -6.9393098774030992E-003   5.3540376860920391E-002
   6.5870192531694571E-003  -4.1628703931506639E-003   2.9605950996153707E-002
   6.0578572690281884E-003  -6.1419767150037163E-003   3.4081074406936973E-002
   5.5286952848870030E-003  -1.0892292362135236E-002   3.9241711927058387E-002
   4.9995333007456788E-003  -1.8413817334544544E-002   4.5087863556518837E-002
   4.4703713166045489E-003  -2.8706551632232458E-002   5.1619529295317435E-002
   5.4364665086783504E-003  -4.8569802642136617E-003   3.6220153727089976E-002
   5.4890355463073914E-003  -6.9894400713054750E-003   3.8356503110215046E-002
   5.5416045839363770E-003  -1.1359021154492499E-002   4.0970800427541754E-002
   5.5941736215653071E-003  -1.7965723513775456E-002   4.4063045679070711E-002
   5.6467426591944037E-003  -2.6809547149154067E-002   4.7633238864800864E-002
   4.5550881247844871E-003  -5.5510901352767705E-003   4.2413958948196995E-002
   4.9818220090469961E-003  -7.8369034276070115E-003   4.2745622352846235E-002
   5.4085558933094427E-003  -1.1825749946850234E-002   4.3347667516561134E-002
   5.8352897775719795E-003  -1.7517629693006319E-002   4.4220094439340871E-002
   6.2620236618343983E-003  -2.4912542666075677E-002   4.5362903121185960E-002
   3.9428841014877668E-003  -6.2452000063399349E-003   4.8187366659473554E-002
   4.5362166572470823E-003  -8.6843667839087701E-003   4.7248432134830431E-002
   5.1295492130064325E-003  -1.2292478739207954E-002   4.6372313194115146E-002
   5.7228817687657047E-003  -1.7069535872237761E-002   4.5559009837329051E-002
   6.3162143245251504E-003  -2.3015538182997175E-002   4.4808522064470918E-002
   3.5998544387882969E-003  -6.9393098774030992E-003   5.3540376860920391E-002
   4.1522194909077159E-003  -9.5318301402106398E-003   5.1864932456166968E-002
   4.7045845430271904E-003  -1.2759207531565175E-002   5.0044737460204991E-002
   5.2569495951465817E-003  -1.6621442051468191E-002   4.8079791873035682E-002
   5.8093146472660839E-003  -2.1118533699918896E-002   4.5970095694657154E-002
   5.0945460487443417E-002  -2.0883127974696103E-002   4.8184911221580418E-002
   4.9031122372092700E-002  -1.8968039429237332E-002   4.7934035113177287E-002
   4.7116784256742095E-002  -1.7323150181203090E-002   4.7883033128237107E-002
   4.5202446141391420E-002  -1.5948460230593410E-002   4.8031905266760211E-002
   4.3288108026040772E-002  -1.4843969577408300E-002   4.8380651528746210E-002
   4.4863676372781075E-002  -1.6406194997147017E-002   5.3354777095015127E-002
   4.3163467670769701E-002  -1.5358294486959467E-002   5.2741901780965855E-002
   4.1463258968758340E-002  -1.4389143952905137E-002   5.2357411170132095E-002
   3.9763050266746959E-002  -1.3498743394983914E-002   5.2201305262513972E-002
   3.8062841564735578E-002  -1.2687092813195910E-002   5.2273584058111111E-002
   3.8580112399375199E-002  -1.1929262019597930E-002   5.7561730272533002E-002
   3.7122543690455624E-002  -1.1748549544681644E-002   5.6778305074128788E-002
   3.5664974981536021E-002  -1.1455137724607087E-002   5.6251775158692868E-002
   3.4207406272616446E-002  -1.1049026559374415E-002   5.5982140526224793E-002
   3.2749837563696857E-002  -1.0530216048983632E-002   5.5969401176724873E-002
   3.2094768567225804E-002  -7.4523290420488442E-003   6.0805770754133785E-002
   3.0908350431150491E-002  -8.1388046024037722E-003   6.0043244992666389E-002
   2.9721932295075196E-002  -8.5211314963091686E-003   5.9566125093919245E-002
   2.8535514158999881E-002  -8.5993097237650282E-003   5.9374411057892783E-002
   2.7349096022924565E-002  -8.3733392847713528E-003   5.9468102884586913E-002
   2.5407644876332847E-002  -2.9753960644997579E-003   6.3086898539817915E-002
   2.4520887892854309E-002  -4.5290596601259003E-003   6.2536721536578299E-002
   2.3634130909375786E-002  -5.5871252680110700E-003   6.2300460975811628E-002
   2.2747373925897242E-002  -6.1495928881554578E-003   6.2378116857518026E-002
   2.1860616942418726E-002  -6.2164625205590185E-003   6.2769689181697452E-002
   4.3288108026040772E-002  -1.4843969577408300E-002   4.8380651528746210E-002
   4.1910270958724752E-002  -1.3926623379961756E-002   4.8392416921343939E-002
   4.0532433891408773E-002  -1.3113366796567813E-002   4.8527909355987858E-002
   3.9154596824092794E-002  -1.2404199827226649E-002   4.8787128832678592E-002
   3.7776759756776801E-002  -1.1799122471937984E-002   4.9170075351415654E-002
   3.8062841564735578E-002  -1.2687092813195910E-002   5.2273584058111111E-002
   3.6818106794901870E-002  -1.1951815428840107E-002   5.2117944150019302E-002
   3.5573372025068148E-002  -1.1290534463215221E-002   5.2104781794845512E-002
   3.4328637255234405E-002  -1.0703249916321395E-002   5.2234096992589824E-002
   3.3083902485400690E-002  -1.0189961788158619E-002   5.2505889743252265E-002
   3.2749837563696857E-002  -1.0530216048983632E-002   5.5969401176724873E-002
   3.1656955602217068E-002  -9.9770074777184026E-003   5.5676449163264974E-002
   3.0564073640737287E-002  -9.4677021298626915E-003   5.5544725213594888E-002
   2.9471191679257502E-002  -9.0023000054161983E-003   5.5574229327714497E-002
   2.8378309717777717E-002  -8.5808011043792265E-003   5.5764961505623836E-002
   2.7349096022924565E-002  -8.3733392847713528E-003   5.9468102884586913E-002
   2.6426817380670358E-002  -8.0021995265966706E-003   5.9067931961080719E-002
   2.5504538738416141E-002  -7.6448697965101307E-003   5.8847739612236008E-002
   2.4582260096161927E-002  -7.3013500945110282E-003   5.8807525838052647E-002
   2.3659981453907721E-002  -6.9716404205998478E-003   5.8947290638530658E-002
   2.1860616942418726E-002  -6.2164625205590185E-003   6.2769689181697452E-002
   2.1127692130261735E-002  -6.0273915754751051E-003   6.2292392543466635E-002
   2.0394767318104773E-002  -5.8220374631575700E-003   6.2013824990768796E-002
   1.9661842505947803E-002  -5.6004001836058026E-003   6.1933986523604045E-002
   1.8928917693790806E-002  -5.3624797368204691E-003   6.2052877141972329E-002
   3.7776759756776801E-002  -1.1799122471937984E-002   4.9170075351415654E-002
   3.6022399484393369E-002  -1.1240949495014585E-002   4.8885413181798121E-002
   3.4268039212009938E-002  -1.0672495660768791E-002   4.8792832178674944E-002
   3.2513678939626506E-002  -1.0093760969200481E-002   4.8892332342046388E-002
   3.0759318667243074E-002  -9.5047454203099901E-003   4.9183913671911883E-002
   3.3083902485400690E-002  -1.0189961788158619E-002   5.2505889743252265E-002
   3.1525611060487069E-002  -9.7075956205095459E-003   5.2223696435876321E-002
   2.9967319635573419E-002  -9.2130769551567043E-003   5.2141559656945724E-002
   2.8409028210659805E-002  -8.7064057921002157E-003   5.2259479406460183E-002
   2.6850736785746149E-002  -8.1875821313401320E-003   5.2577455684419960E-002
   2.8378309717777717E-002  -8.5808011043792265E-003   5.5764961505623836E-002
   2.7024062502284729E-002  -8.1742417460045347E-003   5.5487108700870827E-002
   2.5669815286791769E-002  -7.7536582495446107E-003   5.5417287786513801E-002
   2.4315568071298824E-002  -7.3190506150000601E-003   5.5555498762553029E-002
   2.2961320855805850E-002  -6.8704188423703294E-003   5.5901741628988394E-002
   2.3659981453907721E-002  -6.9716404205998478E-003   5.8947290638530658E-002
   2.2517753809786351E-002  -6.6408878714994263E-003   5.8675649976781652E-002
   2.1375526165664963E-002  -6.2942395439327427E-003   5.8620016567379696E-002
   2.0233298521543600E-002  -5.9316954378998499E-003   5.8780390410324811E-002
   1.9091070877422206E-002  -5.5532555534004990E-003   5.9156771505616802E-002
   1.8928917693790806E-002  -5.3624797368204691E-003   6.2052877141972329E-002
   1.8006684982991919E-002  -5.1075339969944844E-003   6.1789320263608727E-002
   1.7084452272193025E-002  -4.8348208383206109E-003   6.1749745999543082E-002
   1.6162219561394135E-002  -4.5443402607996015E-003   6.1934154349775380E-002
   1.5239986850595244E-002  -4.2360922644306132E-003   6.2342545314305553E-002
   3.0759318667243074E-002  -9.5047454203099901E-003   4.9183913671911883E-002
   2.9125167871120211E-002  -8.8943599831066145E-003   4.8883683704556813E-002
   2.7491017074997404E-002  -8.2515156265988432E-003   4.8756908765289431E-002
   2.5856866278874610E-002  -7.5762123507874743E-003   4.8803588854110042E-002
   2.4222715482751761E-002  -6.8684501556721678E-003   4.9023723971017730E-002
   2.6850736785746149E-002  -8.1875821313401320E-003   5.2577455684419960E-002
   2.5394769832806183E-002  -7.6514201197169784E-003   5.2328612045380085E-002
   2.3938802879866203E-002  -7.0927339040711967E-003   5.2262681064618038E-002
   2.2482835926926209E-002  -6.5115234844026829E-003   5.2379662742134320E-002
   2.1026868973986257E-002  -5.9077888607118045E-003   5.2679557077928318E-002
   2.2961320855805850E-002  -6.8704188423703294E-003   5.5901741628988394E-002
   2.1692995376239081E-002  -6.4084802563276755E-003   5.5694349602982252E-002
   2.0424669896672354E-002  -5.9339521815435087E-003   5.5679327865444495E-002
   1.9156344417105613E-002  -5.4468346180180059E-003   5.5856676416374935E-002
   1.7888018937538851E-002  -4.9471275657513303E-003   5.6226395255774053E-002
   1.9091070877422206E-002  -5.5532555534004990E-003   5.9156771505616802E-002
   1.8019844501419080E-002  -5.1655403929382060E-003   5.8980896377363180E-002
   1.6948618125415895E-002  -4.7751704590157859E-003   5.9006849167768355E-002
   1.5877391749412717E-002  -4.3821457516333828E-003   5.9234629876832159E-002
   1.4806165373409555E-002  -3.9864662707910226E-003   5.9664238504554837E-002
   1.5239986850595244E-002  -4.2360922644306132E-003   6.2342545314305553E-002
   1.4375317208346006E-002  -3.9226005295488475E-003   6.2188252368523045E-002
   1.3510647566096809E-002  -3.6163887364881603E-003   6.2245244971589869E-002
   1.2645977923847605E-002  -3.3174568852484508E-003   6.2513523123505790E-002
   1.1781308281598402E-002  -3.0258049758304928E-003   6.2993086824270739E-002
   2.4222715482751761E-002  -6.8684501556721678E-003   4.9023723971017730E-002
   2.2423752722444568E-002  -6.1604207854050741E-003   4.8743864371298906E-002
   2.0624789962137388E-002  -5.4843159841385103E-003   4.8633304328543625E-002
   1.8825827201830188E-002  -4.8401357518722127E-003   4.8692043842752109E-002
   1.7026864441522988E-002  -4.2278800886060841E-003   4.8920082913924468E-002
   2.1026868973986257E-002  -5.9077888607118045E-003   5.2679557077928318E-002
   1.9406355349799925E-002  -5.3051762799523616E-003   5.2437497100241759E-002
   1.7785841725613594E-002  -4.7273319890786952E-003   5.2383035837833325E-002
   1.6165328101427269E-002  -4.1742559880913709E-003   5.2516173290703003E-002
   1.4544814477240930E-002  -3.6459482769897189E-003   5.2836909458850778E-002
   1.7888018937538851E-002  -4.9471275657513303E-003   5.6226395255774053E-002
   1.6464253607787867E-002  -4.4499317744996769E-003   5.6029291179234234E-002
   1.5040488278036866E-002  -3.9703479940194353E-003   5.6038084976286845E-002
   1.3616722948285859E-002  -3.5083762243104735E-003   5.6252776646932109E-002
   1.2192957618534873E-002  -3.0640164653729651E-003   5.6673366191169861E-002
   1.4806165373409555E-002  -3.9864662707910226E-003   5.9664238504554837E-002
   1.3597447496408364E-002  -3.5946872690469783E-003   5.9519246608276177E-002
   1.2388729619407204E-002  -3.2133639989597867E-003   5.9598451743904456E-002
   1.1180011742406003E-002  -2.8424964605296595E-003   5.9901853911439970E-002
   9.9712938654048251E-003  -2.4820846537566277E-003   6.0429453110882450E-002
   1.1781308281598402E-002  -3.0258049758304928E-003   6.2993086824270739E-002
   1.0805937015661474E-002  -2.7394427635942797E-003   6.2907363387367743E-002
   9.8305657497245735E-003  -2.4563800039003048E-003   6.3064136140686011E-002
   8.8551944837876595E-003  -2.1766166967488315E-003   6.3463405084226238E-002
   7.8798232178507732E-003  -1.9001528421399572E-003   6.4105170217987673E-002
   1.7026864441522988E-002  -4.2278800886060841E-003   4.8920082913924468E-002
   1.5093006187189589E-002  -3.6859306681003012E-003   4.8789177248143689E-002
   1.3159147932856260E-002  -3.2526691641150962E-003   4.8916908424631145E-002
   1.1225289678522869E-002  -2.9280955766498723E-003   4.9303276443386834E-002
   9.2914314241894780E-003  -2.7122099057049764E-003   4.9948281304410647E-002
   1.4544814477240930E-002  -3.6459482769897189E-003   5.2836909458850778E-002
   1.2867623776409293E-002  -3.1849294625709845E-003   5.2724978899879038E-002
   1.1190433075577641E-002  -2.8337201516328014E-003   5.2867746605642807E-002
   9.5132423747459824E-003  -2.5923203441754888E-003   5.3265212576141474E-002
   7.8360516739143515E-003  -2.4607300401982002E-003   5.3917376811375650E-002
   1.2192957618534873E-002  -3.0640164653729651E-003   5.6673366191169861E-002
   1.0768495893671938E-002  -2.6839282570414458E-003   5.6579289152047352E-002
   9.3440341688090477E-003  -2.4147711391509230E-003   5.6735971800126822E-002
   7.9195724439461278E-003  -2.2565451117008764E-003   5.7143414135408521E-002
   6.4951107190832219E-003  -2.2092501746915905E-003   5.7801616157892449E-002
   9.9712938654048251E-003  -2.4820846537566277E-003   6.0429453110882450E-002
   8.7956225389776588E-003  -2.1829270515120736E-003   6.0352108004648367E-002
   7.6199512125504796E-003  -1.9958221266687254E-003   6.0521584008083683E-002
   6.4442798861233160E-003  -1.9207698792263785E-003   6.0937881121187920E-002
   5.2686085596961342E-003  -1.9577703091848975E-003   6.1600999343961689E-002
   7.8798232178507732E-003  -1.9001528421399572E-003   6.4105170217987673E-002
   6.9490037123263321E-003  -1.6819258459826458E-003   6.4043435457682207E-002
   6.0181842068019187E-003  -1.5768731141868053E-003   6.4224583229512744E-002
   5.0873647012774983E-003  -1.5849946467518389E-003   6.4648613533479588E-002
   4.1565451957530641E-003  -1.7062904436780935E-003   6.5315526369582599E-002
   9.2914314241894780E-003  -2.7122099057049764E-003   4.9948281304410647E-002
   7.8685371778391966E-003  -2.8552473694227753E-003   5.0357246443939574E-002
   6.4456429314888875E-003  -3.6074431859451084E-003   5.1092250749867396E-002
   5.0227486851385644E-003  -4.9687973552715939E-003   5.2153294222194585E-002
   3.5998544387882969E-003  -6.9393098774030992E-003   5.3540376860920391E-002
   7.8360516739143515E-003  -2.4607300401982002E-003   5.3917376811375650E-002
   6.7134664896146001E-003  -2.6414592926652380E-003   5.3853056660893850E-002
   5.5908813053148904E-003  -3.3370181545389066E-003   5.4063315468114825E-002
   4.4682961210151598E-003  -4.5474066258192058E-003   5.4548153233037661E-002
   3.3457109367154292E-003  -6.2726247065071350E-003   5.5307569955662217E-002
   6.4951107190832219E-003  -2.2092501746915905E-003   5.7801616157892449E-002
   5.6213743881371042E-003  -2.4276712159074787E-003   5.7358339460798380E-002
   4.7476380571909657E-003  -3.0665931231326909E-003   5.7138181512709454E-002
   3.8739017262448515E-003  -4.1260158963674805E-003   5.7141142313625680E-002
   3.0001653952987095E-003  -5.6059395356115038E-003   5.7367221863547035E-002
   5.2686085596961342E-003  -1.9577703091848975E-003   6.1600999343961689E-002
   4.5922608734066638E-003  -2.2138831391496638E-003   6.0873094843652387E-002
   3.9159131871171812E-003  -2.7961680917264822E-003   6.0316848883651297E-002
   3.2395655008276977E-003  -3.7046251669153128E-003   5.9932261463958296E-002
   2.5632178145382281E-003  -4.9392543647158171E-003   5.9719332584573584E-002
   4.1565451957530641E-003  -1.7062904436780935E-003   6.5315526369582599E-002
   3.6261259454232753E-003  -2.0000950623922376E-003   6.4397322809456092E-002
   3.0957066950934725E-003  -2.5257430603203568E-003   6.3599317580940451E-002
   2.5652874447636767E-003  -3.2832344374632769E-003   6.2921510684036258E-002
   2.0348681944338809E-003  -4.2725691938199084E-003   6.2363902118742764E-002
   3.5998544387882969E-003  -6.9393098774030992E-003   5.3540376860920391E-002
   4.1522194909077159E-003  -9.5318301402106398E-003   5.1864932456166968E-002
   4.7045845430271904E-003  -1.2759207531565175E-002   5.0044737460204991E-002
   5.2569495951465817E-003  -1.6621442051468191E-002   4.8079791873035682E-002
   5.8093146472660839E-003  -2.1118533699918896E-002   4.5970095694657154E-002
   3.3457109367154292E-003  -6.2726247065071350E-003   5.5307569955662217E-002
   3.7706197732965269E-003  -8.5424511771677314E-003   5.2953395737691866E-002
   4.1955286098776245E-003  -1.1386664818367087E-002   5.0489059679852843E-002
   4.6204374464587916E-003  -1.4805265630105022E-002   4.7914561782145204E-002
   5.0453462830398199E-003  -1.8798253612381854E-002   4.5229902044569226E-002
   3.0001653952987095E-003  -5.6059395356115038E-003   5.7367221863547035E-002
   3.3322067676812145E-003  -7.5530722141252116E-003   5.4394787790368104E-002
   3.6642481400636917E-003  -1.0014122105168582E-002   5.1346780628660688E-002
   3.9962895124461759E-003  -1.2989089208741915E-002   4.8223200378424355E-002
   4.3283308848286739E-003  -1.6477973524844813E-002   4.5024047039659232E-002
   2.5632178145382281E-003  -4.9392543647158171E-003   5.9719332584573584E-002
   2.8369804740618100E-003  -6.5636932510827195E-003   5.6189108614195640E-002
   3.1107431335853919E-003  -8.6415793919700640E-003   5.2617900306628641E-002
   3.3845057931090276E-003  -1.1172912787378555E-002   4.9005707661872497E-002
   3.6582684526325834E-003  -1.4157693437307772E-002   4.5352530679927699E-002
   2.0348681944338809E-003  -4.2725691938199084E-003   6.2363902118742764E-002
   2.2849408924383030E-003  -5.5743142880397833E-003   5.8336358209174710E-002
   2.5350135904427112E-003  -7.2690366787715455E-003   5.4302418713756961E-002
   2.7850862884470917E-003  -9.3567363660154723E-003   5.0262083632490295E-002
   3.0351589864515138E-003  -1.1837413349770731E-002   4.6215352965373935E-002
   2.5407644876332847E-002  -2.9753960644997579E-003   6.3086898539817915E-002
   2.4520887892854309E-002  -4.5290596601259003E-003   6.2536721536578299E-002
   2.3634130909375786E-002  -5.5871252680110700E-003   6.2300460975811628E-002
   2.2747373925897242E-002  -6.1495928881554578E-003   6.2378116857518026E-002
   2.1860616942418726E-002  -6.2164625205590185E-003   6.2769689181697452E-002
   1.8720137702710443E-002  -2.9145189213615197E-003   6.2189407285440923E-002
   1.8125258755164450E-002  -3.6909204531978268E-003   6.2187767244824638E-002
   1.7530379807618443E-002  -4.2237950210167741E-003   6.2455966833600218E-002
   1.6935500860072443E-002  -4.5131426248184031E-003   6.2994006051768067E-002
   1.6340621912526429E-002  -4.5589632646027001E-003   6.3801884899327699E-002
   1.2233643422372771E-002  -2.8536417782232815E-003   6.2195213606715496E-002
   1.1886565697678299E-002  -2.8527812462697255E-003   6.2490039504998929E-002
   1.1539487972983795E-002  -2.8604647740224018E-003   6.3010628219593384E-002
   1.1192410248289297E-002  -2.8766923614812669E-003   6.3756979750498752E-002
   1.0845332523594806E-002  -2.9014640086463539E-003   6.4729094097715295E-002
   5.9481620353198147E-003  -2.7927646350850294E-003   6.3104317503641830E-002
   5.8048087203958262E-003  -2.0146420393416242E-003   6.3443538317101270E-002
   5.6614554054718299E-003  -1.4971345270280122E-003   6.3964445133791084E-002
   5.5181020905478440E-003  -1.2402420981440327E-003   6.4667037953710649E-002
   5.3747487756238520E-003  -1.2439647526900216E-003   6.5551316776860297E-002
  -1.3630645844843470E-004  -2.7318874919468050E-003   6.4916718976219534E-002
  -1.2001217668294178E-004  -1.1765028324135784E-003   6.5048263681131757E-002
  -1.0371789491743499E-004  -1.3380428003367806E-004   6.5317417576193249E-002
  -8.7423613151935142E-005   3.9620816519300717E-004   6.5724180661403481E-002
  -7.1129331386438760E-005   4.1353450326631069E-004   6.6268552936762870E-002
   2.1860616942418726E-002  -6.2164625205590185E-003   6.2769689181697452E-002
   2.1127692130261735E-002  -6.0273915754751051E-003   6.2292392543466635E-002
   2.0394767318104773E-002  -5.8220374631575700E-003   6.2013824990768796E-002
   1.9661842505947803E-002  -5.6004001836058026E-003   6.1933986523604045E-002
   1.8928917693790806E-002  -5.3624797368204691E-003   6.2052877141972329E-002
   1.6340621912526429E-002  -4.5589632646027001E-003   6.3801884899327699E-002
   1.5803753260464092E-002  -4.4682459086550635E-003   6.3369537073959162E-002
   1.5266884608401761E-002  -4.3479795252610032E-003   6.3130572483246855E-002
   1.4730015956339413E-002  -4.1981641144205190E-003   6.3084991127190862E-002
   1.4193147304277079E-002  -4.0187996761336664E-003   6.3232793005790933E-002
   1.0845332523594806E-002  -2.9014640086463539E-003   6.4729094097715295E-002
   1.0499174180750259E-002  -2.9091002418349665E-003   6.4354960945421813E-002
   1.0153015837905718E-002  -2.8739215873646584E-003   6.4168865176907647E-002
   9.8068574950611782E-003  -2.7959280452351798E-003   6.4170806792172894E-002
   9.4606991522166346E-003  -2.6751196154468637E-003   6.4360785791217526E-002
   5.3747487756238520E-003  -1.2439647526900216E-003   6.5551316776860297E-002
   5.2139548911202599E-003  -1.3499545750148695E-003   6.5248664157854380E-002
   5.0531610066166677E-003  -1.3998636494682026E-003   6.5128703071750990E-002
   4.8923671221130756E-003  -1.3936919760499517E-003   6.5191433518550015E-002
   4.7315732376094861E-003  -1.3314395547601166E-003   6.5436855498251636E-002
  -7.1129331386438760E-005   4.1353450326631069E-004   6.6268552936762870E-002
  -5.1904608425926146E-005   2.0919109180517204E-004   6.6050646711257044E-002
  -3.2679885465404859E-005   7.4194288428197641E-005   6.6010086167776955E-002
  -1.3455162504884439E-005   8.5440931355401650E-006   6.6146871306322547E-002
   5.7695604556290414E-006   1.2240505926741641E-005   6.6461002126893765E-002
   1.8928917693790806E-002  -5.3624797368204691E-003   6.2052877141972329E-002
   1.8006684982991919E-002  -5.1075339969944844E-003   6.1789320263608727E-002
   1.7084452272193025E-002  -4.8348208383206109E-003   6.1749745999543082E-002
   1.6162219561394135E-002  -4.5443402607996015E-003   6.1934154349775380E-002
   1.5239986850595244E-002  -4.2360922644306132E-003   6.2342545314305553E-002
   1.4193147304277079E-002  -4.0187996761336664E-003   6.3232793005790933E-002
   1.3496368839730370E-002  -3.8197870626904273E-003   6.2987787367691978E-002
   1.2799590375183668E-002  -3.6110271263807281E-003   6.2969707607799297E-002
   1.2102811910636953E-002  -3.3925198672048462E-003   6.3178553726113085E-002
   1.1406033446090258E-002  -3.1642652851625597E-003   6.3614325722633369E-002
   9.4606991522166346E-003  -2.6751196154468637E-003   6.4360785791217526E-002
   8.9923181978306364E-003  -2.5320401283863703E-003   6.4126311297401650E-002
   8.5239372434446365E-003  -2.3872334144407828E-003   6.4121705945700824E-002
   8.0555562890586366E-003  -2.2406994736100336E-003   6.4346969736115006E-002
   7.5871753346726453E-003  -2.0924383058942009E-003   6.4802102668643960E-002
   4.7315732376094861E-003  -1.3314395547601166E-003   6.5436855498251636E-002
   4.4945330572927098E-003  -1.2442931940823687E-003   6.5204892052737967E-002
   4.2574928769759397E-003  -1.1634397025008687E-003   6.5205741013247706E-002
   4.0204526966591660E-003  -1.0888790800153607E-003   6.5439402379780978E-002
   3.7834125163424010E-003  -1.0206113266259947E-003   6.5905876152337783E-002
   5.7695604556290414E-006   1.2240505926741641E-005   6.6461002126893765E-002
   3.0134181166034668E-006   4.3453740221743864E-005   6.6223529633700873E-002
   2.5727577757789222E-007   6.0354009439045342E-005   6.6221812810440067E-002
  -2.4988665614442129E-006   6.2941313579423230E-005   6.6455851657111153E-002
  -5.2550089004732570E-006   5.1215652642322418E-005   6.6925646173714215E-002
   1.5239986850595244E-002  -4.2360922644306132E-003   6.2342545314305553E-002
   1.4375317208346006E-002  -3.9226005295488475E-003   6.2188252368523045E-002
   1.3510647566096809E-002  -3.6163887364881603E-003   6.2245244971589869E-002
   1.2645977923847605E-002  -3.3174568852484508E-003   6.2513523123505790E-002
   1.1781308281598402E-002  -3.0258049758304928E-003   6.2993086824270739E-002
   1.1406033446090258E-002  -3.1642652851625597E-003   6.3614325722633369E-002
   1.0753990111119299E-002  -2.9336102720706192E-003   6.3470355627072983E-002
   1.0101946776148313E-002  -2.7079017197464000E-003   6.3540352597220018E-002
   9.4499034411773403E-003  -2.4871396281894338E-003   6.3824316633074502E-002
   8.7978601062063816E-003  -2.2713239974000987E-003   6.4322247734636351E-002
   7.5871753346726453E-003  -2.0924383058942009E-003   6.4802102668643960E-002
   7.1504398238381173E-003  -1.9446200145925574E-003   6.4670788904359719E-002
   6.7137043130036100E-003  -1.7994147030047022E-003   6.4756123722640835E-002
   6.2769688021690872E-003  -1.6568223711302520E-003   6.5058107123487641E-002
   5.8402332913345748E-003  -1.5168430189695936E-003   6.5576739106899956E-002
   3.7834125163424010E-003  -1.0206113266259947E-003   6.5905876152337783E-002
   3.5646663465025395E-003  -9.5562975711452336E-004   6.5789552200383114E-002
   3.3459201766626798E-003  -8.9092768626291771E-004   6.5892558347852265E-002
   3.1271740068228265E-003  -8.2650511407126367E-004   6.6214894594745152E-002
   2.9084278369829655E-003  -7.6236204053925505E-004   6.6756560941061943E-002
  -5.2550089004732570E-006   5.1215652642322418E-005   6.6925646173714215E-002
  -3.3303208874686796E-006   3.3360500363788237E-005   6.6826645515143224E-002
  -1.4056328744536939E-006   1.7559330478617019E-005   6.6949656472854169E-002
   5.1905513856302654E-007   3.8121429880508262E-006   6.7294679046846967E-002
   2.4437431515658692E-006  -7.8810621086944366E-006   6.7861713237121757E-002
   1.1781308281598402E-002  -3.0258049758304928E-003   6.2993086824270739E-002
   1.0805937015661474E-002  -2.7394427635942797E-003   6.2907363387367743E-002
   9.8305657497245735E-003  -2.4563800039003048E-003   6.3064136140686011E-002
   8.8551944837876595E-003  -2.1766166967488315E-003   6.3463405084226238E-002
   7.8798232178507732E-003  -1.9001528421399572E-003   6.4105170217987673E-002
   8.7978601062063816E-003  -2.2713239974000987E-003   6.4322247734636351E-002
   8.0654815989383635E-003  -2.0586443541497079E-003   6.4260529743274286E-002
   7.3331030916703385E-003  -1.8472902252099771E-003   6.4442301079028597E-002
   6.6007245844023378E-003  -1.6372616105806044E-003   6.4867561741899143E-002
   5.8683460771343093E-003  -1.4285585102622456E-003   6.5536311731885788E-002
   5.8402332913345748E-003  -1.5168430189695936E-003   6.5576739106899956E-002
   5.3518406796302133E-003  -1.3778459447052471E-003   6.5541000499310761E-002
   4.8634480679258622E-003  -1.2382004465194274E-003   6.5749744355732775E-002
   4.3750554562215008E-003  -1.0979065244125993E-003   6.6202970676165873E-002
   3.8866628445171497E-003  -9.5696417838447845E-004   6.6900679460609791E-002
   2.9084278369829655E-003  -7.6236204053925505E-004   6.6756560941061943E-002
   2.6650142577370325E-003  -6.9704753526100838E-004   6.6748775655477419E-002
   2.4216006784911004E-003  -6.2911066782909975E-004   6.6986465970798825E-002
   2.1781870992451709E-003  -5.5855143824437223E-004   6.7469631887026135E-002
   1.9347735199992354E-003  -4.8536984650673909E-004   6.8198273404159140E-002
   2.4437431515658692E-006  -7.8810621086944366E-006   6.7861713237121757E-002
   5.0023332588133851E-006  -1.6249125816159005E-005   6.7883855211774036E-002
   7.5609233660782482E-006  -2.0020889138494535E-005   6.8152465924226802E-002
   1.0119513473336172E-005  -1.9196352076408796E-005   6.8667545374480138E-002
   1.2678103580590627E-005  -1.3775514628999730E-005   6.9429093562534017E-002
   7.8798232178507732E-003  -1.9001528421399572E-003   6.4105170217987673E-002
   6.9490037123263321E-003  -1.6819258459826458E-003   6.4043435457682207E-002
   6.0181842068019187E-003  -1.5768731141868053E-003   6.4224583229512744E-002
   5.0873647012774983E-003  -1.5849946467518389E-003   6.4648613533479588E-002
   4.1565451957530641E-003  -1.7062904436780935E-003   6.5315526369582599E-002
   5.8683460771343093E-003  -1.4285585102622456E-003   6.5536311731885788E-002
   5.1776305172495790E-003  -1.2632150767184491E-003   6.5402308251383157E-002
   4.4869149573648556E-003  -1.1832654624135408E-003   6.5505630130023335E-002
   3.7961993974801427E-003  -1.1887096673471043E-003   6.5846277367806780E-002
   3.1054838375954019E-003  -1.2795476915197224E-003   6.6424249964733117E-002
   3.8866628445171497E-003  -9.5696417838447845E-004   6.6900679460609791E-002
   3.4304940572789829E-003  -8.4450430745400262E-004   6.6722187705031910E-002
   2.9743252700408056E-003  -7.8965781063991547E-004   6.6775464135604229E-002
   2.5181564828026404E-003  -7.9242468794247373E-004   6.7060508752326428E-002
   2.0619876955644614E-003  -8.5280493936140678E-004   6.7577321555198716E-002
   1.9347735199992354E-003  -4.8536984650673909E-004   6.8198273404159140E-002
   1.7075943324144915E-003  -4.2579353818945898E-004   6.8003073818628731E-002
   1.4804151448297503E-003  -3.9605015886624850E-004   6.8034085246255122E-002
   1.2532359572450078E-003  -3.9613970853762462E-004   6.8291307687038505E-002
   1.0260567696602652E-003  -4.2606218720317446E-004   6.8774741140978451E-002
   1.2678103580590627E-005  -1.3775514628999730E-005   6.9429093562534017E-002
   8.9313426561363207E-006  -7.0827689253039061E-006   6.9244966592173274E-002
   5.1845817316924225E-006  -2.4425070929701143E-006   6.9281493461976096E-002
   1.4378208072415855E-006   1.4527086684978929E-007   6.9538674171942788E-002
  -2.3089401172057822E-006   6.8056495527990535E-007   7.0016508722073323E-002
   4.1565451957530641E-003  -1.7062904436780935E-003   6.5315526369582599E-002
   3.6261259454232753E-003  -2.0000950623922376E-003   6.4397322809456092E-002
   3.0957066950934725E-003  -2.5257430603203568E-003   6.3599317580940451E-002
   2.5652874447636767E-003  -3.2832344374632769E-003   6.2921510684036258E-002
   2.0348681944338809E-003  -4.2725691938199084E-003   6.2363902118742764E-002
   3.1054838375954019E-003  -1.2795476915197224E-003   6.6424249964733117E-002
   2.6984164173541880E-003  -1.4999935259039643E-003   6.5313932529011187E-002
   2.2913489971129949E-003  -1.8942611614720106E-003   6.4330120421855458E-002
   1.8842815768717776E-003  -2.4623505982250132E-003   6.3472813643265472E-002
   1.4772141566305741E-003  -3.2042618361618480E-003   6.2742012193241603E-002
   2.0619876955644614E-003  -8.5280493936140678E-004   6.7577321555198716E-002
   1.7845791023666235E-003  -9.9989198941577428E-004   6.6332911821911422E-002
   1.5071705091687718E-003  -1.2627792626241224E-003   6.5221314414145234E-002
   1.2297619159709217E-003  -1.6414667589869751E-003   6.4242529331899723E-002
   9.5235332277308210E-004  -2.1359544785035656E-003   6.3396556575174901E-002
   1.0260567696602652E-003  -4.2606218720317446E-004   6.8774741140978451E-002
   8.8461400046055752E-004  -4.9979045292737612E-004   6.7454260688156617E-002
   7.4317123126085502E-004  -6.3129736377617179E-004   6.6272899557810017E-002
   6.0172846206114254E-004  -8.2058291974860219E-004   6.5230657749939039E-002
   4.6028569286144481E-004  -1.0676471208455052E-003   6.4327535264543850E-002
  -2.3089401172057822E-006   6.8056495527990535E-007   7.0016508722073323E-002
  -1.4788883639926809E-006   3.1108356074449617E-007   6.8677979127746425E-002
  -6.4883661078304899E-007   1.8453507194537977E-007   6.7484875852849679E-002
   1.8121514242484815E-007   3.0091948928501200E-007   6.6437198897383476E-002
   1.0112668956396842E-006   6.6023681277727064E-007   6.5534948261347648E-002
   2.0348681944338809E-003  -4.2725691938199084E-003   6.2363902118742764E-002
   2.2849408924383030E-003  -5.5743142880397833E-003   5.8336358209174710E-002
   2.5350135904427112E-003  -7.2690366787715455E-003   5.4302418713756961E-002
   2.7850862884470917E-003  -9.3567363660154723E-003   5.0262083632490295E-002
   3.0351589864515138E-003  -1.1837413349770731E-002   4.6215352965373935E-002
   1.4772141566305741E-003  -3.2042618361618480E-003   6.2742012193241603E-002
   1.7068196231357080E-003  -4.1804409383121577E-003   5.8389344230091789E-002
   1.9364250896408419E-003  -5.4513339677055295E-003   5.4002137389793037E-002
   2.1660305561459828E-003  -7.0169409243411168E-003   4.9580391672345264E-002
   2.3956360226511098E-003  -8.8772618082200161E-003   4.5124107077747722E-002
   9.5235332277308210E-004  -2.1359544785035656E-003   6.3396556575174901E-002
   1.1333482664790534E-003  -2.7865675885843100E-003   5.8817027927712984E-002
   1.3143432101850420E-003  -3.6336312566389584E-003   5.4174817111801943E-002
   1.4953381538910376E-003  -4.6771454826669834E-003   4.9469924127441625E-002
   1.6763330975970159E-003  -5.9171102666688569E-003   4.4702348974632211E-002
   4.6028569286144481E-004  -1.0676471208455052E-003   6.4327535264543850E-002
   5.6452682246837735E-004  -1.3926942388566843E-003   5.9619409302038420E-002
   6.6876795207531075E-004  -1.8159285455721097E-003   5.4820457879784512E-002
   7.7300908168226323E-004  -2.3373500409928499E-003   4.9930680997781002E-002
   8.7725021128917668E-004  -2.9569587251178087E-003   4.4950078656029013E-002
   1.0112668956396842E-006   6.6023681277727064E-007   6.5534948261347648E-002
   3.5529110364168615E-007   1.1791108713854470E-006   6.0796488353067946E-002
  -3.0068468835978135E-007   1.7741654938507878E-006   5.5939059693739579E-002
  -9.5666048035777940E-007   2.4454006816720941E-006   5.0962662283362603E-002
  -1.6126362723523080E-006   3.1928164330174980E-006   4.5867296121935741E-002
  -1.3630645844843470E-004  -2.7318874919468050E-003   6.4916718976219534E-002
  -1.2001217668294178E-004  -1.1765028324135784E-003   6.5048263681131757E-002
  -1.0371789491743499E-004  -1.3380428003367806E-004   6.5317417576193249E-002
  -8.7423613151935142E-005   3.9620816519300717E-004   6.5724180661403481E-002
  -7.1129331386438760E-005   4.1353450326631069E-004   6.6268552936762870E-002
  -6.1957527236105453E-003   1.9002477405294371E-004   6.5611507937640284E-002
  -6.0215996289664439E-003   1.0358701590578723E-003   6.5209910977712005E-002
  -5.8474465343223130E-003   1.5895559482203836E-003   6.4986422453391882E-002
  -5.6732934396781934E-003   1.8510821415406650E-003   6.4941042364680096E-002
  -5.4991403450340877E-003   1.8204487390184321E-003   6.5073770711576606E-002
  -1.2406167424845122E-002   3.1119370400526647E-003   6.5486494368877324E-002
  -1.2033656271863117E-002   3.2482431505293924E-003   6.4772282255419283E-002
  -1.1661145118881125E-002   3.3129161764745285E-003   6.4276677823028705E-002
  -1.1288633965899120E-002   3.3059561178882396E-003   6.3999681071705700E-002
  -1.0916122812917112E-002   3.2273629747704424E-003   6.3941292001450156E-002
  -1.8767550562152124E-002   6.0338493060524134E-003   6.4541678269930680E-002
  -1.8156182105372991E-002   5.4606161420008500E-003   6.3735377514253705E-002
  -1.7544813648593831E-002   5.0362764047286596E-003   6.3188183685103608E-002
  -1.6933445191814674E-002   4.7608300942358281E-003   6.2900096782480236E-002
  -1.6322076735035537E-002   4.6342772105224528E-003   6.2871116806383617E-002
  -2.5279902135531586E-002   8.9557615720521344E-003   6.2777059640800326E-002
  -2.4389177129496037E-002   7.6729891334723355E-003   6.2099196754215324E-002
  -2.3498452123460471E-002   6.7596366329827212E-003   6.1720940039616562E-002
  -2.2607727117424897E-002   6.2157040705834686E-003   6.1642289497003719E-002
  -2.1717002111389341E-002   6.0411914462745187E-003   6.1863245126376920E-002
  -7.1129331386438760E-005   4.1353450326631069E-004   6.6268552936762870E-002
  -5.1904608425926146E-005   2.0919109180517204E-004   6.6050646711257044E-002
  -3.2679885465404859E-005   7.4194288428197641E-005   6.6010086167776955E-002
  -1.3455162504884439E-005   8.5440931355401650E-006   6.6146871306322547E-002
   5.7695604556290414E-006   1.2240505926741641E-005   6.6461002126893765E-002
  -5.4991403450340877E-003   1.8204487390184321E-003   6.5073770711576606E-002
  -5.3040276009137756E-003   1.6597636293252255E-003   6.4916136765761925E-002
  -5.1089148567934513E-003   1.5311347011329329E-003   6.4932933180241237E-002
  -4.9138021126731374E-003   1.4345619544410999E-003   6.5124159955014471E-002
  -4.7186893685528218E-003   1.3700453892502296E-003   6.5489817090081726E-002
  -1.0916122812917112E-002   3.2273629747704424E-003   6.3941292001450156E-002
  -1.0548037369368773E-002   3.1103361668454732E-003   6.3806639908743204E-002
  -1.0179951925820432E-002   2.9880751138376682E-003   6.3843502854598402E-002
  -9.8118664822720979E-003   2.8605798157469928E-003   6.4051880839015751E-002
  -9.4437810387237500E-003   2.7278502725736065E-003   6.4431773861995112E-002
  -1.6322076735035537E-002   4.6342772105224528E-003   6.2871116806383617E-002
  -1.5783933913790953E-002   4.5609087043655128E-003   6.2722156140200810E-002
  -1.5245791092546361E-002   4.4450155265423480E-003   6.2741795190848410E-002
  -1.4707648271301761E-002   4.2865976770527746E-003   6.2930033958326331E-002
  -1.4169505450057187E-002   4.0856551558970389E-003   6.3286872442634645E-002
  -2.1717002111389341E-002   6.0411914462745187E-003   6.1863245126376920E-002
  -2.1011717234180279E-002   6.0114812418857744E-003   6.1662685460134786E-002
  -2.0306432356971216E-002   5.9019559392471110E-003   6.1627810188991244E-002
  -1.9601147479762146E-002   5.7126155383586050E-003   6.1758619312946267E-002
  -1.8895862602553083E-002   5.4434600392204158E-003   6.2055112831999881E-002
   5.7695604556290414E-006   1.2240505926741641E-005   6.6461002126893765E-002
   3.0134181166034668E-006   4.3453740221743864E-005   6.6223529633700873E-002
   2.5727577757789222E-007   6.0354009439045342E-005   6.6221812810440067E-002
  -2.4988665614442129E-006   6.2941313579423230E-005   6.6455851657111153E-002
  -5.2550089004732570E-006   5.1215652642322418E-005   6.6925646173714215E-002
  -4.7186893685528218E-003   1.3700453892502296E-003   6.5489817090081726E-002
  -4.4869469919035388E-003   1.3172060997779789E-003   6.5238947407212283E-002
  -4.2552046152542506E-003   1.2556651802426710E-003   6.5221319092387681E-002
  -4.0234622386049676E-003   1.1854226306440840E-003   6.5436932145607460E-002
  -3.7917198619556863E-003   1.1064784509824954E-003   6.5885786566872162E-002
  -9.4437810387237500E-003   2.7278502725736065E-003   6.4431773861995112E-002
  -8.9800544449735523E-003   2.5909584593343804E-003   6.4173118324463596E-002
  -8.5163278512233528E-003   2.4509763510460747E-003   6.4145189853089396E-002
  -8.0526012574731604E-003   2.3079039477089114E-003   6.4347988447872387E-002
  -7.5888746637229557E-003   2.1617412493228350E-003   6.4781514108812555E-002
  -1.4169505450057187E-002   4.0856551558970389E-003   6.3286872442634645E-002
  -1.3476308941093458E-002   3.8647108188906432E-003   6.3026042385455130E-002
  -1.2783112432129722E-002   3.6462875218494784E-003   6.2993425092545435E-002
  -1.2089915923165993E-002   3.4303852647737110E-003   6.3189020563905560E-002
  -1.1396719414202264E-002   3.2170040476629802E-003   6.3612828799535559E-002
  -1.8895862602553083E-002   5.4434600392204158E-003   6.2055112831999881E-002
  -1.7975710480263231E-002   5.1384631784469892E-003   6.1797719590186595E-002
  -1.7055558357973365E-002   4.8415986926531179E-003   6.1766024810755604E-002
  -1.6135406235683502E-002   4.5528665818384585E-003   6.1960028493707062E-002
  -1.5215254113393646E-002   4.2722668460033475E-003   6.2379730639041120E-002
  -5.2550089004732570E-006   5.1215652642322418E-005   6.6925646173714215E-002
  -3.3303208874686796E-006   3.3360500363788237E-005   6.6826645515143224E-002
  -1.4056328744536939E-006   1.7559330478617019E-005   6.6949656472854169E-002
   5.1905513856302654E-007   3.8121429880508262E-006   6.7294679046846967E-002
   2.4437431515658692E-006  -7.8810621086944366E-006   6.7861713237121757E-002
  -3.7917198619556863E-003   1.1064784509824954E-003   6.5885786566872162E-002
  -3.5697083299768943E-003   1.0226970442171190E-003   6.5774711766397348E-002
  -3.3476967979980954E-003   9.3794281330680795E-004   6.5881799037572242E-002
  -3.1256852660193025E-003   8.5221575825197154E-004   6.6207048380396774E-002
  -2.9036737340405044E-003   7.6551587905243634E-004   6.6750459794870931E-002
  -7.5888746637229557E-003   2.1617412493228350E-003   6.4781514108812555E-002
  -7.1506258324107513E-003   2.0120335880705886E-003   6.4655338359895537E-002
  -6.7123770010985529E-003   1.8583262961349573E-003   6.4743475137995860E-002
  -6.2741281697863537E-003   1.7006193735158957E-003   6.5045924443113468E-002
  -5.8358793384741502E-003   1.5389128202136781E-003   6.5562686275248194E-002
  -1.1396719414202264E-002   3.2170040476629802E-003   6.3612828799535559E-002
  -1.0746082828189042E-002   3.0013701319239888E-003   6.3468525295637623E-002
  -1.0095446242175810E-002   2.7787097789630164E-003   6.3534684774124550E-002
  -9.4448096561625776E-003   2.5490229887798182E-003   6.3811307234996326E-002
  -8.7941730701493540E-003   2.3123097613748089E-003   6.4298392678252936E-002
  -1.5215254113393646E-002   4.2722668460033475E-003   6.2379730639041120E-002
  -1.4356079317311761E-002   3.9907066757775556E-003   6.2214272573623608E-002
  -1.3496904521229872E-002   3.6990932617911032E-003   6.2255427945958564E-002
  -1.2637729725147985E-002   3.3974266040437476E-003   6.2503196756046042E-002
  -1.1778554929066105E-002   3.0857067025361617E-003   6.2957579003885988E-002
   2.4437431515658692E-006  -7.8810621086944366E-006   6.7861713237121757E-002
   5.0023332588133851E-006  -1.6249125816159005E-005   6.7883855211774036E-002
   7.5609233660782482E-006  -2.0020889138494535E-005   6.8152465924226802E-002
   1.0119513473336172E-005  -1.9196352076408796E-005   6.8667545374480138E-002
   1.2678103580590627E-005  -1.3775514628999730E-005   6.9429093562534017E-002
  -2.9036737340405044E-003   7.6551587905243634E-004   6.6750459794870931E-002
  -2.6556529894991611E-003   6.8136089859738291E-004   6.6750836519924583E-002
  -2.4076322449578091E-003   6.0326853977619999E-004   6.6995668816045545E-002
  -2.1596115004164666E-003   5.3123880258867592E-004   6.7484956683234412E-002
  -1.9115907558751137E-003   4.6527168703525135E-004   6.8218700121490727E-002
  -5.8358793384741502E-003   1.5389128202136781E-003   6.5562686275248194E-002
  -5.3444096062316496E-003   1.3789709230110081E-003   6.5542764071951851E-002
  -4.8529398739891759E-003   1.2265579686910055E-003   6.5765284272990193E-002
  -4.3614701417466883E-003   1.0816739572535386E-003   6.6230246878363264E-002
  -3.8700004095041877E-003   9.4431888869905833E-004   6.6937651888071020E-002
  -8.7941730701493540E-003   2.3123097613748089E-003   6.4298392678252936E-002
  -8.0612675169386729E-003   2.0765809474247027E-003   6.4259637867855740E-002
  -7.3283619637279996E-003   1.8498473976055335E-003   6.4461312295060358E-002
  -6.5954564105173115E-003   1.6321091119186233E-003   6.4903415959866553E-002
  -5.8625508573066452E-003   1.4233660903629763E-003   6.5585948862274479E-002
  -1.1778554929066105E-002   3.0857067025361617E-003   6.2957579003885988E-002
  -1.0806226721620196E-002   2.7741909718381197E-003   6.2901457907636793E-002
  -9.8338985141742871E-003   2.4731368265205333E-003   6.3083752882256261E-002
  -8.8615703067283849E-003   2.1825442665833819E-003   6.3504463927744559E-002
  -7.8892420992824688E-003   1.9024132920270054E-003   6.4163591044101631E-002
   1.2678103580590627E-005  -1.3775514628999730E-005   6.9429093562534017E-002
   8.9313426561363207E-006  -7.0827689253039061E-006   6.9244966592173274E-002
   5.1845817316924225E-006  -2.4425070929701143E-006   6.9281493461976096E-002
   1.4378208072415855E-006   1.4527086684978929E-007   6.9538674171942788E-002
  -2.3089401172057822E-006   6.8056495527990535E-007   7.0016508722073323E-002
  -1.9115907558751137E-003   4.6527168703525135E-004   6.8218700121490727E-002
  -1.6912797790065957E-003   4.1570321555839396E-004   6.8016177345910256E-002
  -1.4709688021380847E-003   3.9286941060256986E-004   6.8041116205751678E-002
  -1.2506578252695711E-003   3.9677027216714067E-004   6.8293516701015647E-002
  -1.0303468484010557E-003   4.2740580025202313E-004   6.8773378831701593E-002
  -3.8700004095041877E-003   9.4431888869905833E-004   6.6937651888071020E-002
  -3.4188238995842418E-003   8.3848920004206406E-004   6.6745520457662744E-002
  -2.9676473896642873E-003   7.8818132829819310E-004   6.6787658457935412E-002
  -2.5164708797443380E-003   7.9339527346698052E-004   6.7064065888888691E-002
  -2.0652943698243869E-003   8.5413103554865533E-004   6.7574742750522498E-002
  -5.8625508573066452E-003   1.4233660903629763E-003   6.5585948862274479E-002
  -5.1737010190767915E-003   1.2612751845259146E-003   6.5432995927431278E-002
  -4.4848511808469231E-003   1.1834932459938302E-003   6.5521120218527379E-002
  -3.7960013426170513E-003   1.1900202747672124E-003   6.5850321735562531E-002
  -3.1071515043872007E-003   1.2808562708455096E-003   6.6420600478536707E-002
  -7.8892420992824688E-003   1.9024132920270054E-003   6.4163591044101631E-002
  -6.9559111374842345E-003   1.6840611690093210E-003   6.4078603755215680E-002
  -6.0225801756859827E-003   1.5788051636892453E-003   6.4241501487527386E-002
  -5.0892492138877466E-003   1.5866452760670280E-003   6.4652284241036723E-002
  -4.1559182520894966E-003   1.7075815061420307E-003   6.5310952015743773E-002
  -2.3089401172057822E-006   6.8056495527990535E-007   7.0016508722073323E-002
  -1.4788883639926809E-006   3.1108356074449617E-007   6.8677979127746425E-002
  -6.4883661078304899E-007   1.8453507194537977E-007   6.7484875852849679E-002
   1.8121514242484815E-007   3.0091948928501200E-007   6.6437198897383476E-002
   1.0112668956396842E-006   6.6023681277727064E-007   6.5534948261347648E-002
  -1.0303468484010557E-003   4.2740580025202313E-004   6.8773378831701593E-002
  -8.8739537878169961E-004   5.0053202978272981E-004   6.7453879557309748E-002
  -7.4444390916233658E-004   6.3190499568521741E-004   6.6273196799219808E-002
  -6.0149243954298048E-004   8.2152469795873651E-004   6.5231330557431869E-002
  -4.5854096992361745E-004   1.0693911366038700E-003   6.4328280831945972E-002
  -2.0652943698243869E-003   8.5413103554865533E-004   6.7574742750522498E-002
  -1.7868312854672046E-003   1.0007529760051315E-003   6.6332277599531086E-002
  -1.5083682011100153E-003   1.2636254562984617E-003   6.5222019161713385E-002
  -1.2299051167528265E-003   1.6427484764282921E-003   6.4243967437069310E-002
  -9.5144203239564372E-004   2.1381220363949627E-003   6.3398122425598891E-002
  -3.1071515043872007E-003   1.2808562708455096E-003   6.6420600478536707E-002
  -2.6997866084205241E-003   1.5009739222274360E-003   6.5313173254411050E-002
  -2.2924217124538127E-003   1.8953459169118309E-003   6.4331342940330744E-002
  -1.8850568164871084E-003   2.4639722548980177E-003   6.3475109536295718E-002
  -1.4776919205204248E-003   3.2068529361862774E-003   6.2744473042305945E-002
  -4.1559182520894966E-003   1.7075815061420307E-003   6.5310952015743773E-002
  -3.6262613476416156E-003   2.0011948684495184E-003   6.4396566521949139E-002
  -3.0966044431937380E-003   2.5270663775250612E-003   6.3601168135071606E-002
  -2.5669475387458673E-003   3.2851960333671534E-003   6.2924756855110925E-002
  -2.0372906342979794E-003   4.2755838359772591E-003   6.2367332682067400E-002
   1.0112668956396842E-006   6.6023681277727064E-007   6.5534948261347648E-002
   3.5529110364168615E-007   1.1791108713854470E-006   6.0796488353067946E-002
  -3.0068468835978135E-007   1.7741654938507878E-006   5.5939059693739579E-002
  -9.5666048035777940E-007   2.4454006816720941E-006   5.0962662283362603E-002
  -1.6126362723523080E-006   3.1928164330174980E-006   4.5867296121935741E-002
  -4.5854096992361745E-004   1.0693911366038700E-003   6.4328280831945972E-002
  -5.6398949332514894E-004   1.3954885865207767E-003   5.9619794034821039E-002
  -6.6943801672667176E-004   1.8198013226091159E-003   5.4820690893526147E-002
  -7.7488654012820065E-004   2.3423293448694843E-003   4.9930971408060409E-002
  -8.8033506352972607E-004   2.9630726533018681E-003   4.4950635578425491E-002
  -9.5144203239564372E-004   2.1381220363949627E-003   6.3398122425598891E-002
  -1.1333306965279795E-003   2.7897980621699459E-003   5.8817747845236384E-002
  -1.3152193606603231E-003   3.6378284797241589E-003   5.4175109327582349E-002
  -1.4971080247926675E-003   4.6822132890579071E-003   4.9470206872636799E-002
  -1.6789966889250024E-003   5.9229524901709407E-003   4.4703040480400080E-002
  -1.4776919205204248E-003   3.2068529361862774E-003   6.2744473042305945E-002
  -1.7076683185048855E-003   4.1841075378193371E-003   5.8390349784313095E-002
  -1.9376447164893256E-003   5.4558556368388689E-003   5.4002314995907810E-002
  -2.1676211144737627E-003   7.0220972332462467E-003   4.9580368677089481E-002
  -2.3975975124582265E-003   8.8828323270397913E-003   4.5124510827858788E-002
  -2.0372906342979794E-003   4.2755838359772591E-003   6.2367332682067400E-002
  -2.2870023592558228E-003   5.5784170134685063E-003   5.8337599852052224E-002
  -2.5367140842136628E-003   7.2738827939542727E-003   5.4302307898502600E-002
  -2.7864258091715166E-003   9.3619811774342046E-003   5.0261456821419387E-002
  -3.0361375341293462E-003   1.1842712163908864E-002   4.6215046620802003E-002
  -2.5279902135531586E-002   8.9557615720521344E-003   6.2777059640800326E-002
  -2.4389177129496037E-002   7.6729891334723355E-003   6.2099196754215324E-002
  -2.3498452123460471E-002   6.7596366329827212E-003   6.1720940039616562E-002
  -2.2607727117424897E-002   6.2157040705834686E-003   6.1642289497003719E-002
  -2.1717002111389341E-002   6.0411914462745187E-003   6.1863245126376920E-002
  -3.1825963213041222E-002   1.0185409074085494E-002   5.8704544540847364E-002
  -3.0647439903943946E-002   9.3199229579580267E-003   5.8384962459041650E-002
  -2.9468916594846628E-002   8.6580953955232992E-003   5.8341370811373458E-002
  -2.8290393285749331E-002   8.1999263867812665E-003   5.8573769597842572E-002
  -2.7111869976652020E-002   7.9454159317320638E-003   5.9082158818449165E-002
  -3.8288474862738765E-002   1.1415056576118909E-002   5.5132196455545304E-002
  -3.6845768988428382E-002   1.0966856782443787E-002   5.5005133794121405E-002
  -3.5403063114117971E-002   1.0556554158063884E-002   5.5130445828986262E-002
  -3.3960357239807594E-002   1.0184148702979122E-002   5.5508132560139922E-002
  -3.2517651365497169E-002   9.8496404171895813E-003   5.6138193987582422E-002
  -4.4667437084624277E-002   1.2644704078152283E-002   5.2060015384894548E-002
  -4.2984164382949358E-002   1.2613790606929541E-002   5.1959710759454714E-002
  -4.1300891681274481E-002   1.2455012920604466E-002   5.2088165092455202E-002
  -3.9617618979599561E-002   1.2168371019176893E-002   5.2445378383895708E-002
  -3.7934346277924663E-002   1.1753864902647113E-002   5.3031350633776557E-002
  -5.0962849878697647E-002   1.3874351580185684E-002   4.9488001328894804E-002
  -4.9062626087506916E-002   1.4260724431415295E-002   4.9248693355041673E-002
  -4.7162402296316144E-002   1.4353471683145033E-002   4.9214528601780133E-002
  -4.5262178505125379E-002   1.4152593335374702E-002   4.9385507069110060E-002
  -4.3361954713934628E-002   1.3658089388104699E-002   4.9761628757031662E-002
  -2.1717002111389341E-002   6.0411914462745187E-003   6.1863245126376920E-002
  -2.1011717234180279E-002   6.0114812418857744E-003   6.1662685460134786E-002
  -2.0306432356971216E-002   5.9019559392471110E-003   6.1627810188991244E-002
  -1.9601147479762146E-002   5.7126155383586050E-003   6.1758619312946267E-002
  -1.8895862602553083E-002   5.4434600392204158E-003   6.2055112831999881E-002
  -2.7111869976652020E-002   7.9454159317320638E-003   5.9082158818449165E-002
  -2.6240290047694459E-002   7.7672413931058337E-003   5.8805895375726336E-002
  -2.5368710118736894E-002   7.5380801336328643E-003   5.8696537641401925E-002
  -2.4497130189779316E-002   7.2579321533135042E-003   5.8754085615475973E-002
  -2.3625550260821741E-002   6.9267974521473596E-003   5.8978539297948357E-002
  -3.2517651365497169E-002   9.8496404171895813E-003   5.6138193987582422E-002
  -3.1478555071491235E-002   9.5230015443258376E-003   5.5815055145782048E-002
  -3.0439458777485280E-002   9.1742043280186730E-003   5.5660043325679948E-002
  -2.9400362483479339E-002   8.8032487682681813E-003   5.5673158527276091E-002
  -2.8361266189473398E-002   8.4101348650742203E-003   5.5854400750570646E-002
  -3.7934346277924663E-002   1.1753864902647113E-002   5.3031350633776557E-002
  -3.6726512305570544E-002   1.1278761695546036E-002   5.2690164770301855E-002
  -3.5518678333216383E-002   1.0810328522404565E-002   5.2518327241825286E-002
  -3.4310844360862229E-002   1.0348565383222914E-002   5.2515838048346870E-002
  -3.3103010388508117E-002   9.8934722780010947E-003   5.2682697189866665E-002
  -4.3361954713934628E-002   1.3658089388104699E-002   4.9761628757031662E-002
  -4.1984161749932428E-002   1.3034521846765956E-002   4.9431224249285838E-002
  -4.0606368785930193E-002   1.2446452716790207E-002   4.9271389389837966E-002
  -3.9228575821927972E-002   1.1893881998177640E-002   4.9282124178688130E-002
  -3.7850782857925758E-002   1.1376809690928025E-002   4.9463428615836247E-002
  -1.8895862602553083E-002   5.4434600392204158E-003   6.2055112831999881E-002
  -1.7975710480263231E-002   5.1384631784469892E-003   6.1797719590186595E-002
  -1.7055558357973365E-002   4.8415986926531179E-003   6.1766024810755604E-002
  -1.6135406235683502E-002   4.5528665818384585E-003   6.1960028493707062E-002
  -1.5215254113393646E-002   4.2722668460033475E-003   6.2379730639041120E-002
  -2.3625550260821741E-002   6.9267974521473596E-003   5.8978539297948357E-002
  -2.2483270341728936E-002   6.5694272038211154E-003   5.8714871120925577E-002
  -2.1340990422636128E-002   6.2105725820215812E-003   5.8669760075126157E-002
  -2.0198710503543313E-002   5.8502335867483719E-003   5.8843206160550103E-002
  -1.9056430584450515E-002   5.4884102180018379E-003   5.9235209377197673E-002
  -2.8361266189473398E-002   8.4101348650742203E-003   5.5854400750570646E-002
  -2.7003999804736618E-002   8.0003912291952556E-003   5.5574840889885346E-002
  -2.5646733419999838E-002   7.5795464713900376E-003   5.5506696829264547E-002
  -2.4289467035263034E-002   7.1476005916583391E-003   5.5649968568708214E-002
  -2.2932200650526278E-002   6.7045535900004394E-003   5.6004656108216311E-002
  -3.3103010388508117E-002   9.8934722780010947E-003   5.2682697189866665E-002
  -3.1537898869286318E-002   9.4313552545694998E-003   5.2377628897066000E-002
  -2.9972787350064537E-002   8.9485203607585807E-003   5.2276835073170907E-002
  -2.8407675830842749E-002   8.4449675965684451E-003   5.2380315718181351E-002
  -2.6842564311620964E-002   7.9206969619990963E-003   5.2688070832097277E-002
  -3.7850782857925758E-002   1.1376809690928025E-002   4.9463428615836247E-002
  -3.6084967535377974E-002   1.0862319279943550E-002   4.9123235142467414E-002
  -3.4319152212830162E-002   1.0317494250126999E-002   4.8980174806845161E-002
  -3.2553336890282357E-002   9.7423346014782856E-003   4.9034247608969364E-002
  -3.0787521567734552E-002   9.1368403339975868E-003   4.9285453548840230E-002
  -1.5215254113393646E-002   4.2722668460033475E-003   6.2379730639041120E-002
  -1.4356079317311761E-002   3.9907066757775556E-003   6.2214272573623608E-002
  -1.3496904521229872E-002   3.6990932617911032E-003   6.2255427945958564E-002
  -1.2637729725147985E-002   3.3974266040437476E-003   6.2503196756046042E-002
  -1.1778554929066105E-002   3.0857067025361617E-003   6.2957579003885988E-002
  -1.9056430584450515E-002   5.4884102180018379E-003   5.9235209377197673E-002
  -1.7993639082661300E-002   5.1227379473402501E-003   5.9024027647657518E-002
  -1.6930847580872092E-002   4.7508522463219072E-003   5.9013465891779304E-002
  -1.5868056079082905E-002   4.3727531149466772E-003   5.9203524109563380E-002
  -1.4805264577293701E-002   3.9884405532149003E-003   5.9594202301009591E-002
  -2.2932200650526278E-002   6.7045535900004394E-003   5.6004656108216311E-002
  -2.1671785907120066E-002   6.2547692189028614E-003   5.5751590527957334E-002
  -2.0411371163713863E-002   5.8026112308525862E-003   5.5693151457270107E-002
  -1.9150956420307671E-002   5.3480796258493814E-003   5.5829338896154719E-002
  -1.7890541676901451E-002   4.8911744038935834E-003   5.6160152844611344E-002
  -2.6842564311620964E-002   7.9206969619990963E-003   5.2688070832097277E-002
  -2.5390519790688060E-002   7.3868004904655699E-003   5.2396961214523398E-002
  -2.3938475269755132E-002   6.8543702153832167E-003   5.2294484642430944E-002
  -2.2486430748822207E-002   6.3234061367523648E-003   5.2380641115820158E-002
  -2.1034386227889303E-002   5.7939082545723497E-003   5.2655430634690796E-002
  -3.0787521567734552E-002   9.1368403339975868E-003   4.9285453548840230E-002
  -2.9149840733365254E-002   8.5188317620280563E-003   4.8960139707355466E-002
  -2.7512159898995948E-002   7.9061291999143329E-003   4.8817465447261871E-002
  -2.5874479064626667E-002   7.2987326476549146E-003   4.8857430768559515E-002
  -2.4236798230257345E-002   6.6966421052511160E-003   4.9080035671248523E-002
  -1.1778554929066105E-002   3.0857067025361617E-003   6.2957579003885988E-002
  -1.0806226721620196E-002   2.7741909718381197E-003   6.2901457907636793E-002
  -9.8338985141742871E-003   2.4731368265205333E-003   6.3083752882256261E-002
  -8.8615703067283849E-003   2.1825442665833819E-003   6.3504463927744559E-002
  -7.8892420992824688E-003   1.9024132920270054E-003   6.4163591044101631E-002
  -1.4805264577293701E-002   3.9884405532149003E-003   5.9594202301009591E-002
  -1.3602554064194479E-002   3.6043123181725978E-003   5.9480001822723061E-002
  -1.2399843551095304E-002   3.2267661668664849E-003   5.9588149884874375E-002
  -1.1197133037996094E-002   2.8558020992963465E-003   5.9918646487463381E-002
  -9.9944225248969100E-003   2.4914201154621063E-003   6.0471491630490148E-002
  -1.7890541676901451E-002   4.8911744038935834E-003   5.6160152844611344E-002
  -1.6473516388579877E-002   4.4344336645071036E-003   5.5983993482642852E-002
  -1.5056491100258288E-002   3.9803955072123115E-003   5.6014115130681399E-002
  -1.3639465811936705E-002   3.5290599320090855E-003   5.6250517788726910E-002
  -1.2222440523615126E-002   3.0804269388973737E-003   5.6693201456779169E-002
  -2.1034386227889303E-002   5.7939082545723497E-003   5.2655430634690796E-002
  -1.9419113694776280E-002   5.2645550108419287E-003   5.2413432887396201E-002
  -1.7803841161663239E-002   4.7340248475581451E-003   5.2361648619677639E-002
  -1.6188568628550191E-002   4.2023177647218263E-003   5.2500077831534965E-002
  -1.4573296095437172E-002   3.6694337623323914E-003   5.2828720522968331E-002
  -2.4236798230257345E-002   6.6966421052511160E-003   4.9080035671248523E-002
  -2.2439345982783757E-002   6.0946763571760321E-003   4.8768320036983226E-002
  -2.0641893735310182E-002   5.4876541879041174E-003   4.8630750351862984E-002
  -1.8844441487836636E-002   4.8755755974344631E-003   4.8667326615887851E-002
  -1.7046989240363020E-002   4.2584405857678531E-003   4.8878048829057774E-002
  -7.8892420992824688E-003   1.9024132920270054E-003   6.4163591044101631E-002
  -6.9559111374842345E-003   1.6840611690093210E-003   6.4078603755215680E-002
  -6.0225801756859827E-003   1.5788051636892453E-003   6.4241501487527386E-002
  -5.0892492138877466E-003   1.5866452760670280E-003   6.4652284241036723E-002
  -4.1559182520894966E-003   1.7075815061420307E-003   6.5310952015743773E-002
  -9.9944225248969100E-003   2.4914201154621063E-003   6.0471491630490148E-002
  -8.8123284929241194E-003   2.1872627207917827E-003   6.0378026423622055E-002
  -7.6302344609513306E-003   1.9969724207129225E-003   6.0534202335905229E-002
  -6.4481404289785148E-003   1.9205492152258793E-003   6.0940019367340087E-002
  -5.2660463970057511E-003   1.9579931043302023E-003   6.1595477517926156E-002
  -1.2222440523615126E-002   3.0804269388973737E-003   5.6693201456779169E-002
  -1.0789827323513934E-002   2.6904642725743000E-003   5.6592029308822789E-002
  -9.3572141234127687E-003   2.4151396777365997E-003   5.6742254377971507E-002
  -7.9246009233115908E-003   2.2544531543848417E-003   5.7143876664225629E-002
  -6.4919877232104128E-003   2.2084047025183740E-003   5.7796896167585182E-002
  -1.4573296095437172E-002   3.6694337623323914E-003   5.2828720522968331E-002
  -1.2888407629253756E-002   3.1936658243566785E-003   5.2720612410817581E-002
  -1.1203519163070341E-002   2.8333069347604989E-003   5.2865657613725858E-002
  -9.5186306968869250E-003   2.5883570935435266E-003   5.3263856131693439E-002
  -7.8337422307035096E-003   2.4588163007064900E-003   5.3915207964719818E-002
  -1.7046989240363020E-002   4.2584405857678531E-003   4.8878048829057774E-002
  -1.5108069410143504E-002   3.6968673761391679E-003   4.8763775729606662E-002
  -1.3169149579924017E-002   3.2514741917840650E-003   4.8904412043168421E-002
  -1.1230229749704515E-002   2.9222610327025167E-003   4.9299957769743413E-002
  -9.2913099194850135E-003   2.7092278988946061E-003   4.9950412909331110E-002
  -4.1559182520894966E-003   1.7075815061420307E-003   6.5310952015743773E-002
  -3.6262613476416156E-003   2.0011948684495184E-003   6.4396566521949139E-002
  -3.0966044431937380E-003   2.5270663775250612E-003   6.3601168135071606E-002
  -2.5669475387458673E-003   3.2851960333671534E-003   6.2924756855110925E-002
  -2.0372906342979794E-003   4.2755838359772591E-003   6.2367332682067400E-002
  -5.2660463970057511E-003   1.9579931043302023E-003   6.1595477517926156E-002
  -4.5913766704814389E-003   2.2153296253464849E-003   6.0870392716002697E-002
  -3.9167069439571371E-003   2.7985843155959866E-003   6.0316346451314951E-002
  -3.2420372174328249E-003   3.7077571750781524E-003   5.9933338723863167E-002
  -2.5673674909085231E-003   4.9428482037927601E-003   5.9721369533647151E-002
  -6.4919877232104128E-003   2.2084047025183740E-003   5.7796896167585182E-002
  -5.6202537442908741E-003   2.4294643822436734E-003   5.7354772079998007E-002
  -4.7485197653713632E-003   3.0701022536672590E-003   5.7135737959965335E-002
  -3.8767857864518262E-003   4.1303183167885997E-003   5.7139793807487481E-002
  -3.0050518075322857E-003   5.6101125716082056E-003   5.7366939622564034E-002
  -7.8337422307035096E-003   2.4588163007064900E-003   5.3915207964719818E-002
  -6.7128925690699559E-003   2.6435991391405844E-003   5.3849704613934402E-002
  -5.5920429074364040E-003   3.3416201917381358E-003   5.4059342661022441E-002
  -4.4711932458028382E-003   4.5528794584991008E-003   5.4544122105983923E-002
  -3.3503435841692984E-003   6.2773769394235679E-003   5.5304042948818653E-002
  -9.2913099194850135E-003   2.7092278988946061E-003   4.9950412909331110E-002
  -7.8692931448186287E-003   2.8577338960374954E-003   5.0355190317812770E-002
  -6.4472763701522717E-003   3.6131381298092624E-003   5.1087160554486533E-002
  -5.0252595954859078E-003   4.9754406002096643E-003   5.2146323619352425E-002
  -3.6032428208195300E-003   6.9446413072389301E-003   5.3532679512410475E-002
  -2.0372906342979794E-003   4.2755838359772591E-003   6.2367332682067400E-002
  -2.2870023592558228E-003   5.5784170134685063E-003   5.8337599852052224E-002
  -2.5367140842136628E-003   7.2738827939542727E-003   5.4302307898502600E-002
  -2.7864258091715166E-003   9.3619811774342046E-003   5.0261456821419387E-002
  -3.0361375341293462E-003   1.1842712163908864E-002   4.6215046620802003E-002
  -2.5673674909085231E-003   4.9428482037927601E-003   5.9721369533647151E-002
  -2.8401140112949141E-003   6.5676428019040278E-003   5.6189614358001294E-002
  -3.1128605316813121E-003   8.6459263695747024E-003   5.2617348715032430E-002
  -3.3856070520676528E-003   1.1177698906805721E-002   4.9004572604740310E-002
  -3.6583535724540941E-003   1.4162960413596437E-002   4.5351286027125681E-002
  -3.0050518075322857E-003   5.6101125716082056E-003   5.7366939622564034E-002
  -3.3357844671362512E-003   7.5568685903393273E-003   5.4394018467853134E-002
  -3.6665171267401889E-003   1.0017969945195784E-002   5.1345635502029932E-002
  -3.9972497863441266E-003   1.2993416636177400E-002   4.8221790725095144E-002
  -4.3279824459480920E-003   1.6483208663284010E-002   4.5022484137047680E-002
  -3.3503435841692984E-003   6.2773769394235679E-003   5.5304042948818653E-002
  -3.7740137267798296E-003   8.5460943787747379E-003   5.2950812181607722E-002
  -4.1976838693903607E-003   1.1390013520816429E-002   5.0487168259495840E-002
  -4.6213540120008424E-003   1.4809134365548664E-002   4.7913111182482579E-002
  -5.0450241546113944E-003   1.8803456912971694E-002   4.5228640950568805E-002
  -3.6032428208195300E-003   6.9446413072389301E-003   5.3532679512410475E-002
  -4.1548017902256484E-003   9.5353201672104815E-003   5.1859995499265121E-002
  -4.7063607596317392E-003   1.2762057096437240E-002   5.0041946987429475E-002
  -5.2579197290378507E-003   1.6624852094920692E-002   4.8078533976903703E-002
  -5.8094786984439484E-003   2.1123705162659157E-002   4.5969756467687972E-002
  -5.0962849878697647E-002   1.3874351580185684E-002   4.9488001328894804E-002
  -4.9062626087506916E-002   1.4260724431415295E-002   4.9248693355041673E-002
  -4.7162402296316144E-002   1.4353471683145033E-002   4.9214528601780133E-002
  -4.5262178505125379E-002   1.4152593335374702E-002   4.9385507069110060E-002
  -4.3361954713934628E-002   1.3658089388104699E-002   4.9761628757031662E-002
  -5.7220627518285563E-002   1.6281958438671196E-002   4.5106590590579698E-002
  -5.5110840199726785E-002   1.6209273103016869E-002   4.4637171612566029E-002
  -5.3001052881167972E-002   1.5977708982670646E-002   4.4381736468696920E-002
  -5.0891265562609186E-002   1.5587266077632764E-002   4.4340285158972301E-002
  -4.8781478244050380E-002   1.5037944387902930E-002   4.4512817683392214E-002
  -6.3486684276714722E-002   1.8689565297156763E-002   4.0198748257976633E-002
  -6.1158492817234907E-002   1.8157821774618360E-002   3.9633965090610457E-002
  -5.8830301357755146E-002   1.7601946282196294E-002   3.9292006370941955E-002
  -5.6502109898275296E-002   1.7021938819890579E-002   3.9172872098970885E-002
  -5.4173918438795446E-002   1.6417799387701243E-002   3.9276562274697280E-002
  -6.9761020153985068E-002   2.1097172155642288E-002   3.4764474331085302E-002
  -6.7205583940031274E-002   2.0106370446219893E-002   3.4239073789174901E-002
  -6.4650147726077453E-002   1.9226183581721856E-002   3.3945338308515115E-002
  -6.2094711512123618E-002   1.8456611562148461E-002   3.3883267889105735E-002
  -5.9539275298169790E-002   1.7797654387499487E-002   3.4052862530946797E-002
  -7.6043635150096656E-002   2.3504779014127841E-002   2.8803768809905983E-002
  -7.3252113568115840E-002   2.2054919117821425E-002   2.8452497708259528E-002
  -7.0460591986135024E-002   2.0850420881247569E-002   2.8341732281416482E-002
  -6.7669070404154222E-002   1.9891284304406443E-002   2.8471472529376887E-002
  -6.4877548822173420E-002   1.9177509387297842E-002   2.8841718452140841E-002
  -4.3361954713934628E-002   1.3658089388104699E-002   4.9761628757031662E-002
  -4.1984161749932428E-002   1.3034521846765956E-002   4.9431224249285838E-002
  -4.0606368785930193E-002   1.2446452716790207E-002   4.9271389389837966E-002
  -3.9228575821927972E-002   1.1893881998177640E-002   4.9282124178688130E-002
  -3.7850782857925758E-002   1.1376809690928025E-002   4.9463428615836247E-002
  -4.8781478244050380E-002   1.5037944387902930E-002   4.4512817683392214E-002
  -4.7236113667747721E-002   1.4418888682667538E-002   4.4233953057541422E-002
  -4.5690749091445090E-002   1.3819243731112908E-002   4.4119662007993429E-002
  -4.4145384515142432E-002   1.3239009533239055E-002   4.4169944534748429E-002
  -4.2600019938839800E-002   1.2678186089045473E-002   4.4384800637806282E-002
  -5.4173918438795446E-002   1.6417799387701243E-002   3.9276562274697280E-002
  -5.2466978322187427E-002   1.5803255518569176E-002   3.9033149873059135E-002
  -5.0760038205579353E-002   1.5192034745435498E-002   3.8948314975728773E-002
  -4.9053098088971334E-002   1.4584137068300137E-002   3.9022057582706313E-002
  -4.7346157972363259E-002   1.3979562487163089E-002   3.9254377693991635E-002
  -5.9539275298169790E-002   1.7797654387499487E-002   3.4052862530946797E-002
  -5.7676755713251454E-002   1.7187622354470869E-002   3.3828814695838906E-002
  -5.5814236128333118E-002   1.6564825759758005E-002   3.3757348293043873E-002
  -5.3951716543414727E-002   1.5929264603361248E-002   3.3838463322561588E-002
  -5.2089196958496384E-002   1.5280938885280593E-002   3.4072159784392028E-002
  -6.4877548822173420E-002   1.9177509387297842E-002   2.8841718452140841E-002
  -6.2865445840939838E-002   1.8571989190372395E-002   2.8620947525880985E-002
  -6.0853342859706228E-002   1.7937616774080622E-002   2.8546761959938827E-002
  -5.8841239878472590E-002   1.7274392138422620E-002   2.8619161754314421E-002
  -5.6829136897239008E-002   1.6582315283398208E-002   2.8838146909007656E-002
  -3.7850782857925758E-002   1.1376809690928025E-002   4.9463428615836247E-002
  -3.6084967535377974E-002   1.0862319279943550E-002   4.9123235142467414E-002
  -3.4319152212830162E-002   1.0317494250126999E-002   4.8980174806845161E-002
  -3.2553336890282357E-002   9.7423346014782856E-003   4.9034247608969364E-002
  -3.0787521567734552E-002   9.1368403339975868E-003   4.9285453548840230E-002
  -4.2600019938839800E-002   1.2678186089045473E-002   4.4384800637806282E-002
  -4.0637525379485777E-002   1.2117204939946113E-002   4.4022221919725268E-002
  -3.8675030820131781E-002   1.1536497627354286E-002   4.3855868537510098E-002
  -3.6712536260777785E-002   1.0936064151269791E-002   4.3885740491160723E-002
  -3.4750041701423762E-002   1.0315904511693064E-002   4.4111837780677121E-002
  -4.7346157972363259E-002   1.3979562487163089E-002   3.9254377693991635E-002
  -4.5187891978083802E-002   1.3372090599948719E-002   3.8880022186537952E-002
  -4.3029625983804401E-002   1.2755501004581470E-002   3.8700984213069466E-002
  -4.0871359989525000E-002   1.2129793701061408E-002   3.8717263773586030E-002
  -3.8713093995245543E-002   1.1494968689388624E-002   3.8928860868087709E-002
  -5.2089196958496384E-002   1.5280938885280593E-002   3.4072159784392028E-002
  -4.9736067331172154E-002   1.4626976259951081E-002   3.3696635942905465E-002
  -4.7382937703847980E-002   1.3974504381808649E-002   3.3515521833523305E-002
  -4.5029808076523806E-002   1.3323523250852915E-002   3.3528817456245669E-002
  -4.2676678449199520E-002   1.2674032867084087E-002   3.3736522811072284E-002
  -5.6829136897239008E-002   1.6582315283398208E-002   2.8838146909007656E-002
  -5.4282051438750784E-002   1.5881861919953916E-002   2.8472063188827890E-002
  -5.1734965980262559E-002   1.5193507759035843E-002   2.8299481398871645E-002
  -4.9187880521774335E-002   1.4517252800644424E-002   2.8320401539139117E-002
  -4.6640795063286111E-002   1.3853097044779661E-002   2.8534823609630333E-002
  -3.0787521567734552E-002   9.1368403339975868E-003   4.9285453548840230E-002
  -2.9149840733365254E-002   8.5188317620280563E-003   4.8960139707355466E-002
  -2.7512159898995948E-002   7.9061291999143329E-003   4.8817465447261871E-002
  -2.5874479064626667E-002   7.2987326476549146E-003   4.8857430768559515E-002
  -2.4236798230257345E-002   6.6966421052511160E-003   4.9080035671248523E-002
  -3.4750041701423762E-002   1.0315904511693064E-002   4.4111837780677121E-002
  -3.2937111649372693E-002   9.6839787857844195E-003   4.3779351415692391E-002
  -3.1124181597321568E-002   9.0482470507044221E-003   4.3614723904680103E-002
  -2.9311251545270506E-002   8.4087093064533561E-003   4.3617955247640325E-002
  -2.7498321493219374E-002   7.7653655530310894E-003   4.3789045444572516E-002
  -3.8713093995245543E-002   1.1494968689388624E-002   3.8928860868087709E-002
  -3.6739695452931445E-002   1.0849125809540394E-002   3.8580089960576686E-002
  -3.4766296910617375E-002   1.0190364901494851E-002   3.8384397179619355E-002
  -3.2792898368303333E-002   9.5186859652515773E-003   3.8341782525215418E-002
  -3.0819499825989263E-002   8.8340890008107853E-003   3.8452245997365075E-002
  -4.2676678449199520E-002   1.2674032867084087E-002   3.3736522811072284E-002
  -4.0557592144041407E-002   1.2014272833296563E-002   3.3362355342008605E-002
  -3.8438505838883273E-002   1.1332482752285333E-002   3.3126485272079668E-002
  -3.6319419533725139E-002   1.0628662624049965E-002   3.3028912601285640E-002
  -3.4200333228566956E-002   9.9028124485905089E-003   3.3069637329625888E-002
  -4.6640795063286111E-002   1.3853097044779661E-002   2.8534823609630333E-002
  -4.4390801722702738E-002   1.3179419857052566E-002   2.8126147559987824E-002
  -4.2140808382119338E-002   1.2474600603075758E-002   2.7840988182061155E-002
  -3.9890815041535951E-002   1.1738639282848198E-002   2.7679345475850103E-002
  -3.7640821700952509E-002   1.0971535896370344E-002   2.7641219441355003E-002
  -2.4236798230257345E-002   6.6966421052511160E-003   4.9080035671248523E-002
  -2.2439345982783757E-002   6.0946763571760321E-003   4.8768320036983226E-002
  -2.0641893735310182E-002   5.4876541879041174E-003   4.8630750351862984E-002
  -1.8844441487836636E-002   4.8755755974344631E-003   4.8667326615887851E-002
  -1.7046989240363020E-002   4.2584405857678531E-003   4.8878048829057774E-002
  -2.7498321493219374E-002   7.7653655530310894E-003   4.3789045444572516E-002
  -2.5532683441645970E-002   7.1211842147769211E-003   4.3410251804609390E-002
  -2.3567045390072656E-002   6.4791337160309548E-003   4.3193683823700812E-002
  -2.1601407338499329E-002   5.8392140567928644E-003   4.3139341501846604E-002
  -1.9635769286925939E-002   5.2014252370629066E-003   4.3247224839046861E-002
  -3.0819499825989263E-002   8.8340890008107853E-003   3.8452245997365075E-002
  -2.8697596260406740E-002   8.1476920723777269E-003   3.8013561612409402E-002
  -2.6575692694824245E-002   7.4706132441578893E-003   3.7725182596417453E-002
  -2.4453789129241729E-002   6.8028525161512622E-003   3.7587108949389512E-002
  -2.2331885563659289E-002   6.1444098883579046E-003   3.7599340671325310E-002
  -3.4200333228566956E-002   9.9028124485905089E-003   3.3069637329625888E-002
  -3.1934084439065903E-002   9.1741999299784632E-003   3.2578249460382687E-002
  -2.9667835649564947E-002   8.4620927722848308E-003   3.2225246670013030E-002
  -2.7401586860063939E-002   7.7664909755094397E-003   3.2010628958516425E-002
  -2.5135338070562924E-002   7.0873945396527638E-003   3.1934396325892983E-002
  -3.7640821700952509E-002   1.0971535896370344E-002   2.7641219441355003E-002
  -3.5242147977623678E-002   1.0200707787579366E-002   2.7104315348529973E-002
  -3.2843474254294736E-002   9.4535723004117167E-003   2.6693876044487364E-002
  -3.0444800530965863E-002   8.7301294348679087E-003   2.6409901529227453E-002
  -2.8046126807636934E-002   8.0303791909479560E-003   2.6252391802750186E-002
  -1.7046989240363020E-002   4.2584405857678531E-003   4.8878048829057774E-002
  -1.5108069410143504E-002   3.6968673761391679E-003   4.8763775729606662E-002
  -1.3169149579924017E-002   3.2514741917840650E-003   4.8904412043168421E-002
  -1.1230229749704515E-002   2.9222610327025167E-003   4.9299957769743413E-002
  -9.2913099194850135E-003   2.7092278988946061E-003   4.9950412909331110E-002
  -1.9635769286925939E-002   5.2014252370629066E-003   4.3247224839046861E-002
  -1.7480474026349016E-002   4.6009674187609262E-003   4.3081437121080479E-002
  -1.5325178765772163E-002   4.0730407638067956E-003   4.3093490850816096E-002
  -1.3169883505195212E-002   3.6176452722007160E-003   4.3283386028253490E-002
  -1.1014588244618331E-002   3.2347809439431385E-003   4.3651122653392549E-002
  -2.2331885563659289E-002   6.1444098883579046E-003   3.7599340671325310E-002
  -2.0037282838036123E-002   5.5050674613825179E-003   3.7338389472918371E-002
  -1.7742680112412951E-002   4.8946073358296371E-003   3.7178211756902169E-002
  -1.5448077386789844E-002   4.3130295116993594E-003   3.7118807523276481E-002
  -1.3153474661166675E-002   3.7603339889917264E-003   3.7160176772041392E-002
  -2.5135338070562924E-002   7.0873945396527638E-003   3.1934396325892983E-002
  -2.2778495845204721E-002   6.4091675040041929E-003   3.1534632785119900E-002
  -2.0421653619846596E-002   5.7161739078524787E-003   3.1158574761426465E-002
  -1.8064811394488435E-002   5.0084137511977808E-003   3.0806222254812485E-002
  -1.5707969169130268E-002   4.2858870340403421E-003   3.0477575265277813E-002
  -2.8046126807636934E-002   8.0303791909479560E-003   2.6252391802750186E-002
  -2.5704113047854915E-002   7.3132675466258124E-003   2.5670167057685545E-002
  -2.3362099288072938E-002   6.5377404798751260E-003   2.5034579864389284E-002
  -2.1020085528290926E-002   5.7037979906960704E-003   2.4345630222861264E-002
  -1.8678071768508941E-002   4.8114400790889578E-003   2.3603318133101348E-002
  -9.2913099194850135E-003   2.7092278988946061E-003   4.9950412909331110E-002
  -7.8692931448186287E-003   2.8577338960374954E-003   5.0355190317812770E-002
  -6.4472763701522717E-003   3.6131381298092624E-003   5.1087160554486533E-002
  -5.0252595954859078E-003   4.9754406002096643E-003   5.2146323619352425E-002
  -3.6032428208195300E-003   6.9446413072389301E-003   5.3532679512410475E-002
  -1.1014588244618331E-002   3.2347809439431385E-003   4.3651122653392549E-002
  -9.2470850775989988E-003   3.1632092586895699E-003   4.4237061714264281E-002
  -7.4795819105796316E-003   3.6416916960965995E-003   4.5186780731649834E-002
  -5.7120787435602192E-003   4.6702282561640260E-003   4.6500279705549097E-002
  -3.9445755765408763E-003   6.2488189388922866E-003   4.8177558635962070E-002
  -1.3153474661166675E-002   3.7603339889917264E-003   3.7160176772041392E-002
  -1.1003897973472884E-002   3.4686846213414779E-003   3.7870433371335249E-002
  -8.8543212857790654E-003   3.6702452623838117E-003   3.8981057055464327E-002
  -6.7047445980852761E-003   4.3650159121184952E-003   4.0492047824428674E-002
  -4.5551679103914555E-003   5.5529965705457540E-003   4.2403405678228145E-002
  -1.5707969169130268E-002   4.2858870340403421E-003   3.0477575265277813E-002
  -1.3139731832440476E-002   3.7741599839935802E-003   3.1255305289025571E-002
  -1.0571494495750657E-002   3.6987988286712528E-003   3.2469989525930082E-002
  -8.0032571590608389E-003   4.0598035680729106E-003   3.4121627975991324E-002
  -5.4350198223709900E-003   4.8571742021991660E-003   3.6210220639209367E-002
  -1.8678071768508941E-002   4.8114400790889578E-003   2.3603318133101348E-002
  -1.5654586654501618E-002   4.0796353466454049E-003   2.4391677467335060E-002
  -1.2631101540494349E-002   3.7273523949583887E-003   2.5653578143046862E-002
  -9.6076164264870395E-003   3.7545912240272220E-003   2.7389020160237088E-002
  -6.5841313124797574E-003   4.1613518338525779E-003   2.9598003518905402E-002
  -3.6032428208195300E-003   6.9446413072389301E-003   5.3532679512410475E-002
  -4.1548017902256484E-003   9.5353201672104815E-003   5.1859995499265121E-002
  -4.7063607596317392E-003   1.2762057096437240E-002   5.0041946987429475E-002
  -5.2579197290378507E-003   1.6624852094920692E-002   4.8078533976903703E-002
  -5.8094786984439484E-003   2.1123705162659157E-002   4.5969756467687972E-002
  -3.9445755765408763E-003   6.2488189388922866E-003   4.8177558635962070E-002
  -4.5376864581673226E-003   8.6872038326767376E-003   4.7242223815511131E-002
  -5.1307973397936718E-003   1.2295123025913790E-002   4.6369149669309884E-002
  -5.7239082214200834E-003   1.7072576518602930E-002   4.5558336197358329E-002
  -6.3170191030464118E-003   2.3019564310744478E-002   4.4809783399655911E-002
  -4.5551679103914555E-003   5.5529965705457540E-003   4.2403405678228145E-002
  -4.9822055312984947E-003   7.8390874981434933E-003   4.2738896280668681E-002
  -5.4092431522055895E-003   1.1828188955389923E-002   4.3344272730298394E-002
  -5.8362807731126062E-003   1.7520300942285565E-002   4.4219535027116993E-002
  -6.2633183940196124E-003   2.4915423458829800E-002   4.5364683171125408E-002
  -5.4350198223709900E-003   4.8571742021991660E-003   3.6210220639209367E-002
  -5.4883590096191284E-003   6.9909711636099992E-003   3.8350012894737509E-002
  -5.5416981968672415E-003   1.1361254884866376E-002   4.0967316170394473E-002
  -5.5950373841154120E-003   1.7968025365968001E-002   4.4062130466180627E-002
  -5.6483765713635503E-003   2.6811282606915010E-002   4.7634455782094853E-002
  -6.5841313124797574E-003   4.1613518338525779E-003   2.9598003518905402E-002
  -6.0561468931293327E-003   6.1428548290763940E-003   3.4075573657717850E-002
  -5.5281624737788804E-003   1.0894320814342606E-002   3.9238279989599056E-002
  -5.0001780544284419E-003   1.8415749789650770E-002   4.5086122514548632E-002
  -4.4721936350780034E-003   2.8707141755000443E-002   5.1619101232566855E-002
  -7.6043635150096656E-002   2.3504779014127841E-002   2.8803768809905983E-002
  -7.3252113568115840E-002   2.2054919117821425E-002   2.8452497708259528E-002
  -7.0460591986135024E-002   2.0850420881247569E-002   2.8341732281416482E-002
  -6.7669070404154222E-002   1.9891284304406443E-002   2.8471472529376887E-002
  -6.4877548822173420E-002   1.9177509387297842E-002   2.8841718452140841E-002
  -8.2274966603899796E-002   2.4583931288520766E-002   2.1234232285739785E-002
  -7.9261092763782875E-002   2.3637362449509758E-002   2.1125264234146734E-002
  -7.6247218923666135E-002   2.2744652477291322E-002   2.1220495024021985E-002
  -7.3233345083549312E-002   2.1905801371865548E-002   2.1519924655365855E-002
  -7.0219471243432419E-002   2.1120809133232221E-002   2.2023553128178525E-002
  -8.8395451854244592E-002   2.5663083562913608E-002   1.4263738215339258E-002
  -8.5195532589326786E-002   2.5219805781198090E-002   1.4205570420859348E-002
  -8.1995613324408717E-002   2.4638884073335095E-002   1.4315294634512955E-002
  -7.8795694059490815E-002   2.3920318439324566E-002   1.4592910856300257E-002
  -7.5595774794572801E-002   2.3064108879166517E-002   1.5038419086221375E-002
  -9.4405090901131528E-002   2.6742235837306574E-002   7.8922865987042824E-003
  -9.1055433044747322E-002   2.6802249112886617E-002   7.6934162683973718E-003
  -8.7705775188363144E-002   2.6533115669378857E-002   7.6261311128893016E-003
  -8.4356117331978883E-002   2.5934835506783740E-002   7.6904311321800084E-003
  -8.1006459475594692E-002   2.5007408625100827E-002   7.8863163262693319E-003
 -0.10030388374456023        2.7821388111699430E-002   2.1198774358347494E-003
  -9.6840794130044650E-002   2.8384692444574866E-002   1.5888017767607954E-003
  -9.3377704515529070E-002   2.8427347265422648E-002   1.1530044591507582E-003
  -8.9914614901013601E-002   2.7949352574242782E-002   8.1248548300468654E-004
  -8.6451525286498021E-002   2.6950708371035192E-002   5.6724484832276767E-004
  -6.4877548822173420E-002   1.9177509387297842E-002   2.8841718452140841E-002
  -6.2865445840939838E-002   1.8571989190372395E-002   2.8620947525880985E-002
  -6.0853342859706228E-002   1.7937616774080622E-002   2.8546761959938827E-002
  -5.8841239878472590E-002   1.7274392138422620E-002   2.8619161754314421E-002
  -5.6829136897239008E-002   1.6582315283398208E-002   2.8838146909007656E-002
  -7.0219471243432419E-002   2.1120809133232221E-002   2.2023553128178525E-002
  -6.8054433950468410E-002   2.0364751581853122E-002   2.1762329167624814E-002
  -6.5889396657504443E-002   1.9612704538190320E-002   2.1660388470214009E-002
  -6.3724359364540475E-002   1.8864668002243474E-002   2.1717731035946430E-002
  -6.1559322071576481E-002   1.8120641974012752E-002   2.1934356864821841E-002
  -7.5595774794572801E-002   2.3064108879166517E-002   1.5038419086221375E-002
  -7.3265105287053128E-002   2.2157513973333931E-002   1.4769604818456059E-002
  -7.0934435779533400E-002   2.1287792302299963E-002   1.4672771716659427E-002
  -6.8603766272013672E-002   2.0454943866064383E-002   1.4747919780830877E-002
  -6.6273096764493986E-002   1.9658968664627380E-002   1.4995049010970915E-002
  -8.1006459475594692E-002   2.5007408625100827E-002   7.8863163262693319E-003
  -7.8497459850693937E-002   2.3950276364814588E-002   7.6427744783750425E-003
  -7.5988460225793114E-002   2.2962880066409522E-002   7.5839116992746577E-003
  -7.3479460600892263E-002   2.2045219729885320E-002   7.7097279889678915E-003
  -7.0970460975991509E-002   2.1197295355242188E-002   8.0202233474550334E-003
  -8.6451525286498021E-002   2.6950708371035192E-002   5.6724484832276767E-004
  -8.3751497641390782E-002   2.5743038756295522E-002   3.8183814738179667E-004
  -8.1051469996283543E-002   2.4637967830519247E-002   3.9380841806012368E-004
  -7.8351442351176331E-002   2.3635495593706410E-002   6.0315566035756482E-004
  -7.5651414706069064E-002   2.2735622045856663E-002   1.0098798742740334E-003
  -5.6829136897239008E-002   1.6582315283398208E-002   2.8838146909007656E-002
  -5.4282051438750784E-002   1.5881861919953916E-002   2.8472063188827890E-002
  -5.1734965980262559E-002   1.5193507759035843E-002   2.8299481398871645E-002
  -4.9187880521774335E-002   1.4517252800644424E-002   2.8320401539139117E-002
  -4.6640795063286111E-002   1.3853097044779661E-002   2.8534823609630333E-002
  -6.1559322071576481E-002   1.8120641974012752E-002   2.1934356864821841E-002
  -5.8818932036425617E-002   1.7378149798800480E-002   2.1590064472924442E-002
  -5.6078542001274774E-002   1.6634714821908828E-002   2.1438879304128591E-002
  -5.3338151966123890E-002   1.5890337043337730E-002   2.1480801358434491E-002
  -5.0597761930973068E-002   1.5145016463087413E-002   2.1715830635841593E-002
  -6.6273096764493986E-002   1.9658968664627380E-002   1.4995049010970915E-002
  -6.3339796859802636E-002   1.8874437677647085E-002   1.4659505943150311E-002
  -6.0406496955111272E-002   1.8075921884781639E-002   1.4516675391308805E-002
  -5.7473197050419964E-002   1.7263421286031144E-002   1.4566557355447051E-002
  -5.4539897145728558E-002   1.6436935881395276E-002   1.4809151835564832E-002
  -7.0970460975991509E-002   2.1197295355242188E-002   8.0202233474550334E-003
  -6.7844645908881784E-002   2.0370725556493836E-002   7.6803875995049911E-003
  -6.4718830841772018E-002   1.9517128947654703E-002   7.5328696604122936E-003
  -6.1593015774662307E-002   1.8636505528724229E-002   7.5776695301772766E-003
  -5.8467200707552555E-002   1.7728855299703028E-002   7.8147872087993425E-003
  -7.5651414706069064E-002   2.2735622045856663E-002   1.0098798742740334E-003
  -7.2333479183663119E-002   2.1867013435340366E-002   6.5270944198914105E-004
  -6.9015543661257062E-002   2.0958336010527545E-002   4.8746211143926854E-004
  -6.5697608138851060E-002   2.0009589771417563E-002   5.1413788262483912E-004
  -6.2379672616445059E-002   1.9020774718011002E-002   7.3273675554552664E-004
  -4.6640795063286111E-002   1.3853097044779661E-002   2.8534823609630333E-002
  -4.4390801722702738E-002   1.3179419857052566E-002   2.8126147559987824E-002
  -4.2140808382119338E-002   1.2474600603075758E-002   2.7840988182061155E-002
  -3.9890815041535951E-002   1.1738639282848198E-002   2.7679345475850103E-002
  -3.7640821700952509E-002   1.0971535896370344E-002   2.7641219441355003E-002
  -5.0597761930973068E-002   1.5145016463087413E-002   2.1715830635841593E-002
  -4.8216320861116296E-002   1.4393863533986528E-002   2.1308985315552281E-002
  -4.5834879791259525E-002   1.3631988708864048E-002   2.1041518782093954E-002
  -4.3453438721402733E-002   1.2859391987720261E-002   2.0913431035466459E-002
  -4.1071997651545983E-002   1.2076073370554885E-002   2.0924722075670033E-002
  -5.4539897145728558E-002   1.6436935881395276E-002   1.4809151835564832E-002
  -5.2011146231483230E-002   1.5608307210920463E-002   1.4424557414857347E-002
  -4.9482395317237825E-002   1.4789376814652727E-002   1.4195203896095770E-002
  -4.6953644402992489E-002   1.3980144692592768E-002   1.4121091279280559E-002
  -4.4424893488747091E-002   1.3180610844739482E-002   1.4202219564411672E-002
  -5.8467200707552555E-002   1.7728855299703028E-002   7.8147872087993425E-003
  -5.5775277833803483E-002   1.6822750887854190E-002   7.4728638579025057E-003
  -5.3083354960054292E-002   1.5946764920441822E-002   7.3020435240669403E-003
  -5.0391432086305130E-002   1.5100897397464553E-002   7.3023262072930244E-003
  -4.7699509212556022E-002   1.4285148318923885E-002   7.4737119075800190E-003
  -6.2379672616445059E-002   1.9020774718011002E-002   7.3273675554552664E-004
  -5.9508715668076917E-002   1.8037194564788361E-002   4.5390464468825220E-004
  -5.6637758719708942E-002   1.7104153026229946E-002   3.6203766600739762E-004
  -5.3766801771340939E-002   1.6221650102337233E-002   4.5713581950307391E-004
  -5.0895844822972824E-002   1.5389685793108621E-002   7.3919910517528109E-004
  -3.7640821700952509E-002   1.0971535896370344E-002   2.7641219441355003E-002
  -3.5242147977623678E-002   1.0200707787579366E-002   2.7104315348529973E-002
  -3.2843474254294736E-002   9.4535723004117167E-003   2.6693876044487364E-002
  -3.0444800530965863E-002   8.7301294348679087E-003   2.6409901529227453E-002
  -2.8046126807636934E-002   8.0303791909479560E-003   2.6252391802750186E-002
  -4.1071997651545983E-002   1.2076073370554885E-002   2.0924722075670033E-002
  -3.8555913386560003E-002   1.1293117920796569E-002   2.0474614275341418E-002
  -3.6039829121574024E-002   1.0521610701874393E-002   2.0132862769544541E-002
  -3.3523744856588017E-002   9.7615517137885043E-003   1.9899467558279385E-002
  -3.1007660591602065E-002   9.0129409565385954E-003   1.9774428641545272E-002
  -4.4424893488747091E-002   1.3180610844739482E-002   1.4202219564411672E-002
  -4.1809507176355037E-002   1.2385528054014133E-002   1.3826663665792202E-002
  -3.9194120863963067E-002   1.1589649103337180E-002   1.3541355567453395E-002
  -3.6578734551571040E-002   1.0792973992708878E-002   1.3346295269394980E-002
  -3.3963348239179049E-002   9.9955027221291237E-003   1.3241482771617158E-002
  -4.7699509212556022E-002   1.4285148318923885E-002   7.4737119075800190E-003
  -4.5002929347009044E-002   1.3477938187231628E-002   7.1604635198821952E-003
  -4.2306349481461968E-002   1.2657687504799800E-002   6.9193544382137664E-003
  -3.9609769615914933E-002   1.1824396271629251E-002   6.7503846625745871E-003
  -3.6913189750367913E-002   1.0978064487719819E-002   6.6535541929651151E-003
  -5.0895844822972824E-002   1.5389685793108621E-002   7.3919910517528109E-004
  -4.8136179898521703E-002   1.4570348320448678E-002   4.7601383761108895E-004
  -4.5376514974070692E-002   1.3725725906262753E-002   2.6685938182532953E-004
  -4.2616850049619570E-002   1.2855818550550097E-002   1.1173573781813467E-004
  -3.9857185125168559E-002   1.1960626253310291E-002   1.0642905589386409E-005
  -2.8046126807636934E-002   8.0303791909479560E-003   2.6252391802750186E-002
  -2.5704113047854915E-002   7.3132675466258124E-003   2.5670167057685545E-002
  -2.3362099288072938E-002   6.5377404798751260E-003   2.5034579864389284E-002
  -2.1020085528290926E-002   5.7037979906960704E-003   2.4345630222861264E-002
  -1.8678071768508941E-002   4.8114400790889578E-003   2.3603318133101348E-002
  -3.1007660591602065E-002   9.0129409565385954E-003   1.9774428641545272E-002
  -2.8701444951993449E-002   8.2680936905821234E-003   1.9184446025588664E-002
  -2.6395229312384735E-002   7.5193251763762681E-003   1.8576229617517148E-002
  -2.4089013672776056E-002   6.7666354139216539E-003   1.7949779417330461E-002
  -2.1782798033167461E-002   6.0100244032176287E-003   1.7305095425029171E-002
  -3.3963348239179049E-002   9.9955027221291237E-003   1.3241482771617158E-002
  -3.1657802063626894E-002   9.2229198345384622E-003   1.2698236458947437E-002
  -2.9352255888074750E-002   8.5009098728780624E-003   1.2171885010279521E-002
  -2.7046709712522599E-002   7.8294728371474560E-003   1.1662428425613519E-002
  -2.4741163536970506E-002   7.2086087273462440E-003   1.1169866704949266E-002
  -3.6913189750367913E-002   1.0978064487719819E-002   6.6535541929651151E-003
  -3.4573184382755445E-002   1.0177745978495120E-002   6.2115383577613925E-003
  -3.2233179015142978E-002   9.4824945693793641E-003   5.8215460426766195E-003
  -2.9893173647530521E-002   8.8923102603731489E-003   5.4835772477103296E-003
  -2.7553168279918046E-002   8.4071930514751092E-003   5.1976319728627221E-003
  -3.9857185125168559E-002   1.1960626253310291E-002   1.0642905589386409E-005
  -3.7447591909378852E-002   1.1132572122450890E-002  -2.7564827796955349E-004
  -3.5037998693589367E-002   1.0464079265880721E-002  -4.7478728529201653E-004
  -3.2628405477799716E-002   9.9551476835982727E-003  -5.8677411637993865E-004
  -3.0218812262010175E-002   9.6057773756035303E-003  -6.1160877123167534E-004
  -1.8678071768508941E-002   4.8114400790889578E-003   2.3603318133101348E-002
  -1.5654586654501618E-002   4.0796353466454049E-003   2.4391677467335060E-002
  -1.2631101540494349E-002   3.7273523949583887E-003   2.5653578143046862E-002
  -9.6076164264870395E-003   3.7545912240272220E-003   2.7389020160237088E-002
  -6.5841313124797574E-003   4.1613518338525779E-003   2.9598003518905402E-002
  -2.1782798033167461E-002   6.0100244032176287E-003   1.7305095425029171E-002
  -1.8555004645188125E-002   5.3431184539191601E-003   1.8252009028519978E-002
  -1.5327211257208775E-002   4.8595438756807996E-003   1.9133997838477107E-002
  -1.2099417869229440E-002   4.5593006685028872E-003   1.9951061854899629E-002
  -8.8716244812500900E-003   4.4423888323847915E-003   2.0703201077788225E-002
  -2.4741163536970506E-002   7.2086087273462440E-003   1.1169866704949266E-002
  -2.1847528010031522E-002   6.6066015611928319E-003   1.2079144168001821E-002
  -1.8953892483092559E-002   5.9917353564029746E-003   1.2385030702507807E-002
  -1.6060256956153585E-002   5.3640101129783270E-003   1.2087526308467399E-002
  -1.3166621429214612E-002   4.7234258309172272E-003   1.1186630985880130E-002
  -2.7553168279918046E-002   8.4071930514751092E-003   5.1976319728627221E-003
  -2.5532156749031889E-002   7.8700846684659348E-003   5.8730828857806103E-003
  -2.3511145218145652E-002   7.1239268371258227E-003   5.4066767351398683E-003
  -2.1490133687259480E-002   6.1687195574533244E-003   3.7984135209400225E-003
  -1.9469122156373257E-002   5.0044628294496629E-003   1.0482932431812170E-003
  -3.0218812262010175E-002   9.6057773756035303E-003  -6.1160877123167534E-004
  -2.9608890862189208E-002   9.1335677757403699E-003  -3.6617481814404940E-004
  -2.8998969462368129E-002   8.2561183178476161E-003  -1.8010640636273445E-003
  -2.8389048062547106E-002   6.9734290019291684E-003  -4.9162765076824766E-003
  -2.7779126662726084E-002   5.2854998279816545E-003  -9.7118121503088073E-003
  -6.5841313124797574E-003   4.1613518338525779E-003   2.9598003518905402E-002
  -6.0561468931293327E-003   6.1428548290763940E-003   3.4075573657717850E-002
  -5.5281624737788804E-003   1.0894320814342606E-002   3.9238279989599056E-002
  -5.0001780544284419E-003   1.8415749789650770E-002   4.5086122514548632E-002
  -4.4721936350780034E-003   2.8707141755000443E-002   5.1619101232566855E-002
  -8.8716244812500900E-003   4.4423888323847915E-003   2.0703201077788225E-002
  -7.5861548585126476E-003   5.6589727881808383E-003   2.5872428049130480E-002
  -6.3006852357750248E-003   9.3592169567441319E-003   3.1871489234178096E-002
  -5.0152156130374853E-003   1.5543121338076088E-002   3.8700384632932072E-002
  -3.7297459902999597E-003   2.4210685932174680E-002   4.6359114245391186E-002
  -1.3166621429214612E-002   4.7234258309172272E-003   1.1186630985880130E-002
  -1.0978968582452453E-002   5.1750907472851160E-003   1.6761212012477322E-002
  -8.7913157356903707E-003   7.8241130991463237E-003   2.3310325273417976E-002
  -6.6036628889283057E-003   1.2670492886501294E-002   3.0833970768701688E-002
  -4.4160100421660187E-003   1.9714230109348918E-002   3.9332148498329111E-002
  -1.9469122156373257E-002   5.0044628294496629E-003   1.0482932431812170E-003
  -1.6234588064949054E-002   4.6912087063894770E-003   6.7419255477589174E-003
  -1.3000053973524850E-002   6.2890092415476273E-003   1.3554788107317806E-002
  -9.7655198821005873E-003   9.7978644349262234E-003   2.1486880921857375E-002
  -6.5309857906764440E-003   1.5217774286523045E-002   3.0538203991378160E-002
  -2.7779126662726084E-002   5.2854998279816545E-003  -9.7118121503088073E-003
  -2.3353013306002368E-002   4.2073266654933938E-003  -4.1854313450241931E-003
  -1.8926899949278542E-002   4.7539053839497636E-003   2.6048777358783359E-003
  -1.4500786592554882E-002   6.9252359833524152E-003   1.0659115092399800E-002
  -1.0074673235831000E-002   1.0721318463697393E-002   1.9977280724538860E-002
 </DataArray>
 </PointData>
 </Piece>
 </UnstructuredGrid>
 </VTKFile>
